# vtk DataFile Version 2.0
mesh vtk view
ASCII
DATASET UNSTRUCTURED_GRID
POINTS 231 double
0.0 -2.05134412592004 0.0
200.0 0.0 0.0
199.36752544865982 99.5287055220651 0.0
0.0 97.9554524785564 0.0
10.035256909223241 -2.045821115793552 0.0
20.070089405079834 -2.02929557536369 0.0
30.104074436035084 -2.0018978175516966 0.0
40.13679189497081 -1.9638444267452964 0.0
50.16782662816359 -1.9154370597627435 0.0
60.19677103480829 -1.8570601424322768 0.0
70.223228329691 -1.7891767503407343 0.0
80.24681636363066 -1.71232163867576 0.0
90.26717158258458 -1.6270899718673952 0.0
100.28395219300832 -1.534119736674711 0.0
110.29683877691456 -1.4340650123682932 0.0
120.30552937424228 -1.3275555063438258 0.0
130.3097234809742 -1.2151355602528227 0.0
140.30908670186736 -1.0971610069388733 0.0
150.30316569251863 -0.9736460156447302 0.0
160.29123882264142 -0.8437825626740244 0.0
170.27160855668492 -0.7058125363096583 0.0
180.24062830391173 -0.5503277446848274 0.0
190.17652920451167 -0.3793719047578451 0.0
200.08410769875206 9.778534944565097 0.0
200.02812857051498 19.684789227036738 0.0
199.96845503637863 29.634262843103173 0.0
199.89715966271183 39.6004806005893 0.0
199.8204053126069 49.57716411030786 0.0
199.7386495924591 59.56103325266808 0.0
199.65206576870642 69.54998999236801 0.0
199.56068275553525 79.54212840340762 0.0
199.4651588081428 89.53553570112201 0.0
189.36485937405672 99.43091798167788 0.0
179.36200449462237 99.33103784623579 0.0
169.36054542860523 99.22725071934813 0.0
159.36233608756365 99.11954120309129 0.0
149.36879331567695 99.00901777840245 0.0
139.38076084173719 98.89733527558344 0.0
129.39857182877364 98.78631088244012 0.0
119.42217932203282 98.67769425214453 0.0
109.45129149602334 98.57305551061489 0.0
99.4854809654745 98.47375113743045 0.0
89.52425955627639 98.38093217125684 0.0
79.56712246935933 98.29556939908427 0.0
69.61357048025083 98.21848090061926 0.0
59.663118564463254 98.15035539785535 0.0
49.71529722635371 98.09176960958006 0.0
39.76965052560228 98.04320006944855 0.0
29.825733045048004 98.00503063534924 0.0
19.88310689599742 97.97755697082955 0.0
9.941339184348834 97.96098905371242 0.0
0.0 87.94409933806719 0.0
0.0 77.93578032827529 0.0
0.0 67.92999693870294 0.0
0.0 57.92639397642063 0.0
0.0 47.92475995210067 0.0
0.0 37.92502632390684 0.0
0.0 27.927266114686063 0.0
0.0 17.93169253947241 0.0
0.0 7.938658275079447 0.0
10.024684036904764 7.944244410305268 0.0
10.014900349463696 17.937328276491602 0.0
10.005708286222585 27.93293838041539 0.0
9.996911688106392 37.930722034810046 0.0
9.988314148994057 47.93046563694147 0.0
9.979717869446773 57.932095567171416 0.0
9.970923240629475 67.93567976843151 0.0
9.96172923415501 77.94142933629888 0.0
9.95193453230149 87.94969944556033 0.0
20.049029208348596 7.960959170217382 0.0
20.029545357936595 17.95419184937547 0.0
20.01124401675706 27.949911739736258 0.0
19.993734054562445 37.94776608510314 0.0
19.976623474352834 47.947540047227534 0.0
19.959516969153263 57.94915813159753 0.0
19.94201504337208 67.9526864016653 0.0
19.92371483641165 77.95833470246916 0.0
19.90421252422522 87.96645811726712 0.0
30.072697473856028 7.988671747841622 0.0
30.043679785563207 17.982152458624245 0.0
30.01643407711244 27.978055973309424 0.0
29.99037677653678 37.97602928531671 0.0
29.964921998993372 47.975855256853464 0.0
29.939477530625453 57.97745499765256 0.0
29.913443410295613 67.98089117627009 0.0
29.88621326913503 77.98637132951266 0.0
29.857178258854013 87.9942502582858 0.0
40.095352520755796 8.027164648562291 0.0
40.05704858739585 18.020992568382542 0.0
40.02110419912079 28.017154429990423 0.0
39.98674749841056 38.01529655386461 0.0
39.95320142114064 48.01519808437091 0.0
39.919677772802736 58.01677485221188 0.0
39.88537520539246 68.02008427730249 0.0
39.849481182473795 78.0253302257845 0.0
39.811177737795425 88.03286681117902 0.0
50.116660798785546 8.076134766761392 0.0
50.069396981263 18.070408893302375 0.0
50.025078308437735 28.066904843121783 0.0
49.98275078086656 38.06526742074202 0.0
49.941449965367845 48.06527016085631 0.0
49.90019291333461 58.06682133722541 0.0
49.85797557318373 68.069970935709 0.0
49.81377550500424 78.07491745148715 0.0
49.76655969042173 88.0820135748555 0.0
60.13629268358192 8.135195539481073 0.0
60.08047044451536 18.130014410518072 0.0
60.028177824740496 28.12692100484162 0.0
59.978287135160194 38.125557066903085 0.0
59.92965142704144 48.12568808417493 0.0
59.881094371439836 58.12721224291585 0.0
59.831407445154156 68.1301698046588 0.0
59.77935352827025 78.1347519773897 0.0
59.72367667045844 88.14130883695535 0.0
70.15392365622303 8.203880924809997 0.0
70.0900145420728 18.199342134601583 0.0
70.03022097974633 28.196735926621624 0.0
69.97325241370643 38.195698298968416 0.0
69.91778481674741 48.19598373857926 0.0
69.86244955811335 58.19747802662529 0.0
69.80583136821875 68.20020993886787 0.0
69.74647298462483 78.20436168997024 0.0
69.68288607980163 88.21027900187394 0.0
80.16923518877545 8.28165230846074 0.0
80.09777439251944 18.27785175590688 0.0
80.03102230669276 28.275807424608892 0.0
79.96753810506087 38.275145052525 0.0
79.9058254005585 48.27560489365092 0.0
79.84432302751475 58.277059261051 0.0
79.78140612939546 68.27952554865787 0.0
79.71539212823743 78.28317644746839 0.0
79.6445507259193 88.28835105605987 0.0
90.18191468734469 8.367909910367228 0.0
90.10349341496271 18.364940718123837 0.0
90.03039260393125 28.363527457812705 0.0
89.96103353501663 38.363278221834165 0.0
89.89374854653221 48.363916187411775 0.0
89.82678034162274 58.365302428680224 0.0
89.75829101292247 68.36744740889573 0.0
89.6863698463419 78.37051675868443 0.0
89.60903813870668 88.37484039808422 0.0
100.19165327074043 8.462010895214107 0.0
100.10691073509945 18.459961949163784 0.0
100.028139957962 28.45923698106734 0.0
99.9536317315612 38.459414722865816 0.0
99.88153872350804 48.46020039334861 0.0
99.80989680000141 58.46145314269661 0.0
99.7366509857327 68.46318949730087 0.0
99.65966581989998 78.46557646266267 0.0
99.57671729571135 88.4689324725342 0.0
110.19813918805416 8.5632973891607 0.0
110.10775625626523 18.56225130964066 0.0
110.02407304217198 28.562248485867308 0.0
109.94524205081831 38.56282035150546 0.0
109.86920736897876 48.5636591074473 0.0
109.79377412428336 58.564645139974175 0.0
109.71666648381824 68.56582918135928 0.0
109.63554061144983 78.56739803589022 0.0
109.54795060711926 88.56965722221399 0.0
120.20104294067781 8.671139165452695 0.0
120.10574201334687 18.671169342218356 0.0
120.01800953882857 28.67187824985496 0.0
119.93581515545611 38.67272550980131 0.0
119.85682526097708 48.67340962486352 0.0
119.77856880493604 58.67388185560968 0.0
119.69854923208777 68.67427914553565 0.0
119.61425497013916 78.67484047396844 0.0
119.52307805888847 88.67585739928205 0.0
130.199986905247 8.785000381330907 0.0
130.10054869098187 18.786163330945747 0.0
130.00979679126962 28.78748962593554 0.0
129.9253910240197 38.7883371861258 0.0
129.84457705062286 48.78846943161056 0.0
129.76453494195954 58.78800390489439 0.0
129.68256327848522 68.78724991022533 0.0
129.59606611679305 78.78654306257727 0.0
129.50238954651837 88.78615649770455 0.0
140.19448534687749 8.904543432941058 0.0
140.09180907503242 18.90686451290555 0.0
139.99936448697486 28.90853820347248 0.0
139.91418941641297 38.90882933252696 0.0
139.8328467359915 48.907704874228465 0.0
139.75207783016623 58.905631720423315 0.0
139.66904429358559 68.903203998574 0.0
139.58121545389466 78.90089590114185 0.0
139.48608159086268 88.89894063875128 0.0
150.1838257285241 9.029834271575046 0.0
150.07910950333115 19.033214690995862 0.0
149.98685747330126 29.034605937547628 0.0
149.90278168189764 39.03324195208818 0.0
149.82232939202544 49.029704760363785 0.0
149.74179833102565 59.025064648073865 0.0
149.65839537981978 69.02031440879148 0.0
149.56989890048987 79.01604097200335 0.0
149.47419724494418 89.01238134550762 0.0
160.16683230459535 9.161614488215452 0.0
160.0620831567425 19.165748647225332 0.0
159.97300535283307 29.16521474855786 0.0
159.8923613901916 39.16019765160064 0.0
159.81413640801628 49.15247292245891 0.0
159.73445317500355 59.144150542848195 0.0
159.65102661895287 69.13646238472066 0.0
159.56220968828 79.12994628630906 0.0
159.46655619285892 89.12453943256754 0.0
170.141386017243 9.30267545193799 0.0
170.04110078956273 19.30526074410618 0.0
169.95987332666493 29.299424455250175 0.0
169.88516755633947 39.28686598140584 0.0
169.8096070765899 49.273010939733524 0.0
169.73075472090096 59.2601979032375 0.0
169.64719791035344 69.249348523945 0.0
169.55805385761423 79.24060868083642 0.0
169.4626961866162 89.2335975846207 0.0
180.10426203237597 9.456385262593004 0.0
180.019226440686 19.45424683766597 0.0
179.95316726854583 29.431589784240344 0.0
179.88356650601673 39.407810983759674 0.0
179.80975098333093 49.38704500724574 0.0
179.73092282384522 59.370136374122616 0.0
179.64677599702355 69.35679233884579 0.0
179.55704762646735 79.34642751563945 0.0
179.46186414777316 89.33826367056538 0.0
190.0529174710609 9.649317306849829 0.0
190.01678056425004 19.594063784269615 0.0
189.95638131339143 29.548724671637416 0.0
189.88861357664874 39.51478922367774 0.0
189.81411414798436 49.48968697402104 0.0
189.73420713484396 59.47106840554759 0.0
189.64895738620626 69.45720794706531 0.0
189.55839806230574 79.4467108797687 0.0
189.46307967607876 89.43835741407955 0.0

CELLS 200 1000
4 0 4 60 59
4 59 60 61 58
4 58 61 62 57
4 57 62 63 56
4 56 63 64 55
4 55 64 65 54
4 54 65 66 53
4 53 66 67 52
4 52 67 68 51
4 51 68 50 3
4 4 5 69 60
4 60 69 70 61
4 61 70 71 62
4 62 71 72 63
4 63 72 73 64
4 64 73 74 65
4 65 74 75 66
4 66 75 76 67
4 67 76 77 68
4 68 77 49 50
4 5 6 78 69
4 69 78 79 70
4 70 79 80 71
4 71 80 81 72
4 72 81 82 73
4 73 82 83 74
4 74 83 84 75
4 75 84 85 76
4 76 85 86 77
4 77 86 48 49
4 6 7 87 78
4 78 87 88 79
4 79 88 89 80
4 80 89 90 81
4 81 90 91 82
4 82 91 92 83
4 83 92 93 84
4 84 93 94 85
4 85 94 95 86
4 86 95 47 48
4 7 8 96 87
4 87 96 97 88
4 88 97 98 89
4 89 98 99 90
4 90 99 100 91
4 91 100 101 92
4 92 101 102 93
4 93 102 103 94
4 94 103 104 95
4 95 104 46 47
4 8 9 105 96
4 96 105 106 97
4 97 106 107 98
4 98 107 108 99
4 99 108 109 100
4 100 109 110 101
4 101 110 111 102
4 102 111 112 103
4 103 112 113 104
4 104 113 45 46
4 9 10 114 105
4 105 114 115 106
4 106 115 116 107
4 107 116 117 108
4 108 117 118 109
4 109 118 119 110
4 110 119 120 111
4 111 120 121 112
4 112 121 122 113
4 113 122 44 45
4 10 11 123 114
4 114 123 124 115
4 115 124 125 116
4 116 125 126 117
4 117 126 127 118
4 118 127 128 119
4 119 128 129 120
4 120 129 130 121
4 121 130 131 122
4 122 131 43 44
4 11 12 132 123
4 123 132 133 124
4 124 133 134 125
4 125 134 135 126
4 126 135 136 127
4 127 136 137 128
4 128 137 138 129
4 129 138 139 130
4 130 139 140 131
4 131 140 42 43
4 12 13 141 132
4 132 141 142 133
4 133 142 143 134
4 134 143 144 135
4 135 144 145 136
4 136 145 146 137
4 137 146 147 138
4 138 147 148 139
4 139 148 149 140
4 140 149 41 42
4 13 14 150 141
4 141 150 151 142
4 142 151 152 143
4 143 152 153 144
4 144 153 154 145
4 145 154 155 146
4 146 155 156 147
4 147 156 157 148
4 148 157 158 149
4 149 158 40 41
4 14 15 159 150
4 150 159 160 151
4 151 160 161 152
4 152 161 162 153
4 153 162 163 154
4 154 163 164 155
4 155 164 165 156
4 156 165 166 157
4 157 166 167 158
4 158 167 39 40
4 15 16 168 159
4 159 168 169 160
4 160 169 170 161
4 161 170 171 162
4 162 171 172 163
4 163 172 173 164
4 164 173 174 165
4 165 174 175 166
4 166 175 176 167
4 167 176 38 39
4 16 17 177 168
4 168 177 178 169
4 169 178 179 170
4 170 179 180 171
4 171 180 181 172
4 172 181 182 173
4 173 182 183 174
4 174 183 184 175
4 175 184 185 176
4 176 185 37 38
4 17 18 186 177
4 177 186 187 178
4 178 187 188 179
4 179 188 189 180
4 180 189 190 181
4 181 190 191 182
4 182 191 192 183
4 183 192 193 184
4 184 193 194 185
4 185 194 36 37
4 18 19 195 186
4 186 195 196 187
4 187 196 197 188
4 188 197 198 189
4 189 198 199 190
4 190 199 200 191
4 191 200 201 192
4 192 201 202 193
4 193 202 203 194
4 194 203 35 36
4 19 20 204 195
4 195 204 205 196
4 196 205 206 197
4 197 206 207 198
4 198 207 208 199
4 199 208 209 200
4 200 209 210 201
4 201 210 211 202
4 202 211 212 203
4 203 212 34 35
4 20 21 213 204
4 204 213 214 205
4 205 214 215 206
4 206 215 216 207
4 207 216 217 208
4 208 217 218 209
4 209 218 219 210
4 210 219 220 211
4 211 220 221 212
4 212 221 33 34
4 21 22 222 213
4 213 222 223 214
4 214 223 224 215
4 215 224 225 216
4 216 225 226 217
4 217 226 227 218
4 218 227 228 219
4 219 228 229 220
4 220 229 230 221
4 221 230 32 33
4 22 1 23 222
4 222 23 24 223
4 223 24 25 224
4 224 25 26 225
4 225 26 27 226
4 226 27 28 227
4 227 28 29 228
4 228 29 30 229
4 229 30 31 230
4 230 31 2 32

CELL_TYPES 200
9
9
9
9
9
9
9
9
9
9
9
9
9
9
9
9
9
9
9
9
9
9
9
9
9
9
9
9
9
9
9
9
9
9
9
9
9
9
9
9
9
9
9
9
9
9
9
9
9
9
9
9
9
9
9
9
9
9
9
9
9
9
9
9
9
9
9
9
9
9
9
9
9
9
9
9
9
9
9
9
9
9
9
9
9
9
9
9
9
9
9
9
9
9
9
9
9
9
9
9
9
9
9
9
9
9
9
9
9
9
9
9
9
9
9
9
9
9
9
9
9
9
9
9
9
9
9
9
9
9
9
9
9
9
9
9
9
9
9
9
9
9
9
9
9
9
9
9
9
9
9
9
9
9
9
9
9
9
9
9
9
9
9
9
9
9
9
9
9
9
9
9
9
9
9
9
9
9
9
9
9
9
9
9
9
9
9
9
9
9
9
9
9
9
9
9
9
9
9
9

CELL_DATA 200
SCALARS STRESS_EQV float 1
LOOKUP_TABLE default
629.696106847931
417.4761812231691
221.8575410463572
53.447926520009325
155.65641729056463
330.124912602479
508.8972018041633
694.5111161726501
891.0612794788326
1102.931503445512
621.7672018682454
412.17243902472245
221.19090956593323
71.67212225204513
165.67792184400446
333.7988103323226
508.79418792540696
691.3470390203095
885.2718192515853
1094.9316869165161
605.9379220124433
401.6445462639363
220.09004008311777
98.63392129712116
184.1105570148205
341.0617816602923
508.65694790843537
685.0771921991053
873.7093598931741
1078.9144515247217
582.269340760462
386.0647210394524
219.02533265972127
129.2085357840716
208.77298015868595
351.75786698101587
508.6237029872562
675.8232605987356
856.4095833756014
1054.8423599301086
550.8630577954938
365.7282308356494
218.71012336389995
161.65245143569157
237.78450675372642
365.6818267617875
508.90142666113553
663.7799047540899
833.4336261448568
1022.6544301705657
511.8731027920581
341.1124305121997
220.09216047131017
195.37983624448455
269.8131011036316
382.6006424804421
509.75951649036926
649.2272128364046
804.8792305039415
982.2628514882275
465.5220304182987
312.9891203519838
224.31541594132108
230.23250253221164
303.99723937130653
402.26624004944273
511.5105771010288
632.5418542820164
770.8989127955972
933.554026275109
412.1233151961988
282.64221591138164
232.64412830585465
266.27151850251767
339.81175252288915
424.41280638912883
514.4677944532472
614.1979908740734
731.7274609838
876.4012707877838
352.1200828879762
252.2903629486836
246.36852021431565
303.7376689610115
376.9670818954035
448.7335887366957
518.8656809723318
594.7410486884877
687.7199214381607
810.7020676463275
286.1835306520918
225.84185328892866
266.74885566035607
343.08340798911433
415.3481451032924
474.83186642941286
524.7307074946118
574.7069849120386
639.396899840026
736.461113381864
215.57107045850185
209.81027348974786
295.06875020942215
385.0469105384565
454.9754930603543
502.1382034075918
531.6930545357229
554.4521801230666
587.4838361078635
653.9517860436965
143.89795485904747
212.86890751657901
332.84315481222694
430.75400887106423
495.96131794546704
529.7801424306124
538.7441264562902
533.8693894642796
532.9138921334211
564.0024434292541
88.89312959952802
242.00395558736824
382.19389977505375
481.8304984506522
538.4091530141973
556.3848858218728
543.9696541524256
512.0216820335834
476.74790362726907
468.46981411916386
110.5884895813225
299.5884503793371
446.4333622434276
540.4534395360608
582.169477509727
579.7727552982278
544.3532535646098
486.8492794016631
419.9889157504353
370.9863548759286
201.11425597286728
387.48596793488144
530.8910971163584
609.2303912683753
626.1257192661362
596.5761654807885
535.8110659829416
455.3319722506709
363.3950855981494
278.1368213535875
326.22313208237034
514.2012846343512
644.4375824818076
689.6427016875153
666.9486897475157
601.4510435279847
514.0399330223485
414.6011256690958
307.7199818856852
201.2008452322998
500.0794829608677
703.9823461786497
797.8439422548882
780.4616448243246
693.257454639044
587.7820785232285
476.21377823942316
364.3925289014882
255.09118773627392
155.8987102538804
762.2979808784464
1009.7945150993718
1018.6602485967354
844.0892035404202
688.3864068310003
548.3608037994917
422.9092156528697
309.4784815546802
211.3757287689155
147.15891190062592
1400.624543816085
1688.826083220584
1137.779125564287
839.8635090306537
632.5626801692017
478.37486741655306
355.85101934210763
256.3809637708456
183.11955558075047
153.19466785113983
4172.577982271046
1781.7492645667876
1065.3566511402983
741.1754326704238
527.9524962668763
379.14895374405825
270.72663304966846
196.27273093183803
156.36436211006662
150.0268123907329

SCALARS STRESS_XX float 1
LOOKUP_TABLE default
628.7905981394262
412.4513290925154
208.55361094283657
13.544178669145378
-176.11952370026992
-363.99304712218395
-553.6582009839514
-748.7232832085779
-952.8101844370393
-1169.5307507867528
620.7779690745765
406.22120832556635
204.0805628371165
10.824472304812751
-177.07201889979652
-363.15471517746676
-551.0052873546792
-744.2415363715694
-946.5028627113429
-1161.423065418767
604.7759519382232
393.7719382857645
195.1321088684394
5.372064945942427
-178.9957811356778
-361.4968376235522
-545.712532326384
-735.2805644086302
-933.8773685036504
-1145.1842534282475
580.8341397196277
375.126043185781
181.70264760989375
-2.8404824987050503
-181.92985439821004
-359.0583800543607
-537.807307978604
-721.8461670481248
-914.911486061006
-1120.764425859832
549.0342759771495
350.31830990095614
163.7813939731355
-13.857699169813923
-185.9359467808546
-355.9005539781447
-527.3332356818285
-703.9488985651428
-889.5710647488609
-1088.081854305438
509.49767427156337
319.39556901898334
141.34900793011934
-27.74444197407896
-191.1002839711474
-352.10785149744805
-514.3516153527405
-681.6060991231394
-857.8104368825856
-1047.0167957933509
462.39209007224446
282.4135531396708
114.37211361555934
-44.58856781955874
-197.53221924544795
-347.784794548974
-498.9398732042899
-654.8439802293922
-819.5757008236864
-997.4078943247368
407.93403600765856
239.42733572168146
82.7945730093927
-64.50096172089677
-205.35485687697837
-343.0427002315506
-481.18260181280533
-623.6985947879862
-774.8139416912334
-939.0575609809505
346.3795902993135
190.4694254862216
46.52373678881212
-87.60923161851292
-214.6796681452385
-337.9670743033599
-461.14788645588834
-588.2134679298026
-723.4930941290559
-871.7576033519172
277.99210720592305
135.50570989440425
5.40917684788554
-114.03820690002485
-225.5517661902006
-332.5510336569637
-438.8381182639847
-548.430513949972
-665.6392596153622
-795.3533687273105
202.9678193567488
74.35286797961965
-40.78828658996303
-143.86362213172916
-237.84337622899662
-326.5738280738918
-414.1018885469759
-504.37105014951953
-601.400812532253
-709.8730964351882
121.28653779012897
6.5309719728917806
-92.43603963208311
-177.0080979565385
-251.0580036459111
-319.3974915435082
-386.49723173044544
-456.0086330320469
-531.1516814358401
-615.755604135796
32.42938387165035
-68.99795075854857
-150.05247111672622
-213.0116458386254
-263.97811614576665
-309.6605771007667
-355.1162111922999
-403.2540644373385
-455.6482334477608
-514.205387180794
-65.17295784194187
-154.25897043618951
-214.24106500381842
-250.48874083976784
-274.0693533749123
-294.8765627824786
-318.45321791720875
-346.0084006906857
-376.2539841706568
-407.6720202891903
-175.21211136636376
-253.0757500398151
-285.09610558943496
-285.9637567443581
-276.4739549670426
-271.15735524985587
-274.5146115363944
-284.41524035884174
-295.2138165615711
-300.37257093516774
-306.25419070585406
-371.64131610943343
-360.5130670033615
-310.81896373826817
-263.1151954792811
-233.4928788917424
-221.74298494309988
-219.38554161245767
-215.8939829579187
-198.6371519105548
-477.15424757874246
-520.9493601447547
-426.7465269939885
-307.845228592491
-222.04818894505166
-179.13361516618767
-160.77631588021092
-153.4053406502794
-142.73873109282763
-110.69771831165066
-743.3767776588585
-693.4509144285399
-447.5633539475659
-239.1799958590349
-151.7919823703265
-111.89483013977747
-97.06563809130567
-91.11568312210875
-80.66772039341802
-45.38837735045029
-1222.6346648810604
-856.9887722881557
-255.3483865841927
-127.07682464401083
-67.47383351503332
-48.034181103226146
-41.38000063622299
-39.50430631517447
-33.99153574403101
-9.062767656025386
-2462.1563867603345
-78.14040050113101
-96.78575761184527
-20.34990747293338
-13.443835192207246
-8.64518861700374
-7.863947920624469
-7.839129499497176
-6.697683440544338
0.42696364364059747

SCALARS STRESS_YY float 1
LOOKUP_TABLE default
-1.7858695150071071
-9.650691745895415
-23.748678872756557
-42.31985398611546
-63.60852439741705
-85.84618276774458
-107.24198822342764
-125.98262891514588
-140.2416093765759
-148.19628559839413
-1.7804188855380119
-9.623276441309258
-23.688475574372575
-42.2289274821747
-63.499341525598105
-85.7369026839471
-107.15079505621023
-125.92208466064596
-140.21394077626664
-148.19076229071243
-1.7686718344950236
-9.564667170121055
-23.560652261498774
-42.036816908511355
-63.26930429150259
-85.50679209886412
-106.95842372202168
-125.79381760626023
-140.1549229483634
-148.17888089802102
-1.749007624984472
-9.467785477665245
-23.351676254840754
-41.72528316975613
-62.89808044279261
-85.13592464003567
-106.64757202627945
-125.58516599070721
-140.05789061173593
-148.15908851003837
-1.7192206737244362
-9.323471876793008
-23.04512091866448
-41.27367566698695
-62.36402084966782
-84.60376853488673
-106.20021965426854
-125.28226090218516
-139.91500846365457
-148.12943458929786
-1.6769297638324758
-9.122988470421134
-22.62811467198143
-40.669949758139616
-61.65864106947774
-83.9045722523903
-105.61085017606152
-124.87878260777218
-139.72112260614583
-148.0882877947654
-1.6203618585189759
-8.862679457766305
-22.103146562939187
-39.93066659081135
-60.81283498210873
-83.07529083750359
-104.91068087806879
-124.39231260299292
-139.48118022051074
-148.03577822767195
-1.5497347444231764
-8.552078787964618
-21.508453862624457
-39.13531503659115
-59.94165491825123
-82.24320877705298
-104.20915982767272
-123.89271170572056
-139.2234350702035
-147.9764560528356
-1.4695273343772897
-8.2274104105352
-20.951879165692073
-38.48293145023787
-59.317319970423995
-81.70274337028374
-103.76049012296254
-123.5478337707275
-139.02111679950573
-147.92378868252024
-1.3922067428070903
-7.973568145913077
-20.66637020270785
-38.383297459442154
-59.48390406268307
-82.03243948833516
-104.0625632257909
-123.69076030352099
-139.0246381029628
-147.90701173566035
-1.3437690288759967
-7.96132225985766
-21.101949363258065
-39.6041174417697
-61.431836535419755
-84.26215341687288
-105.9894652177143
-124.9063375890126
-139.50270799764868
-147.9801121159859
-1.376172801615617
-8.511758251437016
-23.090012542702386
-43.51185384242133
-66.8589954834263
-90.08940766556908
-110.94010766915021
-128.11592782773482
-140.88088272742738
-148.23036614562585
-1.5768629061893833
-10.24149671316308
-28.147687791497244
-52.498231776951684
-78.54099239166334
-102.11759793506145
-120.93374953823577
-134.601793204223
-143.74513258704312
-148.7797831690868
-2.1830706801517934
-14.323149493928419
-39.19970287576149
-70.70504742053635
-100.86112094653168
-123.96541098041823
-138.4975854740178
-145.839695880575
-148.75300135013356
-149.7670405439129
-3.380362047431639
-23.64925367348546
-61.8998747368007
-105.63303191794103
-140.18373014818667
-159.971220999314
-165.95841388216922
-162.96313907120722
-156.37689320953115
-151.29671671416975
-7.851832511696614
-43.738560372748
-109.96715883280652
-169.5716232755094
-205.07818335092952
-213.15881473942724
-203.77835810153906
-185.68734889761106
-166.44305743464804
-153.349124802841
-11.667990369332017
-101.3590509297652
-207.7133222796374
-286.13241864495944
-299.86349562741157
-281.0359618533293
-247.70032749124314
-210.8111490726791
-177.49225650783183
-155.65374260157733
-85.7038831002858
-224.14669505377043
-446.87600000352614
-460.4707787648754
-413.6120448455179
-349.002824654441
-286.0625139622576
-230.6671725618495
-185.95723209723002
-157.49140617299213
-31.74614048462331
-885.4217428803643
-798.2247102920007
-647.934960401236
-503.88273953870043
-388.88689621500976
-299.302585168704
-232.08627231889406
-184.64897076250867
-156.97590995837737
-2836.657967078027
-1590.2783523796295
-1038.5270129332957
-717.751219010165
-512.8332346308714
-367.72188609927497
-264.0841505910495
-195.35280451638758
-159.14500035269418
-149.69002339595113

SCALARS STRESS_XY float 1
LOOKUP_TABLE default
2.1168672166432665
5.677045301530786
8.3523928627966
10.15017846181959
11.067855249290451
11.096037147682138
10.222861943263629
8.438807754901575
5.741106595415505
2.1368474667566626
6.344333940274788
17.01629576415786
25.040241237400963
30.437563060287474
33.198715526653274
33.292855170427714
30.681485801229524
25.33336566074018
17.238251931957215
6.416891907114635
10.552012407477022
28.309137356004612
41.67549933815796
50.68488552586575
55.314679239100286
55.50435040456911
51.179978426898224
42.280474354900555
28.782021939775145
10.716961007706322
14.723506816083363
39.51863986032562
58.21764341020051
70.86206803746539
77.40489953588495
77.74170527488194
71.74842558106029
59.32039412045497
40.40918741555751
15.053529948659769
18.837953254715643
50.60010059340172
74.61977714514812
90.93573024733733
99.45809421062103
100.01787263915696
92.42066761798779
76.49918265217333
52.163408025541884
19.447213614624083
22.869115751850277
61.50092066705152
90.83047198724687
110.87206831643454
121.46465438200931
122.34758404104687
113.23226888192332
93.86609088908556
64.09387696732158
23.92294811697022
26.785865454316692
72.1648265628948
106.80183016237262
130.64565044810269
143.42203138454204
144.74654120487702
134.21369064032925
111.46399812797706
76.2478213110174
28.507744704875233
30.55518487368845
82.54379369731252
122.5084381776407
150.2584884754859
165.34581728615635
167.2293067114575
155.37535294555178
129.3078252785114
88.65199104453946
33.223801511238946
34.14946759230273
92.62300789676
137.98459903879078
169.77604672318793
187.28988141010007
189.80480254946465
176.67947731737507
147.3434351768369
101.27582817376246
38.07345412300778
37.560798811142675
102.46739885122918
153.39144466946004
189.38971909599286
209.37911961154327
212.46628187971032
197.9907604821767
165.37681511718972
113.9666307291141
43.011030753936275
40.82647482323813
112.3041585605691
169.1323969739992
209.5180876921378
231.8552080781754
235.1666172760761
218.99299921759874
182.96139055776462
126.3465561793107
47.8961106423755
44.073393627037134
122.66822205890719
186.04779396503866
230.95873980627437
255.12276022751706
257.7534165043564
239.05052511147454
199.23263601662845
137.6672344961461
52.4252781875738
47.59797041394703
134.6686691377975
205.74075169037087
255.090401223464
279.7405857644426
279.8024652389174
256.97991124538345
212.69182702024654
146.63765268677804
56.049765579016196
52.02502913604732
150.51216044290342
231.1313352305636
284.0521815837788
306.2010595259809
300.2062244979656
270.69751461140953
220.97733710323305
151.28899800667526
57.90815986095704
58.67570056392575
174.66520880454254
267.32089724190575
320.64272988537965
334.0165867384734
316.31386921216796
276.73756573245413
220.7769550760338
149.01417995680725
56.836306786748764
70.64679261030382
216.50841997348482
322.9457890077567
366.4924594845679
359.39443219496593
322.262221532554
270.01722385298854
208.18373744151313
137.00625120939867
51.54267268995107
96.32341782098608
298.1790197277048
408.22317120751666
416.55909268697707
368.7666517477492
308.0912720468004
244.53999856475275
179.9508563860529
113.32650037127387
41.04001943714328
168.18075490610568
463.32270314567336
528.4136347772352
429.48867814966184
337.90684504058055
261.6790389630318
196.09992787980644
135.75089359892775
78.72541189435951
25.43211164227705
410.17057564230043
835.1703644888266
515.1055697047715
342.41300543503456
241.9944290042897
176.99536413445665
126.12262180142794
80.57083376544568
38.98122120531199
7.476014818945824
1851.6533201238387
504.58044251627695
221.80590494644488
126.9727815516606
86.50553075815888
62.28651375300782
43.078894983606624
24.69959956765686
6.921620014296493
-3.504608208488076

SCALARS STRAIN_EQV float 1
LOOKUP_TABLE default
0.0036006300318818015
0.002405899190366697
0.0013205749977133429
0.00038155059876467237
0.000765523563188598
0.001703417434751394
0.002675269530223917
0.003694294721183643
0.0047874137445016495
0.0059834457489269
0.0035572594883328235
0.0023962159182880052
0.0013947395708410466
0.0007301460113816025
0.0010323854060110365
0.0018334483470223352
0.002735333485985147
0.0037063742508241506
0.004765032390211297
0.005938778863712909
0.003470802848547583
0.0023781005448058677
0.0015328711477808636
0.0011434864500792252
0.0014230236225078491
0.002069492996248537
0.0028523714158591785
0.0037312809099449436
0.004720870949064407
0.005849409771223421
0.0033418690211857193
0.002354073189652565
0.0017204978763275445
0.001570835441029806
0.0018608308310955237
0.002380847590930264
0.0030211229188688393
0.0037705068935996403
0.004656199179879319
0.00571526609843479
0.003171477529074074
0.0023279470578143027
0.0019443647692540885
0.0020026581389974278
0.0023189596006819428
0.0027428172055105576
0.003235444877725966
0.003826256065631559
0.004573089193333851
0.005536241175118208
0.00296120731497323
0.002304840242898508
0.0021945039348692996
0.0024359356585773205
0.0027871237336810403
0.0031389187524519485
0.0034893448361719565
0.0039013220472193613
0.004474606698444538
0.005312216020491109
0.0027134483508566586
0.002291161590637232
0.002464218718314516
0.0028695585629156745
0.003260849013373504
0.0035588021226582982
0.0037774377552473324
0.003998778140883249
0.0043650212581556325
0.005043128682592267
0.0024318574237510637
0.002294588815466953
0.0027496985054772357
0.0033036413543495366
0.0037382491730175373
0.003995901005930761
0.004094786469396469
0.00412133437717768
0.0042499274410257495
0.004729139754535193
0.002122289531407719
0.0023241320629207355
0.0030500980948551504
0.003739915749855178
0.004219141278049499
0.004445701077224451
0.0044361738806339155
0.004270176201843599
0.004136033382365667
0.004370972217659751
0.0017949761041606133
0.0023904991356118225
0.003368428108536746
0.004182821574645481
0.004705090275295918
0.004904459645211752
0.004794795446345375
0.0044430811247063344
0.004030167833053605
0.003970538350951259
0.0014702086582352196
0.002507136662119903
0.0037135314622260994
0.004641352610509328
0.005199914176368834
0.005367979679344919
0.005160233783935531
0.004631639428057384
0.0039368700305197945
0.0035319904579935004
0.0011933988941394966
0.0026925224557175676
0.004103583453282249
0.005131776156138639
0.00571023227111855
0.0058298210817611575
0.005515418224014988
0.004817522827651693
0.003854047864761447
0.003063305029953907
0.0010619342030681878
0.0029747485313386733
0.004571909272646878
0.005681142068641025
0.006244971362020794
0.006277787534287937
0.005832078231281731
0.004968086275435636
0.003767068207231072
0.0025783537148423913
0.001197366379638687
0.0034008083868305263
0.005176759306697168
0.006330211813401636
0.006810993705857567
0.006686161751849006
0.006064347700359251
0.0050323915539259405
0.0036435381079881184
0.0020990083022480446
0.0016206678321088604
0.004057442457537887
0.0060167564681081484
0.00713128670276396
0.007396048750722014
0.007000318086235449
0.006140889491986027
0.004941098286740393
0.0034332143743995257
0.0016560773378084663
0.0023091414621021905
0.005122165169763833
0.007256162293167153
0.008114097349451777
0.007926554741665386
0.007106897983859671
0.0059635698873723745
0.004616593161244178
0.003079047923010998
0.0012867471743025552
0.0034047549915591363
0.007005537964170395
0.00909285381997672
0.00918878000463424
0.00814440317268181
0.0068219889416233645
0.005425453975875118
0.004002923674985247
0.0025453901360020827
0.0010256882067635315
0.005326882301789397
0.010587504321495404
0.011680507574303408
0.009565870001801901
0.007604923704679525
0.005932251989001918
0.004467423617408781
0.00311761393665796
0.0018701767634730765
0.000891137746662306
0.01129815323919758
0.01853334462397207
0.011806978033147475
0.008131705855860222
0.0058947180800959535
0.004365753137723174
0.0031548619141861718
0.0021043013160480205
0.0012393040536627206
0.0008690402698078925
0.041544907661050866
0.014086136804054131
0.0073239904401628305
0.0048762760294093314
0.0034364538856838304
0.002471171118840711
0.0017482534598999339
0.001206849212118872
0.0008900525626010503
0.0008605460584585271

SCALARS STRAIN_XX float 1
LOOKUP_TABLE default
0.002997047309901802
0.001979219320803147
0.0010304317855754583
0.00013099871659315944
-0.0007387081459482015
-0.0015983990800420393
-0.002467944499382001
-0.003367376265078951
-0.004316811682584616
-0.0053363141739965845
0.002958883368127638
0.0019495089978628496
0.001009036951317426
0.0001179048493996686
-0.0007434154104588055
-0.0015945787490084012
-0.0024554548808863328
-0.003346129754445506
-0.004286820296453215
-0.005297714827918247
0.002882664826874317
0.0018901346592947832
0.0009662244005463523
9.163911678929131e-05
-0.0007529376700927712
-0.001587045696337748
-0.002430553583324366
-0.0033036600218979252
-0.004226791637765193
-0.0052204058225328595
0.002768625296361298
0.0018011924399686215
0.0009019461941618628
5.204219498721179e-05
-0.0007674927992956594
-0.0015760167853483284
-0.0023933981390949132
-0.003240014582243769
-0.004136630391233968
-0.005104152031673902
0.0026171505657118024
0.0016828335981918944
0.0008161251613156893
-1.1304104748010788e-06
-0.0007874086661926868
-0.0015618157636268196
-0.0023442245866472375
-0.0031552654879401032
-0.004016186247408833
-0.004948567337576046
0.0024288145766363243
0.0015352674057820112
0.0007086489798660629
-6.820646930425184e-05
-0.0008131092019915227
-0.0015448540126388535
-0.0022833334990220965
-0.0030495052422027363
-0.003865249840107417
-0.004753084099147991
0.0022044133785026464
0.0013587535112415889
0.0005793626284825203
-0.00014957832306948093
-0.0008450665890540575
-0.0015255711836790371
-0.002211044516735844
-0.002922831033668593
-0.003683556720718656
-0.004516933750045738
0.0019449783260634202
0.001153569151055761
0.0004280588704002799
-0.0002456490845658176
-0.0008836862416855022
-0.0015042973396910625
-0.0021275884717603492
-0.0027753047615480878
-0.0034708105148479346
-0.004239168240397689
0.0016517358777126574
0.0009199260520080868
0.00025446598530233576
-0.00035671363923778297
-0.0009290712026428505
-0.00148097699519603
-0.002032890117691956
-0.0026068699180260124
-0.0032267434551677097
-0.003918775014698502
0.0013259596925288067
0.0006577951780121693
5.8233709594186344e-05
-0.00048272247018289966
-0.0009805813230929295
-0.0014546682315514908
-0.001926178439997494
-0.002417202681189572
-0.0029512434716256405
-0.0035549716897835364
0.0009686250625537043
0.00036657192535891753
-0.00016106973000041842
-0.0006228298255997388
-0.0010360517627252767
-0.0014227015116491607
-0.0018053588810720486
-0.0022054855178340257
-0.0026445948518715665
-0.0031478079020805377
0.0005797174991174388
4.447548664698094e-05
-0.00040388731187138724
-0.0007745199342311404
-0.0010904501673160974
-0.0013793713667327161
-0.0016661285533315518
-0.001970144651661402
-0.002307909476837091
-0.002699236110989236
0.0001569035649080612
-0.0003124678897295464
-0.0006703034959311053
-0.0009318439492963398
-0.0011336170888405607
-0.0013141036656295069
-0.0015009908278318194
-0.0017087403460949759
-0.001943868284257317
-0.0022148002796904542
-0.0003069168786547227
-0.000712058719539015
-0.0009585960145467482
-0.0010816955961475755
-0.0011465961117264611
-0.0012093713198044788
-0.0012988048319561088
-0.0014184823859528378
-0.0015579309225005368
-0.0017059471281414239
-0.0008290313899557682
-0.0011679595063217377
-0.001260329271077575
-0.0011957374105306551
-0.0010962539238959096
-0.0010398421539051534
-0.0010464206426441837
-0.001098273354596873
-0.0011600449609639324
-0.0011925935924737702
-0.001446014695128544
-0.0017009885294591745
-0.0015439233551835017
-0.0012136206097969051
-0.0009306637855879731
-0.0007769070001320544
-0.0007356958417599618
-0.0007528986498868857
-0.0007665132095451659
-0.0007049140034553203
-0.0022538276702707754
-0.0023214327301806295
-0.0017057196697224197
-0.0010162930020935924
-0.0005861582637524086
-0.00041138927502185237
-0.000376358132419527
-0.0003992269593156919
-0.0004007918402154434
-0.00028253325358633397
-0.003405211886836972
-0.0029499166907656937
-0.0014290203521257249
-0.00041535542317440964
-7.285717891097887e-05
1.5600485696133648e-05
-1.2690516589336509e-05
-7.140721988904003e-05
-9.19134942920577e-05
3.135136517446249e-05
-0.005772183040576832
-0.0026895218911315976
3.840841815317894e-05
0.0004130557728018909
0.0004705117644416088
0.00038237378403679564
0.00027328501175928263
0.0001765912550002885
0.00012829821241712794
0.00020352039347732928
-0.00726694884583136
0.002126911694210223
0.0011710864602673442
0.0010309904514305768
0.0007418625344570492
0.0005366811133131286
0.00037754200844962796
0.00026965379043290827
0.000218191269884975
0.00023726033983002132

SCALARS STRAIN_YY float 1
LOOKUP_TABLE default
-0.0009966036519096083
-0.0006940934778401214
-0.00044081604992329826
-0.0002228068235568259
-2.613848369679983e-05
0.00016319772753607686
0.00035935818143464915
0.0005766478787794516
0.0008294559594649864
0.0011321374388630207
-0.0009839864222864203
-0.0006841727389940294
-0.00043350029195533824
-0.0002181000159179186
-2.412178708888213e-05
0.00016240073011722367
0.0003556235703373045
0.000569893439723676
0.000819676209135603
0.0011194230918927656
-0.0009587844570195653
-0.0006643305085924922
-0.00041882975327658944
-0.00020861713495558265
-2.000331674632816e-05
0.00016089125865194343
0.00034822243783659557
0.000556422707850418
0.0008001171840849586
0.0010939615368252414
-0.0009210679701545793
-0.0006345684748998714
-0.0003967311903147891
-0.0001942282092627784
-1.362489757801566e-05
0.00015882543227573043
0.00033728018860314235
0.0005363050911198763
0.0007707757132780768
0.0010556817715414585
-0.0008709549130770655
-0.0005948976864005168
-0.00036710943299904375
-0.00017476492829023027
-4.786468628503737e-06
0.00015639721084714786
0.00032295118152730895
0.0005096232172586285
0.0007316354423974741
0.0010044646539595081
-0.0008086245822545163
-0.0005453501249842174
-0.00032987279661390867
-0.00015006801860330266
6.6878697190519976e-06
0.0001537667559131789
0.00030535801376353755
0.00047643442906125655
0.0006826491503100357
0.0009401297848430495
-0.000734332150392189
-0.00048599596187551275
-0.00028498068598130366
-0.00012007828195408077
2.0822844613757607e-05
0.00015092233982694214
0.00028447370133022343
0.0004366961946319359
0.0006237085764347894
0.0008624229852356724
-0.0006484188886997644
-0.0004169671408386644
-0.00023252696645582882
-8.499998889854865e-05
3.7264037386436355e-05
0.00014743277285408918
0.00025990999414549076
0.00039013249797292815
0.0005545960270852551
0.0007710120908137053
-0.0005513085339673846
-0.00033848724200470637
-0.00017287958240952417
-4.558040483870762e-05
5.4890335797641576e-05
0.00014203043404678595
0.00023056339241657453
0.00033601243164813055
0.000474912401252775
0.0006655058115410117
-0.000443474295813151
-0.00025090691624317374
-0.00010691142172623846
-3.574710392542646e-06
7.118180371468164e-05
0.0001319495315164898
0.000194066741911067
0.0002728157585712848
0.0003839824646195561
0.0005455219044969151
-0.0003253483305552529
-0.00015475127949110545
-3.638959423128696e-05
3.7480370770004434e-05
8.12213220007102e-05
0.00011193909451195916
0.00014601980001327508
0.00019779099504918518
0.00028075981018092777
0.00041084766527441086
-0.0001971463346302771
-5.0795138107101456e-05
3.530419302802401e-05
7.09562784916018e-05
7.614355104630655e-05
7.291316449423157e-05
7.906656572331805e-05
0.00010650914796590805
0.0001638055816495232
0.00026175706294850887
-5.846933135159049e-05
5.965631922456166e-05
0.00010176013179534482
8.474100642759386e-05
4.0818028268760354e-05
3.352024199598791e-07
-1.7835237356080003e-05
-7.2759616185774645e-06
3.1518021193895074e-05
9.956187905035829e-05
9.201907336994775e-05
0.00017420147976197203
0.00014999927893094567
5.693446217422404e-05
-4.961063968005053e-05
-0.00012693402505809664
-0.0001590858264825662
-0.0001507472554888034
-0.00011709136463722292
-7.254892308800054e-05
0.00025923635573080195
0.00028507497066501686
0.0001532468576557755
-5.36428199633468e-05
-0.00023308250004315523
-0.00033566330365172176
-0.0003588980575007575
-0.0003290767131085212
-0.0002807444464010128
-0.0002484465157407828
0.00044386690676778695
0.00037572892353983367
4.286739656334665e-05
-0.0003190541201994329
-0.000563096042108413
-0.0006481245938340582
-0.00062191987176341
-0.0005394767626928573
-0.0004533240145644518
-0.00041808983177313297
0.0006942519587221571
0.00033597256151430416
-0.0003185093731981961
-0.000878778539092559
-0.001078988539407355
-0.0010567708040404161
-0.0009268768726227311
-0.0007627970793242234
-0.0006208975011771367
-0.0005672547407558695
0.0007600497787006548
2.2343365274513083e-05
-0.00142466711048014
-0.0018168637149113993
-0.0017310509079205248
-0.001486083479563402
-0.0012096707304386986
-0.0009552333196740648
-0.0007587470684162004
-0.0006786344840349692
0.00177011094726727
-0.002869597371548918
-0.003399808298662939
-0.002885712420327202
-0.0022934113070416165
-0.0017763600783378339
-0.001360224690279764
-0.0010430945296899356
-0.0008258655426998975
-0.0007332628411042333
-0.009638792187843411
-0.007449962001020268
-0.004793274823435174
-0.0033858845216385575
-0.0024209369953211574
-0.0017374713040745893
-0.0012451859417963972
-0.0009179328180073977
-0.000747308403891974
-0.0007134805780873929

SCALARS STRAIN_XY float 1
LOOKUP_TABLE default
2.681365141081471e-05
7.190924048605662e-05
0.00010579697626209028
0.00012856892718304813
0.00014019283315767905
0.00014054980387064042
0.00012948958461467264
0.00010689156489541995
7.272068354192973e-05
2.7066734578917728e-05
8.036156324348065e-05
0.0002155397463459996
0.0003171763890070789
0.000385542465430308
0.0004205170633376082
0.00042170949882541775
0.00038863215348224067
0.00032088929836937563
0.00021835119113812473
8.128063082345205e-05
0.00013365882382804228
0.00035858240650939177
0.0005278896582833342
0.0006420085499942996
0.0007006526036952704
0.0007030551051245421
0.0006482797267407109
0.0005355526751620737
0.0003645722779038185
0.00013574817276428008
0.00018649775300372262
0.0005005694382307913
0.0007374234831958731
0.0008975861951412284
0.0009804620607878761
0.0009847282668151713
0.0009088133906934304
0.0007513916588590963
0.0005118497072637285
0.00019067804601635707
0.0002386140745597315
0.0006409346075164218
0.0009451838438385429
0.0011518525831329396
0.0012598025266678664
0.0012668930534293216
0.0011706617898278454
0.0009689896469275289
0.0006607365016568639
0.00024633137245190506
0.00028967546619010354
0.0007790116617826526
0.0011505193118384605
0.001404379532008171
0.0015385522888387848
0.001549736064519927
0.0014342754058376955
0.0011889704845950838
0.0008118557749194066
0.0003030240094816228
0.00033928762908801147
0.0009140878031300009
0.00135282318205672
0.0016548449056759673
0.0018166790642041991
0.001833456188595109
0.0017000400814441707
0.001411877309621043
0.0009658057366062206
0.0003610980995950863
0.0003870323417333871
0.0010455547201659587
0.0015517735502501157
0.0019032741873561548
0.002094380352291314
0.002118237885011795
0.0019680878039769895
0.0016378991201944776
0.0011229252198974998
0.00042083481914236
0.00043255992283583455
0.0011732247666922935
0.0017478049211580166
0.0021504965918270474
0.0023723384978612677
0.0024041941656265525
0.0022379400460200843
0.0018663501789066006
0.001282827156867658
0.00048226375222476525
0.0004757701182744739
0.001297920385448903
0.0019429582991464939
0.0023989364418825765
0.0026521355150795484
0.002691239570476331
0.002507882966107572
0.002094772991484403
0.0014435773225687787
0.0005448063895498595
0.0005171353477610163
0.0014225193417672088
0.00214234369500399
0.0026538957774337457
0.0029368326356568886
0.002978777152163631
0.0027739113234229174
0.0023175109470650185
0.0016003897116046023
0.0006066840681367563
0.0005582629859424704
0.0015537974794128245
0.002356605390223823
0.0029254773708794757
0.003231554962881883
0.003264876609055181
0.0030279733180786778
0.0025236133895439605
0.0017437849702845176
0.0006640535237092682
0.0006029076252433291
0.0017058031424121017
0.0026060495214113646
0.0032311450821638776
0.003543380753016273
0.003544164559692954
0.003255078875774857
0.0026940964755897898
0.0018574102673658555
0.0007099636973342052
0.0006589837023899328
0.00190648736561011
0.002927663579587139
0.0035979943000611983
0.0038785467539957583
0.0038026121769742308
0.003428835185077854
0.0027990462699742855
0.0019163273080845533
0.0007335033582387893
0.0007432255404763929
0.0022124259781908726
0.003386064698397473
0.004061474578548142
0.004230876765353997
0.004006642343354128
0.0035053424992777527
0.0027965080976297615
0.0018875129461195586
0.000719926552632151
0.0008948593730638485
0.002742439986330808
0.004090646660764918
0.004642237820137861
0.004552329474469569
0.004081988139412351
0.0034202181688045216
0.0026369940075924997
0.00173541251531905
0.0006528738540727136
0.0012200966257324905
0.0037769342498842617
0.005170826835295211
0.005276415174035043
0.00467104425547149
0.0039024894459261383
0.0030975066484868682
0.0022793775142233366
0.0014354690047028024
0.0005198402462038149
0.0021302895621440054
0.005868754239845196
0.006693239373844979
0.00544018992322905
0.004280153370514021
0.0033146011601984035
0.0024839324198108817
0.0017195113189197517
0.0009971885506618872
0.000322140080802176
0.005195493958135806
0.010578824616858471
0.006524670549593773
0.0043372314021771045
0.00306526276738767
0.002241941279036451
0.001597553209484754
0.001020563894362312
0.0004937621352672852
9.469618770664712e-05
0.02345427538823529
0.006391352271872841
0.0028095414626549686
0.0016083218996543677
0.0010957367229366792
0.000788962507538099
0.000545666003125684
0.0003128615945236536
8.767385351442225e-05
-4.4391703974182295e-05

