# vtk DataFile Version 2.0
mesh vtk view
ASCII
DATASET UNSTRUCTURED_GRID
POINTS 5151 double
0.0 -0.48196302692809895 0.0
200.0 0.0 0.0
199.86751036355437 99.85526602074536 0.0
0.0 99.51884769678736 0.0
2.001559091925777 -0.4819165418438749 0.0
4.003117500614932 -0.48177710057458883 0.0
6.004674542906237 -0.48154474506898026 0.0
8.006229535790332 -0.4812195452368391 0.0
10.007781796488022 -0.4808015989417205 0.0
12.009330642529102 -0.48029103199048806 0.0
14.010875391833755 -0.47968799811943225 0.0
16.012415362795906 -0.4789926789766369 0.0
18.013949874371512 -0.4782052841001745 0.0
20.015478246171483 -0.4773260508916476 0.0
22.016999798557464 -0.476355244584501 0.0
24.01851385274324 -0.4752931582064387 0.0
26.020019730901254 -0.47414011253519306 0.0
28.02151675627844 -0.47289645604679786 0.0
30.023004253316703 -0.47156256485541115 0.0
32.02448154777827 -0.4701388426436369 0.0
34.02594796688204 -0.4686257205821629 0.0
36.02740283944775 -0.46702365723743705 0.0
38.02884549604863 -0.4653331384659482 0.0
40.03027526917341 -0.46355467729358113 0.0
42.031691493397815 -0.4616888137783366 0.0
44.03309350556628 -0.4597361148545844 0.0
46.03448064498369 -0.4576971741568396 0.0
48.03585225361801 -0.45557261182089503 0.0
50.037207676313415 -0.4533630742599619 0.0
52.03854626101438 -0.4510692339132679 0.0
54.03986735900077 -0.4486917889643883 0.0
56.04117032513351 -0.44623146302633865 0.0
58.042454518111086 -0.4436890047902541 0.0
60.04371930073625 -0.4410651876342404 0.0
62.04496404019247 -0.4383608091887046 0.0
64.04618810833244 -0.4355766908542178 0.0
66.04739088196852 -0.4327136772676806 0.0
68.04857174316922 -0.4297726357122359 0.0
70.04973007957702 -0.42675445546600865 0.0
72.05086528471642 -0.4236600470844827 0.0
74.05197675830917 -0.4204903416108483 0.0
76.05306390659003 -0.41724628970828714 0.0
78.05412614262129 -0.41392886070767665 0.0
80.05516288660272 -0.41053904156371634 0.0
82.05617356617401 -0.4070778357119199 0.0
84.05715761670629 -0.40354626181829256 0.0
86.0581144815781 -0.3999453524128692 0.0
88.05904361243189 -0.3962761523974798 0.0
90.05994446940522 -0.3925397174172796 0.0
92.06081652133122 -0.3887371120845887 0.0
94.06165924590175 -0.38486940804245273 0.0
96.06247212978568 -0.3809376818540549 0.0
98.06325466869454 -0.37694301270260944 0.0
100.064006367386 -0.3728864798845995 0.0
102.06472673959537 -0.3687691600772106 0.0
104.06541530788361 -0.36459212435836175 0.0
106.06607160338919 -0.36035643495493674 0.0
108.06669516546934 -0.3560631416913953 0.0
110.06728554121472 -0.3517132781069616 0.0
112.06784228482036 -0.34730785720475577 0.0
114.06836495679084 -0.3428478667904843 0.0
116.06885312295788 -0.3383342643513622 0.0
118.0693063532833 -0.3337679714175774 0.0
120.0697242204167 -0.3291498673384644 0.0
122.07010629797405 -0.3244807823932584 0.0
124.07045215849436 -0.3197614901412956 0.0
126.07076137102793 -0.31499269889819387 0.0
128.07103349830527 -0.31017504220202835 0.0
130.07126809340156 -0.30530906810584546 0.0
132.07146469582534 -0.30039522709850686 0.0
134.07162282696913 -0.2954338584131574 0.0
136.07174198474533 -0.29042517442960003 0.0
138.07182163730084 -0.28536924280979387 0.0
140.07186121562313 -0.28026596592136793 0.0
142.07186010482016 -0.2751150569967269 0.0
144.07181763379467 -0.2699160123380068 0.0
146.07173306296772 -0.26466807870107656 0.0
148.07160556960585 -0.2593702147616257 0.0
150.0714342301833 -0.25402104526454516 0.0
152.07121799904556 -0.24861880605815495 0.0
154.07095568241198 -0.24316127768017226 0.0
156.07064590645345 -0.23764570443889255 0.0
158.07028707776024 -0.23206869494216936 0.0
160.06987733393393 -0.22642609865133906 0.0
162.06941448121177 -0.22071285110001976 0.0
164.068895914861 -0.21492277764547432 0.0
166.06831851636304 -0.20904834158321312 0.0
168.0676785188783 -0.20308031646229047 0.0
170.06697132864224 -0.19700735335013686 0.0
172.06619128401894 -0.19081539967872277 0.0
174.06533132451452 -0.18448690379990124 0.0
176.06438252668767 -0.1779997023202364 0.0
178.0633334377997 -0.17132542459897954 0.0
180.06216909279303 -0.16442713588937868 0.0
182.06086951370577 -0.15725574189168415 0.0
184.0594073396313 -0.1497442297380296 0.0
186.057743824064 -0.1417982081728037 0.0
188.05582201902251 -0.1332779844395947 0.0
190.05355182214382 -0.12396979920262044 0.0
192.05078574090933 -0.1134892136355654 0.0
194.04719246615036 -0.10124917618025805 0.0
196.04210867398035 -0.08508634845110197 0.0
198.03145295384027 -0.06494901241612394 0.0
200.02486153972526 1.9543051219405199 0.0
200.02657055510602 3.934250230726468 0.0
200.0280649238335 5.9229666621057815 0.0
200.02758616394638 7.9149081406071895 0.0
200.026341218096 9.908655942177376 0.0
200.02456461026958 11.903529478393288 0.0
200.02244086867552 13.899188157942849 0.0
200.0200664936366 15.895426271939733 0.0
200.01750486297385 17.892111779210882 0.0
200.01479815199195 19.889154458517606 0.0
200.01197597309508 21.886490094507003 0.0
200.00905968683838 23.88407140278419 0.0
200.0060650553192 25.88186260218385 0.0
200.0030038864506 27.8798359835054 0.0
199.99988511314288 29.877969657034882 0.0
199.99671552493018 31.87624602323306 0.0
199.99350028019543 33.874650704950646 0.0
199.99024327449055 35.87317178350413 0.0
199.9869474118106 37.871799240444226 0.0
199.98361480875147 39.87052454184457 0.0
199.980246951252 41.86934032347631 0.0
199.9768448172262 43.86824014870975 0.0
199.9734089742845 45.86721831971482 0.0
199.9699396590447 47.8662697283008 0.0
199.966436842723 49.86538973662899 0.0
199.96290028645944 51.86457408071039 0.0
199.9593295889761 53.863818791476135 0.0
199.95572422856773 55.86312012954381 0.0
199.95208360100344 57.86247453076961 0.0
199.94840705462124 59.86187856038875 0.0
199.9446939236938 61.86132887408215 0.0
199.94094356100632 63.86082218472268 0.0
199.93715537050386 65.86035523388067 0.0
199.93332884082474 67.85992476741214 0.0
199.9294635805311 69.8595275148216 0.0
199.92555935587606 71.85916017214227 0.0
199.92161613200338 73.8588193884883 0.0
199.91763411855837 75.85850175667565 0.0
199.91361382079305 77.85820380871591 0.0
199.90955609735914 79.85792201753424 0.0
199.905462226069 81.85765280706632 0.0
199.9013339788915 83.85739257412128 0.0
199.89717370716346 85.85713772736933 0.0
199.8929844370112 87.85688475211447 0.0
199.88876997220714 89.85663031531203 0.0
199.88453499417972 91.85637143601275 0.0
199.88028512744563 93.85610576720526 0.0
199.8760268709256 95.8558320735366 0.0
199.87176706233416 97.85555102879205 0.0
197.86741537157883 99.85101130342824 0.0
195.867316416634 99.84675969130062 0.0
193.86721012292955 99.84250650153118 0.0
191.86709586079337 99.83824486645075 0.0
189.86697495502057 99.83396827540619 0.0
187.8668498875137 99.8296711434836 0.0
185.86672380963168 99.82534891078159 0.0
183.86660024395354 99.82099800227213 0.0
181.86648289362589 99.81661574717982 0.0
179.86637551513653 99.81220028986237 0.0
177.86628183056092 99.80775050307204 0.0
175.8662054656307 99.8032659071046 0.0
173.86614990547244 99.79874659561067 0.0
171.86611846293806 99.79419316785386 0.0
169.8661142562364 99.78960666688941 0.0
167.86614019365877 99.78498852309137 0.0
165.86619896385903 99.78034050251024 0.0
163.86629303057595 99.77566465962126 0.0
161.86642463096075 99.77096329410179 0.0
159.86659577685617 99.76623891134085 0.0
157.86680825849896 99.76149418643452 0.0
155.86706365020254 99.7567319314571 0.0
153.86736331764516 99.75195506582311 0.0
151.86770842643134 99.7471665895708 0.0
149.8680999516398 99.74236955940701 0.0
147.86853868810027 99.73756706735786 0.0
145.86902526117325 99.73276222187107 0.0
143.86956013783248 99.72795813121617 0.0
141.87014363787475 99.723157889028 0.0
139.87077594510694 99.71836456183911 0.0
137.87145711837897 99.7135811784467 0.0
135.87218710235527 99.7088107209619 0.0
133.87296573793432 99.70405611739106 0.0
131.87379277224545 99.6993202356034 0.0
129.87466786816614 99.69460587854387 0.0
127.87559061332006 99.68991578055622 0.0
125.87656052852041 99.68525260468823 0.0
123.8775770756772 99.68061894085834 0.0
121.87863966510454 99.67601730477115 0.0
119.87974766226473 99.67145013747752 0.0
117.8809003939658 99.66691980548315 0.0
115.88209715401138 99.66242860131861 0.0
113.88333720832736 99.65797874449122 0.0
111.88461979959006 99.65357238274798 0.0
109.8859441513801 99.64921159358605 0.0
107.88730947189143 99.64489838595465 0.0
105.88871495722381 99.64063470209928 0.0
103.89015979428852 99.63642241950525 0.0
101.8916431633565 99.63226335290375 0.0
99.89316424027824 99.62815925630865 0.0
97.89472219840349 99.6241118250576 0.0
95.89631621022812 99.62012269783499 0.0
93.89794544879412 99.61619345865833 0.0
91.89960908886742 99.61232563881345 0.0
89.90130630791654 99.60852071872642 0.0
87.90303628691377 99.60478012976344 0.0
85.90479821097938 99.60110525595158 0.0
83.90659126988642 99.59749743561608 0.0
81.90841465844453 99.59395796293082 0.0
79.91026757677707 99.5904880893807 0.0
77.91214923050666 99.58708902513553 0.0
75.91405883086121 99.58376194033603 0.0
73.91599559471294 99.58050796629382 0.0
71.91795874455477 99.5773281966071 0.0
69.91994750844071 99.57422368819529 0.0
67.92196111989036 99.5711954622554 0.0
65.92399881773102 99.56824450514374 0.0
63.92605984594124 99.56537176918651 0.0
61.92814345346705 99.56257817342312 0.0
59.93024889402236 99.55986460428616 0.0
57.932375425878675 99.55723191622158 0.0
55.93452231164716 99.55468093225332 0.0
53.93668881805662 99.55221244449568 0.0
51.93887421573022 99.54982721461754 0.0
49.941077778962324 99.54752597426157 0.0
47.94329878549846 99.54530942542219 0.0
45.94553651631926 99.5431782407851 0.0
43.94779025542944 99.54113306403197 0.0
41.9500592896534 99.53917451011286 0.0
39.952342908437814 99.53730316548922 0.0
37.95464040366149 99.53551958835017 0.0
35.95695106945351 99.53382430880436 0.0
33.9592742020194 99.53221782904978 0.0
31.96160909947534 99.53070062352357 0.0
29.963955061690687 99.52927313903376 0.0
27.966311390138664 99.52793579487489 0.0
25.968677387754788 99.526688982929 0.0
23.971052358802712 99.5255330677536 0.0
21.97343560874755 99.52446838665799 0.0
19.97582644413603 99.52349524976927 0.0
17.978224172482815 99.52261394008904 0.0
15.980628102163136 99.521824713542 0.0
13.983037542310747 99.52112779901714 0.0
11.985451802720828 99.52052339840266 0.0
9.987870193757418 99.52001168661502 0.0
7.9902920262649415 99.5195928116229 0.0
5.992716611482639 99.5192668944667 0.0
3.9951432609624686 99.51903402927374 0.0
1.9975712864887742 99.51889428326984 0.0
0.0 97.51831588110612 0.0
0.0 95.51781369934098 0.0
0.0 93.5173400767301 0.0
0.0 91.51689398357468 0.0
0.0 89.51647443543682 0.0
0.0 87.51608049332239 0.0
0.0 85.51571126384735 0.0
0.0 83.51536589938675 0.0
0.0 81.51504359820532 0.0
0.0 79.51474360456947 0.0
0.0 77.51446520884024 0.0
0.0 75.51420774754712 0.0
0.0 73.51397060344331 0.0
0.0 71.51375320554237 0.0
0.0 69.51355502913715 0.0
0.0 67.51337559580159 0.0
0.0 65.51321447337645 0.0
0.0 63.5130712759397 0.0
0.0 61.512945663752376 0.0
0.0 59.51283734323375 0.0
0.0 57.5127460668677 0.0
0.0 55.5126716331294 0.0
0.0 53.51261388640269 0.0
0.0 51.51257271688813 0.0
0.0 49.512548060505985 0.0
0.0 47.512539898796085 0.0
0.0 45.512548258815784 0.0
0.0 43.512573213038216 0.0
0.0 41.512614879252276 0.0
0.0 39.51267342046601 0.0
0.0 37.51274904481543 0.0
0.0 35.51284200547738 0.0
0.0 33.51295260058972 0.0
0.0 31.513081173211788 0.0
0.0 29.51322811123862 0.0
0.0 27.51339384736995 0.0
0.0 25.513578859082735 0.0
0.0 23.513783668618764 0.0
0.0 21.51400884298853 0.0
0.0 19.51425499399213 0.0
0.0 17.514522778258225 0.0
0.0 15.514812897301322 0.0
0.0 13.515126097597632 0.0
0.0 11.515463170680075 0.0
0.0 9.515824953251766 0.0
0.0 7.516212327318117 0.0
0.0 5.51662622033659 0.0
0.0 3.517067605383485 0.0
0.0 1.5175375013365455 0.0
2.001466910755253 1.5175840968645682 0.0
2.0013762565586344 3.51711430680168 0.0
2.0012870645722423 5.516673023149429 0.0
2.001199270282468 7.516259227084371 0.0
2.001112809409437 9.515871945580056 0.0
2.001027617888872 11.515510251223935 0.0
2.0009436318524583 13.515173262050222 0.0
2.0008607876070763 15.514860141389807 0.0
2.000779021613184 17.514570097737984 0.0
2.000698270462682 19.514302384640747 0.0
2.0006184708565247 21.51405630059989 0.0
2.000539559582363 23.513831188997028 0.0
2.0004614734924786 25.5136264380365 0.0
2.0003841494822225 27.513441480706607 0.0
2.000307524469215 29.513275794758894 0.0
2.000231535373468 31.513128902704505 0.0
2.000156119098654 33.51300037182715 0.0
2.0000812125146497 35.51288981421051 0.0
2.000006752441537 37.51279688677021 0.0
1.9999326756351596 39.51272129133944 0.0
1.9998589187743805 41.51266277470939 0.0
1.9997854184501127 43.512621128709426 0.0
1.999712111156213 45.512596190294715 0.0
1.9996389332823117 47.512587841638016 0.0
1.999565821108615 49.51259601022672 0.0
1.9994927108027243 51.51262066896344 0.0
1.9994195384184854 53.5126618362684 0.0
1.9993462398968858 55.51271957618184 0.0
1.9992727510689814 57.51279399846486 0.0
1.999199007660829 59.51288525869679 0.0
1.9991249453004099 61.512993558367896 0.0
1.999050499526466 63.51311914496228 0.0
1.998975605799207 65.51326231203201 0.0
1.9989001995128082 67.51342339929047 0.0
1.998824216009594 69.51360279263841 0.0
1.998747590595819 71.51380092421819 0.0
1.998670258558901 73.51401827244376 0.0
1.9985921551860009 75.51425536201535 0.0
1.9985132157837568 77.51451276391776 0.0
1.9984333756990194 79.51479109540189 0.0
1.9983525703404086 81.51509101994819 0.0
1.9982707352004598 83.51541324721136 0.0
1.9981878058781455 85.51575853294693 0.0
1.9981037181015309 87.51612767891795 0.0
1.9980184077502945 89.5165215327831 0.0
1.9979318108778268 91.51694098796582 0.0
1.9978438637326057 93.51738698350513 0.0
1.9977545027785417 95.51786050388883 0.0
1.9976636647139503 97.51836257887025 0.0
4.002933166153355 1.517723869453559 0.0
4.00275188547116 3.517254397050402 0.0
4.002573529050442 5.516813417572616 0.0
4.002397967875006 7.516399912359934 0.0
4.0022250733974785 9.516012908535737 0.0
4.002054717502744 11.515651478822523 0.0
4.001886772468474 13.515314741373478 0.0
4.001721110923336 15.51500185962172 0.0
4.001557605803552 17.514712042147117 0.0
4.0013961303084145 19.51444454256249 0.0
4.001236557855314 21.514198659418323 0.0
4.001078762034849 23.513973736127106 0.0
4.000922616566504 25.513769160906495 0.0
4.000767995255402 27.51358436674098 0.0
4.000614771950535 29.513418831361903 0.0
4.000462820504894 31.51327207724481 0.0
4.000312014737879 33.513143671623155 0.0
4.000162228400306 35.51303322651701 0.0
4.00001333514229 37.512940398766254 0.0
3.999865208484305 39.512864890117264 0.0
3.9997177217916198 41.51280644726518 0.0
3.999570748252306 43.51276486193521 0.0
3.9994241608589944 45.51273997097207 0.0
3.999277832394484 47.512731656433154 0.0
3.99913163542134 49.51273984568721 0.0
3.998985442275503 51.51276451151667 0.0
3.998839125064005 53.51280567222146 0.0
3.9986925556667576 55.512863391723286 0.0
3.9985456057424145 57.51293777966784 0.0
3.998398146738282 59.51302899152402 0.0
3.9982500499041778 61.51313722867792 0.0
3.9981011863101656 63.51326273851752 0.0
3.9979514268680116 65.51340581450812 0.0
3.997800642356244 67.51356679628687 0.0
3.9976487034485952 69.51374606969037 0.0
3.997495480745649 71.51394406681025 0.0
3.9973408448094077 73.51416126602406 0.0
3.9971846662005452 75.5143981920109 0.0
3.997026815518007 77.5146554157509 0.0
3.996867163440611 79.51493355450697 0.0
3.9967055807703047 81.51523327178931 0.0
3.9965419384766214 83.5155552773001 0.0
3.9963761077418885 85.51590032686043 0.0
3.9962079600067484 87.51626922231681 0.0
3.996037367015372 89.51666281142927 0.0
3.9958642008598995 91.51708198773962 0.0
3.9956883340234084 93.5175276904217 0.0
3.9955096394208605 95.51800090411334 0.0
3.9953279904372687 97.51850265873185 0.0
6.004398110909047 1.5179567771182865 0.0
6.0041262591587 3.5174878341106712 0.0
6.003858793402107 5.51704736155732 0.0
6.00359552014272 7.5166343410710335 0.0
6.003336246590535 9.516247800025837 0.0
6.003080780606666 11.515886811369999 0.0
6.002828930643495 13.515550493455677 0.0
6.002580505681435 15.515238009886623 0.0
6.0023353151632115 17.514948569384053 0.0
6.002093168926606 19.514681425672112 0.0
6.001853877136525 21.51443587738259 0.0
6.001617250217197 23.51421126797921 0.0
6.001383098785268 25.514006985701513 0.0
6.0011512335845385 27.51382246352739 0.0
6.000921465422948 29.51365717915415 0.0
6.000693605112471 31.51351065499736 0.0
6.000467463412416 33.51338245820626 0.0
6.0002428509766865 35.5132722006942 0.0
6.000019578305392 37.51317953917417 0.0
5.99979745570124 39.51310417524734 0.0
5.999576293231016 41.51304585544789 0.0
5.9993559006924695 43.51300437132687 0.0
5.9991360875868445 45.51297955954404 0.0
5.998916663097206 47.5129713019638 0.0
5.998697436072775 49.51297952575648 0.0
5.998478215019321 51.513004203503286 0.0
5.998258808095735 53.51304535330312 0.0
5.998039023116702 55.513103038879194 0.0
5.99781866756156 57.513177369684286 0.0
5.997597548589221 59.51326850100238 0.0
5.997375473059038 61.513376634045336 0.0
5.997152247557513 63.51350201604019 0.0
5.996927678430632 65.51364494030703 0.0
5.996701571821587 67.51380574635535 0.0
5.996473733713654 69.51398481991441 0.0
5.996243969977834 71.51418259299066 0.0
5.996012086424981 73.51439954390054 0.0
5.995777888861929 75.51463619728763 0.0
5.995541183151188 77.51489312412379 0.0
5.9953017752736955 79.51517094169205 0.0
5.995059471394044 81.51547031355173 0.0
5.994814077927583 83.51579194948427 0.0
5.99456540160867 85.51613660542004 0.0
5.994313249559389 87.51650508334508 0.0
5.99405742935793 89.51689823118842 0.0
5.993797749105746 91.51731694268987 0.0
5.993534017492614 93.51776215724848 0.0
5.993266043858639 95.51823485975314 0.0
5.99299363825218 97.51873608039546 0.0
8.005861089881893 1.5182827498878417 0.0
8.005498750177786 3.5178145479550644 0.0
8.00514225771873 5.5173747850261545 0.0
8.004791354561558 7.516962443098521 0.0
8.00444578371137 9.516576549899005 0.0
8.004105289046452 11.516216178693531 0.0
8.003769615237363 13.515880448113963 0.0
8.003438507661533 15.515568522003797 0.0
8.003111712314618 17.515279609282643 0.0
8.002788975719849 19.515012963830785 0.0
8.002470044836526 21.514767884393653 0.0
8.002154666968796 23.51454371450653 0.0
8.001842589675618 25.514339842439107 0.0
8.001533560683049 27.514155701159197 0.0
8.001227327799539 29.51399076831566 0.0
8.000923638835186 31.51384456623903 0.0
8.000622241525628 33.51371666195952 0.0
8.000322883461214 35.513606667239785 0.0
8.000025312022089 37.513514238613745 0.0
7.999729274319669 39.513439077477855 0.0
7.999434517145007 41.51338093013952 0.0
7.999140786924366 43.51333958790445 0.0
7.998847829682387 45.513314887171894 0.0
7.998555391013067 47.51330670953447 0.0
7.998263216058752 49.51331498188309 0.0
7.99797104949728 51.513339676515834 0.0
7.997678635537366 53.51338081124836 0.0
7.997385717922252 55.51343844952466 0.0
7.997092039941546 57.51351270052575 0.0
7.996797344451242 59.51360371927535 0.0
7.996501373901715 61.51371170673995 0.0
7.996203870373523 63.513836909919824 0.0
7.995904575620768 65.51397962193039 0.0
7.995603231121691 67.51414018210116 0.0
7.995299578136165 69.51431897601009 0.0
7.994993357769645 71.51451643554327 0.0
7.994684311043073 73.51473303893056 0.0
7.994372178968237 75.51496931076522 0.0
7.994056702627925 77.51522582200681 0.0
7.993737623260201 79.5155031899658 0.0
7.993414682346057 81.51580207827024 0.0
7.993087621699628 83.51612319681237 0.0
7.992756183560007 85.5164673016758 0.0
7.9924201106837565 87.51683519504228 0.0
7.992079146437002 89.51722772507833 0.0
7.9917330348860185 91.5176457858018 0.0
7.9913815208850405 93.51809031692876 0.0
7.991024350160078 95.51856230370124 0.0
7.990661269387359 97.51906277669711 0.0
10.007321448150822 1.5187016898124819 0.0
10.00686873129 3.5182344405541746 0.0
10.006423322279508 5.5177955898793005 0.0
10.005984898775317 7.517384120283711 0.0
10.005553139628658 9.516999059951168 0.0
10.005127724790293 11.516639482558647 0.0
10.004708335207583 13.516304507099624 0.0
10.004294652715982 15.515993297727315 0.0
10.003886359926566 17.515705063617215 0.0
10.003483140111182 19.51543905885075 0.0
10.003084677086576 21.515194582319427 0.0
10.002690655098968 23.514970977649984 0.0
10.002300758710295 25.514767633149923 0.0
10.001914672687331 27.514583981772997 0.0
10.001532081894794 29.514419501104125 0.0
10.001152671193429 31.51427371336287 0.0
10.000776125344007 33.51414618542424 0.0
10.000402128918026 35.51403652885506 0.0
10.00003036621591 37.51394439995664 0.0
9.999660521193261 39.51386949985988 0.0
9.99929227739584 41.51381157457798 0.0
9.998925317903625 43.51377041509854 0.0
9.998559325284466 45.51374585748333 0.0
9.99819398155756 47.51373778297273 0.0
9.997828968166985 49.5137461180958 0.0
9.997463965965656 51.513770834783756 0.0
9.997098655209394 53.51381195048555 0.0
9.996732715561624 55.513869528283415 0.0
9.99636582610828 57.513943677006516 0.0
9.995997665383003 59.51403455134122 0.0
9.995627911402384 61.514142351936194 0.0
9.99525624171106 63.51426732549774 0.0
9.994882333436298 65.51440976487584 0.0
9.994505863351685 67.51457000916656 0.0
9.994126507949591 69.51474844375122 0.0
9.99374394352169 71.51494550035946 0.0
9.993357846247072 73.51516165710825 0.0
9.992967892287233 75.51539743852463 0.0
9.992573757887156 77.51565341555117 0.0
9.99217511948165 79.51593020553292 0.0
9.991771653806023 81.51622847218582 0.0
9.991363038009997 83.51654892554437 0.0
9.990948949773834 85.51689232188944 0.0
9.99052906742537 87.51725946365525 0.0
9.990103070056616 89.51765119931491 0.0
9.989670637638671 91.51806842324571 0.0
9.989231451133202 93.51851207557361 0.0
9.98878519259906 95.5189831419978 0.0
9.988331545292231 97.51948265359657 0.0
12.008778531089044 1.5192134709734577 0.0
12.008235575531819 3.5187473858859066 0.0
12.007701387615127 5.518309650003322 0.0
12.007175580652502 7.517899246436812 0.0
12.00665776940625 9.517515203933604 0.0
12.006147569969908 11.517156596677033 0.0
12.005644599642 13.516822544105649 0.0
12.005148476793288 15.516512210753332 0.0
12.00465882072936 17.516224806109665 0.0
12.004175251550524 19.515959584502458 0.0
12.003697390010577 21.515715845001548 0.0
12.003224857376313 23.515492931344664 0.0
12.002757275289122 25.515290231884187 0.0
12.00229426563024 27.515107179554743 0.0
12.00183545039087 29.514943251860803 0.0
12.001380451548542 31.51479797088346 0.0
12.000928890950599 33.51467090330511 0.0
12.000480390205924 35.51456166044978 0.0
12.000034570585823 37.51446989833099 0.0
11.999591052934697 39.51439531775116 0.0
11.999149457591244 41.51433766436023 0.0
11.99870940432084 43.51429672875294 0.0
11.998270512259401 45.51427234657442 0.0
11.997832399869187 47.51426439863061 0.0
11.997394684906915 49.51427281100399 0.0
11.996956984404205 51.514297555173435 0.0
11.99651891466062 53.514338648135556 0.0
11.996080091249215 55.514396152526444 0.0
11.995640129034722 57.51447017674114 0.0
11.995198642203958 59.51456087505008 0.0
11.994755244308575 61.514668447709546 0.0
11.994309548319587 63.514793141062995 0.0
11.993861166693472 65.51493524763244 0.0
11.993409711449285 67.51509510622554 0.0
11.992954794256393 69.5152731019802 0.0
11.992496026532038 71.51546966643198 0.0
11.992033019548055 73.51568527755757 0.0
11.991565384546108 75.51592045980077 0.0
11.991092732860201 77.51617578408171 0.0
11.99061467604581 79.51645186778653 0.0
11.990130826014228 81.51674937473763 0.0
11.989640795171024 83.51706901514318 0.0
11.989144196557323 85.51741154552583 0.0
11.988640643992285 87.5177777686292 0.0
11.988129752215276 89.51816853330318 0.0
11.987611137026182 91.51858473436714 0.0
11.987084415421656 93.51902731245173 0.0
11.986549205725815 95.51949725381968 0.0
11.986005127713048 97.51999559016659 0.0
14.010231684441242 1.5198179394961029 0.0
14.009598656286357 3.519353229947844 0.0
14.008975854573125 5.518916811282957 0.0
14.00836282834446 7.5185076673482065 0.0
14.00775912835351 9.518124827563781 0.0
14.007164306922558 11.517767366717077 0.0
14.006577917792145 13.517434404776939 0.0
14.00599951596256 15.5171251067301 0.0
14.00542865753024 17.516838682439193 0.0
14.004864899521088 19.516574386523867 0.0
14.00430779972273 21.516331518264554 0.0
14.003756916517792 23.516109421528867 0.0
14.003211808719938 25.515907484720273 0.0
14.002672035414193 27.51572514074807 0.0
14.002137155803394 29.515561867018317 0.0
14.00160672906188 31.51541718544455 0.0
14.001080314197887 33.515290662477135 0.0
14.000557469925747 35.51518190914852 0.0
14.000037754548787 37.5150905811269 0.0
13.999520725854076 39.51501637882131 0.0
13.999005941019487 41.51495904744681 0.0
13.99849295653398 43.514918377128176 0.0
13.997981328131516 45.51489420301251 0.0
13.997470610739038 47.514886405386356 0.0
13.996960358438887 49.51489490979878 0.0
13.996450124445886 51.514919687188154 0.0
13.995939461099116 53.51496075401082 0.0
13.995427919868565 55.51501817236986 0.0
13.994915051376523 57.51509205014184 0.0
13.994400405433476 59.5151825411 0.0
13.993883531088452 61.515289845031795 0.0
13.993363976693288 63.51541420784673 0.0
13.992841289980586 65.51555592167426 0.0
13.992315018154557 67.51571532497675 0.0
13.991784707994496 69.51589280259999 0.0
13.991249905969813 71.5160887858465 0.0
13.990710158366046 73.5163037525233 0.0
13.990165011420782 75.5165382269731 0.0
13.989614011468486 77.51679278008699 0.0
13.98905670509303 79.51706802929762 0.0
13.98849263928672 81.51736463855222 0.0
13.98792136161416 83.51768331826395 0.0
13.987342420379754 85.51802482524144 0.0
13.986755364796675 87.51838996259585 0.0
13.98615974515601 89.51877957962495 0.0
13.985555112993502 91.51919457167439 0.0
13.984941021252244 93.51963587997653 0.0
13.984317024438809 95.52010449146674 0.0
13.983682678770425 97.52060143857825 0.0
16.0116802544023 1.5205149135664755 0.0
16.010957347356516 3.5200517907730786 0.0
16.010246124384302 5.519616891616211 0.0
16.00954607034437 7.519209200802912 0.0
16.008856672076117 9.518827748539312 0.0
16.008177418233245 11.518471610317343 0.0
16.007507799106442 13.518139906723384 0.0
16.006847306437635 15.51783180327069 0.0
16.006195433228385 17.5175465102547 0.0
16.00555167354534 19.51728328263275 0.0
16.004915522324506 21.517041419927747 0.0
16.00428647517707 23.51682026615559 0.0
16.00366402819856 25.5166192097759 0.0
16.003047677783336 27.51643768366504 0.0
16.00243692044623 29.516275165110958 0.0
16.001831252652767 31.516131175828633 0.0
16.001230170659674 33.516005281994744 0.0
16.000633170366736 35.51589709429894 0.0
16.000039747181315 37.51580626800412 0.0
15.999449395896477 39.5157325030583 0.0
15.998861610583559 41.51567554416728 0.0
15.998275884499984 43.515635180906116 0.0
15.99769171001298 45.51561124783942 0.0
15.99710857853945 47.51560362464681 0.0
15.996525980502676 49.515612236254 0.0
15.995943405305788 51.515637052967946 0.0
15.995360341322483 53.51567809061395 0.0
15.994776275904664 55.51573541067253 0.0
15.994190695407193 57.51580912041451 0.0
15.993603085229486 59.51589937303224 0.0
15.993012929873643 61.51600636776509 0.0
15.99241971301882 63.516130350015075 0.0
15.991822917611241 65.51627161145225 0.0
15.991222025969348 67.5164304901342 0.0
15.99061651990342 69.51660737056424 0.0
15.99000588084869 71.51680268377045 0.0
15.98938959001122 73.51701690735956 0.0
15.988767128525335 75.51725056555337 0.0
15.98813797762145 77.51750422920612 0.0
15.987501618803018 79.51777851580165 0.0
15.986857534031099 81.51807408942965 0.0
15.986205205914883 83.5183916607391 0.0
15.985544117906436 85.51873198686958 0.0
15.984873754497718 87.51909587135815 0.0
15.984193601417788 89.51948416402291 0.0
15.98350314582783 91.51989776082209 0.0
15.982801876511694 93.52033760368909 0.0
15.982089284059265 95.52080468034413 0.0
15.981364861039923 97.5213000240827 0.0
18.013123587700647 1.5213041834520244 0.0
18.012311023041978 3.520842858449849 0.0
18.011511598732653 5.520409680933133 0.0
18.010724735549214 7.520003636598663 0.0
18.009949856529527 9.519623756555438 0.0
18.00918638677913 11.519269117103489 0.0
18.008433753265468 13.518938839536375 0.0
18.0076913846028 15.5186320899691 0.0
18.006958710831157 17.51834807919056 0.0
18.006235163191846 19.518086062541904 0.0
18.005520173902394 21.517845339820145 0.0
18.004813175933347 23.517625255206994 0.0
18.004113602789246 25.51742519722208 0.0
18.003420888295985 27.517244598699545 0.0
18.00273446639653 29.517082936787524 0.0
18.002053770956728 31.516939732969064 0.0
18.001378235582933 33.51681455310303 0.0
18.00070729345289 35.5167070074822 0.0
18.000040377160964 37.51661675090134 0.0
17.999376918579273 39.51654348277672 0.0
17.99871634873517 41.51648694722741 0.0
17.998058097706238 43.51644693319564 0.0
17.99740159453343 45.51642327457605 0.0
17.996746267152727 47.51641585035027 0.0
17.996091542345827 49.51642458472762 0.0
17.995436845710092 51.51644944728953 0.0
17.994781601648054 53.51649045313615 0.0
17.994125233376128 55.51654766303275 0.0
17.993467162953 57.516621183554065 0.0
17.99280681132691 59.51671116722482 0.0
17.99214359840197 61.51681781265411 0.0
17.99147694312286 63.51694136466006 0.0
17.990806263577415 65.5170821143837 0.0
17.99013097711649 67.51724039941598 0.0
17.98945050049026 69.5174166038646 0.0
17.98876425000009 71.51761115843976 0.0
17.98807164166499 73.51782454051512 0.0
17.987372091401284 75.51805727417013 0.0
17.986665015214474 77.51830993021285 0.0
17.985949829401594 79.51858312618182 0.0
17.985225950762395 81.51887752632592 0.0
17.98449279681776 83.5191938415608 0.0
17.983749786033204 85.51953282940175 0.0
17.9829963380452 87.51989529387122 0.0
17.982231873888242 89.52028208538127 0.0
17.98145581621984 91.52069410059084 0.0
17.980667589540765 93.5211322822369 0.0
17.979866620407748 95.52159761894048 0.0
17.97905233763515 97.52209114498808 0.0
20.014561031685464 1.522185511526704 0.0
20.013659058219808 3.5217261951455248 0.0
20.012771679828262 5.521294941218833 0.0
20.01189825332423 7.520890736568054 0.0
20.01103813807446 9.52051261332643 0.0
20.010190695775748 11.520159648709166 0.0
20.009355290218327 13.519830964809113 0.0
20.00853128703958 15.519525728420072 0.0
20.007718053471077 17.519243150886002 0.0
20.006914958082636 19.518982487978175 0.0
20.00612137052586 21.518743039798967 0.0
20.00533666128036 23.518524150712466 0.0
20.004560201405013 25.5183252093006 0.0
20.003791362296795 27.518145648344102 0.0
20.003029515459325 29.517984944827273 0.0
20.002274032283093 31.517842619965165 0.0
20.001524283839327 33.51771823925177 0.0
20.000779640688823 35.51761141252586 0.0
20.000039472707385 37.517521794047795 0.0
19.999303148929133 39.51744908262796 0.0
19.998570037408385 41.517393021717744 0.0
19.99783950510155 43.517353399539815 0.0
19.997110917769202 45.517330049227546 0.0
19.996383639899246 47.51732284897013 0.0
19.99565703465162 49.517331722163576 0.0
19.99493046382451 51.517356637566124 0.0
19.99420328784259 53.51739760945514 0.0
19.993474865767077 55.51745469778436 0.0
19.992744555327636 57.51752800833868 0.0
19.992011712975806 59.51761769288497 0.0
19.99127569395967 61.51772394931672 0.0
19.990535852419256 63.51784702178857 0.0
19.989791541502225 65.51798720083964 0.0
19.98904211349878 67.51814482352974 0.0
19.988286919995446 69.51832027351487 0.0
19.98752531204635 71.51851398114167 0.0
19.98675664036086 73.51872642351543 0.0
19.98598025550675 75.51895812454977 0.0
19.9851955081268 77.51920965499558 0.0
19.984401749167727 79.51948163244813 0.0
19.983598330119396 81.5197747213316 0.0
19.982784603262385 83.52008963285854 0.0
19.981959921921717 85.52042712496493 0.0
19.981123640724334 87.5207880022186 0.0
19.98027511585771 89.52117311570109 0.0
19.979413705326742 91.52158336286243 0.0
19.978538769205976 93.52201968734839 0.0
19.977649669883643 95.52248307880099 0.0
19.976745772294286 97.52297457263172 0.0
22.015991934416448 1.523158632301174 0.0
22.015000828426896 3.522701535135493 0.0
22.014025770481563 5.52227240654125 0.0
22.013066053568323 7.521870234605412 0.0
22.012120973532884 9.521494052611704 0.0
22.011189828823003 11.521142938801317 0.0
22.010271920218823 13.520816016161435 0.0
22.00936655055257 15.520512452243377 0.0
22.008473024421736 17.520231459008812 0.0
22.007590647899242 19.51997229270561 0.0
22.00671872824379 21.51973425377223 0.0
22.005856573613595 23.51951668677046 0.0
22.00500349278615 25.519318980345155 0.0
22.004158794887143 27.519140567210165 0.0
22.003321789130283 29.51898092415924 0.0
22.002491784570882 31.518839572100454 0.0
22.001668089874656 33.518716076112526 0.0
22.00085001310375 35.51861004551945 0.0
22.000036861521497 37.51852113397737 0.0
21.999227941417075 39.51844903961271 0.0
21.998422557951493 41.51839350512424 0.0
21.997620015025614 43.51835431792435 0.0
21.996819615170978 45.51833131028995 0.0
21.996020659464293 47.51832435951909 0.0
21.99522244746574 49.518333388093794 0.0
21.99442427718153 51.518358363847256 0.0
21.99362544505097 53.518399300132565 0.0
21.99282524595775 55.51845625599186 0.0
21.992022973265687 57.518529336322516 0.0
21.99121791887841 59.51861869203976 0.0
21.99040937332279 61.51872452023243 0.0
21.989596625855437 63.51884706430847 0.0
21.988778964591823 65.51898661412933 0.0
21.987955676657098 67.51914350615544 0.0
21.987126048357734 69.51931812353241 0.0
21.986289365372986 71.51951089619433 0.0
21.985444912964894 73.51972230094057 0.0
21.98459197620542 75.5199528614932 0.0
21.983729840219276 77.52020314853284 0.0
21.982857790440544 79.52047377971222 0.0
21.981975112881248 81.52076541964554 0.0
21.98108109440962 83.52107877987201 0.0
21.980175023035738 85.52141461879351 0.0
21.979256188201973 87.52177374158404 0.0
21.9783238810752 89.52215700007135 0.0
21.977377394837763 91.52256529258938 0.0
21.976416024973965 93.52299956380169 0.0
21.975439069548102 95.52346080449556 0.0
21.974445829470564 97.5239500513471 0.0
24.017415644758245 1.524223252458703 0.0
24.016335709946436 3.5237685848376414 0.0
24.01527327418101 5.523341783084415 0.0
24.014227566782225 7.522941836698985 0.0
24.013197820246 9.522567780247073 0.0
24.012183269953 11.522218693110823 0.0
24.0111831538626 13.521893699269619 0.0
24.01019671219622 15.521591967113043 0.0
24.009223187114003 17.521312709283997 0.0
24.008261822388736 19.521055182553503 0.0
24.00731186308075 21.520818687726106 0.0
24.006372555217084 23.520602569575193 0.0
24.00544314547815 25.52040621680714 0.0
24.004522880894665 27.520229062052884 0.0
24.00361100855763 29.520070581885925 0.0
24.00270677534362 31.51993029686493 0.0
24.001809427657506 33.51980777159926 0.0
24.000918211194602 35.519702614833584 0.0
24.000032370723744 37.51961447954572 0.0
23.999151149892853 39.5195430630959 0.0
23.99827379105806 41.51948810734102 0.0
23.99739953513755 43.51944939878811 0.0
23.99652762149082 45.519426768758 0.0
23.995657287824073 47.51942009355455 0.0
23.99478777012208 49.5194292946407 0.0
23.993918302606986 51.519454338818484 0.0
23.993048117724115 53.51949523841107 0.0
23.992176446154723 55.51955205144453 0.0
23.991302516855683 57.5196248818272 0.0
23.990425557125754 59.51971387952472 0.0
23.989544792698027 61.51981924072837 0.0
23.98865944785802 63.519941208012575 0.0
23.98776874558679 65.5200800704814 0.0
23.986871907728066 67.52023616392437 0.0
23.985968155178654 69.52040987091456 0.0
23.98505670810087 71.52060162092177 0.0
23.984136786155638 73.52081189039883 0.0
23.98320760875497 75.5210412028478 0.0
23.98226839533192 77.52129012886408 0.0
23.981318365626336 79.5215592861566 0.0
23.980356739984227 81.52184933954322 0.0
23.979382739668452 83.52216100091886 0.0
23.97839558717809 85.52249502919615 0.0
23.977394506573784 87.52285223021698 0.0
23.9763787238058 89.52323345663358 0.0
23.975347467041512 91.52363960775922 0.0
23.97429996698862 93.52407162938758 0.0
23.973235457210166 95.52453051358032 0.0
23.972153174426868 97.52501729842368 0.0
26.018831512479334 1.5253790508975542 0.0
26.017663079898135 3.5249270228531557 0.0
26.016513595173706 5.524502749187902 0.0
26.015382224138833 7.5241052209692745 0.0
26.0142681361342 9.52373347418219 0.0
26.01317050367889 11.523386589468968 0.0
26.012088502125035 13.523063691902209 0.0
26.011021309301697 15.522763950792413 0.0
26.009968105152215 17.52248657952811 0.0
26.008928071369382 19.522230835450003 0.0
26.007900391032397 21.5219960197577 0.0
26.006884248249317 23.52178147744849 0.0
26.005878827808445 25.521586597286444 0.0
26.004883314841653 27.52141081180069 0.0
26.00389689450274 29.521253597311375 0.0
26.002918751662964 31.521114473981594 0.0
26.001948070626543 33.520993005893175 0.0
26.000984034867695 35.52088880114251 0.0
26.00002582679123 37.52080151195064 0.0
25.999072627518014 39.520730834824654 0.0
25.99812361669686 41.52067651068563 0.0
25.997177972343554 43.52063832503551 0.0
25.996234870708147 45.52061610813454 0.0
25.995293486171 47.52060973518477 0.0
25.994352991168107 49.520619126520224 0.0
25.993412556145987 51.5206442478012 0.0
25.99247134954633 53.520685110210486 0.0
25.991528537820308 55.52074177064949 0.0
25.990583285472407 57.52081433193143 0.0
25.98963475513354 59.5209029429703 0.0
25.988682107662907 61.52100779896268 0.0
25.98772450227816 63.52112914155872 0.0
25.986761096712925 65.52126725902126 0.0
25.985791047401076 67.5214224863939 0.0
25.98481350968654 69.52159520561146 0.0
25.983827638057534 71.52178584562414 0.0
25.982832586403802 73.52199488249455 0.0
25.981827508295453 75.52222283947383 0.0
25.980811557281374 77.5224702870544 0.0
25.979783887205535 79.52273784299828 0.0
25.978743652538725 81.523026172339 0.0
25.977690008723375 83.5233359873553 0.0
25.97662211252867 85.52366804751561 0.0
25.975539122412982 87.52402315939162 0.0
25.974440198890115 89.52440217654004 0.0
25.973324504895952 91.52480599935139 0.0
25.97219120615132 93.5252355748654 0.0
25.97103947151678 95.52569189655239 0.0
25.969868473334913 97.52617600406047 0.0
28.02023888835931 1.5266256787807202 0.0
28.01898231633588 3.526176500014535 0.0
28.017746138552646 5.525754955393388 0.0
28.016529457559532 7.525360037714356 0.0
28.015331379761765 9.524990784524713 0.0
28.014151015048103 11.524646277850778 0.0
28.01298747640283 13.524325643962522 0.0
28.01183987950689 15.524028053175902 0.0
28.010707342332843 17.52375271969028 0.0
28.0095889847384 19.523498901462194 0.0
28.00848392806289 21.523265900114254 0.0
28.0073912947306 23.52305306087784 0.0
28.00631020786459 25.522859772568268 0.0
28.005239790914597 27.522685467590648 0.0
28.00417916730176 29.5225296219749 0.0
28.003127460083213 31.522391755438154 0.0
28.002083791638725 33.522271431472184 0.0
28.001047283381563 35.522168257451355 0.0
28.000017055495597 37.52208188475646 0.0
27.998992226699965 39.522012008949744 0.0
27.997971914042886 41.52195836991734 0.0
27.996955232725536 43.521920752051244 0.0
27.995941295956847 45.52189898444174 0.0
27.994929214840003 47.521892941076345 0.0
27.993918098291058 49.52190254104541 0.0
27.992907052989917 51.521927748752006 0.0
27.991895183363813 53.52196857412356 0.0
27.99088159160329 55.522025072823304 0.0
27.989865377710462 57.52209734645879 0.0
27.98884563957925 59.522185542785756 0.0
27.987821473107108 61.52228985590467 0.0
27.986791972337556 63.522410526446244 0.0
27.985756229632944 65.52254784174447 0.0
27.984713335876275 67.52270213601773 0.0
27.98366238070132 69.52287379049308 0.0
27.98260245274955 71.52306323354229 0.0
27.98153263995252 73.52327094079081 0.0
27.980452029838155 75.5234974352045 0.0
27.97935970985907 77.52374328715273 0.0
27.97825476774075 79.524009114445 0.0
27.977136291847486 81.524295582341 0.0
27.97600337156313 83.52460340353025 0.0
27.974855097684056 85.52493333808137 0.0
27.973690562820998 87.52528619335853 0.0
27.972508861806112 89.52566282390414 0.0
27.97130909210152 91.52606413128649 0.0
27.970090354204878 93.52649106391124 0.0
27.968851752047463 95.52694461679651 0.0
27.967592393379704 97.52742583131102 0.0
30.021637124299758 1.5279627595939216 0.0
30.020292798347995 3.527516639441755 0.0
30.018970310345757 5.527098024499255 0.0
30.017668699791454 7.526705909463155 0.0
30.01638701040212 9.526339333592563 0.0
30.015124289695294 11.525997380426237 0.0
30.013879588554754 13.525679177538885 0.0
30.012651960785163 15.525383896338361 0.0
30.011440462661465 17.52511075190057 0.0
30.010244152477657 19.524859002843645 0.0
30.009062090099864 21.5246279512395 0.0
30.00789333652803 23.524416942561558 0.0
30.006736953469815 25.524225365666776 0.0
30.005592002930975 27.524052652810326 0.0
30.00445754682467 29.52389827969089 0.0
30.003332646603315 31.523761765524718 0.0
30.002216362915018 33.523642673145865 0.0
30.001107755287133 35.52354060912797 0.0
30.000005881838778 37.52345522392294 0.0
29.998909799023902 39.52338621205081 0.0
29.997818561406348 41.52333331225852 0.0
29.996731221467975 43.52329630771779 0.0
29.995646829450724 45.523275026234245 0.0
29.994564433233307 47.5232693404629 0.0
29.993483078242903 49.523279168130536 0.0
29.9924018074022 51.52330447226247 0.0
29.991319661111863 53.5233452614107 0.0
29.990235677268295 55.52340158988205 0.0
29.989148891316557 57.52347355796307 0.0
29.98805833633808 59.52356131214 0.0
29.986963043172587 61.52366504531128 0.0
29.98586204057366 63.52378499698855 0.0
29.984754355397136 65.52392145348493 0.0
29.983639012821335 67.52407474811031 0.0
29.982515036598187 69.52424526131031 0.0
29.981381449333732 71.5244334208157 0.0
29.980237272796792 73.52463970176403 0.0
29.979081528253896 75.52486462679862 0.0
29.977913236828787 77.5251087661422 0.0
29.97673141988421 79.52537273764402 0.0
29.975535099423503 81.52565720679816 0.0
29.97432329850955 83.52596288673053 0.0
29.97309504169766 85.52629053815377 0.0
29.971849355479314 87.52664096928741 0.0
29.97058526873276 89.52701503574225 0.0
29.969301813176468 91.52741364036703 0.0
29.967998023820794 93.5278377330571 0.0
29.96667293941283 95.52828831052305 0.0
29.965325602869196 97.52876641601955 0.0
32.02302557343909 1.5293898892129778 0.0
32.02159390616068 3.5289470366076583 0.0
32.02018551760706 5.528531551624318 0.0
32.01879938448592 7.528142431037777 0.0
32.01743448810325 9.52777871597494 0.0
32.01608981389483 11.52743949162027 0.0
32.014764350941256 13.527123886963752 0.0
32.01345709147248 15.526831074593183 0.0
32.01216703036793 17.526560270527163 0.0
32.01089316465722 19.526310734090302 0.0
32.00963449302694 21.52608176782833 0.0
32.008390015337646 23.525872717461844 0.0
32.00715873215566 25.525682971876407 0.0
32.00593964430335 27.52551196314718 0.0
32.0047317524314 29.525359166595873 0.0
32.0035340566159 31.525224100877864 0.0
32.00234555598335 33.525106328096655 0.0
32.0011652483655 35.525005453940835 0.0
31.999992129986357 37.524921127839 0.0
31.99882519518266 39.52485304316622 0.0
31.997663436159634 41.52480093741998 0.0
31.996505842782913 43.52476459243596 0.0
31.995351402407387 45.52474383461475 0.0
31.994199099743916 47.52473853515548 0.0
31.993047916764027 49.524748610296164 0.0
31.99189683264297 51.524774021558486 0.0
31.990744823741295 53.52481477599397 0.0
31.989590863624557 55.52487092642977 0.0
31.988433923121235 57.524942571711286 0.0
31.987272970418143 59.52502985693925 0.0
31.986106971193113 61.525132973699485 0.0
31.984934888783986 63.52525216028037 0.0
31.983755684393323 65.52538770187776 0.0
31.982568317327683 67.52553993080535 0.0
31.981371745270582 69.52570922664947 0.0
31.980164924587584 71.52589601643321 0.0
31.978946810662105 73.52610077475187 0.0
31.977716358260462 75.52632402388487 0.0
31.97647252192375 77.52656633388203 0.0
31.975214256384906 79.52682832262148 0.0
31.973940517007897 81.52711065583759 0.0
31.972650260246738 83.52741404711666 0.0
31.971342444120687 85.52773925785834 0.0
31.970016028702524 87.5280870972003 0.0
31.96866997661553 89.5284584219052 0.0
31.967303253535086 91.52885413620771 0.0
31.965914828689968 93.52927519162009 0.0
31.964503675357847 95.52972258669529 0.0
31.963068771349544 97.53019736674666 0.0
34.02440359027697 1.5309066359816859 0.0
34.022885021249685 3.5304672594137614 0.0
34.021391168515024 5.530055104281879 0.0
34.01992094628307 7.52966916962608 0.0
34.018473273758715 9.529308498603717 0.0
34.017047074618006 11.528972178182977 0.0
34.01564127646812 13.52865933888273 0.0
34.014254810297736 15.528369154560293 0.0
34.0128866099238 17.528100842243166 0.0
34.01153561144083 19.527853662006123 0.0
34.01020075267786 21.52762691689094 0.0
34.00888097266815 23.527419952867294 0.0
34.00757521113593 25.527232158832287 0.0
34.006282408004495 27.527062966646415 0.0
34.00500150292905 29.52691185120355 0.0
34.00373143485761 31.526778330532675 0.0
34.00247114162288 33.52666196592812 0.0
34.00121955956703 35.52656236210311 0.0
33.999975623202275 37.52647916736269 0.0
33.998738264907885 39.52641207382786 0.0
33.997506414666034 41.526360817630675 0.0
33.99627899983686 43.52632517914896 0.0
33.995054944974 45.526304983252224 0.0
33.99383317168101 47.52630009955462 0.0
33.992612598509 49.52631044267479 0.0
33.99139214089582 51.52633597249961 0.0
33.990170711146746 53.526376694449894 0.0
33.988947218456524 55.52643265974487 0.0
33.987720568972335 57.5265039656636 0.0
33.98648966589757 59.52659075580066 0.0
33.98525340963546 61.52669322031389 0.0
33.98401069797211 63.5268115961597 0.0
33.98276042629816 65.52694616731563 0.0
33.98150148786785 67.52709726500693 0.0
33.980232774094425 69.52726526787868 0.0
33.97895317488092 71.5274506021752 0.0
33.97766157898421 73.52765374189097 0.0
33.9763568744111 75.52787520889682 0.0
33.97503794884446 77.52811557303937 0.0
33.973703690096734 79.52837545221159 0.0
33.9723529865889 81.5286555123917 0.0
33.9709847278515 83.5289564676482 0.0
33.96959780504464 85.52927908010923 0.0
33.96819111149345 87.52962415989313 0.0
33.96676354323452 89.52999256499905 0.0
33.96531399956909 91.53038520115467 0.0
33.963841383617606 93.53080302162009 0.0
33.96234460287014 95.53124702694578 0.0
33.96082256972653 97.53171826468365 0.0
36.02577053080535 1.5325125408015554 0.0
36.02416552645729 3.5320768482777902 0.0
36.02258667247516 5.531668222465429 0.0
36.02103282089978 7.531285664865816 0.0
36.01950282918048 9.530928220836172 0.0
36.01799555959113 11.530594979271218 0.0
36.01650987863033 13.530285072335127 0.0
36.01504465641289 15.529997675245513 0.0
36.013598766059445 17.529732006104684 0.0
36.01217108309038 19.529487325779613 0.0
36.01076048482945 21.52926293782761 0.0
36.00936584982304 23.52905818846559 0.0
36.00798605727917 25.528872466580598 0.0
36.006619986530886 27.52870520377858 0.0
36.00526651652761 29.528555874469134 0.0
36.003924525357995 31.528423995983292 0.0
36.002592889806884 33.528309128721304 0.0
36.00127048494926 35.52821087632448 0.0
35.999956183782764 37.52812888586743 0.0
35.99864885690092 39.52806284810194 0.0
35.997347372208104 41.528012497672265 0.0
35.996050594677556 43.527977613370496 0.0
35.994757386153246 45.52795801840311 0.0
35.99346660519573 47.52795358066451 0.0
35.992177106972875 49.5279642130177 0.0
35.99088774319522 51.5279898735784 0.0
35.98959736209594 53.528030566001206 0.0
35.988304808455354 55.528086339764194 0.0
35.98700892366951 57.52815729045015 0.0
35.98570854586242 59.528243560021934 0.0
35.98440251004134 61.52834533708927 0.0
35.98308964829428 63.52846285716343 0.0
35.98176879002916 65.52859640289792 0.0
35.98043876225333 67.52874630433294 0.0
35.97909838989244 69.52891293908557 0.0
35.97774649614756 71.52909673254621 0.0
35.9763819028886 73.52929815804563 0.0
35.97500343108288 75.52951773699697 0.0
35.973609901256566 77.52975603900983 0.0
35.972200133986576 79.53001368197445 0.0
35.97077295042096 81.53029133211315 0.0
35.96932717282425 83.53058970399613 0.0
35.967861625144685 85.53090956051996 0.0
35.966375133599605 87.53125171284542 0.0
35.96486652727464 89.5316170202928 0.0
35.963334638731894 91.53200639019184 0.0
35.961778304621866 93.53242077768465 0.0
35.96019636629313 95.53286118547959 0.0
35.958587670393214 97.53332866355386 0.0
38.027125752646626 1.534207117234781 0.0
38.02543480611522 3.5337753162343652 0.0
38.02377144022701 5.533370418747423 0.0
38.02213444522068 7.532991428941828 0.0
38.020522617174294 9.532637394550852 0.0
38.018934757355474 11.532307406543117 0.0
38.01736967155668 13.532000598847201 0.0
38.0158261694231 15.531716148132546 0.0
38.014303063780496 17.5314532736414 0.0
38.01279916996965 19.53121123707283 0.0
38.01131330519329 21.53098934251574 0.0
38.00984428788138 23.530786936428203 0.0
38.008390937079476 25.530603407660433 0.0
38.00695207186493 27.53043818751824 0.0
38.00552651079449 29.53029074986414 0.0
38.004113071387096 31.530160611253244 0.0
38.00271056964487 33.530047331100135 0.0
38.00131781961421 35.52995051187077 0.0
37.9999336329899 37.52986979929593 0.0
37.9985568187633 39.529804882636164 0.0
37.99718618291618 41.52975549491923 0.0
37.995820528161246 43.52972141321736 0.0
37.9944586537299 45.52970245893595 0.0
37.993099355207775 47.529698498109276 0.0
37.991741424418485 49.5297094417028 0.0
37.99038364935515 51.52973524591955 0.0
37.989024814160025 53.529775912507304 0.0
37.98766369915175 55.52983148906485 0.0
37.986299080899826 57.52990206934396 0.0
37.9849297323458 59.52998779354556 0.0
37.98355442297061 61.53008884860681 0.0
37.982171919007094 63.530205468475764 0.0
37.98078098369729 65.53033793437183 0.0
37.979380377593024 67.53048657504897 0.0
37.97796885889899 69.53065176700517 0.0
37.97654518385709 71.5308339346969 0.0
37.975108107170385 73.53103355072409 0.0
37.973656382465045 75.5312511359887 0.0
37.97218876278874 77.53148725982533 0.0
37.97070400114241 79.53174254010014 0.0
37.96920085104401 81.53201764327619 0.0
37.967678067120254 83.53231328444204 0.0
37.96613440572369 85.53263022730042 0.0
37.96456862557087 87.53296928411497 0.0
37.96297948839752 89.53333131561178 0.0
37.961365759625465 91.5337172308329 0.0
37.959726209036134 93.53412798693955 0.0
37.958059611444035 95.53456458896285 0.0
37.956364747363544 97.53502808949939 0.0
40.02846861519923 1.5359898516220296 0.0
40.02669224617348 3.5355621490504263 0.0
40.024944883956 5.535161178392748 0.0
40.02322525739285 7.5347859466978475 0.0
40.02153210161732 9.534435504257932 0.0
40.01986415732833 11.534108944267198 0.0
40.0182201700552 13.533805402539953 0.0
40.01659888941697 15.533524057289359 0.0
40.01499906838363 17.53326412896134 0.0
40.01341946254684 19.533024880124195 0.0
40.011858829406236 21.532805615410524 0.0
40.010315927677325 23.532605681508365 0.0
40.00878951662623 25.53242446719857 0.0
40.007278355435815 27.532261403434774 0.0
40.00578120260759 29.532115963462925 0.0
40.004296815402505 31.531987662977066 0.0
40.002823949324 33.5318760603073 0.0
40.0013613576456 35.53178075663365 0.0
39.99990779098529 37.53170139622255 0.0
39.998461996928 39.53163766671451 0.0
39.99702271969793 41.53158929938538 0.0
39.995588699881075 43.53155606944709 0.0
39.99415867419905 45.53153779636002 0.0
39.99273137533413 47.531534344151915 0.0
39.99130553180601 49.53154562174382 0.0
39.98987986790003 51.531571583279 0.0
39.98845310364652 53.531612228453184 0.0
39.98702395485118 55.531667602842965 0.0
39.98559113317591 57.531737798229905 0.0
39.98415334626925 59.531822952918304 0.0
39.982709297946336 61.53192325204378 0.0
39.981257688416946 63.532038927868925 0.0
39.979797214561444 65.53217026006448 0.0
39.97832657025308 67.5323175759925 0.0
39.976844446726055 69.53248125093619 0.0
39.97534953298785 71.53266170833373 0.0
39.973840516274635 73.53285941998226 0.0
39.972316082547884 75.5330749062147 0.0
39.970774917030795 77.53330873604793 0.0
39.9692157047817 79.5335615272984 0.0
39.96763713130299 81.53383394666304 0.0
39.96603788318134 83.53412670976148 0.0
39.96441664875716 85.5344405811378 0.0
39.9627721188185 87.53477637421707 0.0
39.96110298731554 89.53513495121514 0.0
39.95940795209017 91.53551722299711 0.0
39.95768571561526 93.53592414888291 0.0
39.95593498573694 95.53635673639573 0.0
39.95415447641277 97.53681604095192 0.0
42.029798479791424 1.5378602032167668 0.0
42.02793723433568 3.5374368053571157 0.0
42.02610641741019 5.537039959488602 0.0
42.02430469692415 7.536668675764703 0.0
42.02253074753835 9.53632200722591 0.0
42.02078324986558 11.535999049447701 0.0
42.019060889658846 13.535698940253111 0.0
42.01736235699648 15.535420859490658 0.0
42.015686345471984 17.53516402887167 0.0
42.01403155139636 19.534927711867255 0.0
42.01239667301977 21.534711213661 0.0
42.01078040977842 23.53451388115404 0.0
42.0091814615724 25.534335103018734 0.0
42.00759852807938 27.53417430979743 0.0
42.006030308108095 29.534030974042505 0.0
42.00447549899553 31.5339046104941 0.0
42.00293279605044 33.53379477629143 0.0
42.001400892046185 35.53370107121041 0.0
41.999878476764486 37.53362313792514 0.0
41.99836423659175 39.533560662320205 0.0
41.99685685416925 41.53351337377739 0.0
41.99535500809764 43.53348104550158 0.0
41.99385737269668 45.533463494858026 0.0
41.99236261782001 47.533460583716355 0.0
41.990869408725146 49.53347221880068 0.0
41.989376405998506 51.533498352042976 0.0
41.98788226553508 53.53353898093684 0.0
41.98638563857221 55.53359414888949 0.0
41.984885171777066 57.533663945568826 0.0
41.98337950738713 59.533748507243864 0.0
41.98186728340292 61.533848017115574 0.0
41.98034713383223 63.53396270563465 0.0
41.97881768898516 65.53409285080453 0.0
41.977277575818825 67.53423877848523 0.0
41.97572541833094 69.53440086264514 0.0
41.974159838001 71.53457952561519 0.0
41.97257945427786 73.534775238313 0.0
41.97098288511222 75.53498852043974 0.0
41.96936874753223 77.53521994064721 0.0
41.96773565826014 79.53547011667183 0.0
41.96608223436784 81.53573971543273 0.0
41.96440709396812 83.53602945308982 0.0
41.96270885693877 85.53634009505997 0.0
41.96098614567518 87.53667245598571 0.0
41.95923758586753 89.53702739965507 0.0
41.95746180729698 91.53740583886722 0.0
41.95565744464528 93.53780873524155 0.0
41.95382313831086 95.53823709896656 0.0
41.95195753522413 97.53869198848503 0.0
44.031114709843166 1.5398176043379501 0.0
44.0291691602008 3.5393987168000023 0.0
44.027255456021734 5.539006193092678 0.0
44.025372204784695 7.538639046706811 0.0
44.023518021200104 9.538296333626677 0.0
44.02169152632565 11.53797715196824 0.0
44.01989134667179 13.537680641687336 0.0
44.01811611330669 15.537405984358449 0.0
44.01636446096944 17.53715240301722 0.0
44.0146350271992 19.536919162066777 0.0
44.01292645148783 21.536705567243416 0.0
44.01123737446212 23.53651096563775 0.0
44.00956643710157 25.536334745767203 0.0
44.007912279996674 27.536176337695835 0.0
44.006273542651904 29.536035213197255 0.0
44.004648862837165 31.53591088595668 0.0
44.00303687599063 33.535802911807686 0.0
44.001436214675465 35.535710888995936 0.0
43.99984550809231 37.53563445846762 0.0
43.998263381648755 39.53557330420817 0.0
43.99668845658731 41.535527153556366 0.0
43.99511934967176 43.53549577755688 0.0
43.993554672932966 45.535478991324176 0.0
43.99199303347342 47.53547665441248 0.0
43.990433033331044 49.53548867119192 0.0
43.98887326940128 51.53551499122685 0.0
43.9873123334175 53.535555609654764 0.0
43.98574881198874 55.535610567562365 0.0
43.984181286694344 57.53567995235671 0.0
43.982608334234676 59.53576389812915 0.0
43.98102852663744 61.53586258600929 0.0
43.97944043151837 63.53597624450589 0.0
43.97784261239589 65.5361051498324 0.0
43.97623362905875 67.53624962623282 0.0
43.974612037985615 69.53641004625622 0.0
43.97297639281591 71.53658683103261 0.0
43.971325244870215 73.53678045051885 0.0
43.96965714371952 75.53699142371656 0.0
43.967970637801194 77.53722031885997 0.0
43.96626427508021 79.53746775357004 0.0
43.96453660375309 81.53773439497138 0.0
43.962786172992004 83.53802095976872 0.0
43.96101153372611 85.53832821427889 0.0
43.959211239455726 87.53865697441469 0.0
43.95738384709563 89.53900810561633 0.0
43.95552791784194 91.53938252272684 0.0
43.953642018056506 93.53978118980716 0.0
43.951724720162346 95.54020511988685 0.0
43.94977460354185 97.54065537464712 0.0
46.03241667103613 1.5418614605431469 0.0
46.030387415411276 3.541447288209665 0.0
46.02839141703335 5.541059283401723 0.0
46.026427223512 7.54069646318905 0.0
46.02449339018347 9.540357886700889 0.0
46.02258847913384 11.540042654755707 0.0
46.02071105821525 13.539749909566595 0.0
46.01885970006444 15.539478834522695 0.0
46.01703298113364 17.539228654039096 0.0
46.01522948074164 19.53899863347481 0.0
46.01344778015281 21.538788079113857 0.0
46.01168646169087 23.538596338205192 0.0
46.0099441078933 25.538422799056576 0.0
46.008219300711374 27.53826689117803 0.0
46.00651062076037 29.538128085470245 0.0
46.00481664662358 31.538005894453555 0.0
46.00313595421297 33.537899872532506 0.0
46.00146711618871 35.53780961628791 0.0
45.99980870143989 37.53773476479444 0.0
45.99815927462682 39.53767499998788 0.0
45.996517395786455 41.537630047008165 0.0
45.994881620000996 43.53759967458056 0.0
45.99325049712968 45.53758369540723 0.0
45.99162257160386 47.53758196656506 0.0
45.989996382284815 49.53759438990842 0.0
45.988370462383564 51.53762091247406 0.0
45.98674333944244 53.537661526885586 0.0
45.98511353537744 55.53771627175486 0.0
45.983479566580435 57.53778523207782 0.0
45.98183994408087 59.53786853962268 0.0
45.98019317376571 61.53796637330805 0.0
45.978537756657346 63.53807895956729 0.0
45.97687218924826 65.53820657269794 0.0
45.9751949638919 67.53834953521016 0.0
45.973504569248895 69.5385082181252 0.0
45.97179949078788 71.53868304127421 0.0
45.97007821133947 73.53887447356698 0.0
45.968339211703 75.53908303323259 0.0
45.96658097130387 77.53930928802995 0.0
45.96480196890041 79.53955385542336 0.0
45.963000683337874 81.53981740272084 0.0
45.96117559434738 83.54010064717068 0.0
45.95932518338647 85.54040435601223 0.0
45.95744793451809 87.54072934647654 0.0
45.9555423353232 89.5410764857329 0.0
45.95360687784227 91.54144669077614 0.0
45.95164005953942 93.54184092825002 0.0
45.9496403842824 95.5422602142032 0.0
45.94760636333017 97.54270561377176 0.0
48.03370373149241 1.5439911508242181 0.0
48.03159139380752 3.543581897794876 0.0
48.02951371962903 5.543198607942708 0.0
48.027469197318794 7.542840302166271 0.0
48.02545632347334 9.542506042946009 0.0
48.023473601847456 11.542194933966933 0.0
48.02151954227322 13.541906119823233 0.0
48.01959265958613 15.541638785804492 0.0
48.017691472567556 17.541392157755453 0.0
48.01581450291239 19.541165502008383 0.0
48.01396027422993 21.540958125382392 0.0
48.01212731108542 23.540769375244906 0.0
48.010314138087224 25.54059863962989 0.0
48.008519279026224 27.54044534740798 0.0
48.00674125607091 29.540308968503115 0.0
48.00497858902218 31.540189014151117 0.0
48.00322979463035 33.54008503719479 0.0
48.00149338597728 35.5399966324068 0.0
47.999767871924085 37.539923436838514 0.0
47.99805175662658 39.539865130218004 0.0
47.99634353911808 41.53982143532395 0.0
47.99464171296052 43.539792118396825 0.0
47.99294476596282 45.53977698956006 0.0
47.99125117996693 47.539775903246614 0.0
47.98955943070026 49.53978875862962 0.0
47.98786798769412 51.53981550005483 0.0
47.98617531426686 53.53985611747146 0.0
47.9844798675715 55.53991064685965 0.0
47.98278009870626 57.539979170651584 0.0
47.98107445288745 59.54006181814477 0.0
47.97936136968392 61.54015876590464 0.0
47.97763928331226 63.540270238153425 0.0
47.97590662299184 65.54039650714378 0.0
47.974161813359395 67.54053789353112 0.0
47.97240327494203 69.54069476669657 0.0
47.97062942468842 71.54086754507014 0.0
47.968838676556956 73.54105669642357 0.0
47.967029442160204 75.54126273813537 0.0
47.9652001314647 77.54148623742523 0.0
47.96334915354429 79.54172781155366 0.0
47.96147491738564 81.54198812798373 0.0
47.95957583274334 83.54226790449987 0.0
47.95765031104255 85.5425679092802 0.0
47.95569676632471 87.54288896091688 0.0
47.953713616233365 89.54323192838055 0.0
47.95169928303412 91.54359773092202 0.0
47.94965219466316 93.54398733790825 0.0
47.94757078579749 95.54440176858512 0.0
47.945453498938335 97.54484209176353 0.0
50.034975261961215 1.5462060278280092 0.0
50.03278049158875 3.5458018973607826 0.0
50.03062178506936 5.54542351778904 0.0
50.028497572203456 7.54506991409789 0.0
50.02640629154588 9.544740152329444 0.0
50.02434638922093 11.544433339200385 0.0
50.02231631773718 13.54414862180804 0.0
50.0203145348139 15.543885187424083 0.0
50.01833950222883 17.543642263367015 0.0
50.01638968469711 19.543419116951902 0.0
50.01446354878932 21.543215055511208 0.0
50.01255956189609 23.54302942648112 0.0
50.01067619124551 25.542861617547317 0.0
50.008811902978564 27.542711056844933 0.0
50.006965161287056 29.542577213206645 0.0
50.005134427617584 31.54245959645389 0.0
50.00331815994415 33.54235775772517 0.0
50.001514812111445 35.54227128983249 0.0
49.999722833250104 37.542199827643834 0.0
49.99794066726482 39.54214304851401 0.0
49.99616675239525 41.542100672691426 0.0
49.99439952084973 43.542072463760896 0.0
49.992637398511356 45.54205822909592 0.0
49.990878804715514 47.54205782031502 0.0
49.98912215209783 49.54207113374176 0.0
49.9873658465119 51.542098110864934 0.0
49.98560828701521 53.542138738796986 0.0
49.98384786592238 55.54219305072793 0.0
49.982082968924765 57.54226112637231 0.0
49.98031197527526 59.542343092408 0.0
49.9785332580374 61.54243912290372 0.0
49.976745184398396 63.54254943973309 0.0
49.97494611604476 65.54267431297298 0.0
49.97313440960073 67.54281406130026 0.0
49.971308417128334 69.54296905234065 0.0
49.969466486688944 71.54313970301672 0.0
49.96760696296586 73.54332647986655 0.0
49.965728187947064 75.5435298993343 0.0
49.96382850166756 77.54375052803091 0.0
49.9619062430102 79.54398898295942 0.0
49.95995975056352 81.54424593170232 0.0
49.95798736353504 83.54452209256566 0.0
49.95598742271712 85.54481823467553 0.0
49.95395827150279 87.54513517802135 0.0
49.95189825694732 89.54547379344096 0.0
49.94980573087073 91.54583500254141 0.0
49.94767905099581 93.54621977754931 0.0
49.94551658211381 95.54662914108562 0.0
49.94331669727059 97.54706416585736 0.0
52.03623063601428 1.548505418104551 0.0
52.03395410747995 3.5481066125546676 0.0
52.031715036830704 5.547733337804434 0.0
52.029511796062934 7.547384623190242 0.0
52.02734276645598 9.547059538529547 0.0
52.02520633727016 11.546757193735697 0.0
52.023100904449194 13.546476738528128 0.0
52.02102486933946 15.546217362236666 0.0
52.0189766374368 17.545978293689988 0.0
52.016954617170896 19.545758801186295 0.0
52.014957218735404 21.545558192539257 0.0
52.012982852971916 23.545375815192745 0.0
52.011029930313704 25.545211056397964 0.0
52.00909685979473 27.54506334344665 0.0
52.0071820481284 29.5449321439542 0.0
52.005283898859226 31.544816966186588 0.0
52.00340081158999 33.54471735942517 0.0
52.00153118128603 35.54463291435916 0.0
51.99967339765804 37.54456326350463 0.0
51.99782584462288 39.54450808167018 0.0
51.99598689984342 41.54446708639861 0.0
51.99415493434584 43.54444003844316 0.0
51.99232831221402 45.54442674225209 0.0
51.990505390359715 47.54442704645617 0.0
51.988684518367364 49.54444084435861 0.0
51.986864038411824 51.54446807442422 0.0
51.98504228524799 53.54450872076548 0.0
51.98321758627079 55.54456281362344 0.0
51.98138826164445 57.5446304298411 0.0
51.97955262449952 59.544711693327514 0.0
51.9777089811976 61.54480677551112 0.0
51.97585563166192 63.54491589577866 0.0
51.97399086977414 65.54503932189915 0.0
51.972112983836276 67.54517737044549 0.0
51.97022025709792 69.54533040716973 0.0
51.96831096834822 71.54549884737746 0.0
51.966383392572645 73.54568315627269 0.0
51.96443580167403 75.54588384927659 0.0
51.9624664652578 77.54610149231502 0.0
51.96047365148059 79.54633670207275 0.0
51.95845562796138 81.54659014620844 0.0
51.9564106627537 83.54686254352701 0.0
51.95433702537686 85.5471546641034 0.0
51.95223298790383 87.54746732935206 0.0
51.950096826101664 89.54780141203693 0.0
51.94792682062059 91.54815783621417 0.0
51.94572125822562 93.54853757710234 0.0
51.9434784330641 95.54894166087176 0.0
51.941196647960744 97.54937116434759 0.0
54.03746923024928 1.5508886223856047 0.0
54.03511164290406 3.5504953431421327 0.0
54.032792900747964 5.550127366917317 0.0
54.030511318807065 7.549783727669555 0.0
54.02826522192537 9.549463499207324 0.0
54.02605294333608 11.549165794804026 0.0
54.023872823243146 13.548889766915547 0.0
54.02172320742552 15.548634606998663 0.0
54.0196024458765 17.548399545419347 0.0
54.01750889148716 19.54818385144836 0.0
54.015440898783986 21.547986833336253 0.0
54.01339682272774 23.547807838460812 0.0
54.01137501758017 25.547646253539398 0.0
54.00937383584416 27.547501504899532 0.0
54.00739162728124 29.54737305880059 0.0
54.00542673800988 31.547260421800218 0.0
54.00347750968637 33.54716314115863 0.0
54.00154227877039 35.547080805270525 0.0
53.99961937587501 37.547013044122764 0.0
53.997707125201615 39.54695952979761 0.0
53.995803844059154 41.546919976951116 0.0
53.993907842466285 43.546894143324494 0.0
53.99201742283547 45.54688183026228 0.0
53.990130879737116 47.54688288323208 0.0
53.9882464997423 49.54689719234526 0.0
53.98636256134213 51.5469246928753 0.0
53.98447733494206 53.546965365772245 0.0
53.98258908292958 55.547019238170606 0.0
53.98069605981387 57.54708638388894 0.0
53.97879651243611 59.54716692391997 0.0
53.976888680249516 61.54726102690903 0.0
53.97497079566834 63.54736890961863 0.0
53.97304108448526 65.54749083737771 0.0
53.97109776635718 67.5476271245289 0.0
53.96913905535889 69.54777813483068 0.0
53.967163160605416 71.54794428185858 0.0
53.96516828694229 73.5481260293787 0.0
53.9631526357048 75.54832389169428 0.0
53.96111440554585 77.5485384339639 0.0
53.95905179333247 79.54877027248524 0.0
53.956962995110274 81.54902007494144 0.0
53.95484620713581 83.54928856060421 0.0
53.95269962697426 85.54957650048836 0.0
53.95052145466112 87.54988471745159 0.0
53.94830989392466 89.55021408623301 0.0
53.946063153464635 91.55056553342281 0.0
53.94377944828255 93.55094003735617 0.0
53.9414570010562 95.55133862792277 0.0
53.93909404355084 97.55176238628515 0.0
56.03869042450112 1.5533549158964837 0.0
56.03625250216011 3.5529673633166925 0.0
56.03385480516011 5.552604878428785 0.0
56.03149559247389 7.552266500088656 0.0
56.029173133429694 9.551951306311949 0.0
56.02688570614604 11.551658413892238 0.0
56.02463159598297 13.551386978129717 0.0
56.02240909402371 15.551136192667807 0.0
56.02021649559885 17.550905289425643 0.0
56.01805209886327 19.550693538623033 0.0
56.0159142034357 21.550500248889282 0.0
56.01380110910841 23.550324767447723 0.0
56.0117111146337 25.55016648036797 0.0
56.00964251659264 27.550024812878043 0.0
56.00759360834971 29.549899229728947 0.0
56.005562679096606 31.549789235604266 0.0
56.003548012987 33.54969437556772 0.0
56.00154788836295 35.54961423553736 0.0
55.99956057707345 37.54954844278513 0.0
55.997584343884164 39.54949666647986 0.0
55.995617445977494 41.54945861820435 0.0
55.99365813254133 43.549434052503614 0.0
55.99170464444413 45.54942276743787 0.0
55.989755213995096 47.54942460513543 0.0
55.987808064786265 49.54943945234459 0.0
55.98586141161499 51.54946724098192 0.0
55.98391346048434 53.54950794867468 0.0
55.98196240867972 55.54956159929598 0.0
55.98000644491975 57.54962826349035 0.0
55.9780437495805 59.54970805918948 0.0
55.9760724949912 61.54980115211568 0.0
55.974090845801726 63.54990775627172 0.0
55.97209695942065 65.55002813441591 0.0
55.970088986524104 67.5501625985344 0.0
55.968065071635834 69.55031151027113 0.0
55.96602335377861 71.5504752813568 0.0
55.96396196719785 73.55065437401099 0.0
55.961879042157996 75.55084930131976 0.0
55.95977270581244 77.55106062758473 0.0
55.95764108314739 79.55128896863981 0.0
55.95548229799991 81.55153499213125 0.0
55.953294474150276 83.55179941775482 0.0
55.95107573648709 85.5520830174452 0.0
55.948824212244716 87.55238661550973 0.0
55.94653803230941 89.55271108870055 0.0
55.94421533259157 91.55305736621568 0.0
55.94185425545852 93.55342642962233 0.0
55.939452951221995 95.55381931269197 0.0
55.93700957967196 97.55423710113898 0.0
58.03989360206074 1.5559035487044295 0.0
58.03737609260549 3.555521922046081 0.0
58.03490018105826 5.555165120357493 0.0
58.032464071345174 7.5548321876707565 0.0
58.030065978284135 9.554522206423526 0.0
58.02770412587218 11.554234297084438 0.0
58.02537674559718 13.55396761789726 0.0
58.02308207478807 15.55372136474042 0.0
58.020818355016765 17.553494771088584 0.0
58.0185838305621 19.553287108072166 0.0
58.016376746946115 21.553097684625058 0.0
58.0141953495505 23.55292584771143 0.0
58.01203788231958 25.552770982622835 0.0
58.00990258655534 27.552632513336757 0.0
58.0077876998079 29.552509902928502 0.0
58.00569145486435 31.55240265402829 0.0
58.00361207883705 33.55231030931572 0.0
58.001547792352156 35.55223245203985 0.0
57.999496808837314 37.55216870656339 0.0
57.997457333908095 39.55211873894799 0.0
57.99542756485075 41.55208225751215 0.0
57.99340569019909 43.552059013417825 0.0
57.991389889403436 45.55204880125942 0.0
57.98937833258811 47.5520514596505 0.0
57.98736918039546 49.55206687180739 0.0
57.98536058391301 51.55209496612725 0.0
57.9833506846817 53.552135716758585 0.0
57.98133761478265 55.552189144163 0.0
57.979319497000475 57.5522553156665 0.0
57.97729444506172 59.55233434599997 0.0
57.975260563947195 61.55242639782753 0.0
57.973215950277364 63.55253168226087 0.0
57.97115869277099 65.55265045935958 0.0
57.969086872776415 67.55278303862909 0.0
57.96699856487696 69.55292977947809 0.0
57.96489183757059 71.55309109167578 0.0
57.962764754025514 73.55326743578414 0.0
57.96061537291241 75.55345932356684 0.0
57.958441749315384 77.5536673183723 0.0
57.95624193572217 79.5538920354851 0.0
57.95401398309515 81.55413414244269 0.0
57.95175594202316 83.55439435931058 0.0
57.949465863954885 85.55467345890999 0.0
57.947141802512355 87.55497226699089 0.0
57.944781814883285 89.55529166234226 0.0
57.942383963289245 91.55563257683062 0.0
57.939946316525315 93.55599599535819 0.0
57.93746695156552 95.55638295572983 0.0
57.93494395522635 97.55679454841895 0.0
60.041078149900784 1.5585337461069813 0.0
60.0384818248423 3.5581582434587813 0.0
60.03592846223462 5.557807315824974 0.0
60.033416212061006 7.557480012693949 0.0
60.03094323572639 9.557175421136813 0.0
60.02850770418631 11.55689266544458 0.0
60.02610779610855 13.556630906892863 0.0
60.023741696083505 15.556389343629585 0.0
60.02140759289567 17.556167210671394 0.0
60.0191036778684 19.555963780003427 0.0
60.01682814329164 21.555778360771715 0.0
60.01457918094097 23.55561029955802 0.0
60.01235498069403 25.555458980727302 0.0
60.01015372924983 27.55532382683805 0.0
60.007973608954195 29.555204299106382 0.0
60.00581279673317 31.55509989791519 0.0
60.00366946313569 33.55501016335973 0.0
60.001541771485066 35.55493467581692 0.0
59.99942787713799 37.55487305653769 0.0
59.99732592684943 39.55482496827674 0.0
59.995234058240264 41.554790115893496 0.0
59.99315039936561 43.554768246978504 0.0
59.991073068379244 45.55475915247935 0.0
59.98900017329186 47.55476266732196 0.0
59.98692981181874 49.55477867102589 0.0
59.98486007131428 51.55480708831199 0.0
59.98278902878966 53.554847889700454 0.0
59.9807147510114 55.55490109209853 0.0
59.9786352946782 57.55496675937653 0.0
59.97654870667448 59.555045002932324 0.0
59.97445302439932 61.555135982243264 0.0
59.972346276170015 63.55523990540468 0.0
59.970226481700315 65.55535702965452 0.0
59.96809165265359 67.55548766189628 0.0
59.96593979327206 69.5556321591844 0.0
59.963768901083355 71.55579092920954 0.0
59.96157696768612 73.555964430762 0.0
59.95936197961673 75.55615317417366 0.0
59.95712191929913 77.55635772173585 0.0
59.95485476608001 79.55657868808889 0.0
59.95255849735109 81.55681674057828 0.0
59.95023108976004 83.5570725995713 0.0
59.94787052051125 85.55734703872798 0.0
59.94547476875606 87.5576408852177 0.0
59.943041817072576 89.55795501987373 0.0
59.94056965303189 91.55829037727514 0.0
59.938056270848534 93.55864794574667 0.0
59.935499673108644 95.55902876726445 0.0
59.932897872569725 97.55943393725664 0.0
62.04224345890752 1.5612447090640658 0.0
62.03956911290677 3.56087552727455 0.0
62.03693908543209 5.560530663485286 0.0
62.0343514737323 7.560209172920282 0.0
62.0318043869959 9.559910147489674 0.0
62.02929594430925 11.559632715444 0.0
62.02682427265807 13.559376041165079 0.0
62.024387504988006 15.559139325088216 0.0
62.021983778338175 17.55892180373966 0.0
62.019611232059944 19.558722749883206 0.0
62.01726800613097 21.558541472763736 0.0
62.014952239572516 23.558377318436477 0.0
62.012662068976866 25.558229670171013 0.0
62.01039562714927 27.558097948919137 0.0
62.00815104186736 29.557981613836713 0.0
62.005926434759935 31.55788016284977 0.0
62.003719920304746 33.557793133255615 0.0
62.0015296049449 35.55772010234539 0.0
61.99935358632149 37.55766068804737 0.0
61.9971899526195 39.55761454960427 0.0
61.995036782023895 41.557581388219 0.0
61.9928921422818 43.55756094772225 0.0
61.990754090366245 45.55755301523637 0.0
61.98862067223778 47.55755742183122 0.0
61.98648992269917 49.557574043171286 0.0
61.984359865339364 51.557602800152154 0.0
61.982228512563225 53.55764365952542 0.0
61.98009386570349 55.5576966345109 0.0
61.97795391521242 57.55776178539635 0.0
61.97580664093141 59.55783922012433 0.0
61.97365001243649 61.55792909486661 0.0
61.97148198945991 63.5580316145851 0.0
61.96930052238728 65.55814703358014 0.0
61.96710355283109 67.55827565603772 0.0
61.96488901428243 69.55841783654182 0.0
61.96265483284201 71.55857398058863 0.0
61.96039892803399 73.55874454508088 0.0
61.95811921370413 75.55893003880432 0.0
61.95581359900666 77.55913102288265 0.0
61.95347998948157 79.5593481112069 0.0
61.95111628822641 81.55958197083473 0.0
61.948720397164365 83.5598333223526 0.0
61.94629021841124 85.56010294019435 0.0
61.943823655742435 87.5603916529073 0.0
61.941318616160224 89.56070034335694 0.0
61.93877301156032 91.56102994885931 0.0
61.93618476049558 93.5613814612298 0.0
61.93355179003192 95.56175592673584 0.0
61.93087203769047 97.56215444594065 0.0
64.04338892412073 1.5640356146778533 0.0
64.040637374463 3.563672949283034 0.0
64.03793149049504 5.563334338003106 0.0
64.0352693180525 7.563018842073659 0.0
64.03264891541001 9.562725558440738 0.0
64.03006835105623 11.562453619438209 0.0
64.02752570152356 13.562202192611549 0.0
64.0250190492894 15.561970480681328 0.0
64.02254648076358 17.561757721629075 0.0
64.0201060843743 19.561563188897882 0.0
64.01769594876316 21.561386191694478 0.0
64.0153141610972 23.56122607537992 0.0
64.01295880550458 25.561082221937 0.0
64.01062796163794 27.560954050502062 0.0
64.00831970336782 29.5608410179506 0.0
64.00603209760743 31.560742619525616 0.0
64.00376320326778 33.560658389499025 0.0
64.00151107034118 35.56058790185158 0.0
63.99927373911049 37.560530770970516 0.0
63.99704923947992 39.560486652377 0.0
63.99483559042292 41.56045524341873 0.0
63.99263079954244 43.56043628397979 0.0
63.99043286273752 45.56042955718328 0.0
63.988239763972345 47.56043489008171 0.0
63.98604947514097 49.56045215433527 0.0
63.983859956024304 51.56048126687641 0.0
63.981669154333964 53.56052219055988 0.0
63.97947500584012 55.56057493479828 0.0
63.97727543457927 57.56063955618317 0.0
63.97506835314046 59.56071615909276 0.0
63.97285166302811 61.56080489628673 0.0
63.97062325510079 63.560905969487955 0.0
63.96838101008617 65.56101962995288 0.0
63.966122799173604 67.5611461790417 0.0
63.963846484685604 69.561285968757 0.0
63.96154992083136 71.56143940228651 0.0
63.95923095454515 73.56160693452905 0.0
63.95688742641347 75.561789072606 0.0
63.95451717169506 77.56198637635528 0.0
63.952118021437485 79.56219945880325 0.0
63.94968780369513 81.56242898661021 0.0
63.947224344852 83.56267568048251 0.0
63.94472547105287 85.5629403155437 0.0
63.942189009745555 87.56322372165617 0.0
63.939612791335506 89.56352678368292 0.0
63.93699465095361 91.5638504416777 0.0
63.93433243033551 93.56419569099133 0.0
63.93162397980905 95.56456358228034 0.0
63.92886716038481 97.56495522140291 0.0
66.04451394497158 1.5669056167246302 0.0
66.04168603099153 3.5665496618748307 0.0
66.03890512051206 5.566217490584674 0.0
66.03616920939845 7.565908170370981 0.0
66.03347630642806 9.565620803400558 0.0
66.03082443086862 11.565354526197671 0.0
66.02821161012444 13.565108509508176 0.0
66.02563587746826 15.564881958312231 0.0
66.02309526987398 17.564674111966703 0.0
66.02058782596305 19.564484244467938 0.0
66.01811158407519 21.564311664820515 0.0
66.0156645804717 23.56415571749729 0.0
66.01324484767721 25.564015782977734 0.0
66.01085041296358 27.56389127835083 0.0
66.00847929697818 29.563781657970846 0.0
66.00612951251611 31.56368641415391 0.0
66.00379906343483 33.563605077904754 0.0
66.0014859437088 35.563537219658315 0.0
65.99918813661881 37.56348245003526 0.0
65.99690361407212 39.56344042062235 0.0
65.99463033604691 41.56341082471345 0.0
65.99236625015503 43.563393398063276 0.0
65.99010929131653 45.56338791962862 0.0
65.98785738154002 47.563394212293105 0.0
65.98560842980203 49.56341214357593 0.0
65.98336033202006 51.56344162632261 0.0
65.98111097111415 53.56348261937882 0.0
65.9788582171524 55.563535128246585 0.0
65.97659992757684 57.56359920572478 0.0
65.97433394750732 59.56367495253497 0.0
65.97205811012135 61.5637625179341 0.0
65.96977023710971 63.56386210031495 0.0
65.967468139208 65.56397394779623 0.0
65.96514961680559 67.56409835881416 0.0
65.9628124606349 69.56423568268637 0.0
65.96045445254356 71.56438632018221 0.0
65.9580733663541 73.56455072408042 0.0
65.95566696881579 75.56472939971655 0.0
65.95323302065351 77.56492290551745 0.0
65.9507692777198 79.5651318535182 0.0
65.94827349225478 81.56535690985746 0.0
65.94574341425994 83.56559879524347 0.0
65.94317679299051 85.56585828538402 0.0
65.9405713785703 87.56613621136927 0.0
65.93792492373284 89.56643345999845 0.0
65.93523518568999 91.56675097403601 0.0
65.93249992812828 93.5670897523849 0.0
65.92971692333151 95.56745085016087 0.0
65.9268839544243 97.56783537865178 0.0
68.04561792552221 1.569853846243367 0.0
68.04271450797529 3.569504794629719 0.0
68.03985942195273 5.569179249566452 0.0
68.03705061492315 7.5688762851114975 0.0
68.03428604770492 9.5685950088215 0.0
68.03156369183411 11.568334561497347 0.0
68.02888152701432 13.568094117097226 0.0
68.02623753866871 15.567872882807512 0.0
68.0236297156092 17.567670099250726 0.0
68.02105604783651 19.567485040819896 0.0
68.01851452448162 21.56731701612285 0.0
68.01600313189688 23.567165368520605 0.0
68.01351985190225 25.56702947674483 0.0
68.01106266018975 27.56690875557982 0.0
68.00862952488767 29.566802656595385 0.0
68.00621840528261 31.566710668918095 0.0
68.00382725069753 33.56663232002882 0.0
68.00145399952117 35.56656717657056 0.0
67.99909657838298 37.566514845165585 0.0
67.99675290146767 39.56647497325116 0.0
67.99442086996184 41.5664472498712 0.0
67.99209837162496 43.56643140647423 0.0
67.98978328047725 45.566427217693516 0.0
67.98747345659673 47.566434502105714 0.0
67.98516674601767 49.56645312296795 0.0
67.9828609807243 51.566482988933494 0.0
67.98055397873316 53.56652405474627 0.0
67.97824354425936 55.56657632191539 0.0
67.97592746796239 57.56663983937164 0.0
67.9736035272683 59.5667147041084 0.0
67.97126948676699 61.56680106180921 0.0
67.96892309868367 63.566899107463655 0.0
67.96656210342519 65.56700908597493 0.0
67.96418423020305 67.56713129277021 0.0
67.96178719773677 69.56726607438821 0.0
67.95936871504102 71.56741382907593 0.0
67.9569264823018 73.56757500737787 0.0
67.95445819184813 75.56775011271976 0.0
67.95196152922468 77.56793970198494 0.0
67.9494341743736 79.56814438607904 0.0
67.9468738029313 81.56836483047842 0.0
67.94427808764846 83.56860175575524 0.0
67.94164469993888 85.56885593807111 0.0
67.93897131156405 87.56912820962918 0.0
67.93625559645744 89.56941945907293 0.0
67.93349523269319 91.56973063181816 0.0
67.93068790459994 93.57006273030308 0.0
67.9278313050203 95.57041681413969 0.0
67.92492313771278 97.57079400014835 0.0
70.04670027472123 1.5728794121859344 0.0
70.0437222350975 3.572537454967097 0.0
70.040793844813 5.572218721066569 0.0
70.03791300465355 7.571922291329502 0.0
70.03507762914776 9.571647278851344 0.0
70.03228564370863 11.571392828770481 0.0
70.02953498187448 13.571158118239897 0.0
70.02682358267009 15.570942356566324 0.0
70.02414938810307 17.570744785494103 0.0
70.02151034081103 19.570564679621363 0.0
70.01890438186881 21.570401346930073 0.0
70.01632944876441 23.57025412941251 0.0
70.01378347354881 25.57012240377717 0.0
70.01126438116157 27.57000558221834 0.0
70.00877008793285 29.569903113233952 0.0
70.00629850025895 31.569814482478353 0.0
70.00384751344829 33.56973921363651 0.0
70.0014150107309 35.56967686930297 0.0
69.9989988624251 37.56962705186426 0.0
69.99659692525297 39.56958940439287 0.0
69.99420704179593 41.569563611490864 0.0
69.99182704008068 43.56954940013285 0.0
69.9894547332869 45.56954654048482 0.0
69.98708791956706 47.569554846694935 0.0
69.98472438196973 49.56957417765756 0.0
69.98236188845854 51.56960443775085 0.0
69.97999819201966 53.56964557754893 0.0
69.97763103085171 55.569697594511055 0.0
69.97525812863339 57.56976053365042 0.0
69.97287719486553 59.56983448818613 0.0
69.97048592528547 61.56991960018183 0.0
69.96808200235333 63.570016061173284 0.0
69.96566309581083 65.57012411278996 0.0
69.96322686331564 67.57024404738146 0.0
69.96077095115454 69.57037620862627 0.0
69.95829299504058 71.5705209921534 0.0
69.95579062100065 73.5706788461623 0.0
69.9532614463604 75.57085027204333 0.0
69.95070308083467 77.57103582499717 0.0
69.94811312773224 79.57123611464961 0.0
69.94548918528312 81.57145180565661 0.0
69.94282884809824 83.57168361829342 0.0
69.94012970876928 85.57193232901817 0.0
69.93738935961747 87.5721987710003 0.0
69.93460539459777 89.57248383460077 0.0
69.93177541136454 91.5727884677894 0.0
69.92889701350221 93.57311367648353 0.0
69.92596781292286 95.57346052478866 0.0
69.92298543242946 97.57383013512191 0.0
72.04776040664518 1.5759814021342768 0.0
72.0447086464213 3.575646728864071 0.0
72.0417078427381 5.575334989704602 0.0
72.03875585156395 7.575045272516048 0.0
72.0358505429462 9.574776696056551 0.0
72.03298979791064 11.574528409832336 0.0
72.03017150548001 13.574299594138886 0.0
72.02739355983203 15.574089460279708 0.0
72.02465385761485 17.573897250937762 0.0
72.02195029543357 19.573722240684887 0.0
72.01928076751923 21.573563736609085 0.0
72.01664316358698 23.57342107903981 0.0
72.01403536688912 25.573293642352688 0.0
72.0114552524632 27.573180835836055 0.0
72.0089006855751 29.573082104602413 0.0
72.00636952035288 31.572996930530003 0.0
72.00385959860589 33.5729248332202 0.0
72.00136874882159 35.57286537095249 0.0
71.99889478533117 37.57281814163622 0.0
71.99643550763383 39.572782783765234 0.0
71.99398869986913 41.57275897731498 0.0
71.99155213042617 43.57274644463095 0.0
71.98912355167859 45.5727449512849 0.0
71.98670069983427 47.57275430689655 0.0
71.98428129489007 49.57277436592157 0.0
71.98186304068165 51.5728050284078 0.0
71.97944362502056 53.572846240721184 0.0
71.97702071991154 55.57289799624511 0.0
71.9745919818443 57.572960336056795 0.0
71.97215505215651 59.573033349585735 0.0
71.96970755746523 61.57311717525828 0.0
71.96724711016641 63.573212001132944 0.0
71.9647713090041 65.57331806553124 0.0
71.96227773971194 67.57343565767691 0.0
71.95976397573142 69.5735651183227 0.0
71.95722757901352 71.57370684039502 0.0
71.95466610091071 73.5738612696429 0.0
71.95207708316823 75.57402890529539 0.0
71.94945805902435 77.57421030072481 0.0
71.94680655442998 79.57440606411393 0.0
71.9441200893985 81.57461685912155 0.0
71.94139617949712 83.57484340554016 0.0
71.93863233749057 85.5750864799366 0.0
71.9358260751472 87.57534691626438 0.0
71.93297490521753 89.57562560643478 0.0
71.9300763435929 91.57592350083111 0.0
71.92712791165035 93.57624160874751 0.0
71.92412713878828 95.5765809987335 0.0
71.92107156515293 97.57694279882043 0.0
74.04879774074116 1.5791588830903138 0.0
74.04567318056505 3.578831681647013 0.0
74.04260087313817 5.578527119395646 0.0
74.03957863163848 7.578244291415677 0.0
74.03660428358975 9.577982322221185 0.0
74.0336756675016 11.57774036568015 0.0
74.03079062965095 13.577517605137466 0.0
74.02794702102537 15.577313253726246 0.0
74.0251426944477 17.577126554839673 0.0
74.02237550189574 19.57695678274675 0.0
74.01964329202845 21.576803243329394 0.0
74.0169439079249 23.576665274918586 0.0
74.01427518504036 25.576542249209396 0.0
74.01163494938015 27.57643357223474 0.0
74.00902101588771 29.576338685379827 0.0
74.00643118704255 31.57625706642068 0.0
74.00386325166006 33.576188230571276 0.0
74.00131498388366 35.57613173152014 0.0
73.99878414235837 37.57608716245519 0.0
73.99626846957311 39.576054157081664 0.0
73.99376569135968 41.57603239057401 0.0
73.99127351653398 43.576021580509284 0.0
73.98878963666765 45.57602148775986 0.0
73.986311725976 47.57603191734323 0.0
73.98383744131141 49.5760527192308 0.0
73.98136442225076 51.576083789118314 0.0
73.97889029126733 53.57612506916071 0.0
73.97641265397934 55.576176548676344 0.0
73.97392909946899 57.57623826482546 0.0
73.97143720066711 59.57631030326889 0.0
73.9689345148016 61.57639279881348 0.0
73.96641858390878 63.576485936049046 0.0
73.96388693540959 65.57658994998393 0.0
73.96133708275367 67.5767051266923 0.0
73.95876652613755 69.57683180395537 0.0
73.95617275330359 71.5769703719258 0.0
73.95355324042866 73.57712127380479 0.0
73.95090545311328 75.57728500653499 0.0
73.94822684748233 77.57746212150862 0.0
73.94551487141 79.57765322528917 0.0
73.94276696588248 81.57785898034105 0.0
73.93998056651118 83.57808010576109 0.0
73.93715310521091 85.5783173780027 0.0
73.93428201205505 87.57857163158117 0.0
73.93136471732097 89.57884375974585 0.0
73.92839865373544 91.57913471510246 0.0
73.9253812589299 93.57944551016685 0.0
73.92230997811173 95.57977721782726 0.0
73.9191822669553 97.5801309716919 0.0
76.04981170206437 1.5824109023446777 0.0
76.04661528086933 3.582091358862876 0.0
76.04347239729091 5.581794154225024 0.0
76.04038082391824 7.581518390904694 0.0
76.03733834786817 9.58126319922812 0.0
76.03434276714873 11.581027737375859 0.0
76.03139188718744 13.58081119160167 0.0
76.0284835175481 15.580612776650721 0.0
76.02561546885497 17.580431736346465 0.0
76.022785549939 19.580267344327293 0.0
76.0199915652175 21.58011890490731 0.0
76.0172313123125 23.579985754037132 0.0
76.01450257991229 25.57986726034145 0.0
76.01180314587337 27.579762826211656 0.0
76.00913077556052 29.579671888933373 0.0
76.00648322041553 31.579593921830668 0.0
76.00385821674686 33.57952843541024 0.0
76.00125348472716 35.57947497848513 0.0
75.99866672758507 37.579433139276745 0.0
75.99609563097722 39.5794025464985 0.0
75.9935378625244 41.57938287036318 0.0
75.99099107149632 43.57937382356087 0.0
75.98845288862982 45.57937516218605 0.0
75.98592092606492 47.5793866866122 0.0
75.98339277738555 49.57940824231728 0.0
75.98086601775178 51.579439720663025 0.0
75.97833820411282 53.57948105963297 0.0
75.9758068754914 55.57953224453498 0.0
75.97326955333264 57.579593308675015 0.0
75.9707237419123 59.579664334009586 0.0
75.96816692880138 61.57974545178476 0.0
75.96559658538762 63.5798368431686 0.0
75.96301016745461 65.57993873988528 0.0
75.96040511582406 67.580051424865 0.0
75.95777885706651 69.58017523289514 0.0
75.95512880428988 71.5803105513012 0.0
75.95245235801592 73.58045782064885 0.0
75.94974690715678 75.58061753547172 0.0
75.94700983010553 77.58079024502501 0.0
75.94423849595496 79.58097655406304 0.0
75.9414302658612 81.5811771236366 0.0
75.9385824945677 83.58139267190397 0.0
75.93569253210596 85.58162397494561 0.0
75.93275772568968 87.58187186757121 0.0
75.92977542181711 89.582137244104 0.0
75.92674296859524 91.58242105912463 0.0
75.92365771829907 93.58272432815363 0.0
75.92051703017482 95.58304812824913 0.0
75.91731827349395 97.58339359849307 0.0
78.05080172150817 1.585736488430976 0.0
78.04753439554894 3.5854247872370264 0.0
78.0443218804255 5.58513511941061 0.0
78.04116191052569 7.584866594958024 0.0
78.03805223484666 9.584618350029636 0.0
78.03499061306101 11.584389547018887 0.0
78.03197481177688 13.584179374892743 0.0
78.0290026010148 15.58398704973301 0.0
78.02607175092174 17.583811815454713 0.0
78.02318002873805 19.58365294467973 0.0
78.02032519602659 21.583509739737153 0.0
78.01750500617142 23.5833815337635 0.0
78.01471720214606 25.58326769187682 0.0
78.01195951455031 27.583167612400825 0.0
78.00922965990797 29.583080728116485 0.0
78.00652533921709 31.583006507521585 0.0
78.00384423673945 33.582944456079346 0.0
78.00118401901554 35.582894117435494 0.0
77.99854233408759 37.582855074601184 0.0
77.99591681091383 39.58282695110476 0.0
77.99330505895522 41.58280941205485 0.0
77.99070466791649 43.582802165161766 0.0
77.9881132076228 45.58280496169603 0.0
77.98552822801523 47.582817597384 0.0
77.98294725924858 49.58283991324434 0.0
77.98036781187695 51.58287179637014 0.0
77.97778737711474 53.58291318066287 0.0
77.97520342716204 55.5829640475258 0.0
77.97261341558664 57.58302442652486 0.0
77.97001477775707 59.58309439602683 0.0
77.96740493132341 61.58317408382402 0.0
77.9647812767459 63.583263667754395 0.0
77.96214119787328 65.58336337632721 0.0
77.95948206257665 67.58347348936917 0.0
77.9568012234454 69.5835943386798 0.0
77.9540960185561 71.58372630872458 0.0
77.9513637723259 73.58386983735913 0.0
77.94860179646504 75.58402541659002 0.0
77.94580739104403 77.58419359337348 0.0
77.94297784569349 79.58437497045071 0.0
77.94011044095458 81.58457020721654 0.0
77.93720244979961 83.58478002061494 0.0
77.93425113934244 85.58500518605199 0.0
77.93125377275778 87.58524653831425 0.0
77.92820761142863 89.58550497247691 0.0
77.92510991733914 91.58578144478281 0.0
77.92195795572891 93.58607697347033 0.0
77.91874899802167 95.58639263952426 0.0
77.91548032503924 97.58672958732103 0.0
80.05176723602233 1.589134652172659 0.0
80.04842997782896 3.5888309757248598 0.0
80.04514879178465 5.588549022360087 0.0
80.0419213766646 7.588287909712158 0.0
80.038745445814 9.588046779715208 0.0
80.03561872289787 11.587824798816817 0.0
80.03253893787489 13.587621158437877 0.0
80.02950382322118 15.587435075655158 0.0
80.02651111042475 17.587265794069666 0.0
80.02355852676658 19.587112584835317 0.0
80.02064379239758 21.58697474781655 0.0
80.01776461771735 23.586851612844477 0.0
80.01491870105446 25.586742541043 0.0
80.01210372664376 27.58664692619821 0.0
80.00931736289226 29.586564196146306 0.0
80.00655726092111 31.58649381415846 0.0
80.00382105336882 33.58643528030249 0.0
80.00110635343738 35.58638813275888 0.0
79.9984107541615 37.58635194908903 0.0
79.9957318278808 39.58632634745671 0.0
79.9930671258922 41.586310987747126 0.0
79.99041417826155 43.58630557262955 0.0
79.98777049377324 45.58630984854395 0.0
79.98513355999754 47.58632360661214 0.0
79.98250084345695 49.58634668347896 0.0
79.97986978987467 51.5863789620897 0.0
79.97723782449152 53.58642037241152 0.0
79.97460235243796 55.586470892108615 0.0
79.97196075915316 57.58653054718106 0.0
79.96931041084422 59.58659941257912 0.0
79.96664865498232 61.58667761280425 0.0
79.96397282083595 63.58676532250811 0.0
79.9612802200434 65.5868627671012 0.0
79.95856814723103 67.58697022338758 0.0
79.95583388068587 69.58708802021836 0.0
79.95307468309379 71.58721653919139 0.0
79.95028780235796 73.58735621539367 0.0
79.94747047251343 75.58750753819284 0.0
79.94461991475666 77.58767105208052 0.0
79.94173333861033 79.58784735756649 0.0
79.9388079432448 81.58803711212218 0.0
79.93584091897883 83.58824103116588 0.0
79.93282944898326 85.58845988908183 0.0
79.92977071121015 87.58869452025996 0.0
79.92666188057025 89.58894582014022 0.0
79.92350013138136 91.58921474624204 0.0
79.9202826401059 93.58950231915453 0.0
79.9170065883966 95.58980962346067 0.0
79.91366916646412 97.5901378085638 0.0
82.05270768881688 1.5926043878302423 0.0
82.04930148605928 3.5923089166650968 0.0
82.0459526046621 5.592034853831251 0.0
82.04265871059086 7.591781324632431 0.0
82.03941748420067 9.59154747668458 0.0
82.03622661564718 11.591332480262212 0.0
82.03308380055651 13.5911355289075 0.0
82.0299867359819 15.590955840274884 0.0
82.02693311666908 17.590792657169754 0.0
82.02392063164548 19.59064524875271 0.0
82.02094696114362 21.59051291187396 0.0
82.01800977386219 23.59039497250386 0.0
82.01510672456394 25.590290787228092 0.0
82.01223545200212 27.590199744777543 0.0
82.00939357716624 29.590121267565895 0.0
82.00657870182974 31.590054813210685 0.0
82.00378840738212 33.58999987601672 0.0
82.0010202539231 35.5899559883975 0.0
81.99827177959624 37.58992272223242 0.0
81.99554050013602 39.5898996901598 0.0
81.99282390860395 41.58988654675089 0.0
81.99011947528813 43.58988298961118 0.0
81.98742464774142 45.58988876039033 0.0
81.98473685093522 47.58990364570251 0.0
81.98205348750722 49.58992747796451 0.0
81.97937193808428 51.58996013615926 0.0
81.97668956166315 53.59000154653514 0.0
81.97400369603636 55.59005168325213 0.0
81.97131165825202 57.59011056898774 0.0
81.9686107451009 59.59017827551648 0.0
81.9658982336272 61.59025492427653 0.0
81.96317138166273 63.59034068693693 0.0
81.96042742838799 65.59043578597974 0.0
81.95766359492697 67.59054049531461 0.0
81.95487708498575 69.5906551409224 0.0
81.95206508554836 71.5907801015553 0.0
81.94922476764575 73.59091580949259 0.0
81.94635328721705 75.5910627513599 0.0
81.94344778608463 77.5912214690156 0.0
81.94050539306559 79.59139256050534 0.0
81.93752322524584 81.59157668108269 0.0
81.93449838944164 83.59177454429012 0.0
81.93142798387763 85.59198692309192 0.0
81.92830910010652 87.5922146510457 0.0
81.9251388251999 89.59245862349648 0.0
81.92191424423426 91.59271979877205 0.0
81.91863244309836 93.5929991993546 0.0
81.91529051164338 95.5932979129996 0.0
81.9118855471953 97.5936170937676 0.0
84.05362252954701 1.596144674357188 0.0
84.05014838380401 3.5958575870432123 0.0
84.04673279640838 5.595591589204014 0.0
84.04337340354937 7.595345813793441 0.0
84.04006785546012 9.595119413935386 0.0
84.03681381146592 11.594911563424759 0.0
84.0336089353312 13.59472145750843 0.0
84.03045089093477 15.594548313914741 0.0
84.02733733829585 17.594391374085912 0.0
84.02426592996699 19.594249904580614 0.0
84.0212343078027 21.59412319860688 0.0
84.01824010010738 23.59401057764783 0.0
84.01528091915718 25.59391139314466 0.0
84.0123543590881 27.59382502820373 0.0
84.00945799413478 29.59375089929814 0.0
84.00658937720065 31.593688457937187 0.0
84.00374603873766 33.5936371922804 0.0
84.00092548590854 35.59359662867091 0.0
83.99812520200442 37.59356633308541 0.0
83.99534264608869 39.5935459124996 0.0
83.99257525283663 41.59353501611589 0.0
83.98982043254252 43.59353333649951 0.0
83.9870755712647 45.59354061060574 0.0
83.98433803108243 47.59355662070171 0.0
83.98160515044007 49.59358119519212 0.0
83.9788742445558 51.59361420935828 0.0
83.97614260587702 53.59365558602347 0.0
83.97340750456654 55.59370529615805 0.0
83.97066618900801 57.5937633594398 0.0
83.96791588632244 59.593829844785894 0.0
83.96515380289236 61.59390487087249 0.0
83.96237712489307 63.59398860665876 0.0
83.95958301883573 65.59408127193076 0.0
83.95676863212931 67.59418313788605 0.0
83.95393109367379 69.59429452775848 0.0
83.95106751449954 71.5944158175111 0.0
83.9481749884709 73.5945474365998 0.0
83.94525059307662 75.59468986881598 0.0
83.94229139033052 77.5948436532147 0.0
83.9392944278096 79.59500938512952 0.0
83.93625673985866 81.5951877172733 0.0
83.93317534899116 83.59537936092048 0.0
83.93004726751849 85.5955850871615 0.0
83.92686949943938 87.59580572821753 0.0
83.92363904262113 89.5960421787978 0.0
83.92035289130493 91.596295397478 0.0
83.9170080389639 93.59656640807346 0.0
83.91360148154244 95.59685630097574 0.0
83.91013022110097 97.59716623441642 0.0
86.05451121447385 1.5997544767734642 0.0
86.05097013989977 3.599475949874278 0.0
86.04748884840045 5.599218189873514 0.0
86.04406494966986 7.59898033728222 0.0
86.04069606690742 9.598761550474794 0.0
86.03737983147826 11.598561006368673 0.0
86.03411387791724 13.598377901402548 0.0
86.03089583930746 15.598211452776724 0.0
86.02772334305756 17.598060899905395 0.0
86.02459400709344 19.59792550604285 0.0
86.0215054364736 21.597804560039666 0.0
86.01845522042845 23.59769737818627 0.0
86.01544092981706 25.597603306104556 0.0
86.01246011499008 27.59752172065092 0.0
86.00951030403886 29.597452031797246 0.0
86.00658900140807 31.5973936844615 0.0
86.0036936868449 33.59734616026228 0.0
86.00082181465214 35.59730897917051 0.0
85.9979708132148 37.59728170105561 0.0
85.9951380847638 39.597263927123784 0.0
85.99232100534314 41.59725530119706 0.0
85.98951692494694 43.59725551087908 0.0
85.98672316779226 45.5972642885923 0.0
85.98393703269804 47.59728141249197 0.0
85.98115579354176 49.597306707268174 0.0
85.97837669976843 51.597340044847954 0.0
85.97559697693147 53.597381345013304 0.0
85.97281382724726 55.597430575950945 0.0
85.97002443015089 57.59748775475257 0.0
85.967225942844 59.59755294788481 0.0
85.96441550083067 61.597626271647606 0.0
85.96159021844143 63.59770789264103 0.0
85.95874718935032 65.59779802825865 0.0
85.95588348709398 67.59789694723014 0.0
85.95299616560587 69.59800497021693 0.0
85.95008225978339 71.59812247048966 0.0
85.94713878610824 73.59824987469227 0.0
85.94416274334539 75.5983876637039 0.0
85.9411511133477 77.59853637360561 0.0
85.93810086199719 79.59869659675562 0.0
85.93500894031527 81.59886898297313 0.0
85.93187228577756 83.59905424082628 0.0
85.92868782386903 85.59925313901721 0.0
85.92545246991656 87.59946650785066 0.0
85.9221631312367 89.59969524076931 0.0
85.91881670963525 91.59994029593332 0.0
85.9154101042945 93.60020269781637 0.0
85.911940215082 95.60048353878486 0.0
85.9084039463109 97.60078398062193 0.0
88.05537320659644 1.603432747666627 0.0
88.05176622847695 3.6031629557151925 0.0
88.04822024596857 5.602913604774587 0.0
88.04473284581631 7.60268384273466 0.0
88.04130162750921 9.60247283286605 0.0
88.03792419752493 11.602279754705966 0.0
88.03459816396939 13.602103805262063 0.0
88.03132113164257 15.601944200493184 0.0
88.0280906975576 17.601800177010556 0.0
88.02490444692826 19.601670993956475 0.0
88.02175994963257 21.601555935010982 0.0
88.01865475715144 23.60145431047886 0.0
88.01558639997315 25.60136545941301 0.0
88.01255238544753 27.601288751733374 0.0
88.0095501960666 29.601223590304823 0.0
88.0065772881431 31.601169412942394 0.0
88.00363109085446 33.60112569431635 0.0
88.00070900561492 35.60109194772897 0.0
87.9978084057378 37.6010677267597 0.0
87.99492663634764 39.60105262677617 0.0
87.9920610145018 41.60104628626072 0.0
87.98920882948259 43.6010483879996 0.0
87.98636734322213 45.60105866012108 0.0
87.98353379082448 47.601076876990206 0.0
87.98070538115331 49.60110285997405 0.0
87.97787929745716 51.601136478092506 0.0
87.97505269800723 53.601177648573035 0.0
87.97222271672992 55.60122633732896 0.0
87.96938646381754 57.601282559382895 0.0
87.96654102630947 59.60134637925804 0.0
87.96368346863778 61.601417911359356 0.0
87.96081083313862 63.60149732036746 0.0
87.95792014053474 65.60158482166709 0.0
87.95500839039934 67.60168068183431 0.0
87.9520725616169 69.60178521919151 0.0
87.94910961285962 71.60189880445934 0.0
87.94611648310453 73.60202186151307 0.0
87.94309009221814 75.60215486825801 0.0
87.94002734164002 77.60229835763167 0.0
87.93692511520055 79.60245291873848 0.0
87.93378028010913 81.60261919811818 0.0
87.93058968815366 83.60279790114541 0.0
87.92735017715191 85.60298979355274 0.0
87.92405857269775 87.60319570306537 0.0
87.9207116902458 89.60341652112955 0.0
87.91730633757749 91.60365320471183 0.0
87.91383931769052 93.60390677814084 0.0
87.91030743215265 95.60417833495592 0.0
87.90670748495721 97.6044690397221 0.0
90.05620797574826 1.607178428831062 0.0
90.05253612893758 3.606917544317263 0.0
90.04892647827269 5.606676772048809 0.0
90.0453765913819 7.606455267016502 0.0
90.04188404761777 9.606252196921384 0.0
90.03844643185755 11.606066743297323 0.0
90.03506132875427 13.605898102972889 0.0
90.03172631747444 15.605745489825377 0.0
90.0284389669493 17.60560813676405 0.0
90.02519683165518 19.605485297893427 0.0
90.02199744792988 21.605376250801022 0.0
90.0188383308208 23.605280298916178 0.0
90.01571697145297 25.605196773890768 0.0
90.0126308348951 27.605125037956366 0.0
90.00957735849647 29.6050644862174 0.0
90.00655395065928 31.605014548845713 0.0
90.00355799000795 33.6049746931468 0.0
90.0005868249114 35.60494442546782 0.0
89.99763777331393 37.60492329294457 0.0
89.9947081228272 39.60491088508333 0.0
89.99179513103738 41.604906835130365 0.0
89.98889602598176 43.604910821276 0.0
89.98600800675237 45.60492256768274 0.0
89.98312824418531 47.604941845347405 0.0
89.98025388160066 49.604968472814086 0.0
89.97738203556054 51.60500231675665 0.0
89.97450979661852 53.60504329245228 0.0
89.97163423003829 55.605091364169354 0.0
89.96875237646634 57.605146545495465 0.0
89.96586125254697 59.60520889963087 0.0
89.96295785147589 61.605278539674295 0.0
89.96003914349241 63.60535562892654 0.0
89.95710207631764 65.60544038123727 0.0
89.95414357554967 67.60553306142243 0.0
89.95116054503347 69.60563398576491 0.0
89.94814986722766 71.60574352262927 0.0
89.94510840359446 73.60586209320215 0.0
89.94203299504468 75.6059901723734 0.0
89.93892046247268 77.60612828976969 0.0
89.93576760742015 79.60627703094731 0.0
89.9325712129111 81.6064370387467 0.0
89.9293280445027 83.60660901480811 0.0
89.92603485159937 85.60679372124119 0.0
89.92268836907864 87.60699198243722 0.0
89.91928531927877 89.60720468700649 0.0
89.91582241439777 91.60743278981712 0.0
89.91229635935413 93.60767731410643 0.0
89.90870385515586 95.60793935362713 0.0
89.90504160282478 97.60822007478654 0.0
92.05701499865188 1.610990453057139 0.0
92.05327932588179 3.6107386464310895 0.0
92.04960703812164 5.610506620866288 0.0
92.04599568802168 7.610293538061504 0.0
92.04244283864058 9.61009856955398 0.0
92.03894605676854 11.609920898113522 0.0
92.03550290676532 13.609759719498953 0.0
92.03211094495289 15.609614244522609 0.0
92.0287677145897 17.609483701352822 0.0
92.0254707414429 19.609367337998048 0.0
92.02221752996371 21.60926442490993 0.0
92.01900556005849 23.609174257645606 0.0
92.01583228443944 25.60909615953404 0.0
92.01269512652797 27.60902948429588 0.0
92.00959147887718 29.608973618571977 0.0
92.006518702071 31.60892798432285 0.0
92.00347412405415 33.60889204106688 0.0
92.00045503984175 35.60886528792581 0.0
91.99745871155574 37.60884726547502 0.0
91.99448236873343 39.608837557393656 0.0
91.99152320885575 41.60883579187022 0.0
91.98857839804158 43.60884164281148 0.0
91.98564507185995 45.608854830847214 0.0
91.98272033621427 47.60887512414352 0.0
91.9798012682574 49.608902339045876 0.0
91.97688491730187 51.60893634057329 0.0
91.97396830569525 53.608977042790066 0.0
91.97104842963621 55.609024409082174 0.0
91.96812225991417 57.60907845236769 0.0
91.9651867425602 59.609139235272046 0.0
91.96223879940524 61.609206870297086 0.0
91.9592753285462 63.60928152001506 0.0
91.95629320472804 65.60936339731568 0.0
91.95328927965517 67.60945276573622 0.0
91.95026038225166 69.60954993989364 0.0
91.94720331889518 71.60965528604922 0.0
91.94411487365488 73.60976922282168 0.0
91.94099180856783 75.60989222206703 0.0
91.93783086399378 77.61002480993788 0.0
91.93462875909196 79.61016756813183 0.0
91.93138219246687 81.61032113533358 0.0
91.92808784303377 83.61048620885065 0.0
91.92474237115705 85.61066354643768 0.0
91.9213424201169 87.61085396829817 0.0
91.91788461796077 89.61105835924675 0.0
91.91436557979763 91.6112776710083 0.0
91.91078191059187 93.61151292462378 0.0
91.90713020851334 95.61176521292441 0.0
91.90340706889762 97.61203570302955 0.0
94.05779375892412 1.6148677460830705 0.0
94.05399530897522 3.614625185776901 0.0
94.0502614217241 5.614402073415728 0.0
94.0465896393133 7.614197576880427 0.0
94.04297751263657 9.614010870802941 0.0
94.03942259415001 11.613841138271269 0.0
94.0359224312707 13.613687572921577 0.0
94.03247456040613 15.613549381355618 0.0
94.02907650164303 17.613425785804218 0.0
94.02572575411214 19.613316026973038 0.0
94.0224197920312 21.61321936699942 0.0
94.019156061416 23.613135092453536 0.0
94.01593197743786 25.61306251732158 0.0
94.01274492239446 27.61300098591511 0.0
94.0095922442526 29.61294987565677 0.0
94.00647125571334 31.612908599701093 0.0
94.00337923374397 33.61287660935564 0.0
94.00031341951723 35.61285339626973 0.0
93.99727101869665 37.61283849438858 0.0
93.99424920200396 39.61283148166728 0.0
93.99124510600795 41.612831981503845 0.0
93.98825583407464 43.6128396639402 0.0
93.98527845742228 45.612854246627414 0.0
93.9823100162304 47.612875495571664 0.0
93.97934752075598 49.61290322568594 0.0
93.97638795241714 51.61293730117342 0.0
93.97342826481038 53.61297763577372 0.0
93.9704653846355 55.613024192903254 0.0
93.96749621250775 57.61307698572452 0.0
93.96451762364646 59.61313607717819 0.0
93.96152646843366 61.61320158001346 0.0
93.95851957284559 63.61327365684981 0.0
93.955493738766 65.61335252030403 0.0
93.95244574419618 67.61343843321465 0.0
93.94937234338455 69.6135317089886 0.0
93.94627026690242 71.61363271210124 0.0
93.9431362217011 73.61374185877087 0.0
93.93996689118826 75.61385961782732 0.0
93.93675893536746 77.61398651179138 0.0
93.93350899109083 79.61412311817513 0.0
93.93021367247566 81.61427007101204 0.0
93.92686957154321 83.61442806261668 0.0
93.92347325913845 85.61459784557134 0.0
93.92002128619326 87.61478023492934 0.0
93.91651018539775 89.61497611061851 0.0
93.91293647334504 91.61518642002186 0.0
93.90929665321542 93.61541218070373 0.0
93.9055872180659 95.61565448324392 0.0
93.90180465478775 97.61591449413078 0.0
96.05854374702265 1.6188092287236961 0.0
96.05468357274606 3.6185760811948606 0.0
96.05088912836321 5.618362047077571 0.0
96.04715795033549 7.618166299756048 0.0
96.04348758182807 9.61798801604682 0.0
96.03987556496999 11.617826378259043 0.0
96.03631943378439 13.617680576669331 0.0
96.03281670783626 15.617549812339531 0.0
96.02936488662847 17.617433300189017 0.0
96.02596144476087 19.617330272247806 0.0
96.02260382785343 21.61723998101044 0.0
96.01928944921863 23.617161702815263 0.0
96.01601568725471 25.617094741179347 0.0
96.01277988352004 27.617038430026508 0.0
96.00957934143791 29.616992136753804 0.0
96.00641132557313 31.616955265090812 0.0
96.00327306141396 33.61692725771509 0.0
96.00016173559115 35.616907598588874 0.0
95.9970744964609 37.616895815016136 0.0
95.99400845497931 39.61689147941427 0.0
95.99096068579814 41.616894210763164 0.0
95.98792822851237 43.61690367578278 0.0
95.98490808899714 45.61691958983964 0.0
95.98189724077476 47.61694171760322 0.0
95.97889262636095 49.61696987348178 0.0
95.97589115854457 51.61700392186915 0.0
95.97288972156487 53.61704377723815 0.0
95.96988517215624 55.617089404117834 0.0
95.96687434044019 57.617140816993725 0.0
95.96385403065115 59.61719808017091 0.0
95.96082102169157 61.61726130763917 0.0
95.95777206751877 63.61733066297883 0.0
95.95470389737457 65.61740635934491 0.0
95.9516132158748 67.61748865956535 0.0
95.94849670298383 69.61757787638363 0.0
95.94535101390525 71.61767437287857 0.0
95.94217277892561 73.61777856308662 0.0
95.93895860325571 75.61789091284905 0.0
95.93570506691671 77.61801194090337 0.0
95.93240872472663 79.61814222023271 0.0
95.92906610644421 81.61828237968226 0.0
95.92567371713452 83.61843310584678 0.0
95.92222803782182 85.61859514522685 0.0
95.9187255265002 87.61876930664535 0.0
95.91516261957408 89.61895646390886 0.0
95.91153573380322 91.61915755869111 0.0
95.90784126882755 93.61937360360734 0.0
95.90407561034692 95.61960568543996 0.0
95.90023513403061 97.61985496846724 0.0
98.05926446012523 1.6228138191918624 0.0
98.05534361630343 3.6225902489914157 0.0
98.05148965998137 5.622385456796707 0.0
98.04770012715213 7.622198620641029 0.0
98.04397255801798 9.622028918422448 0.0
98.04030448865637 11.621875530370215 0.0
98.03669344345103 13.621737641955288 0.0
98.03313692833883 15.621614447162923 0.0
98.02963242490546 17.621505152027435 0.0
98.0261773853441 19.62140897834452 0.0
98.02276922827517 21.621325167470804 0.0
98.01940533540551 23.621252984125068 0.0
98.01608304899386 25.62119172011342 0.0
98.01279967007146 27.621140697908064 0.0
98.00955245735797 29.621099274019702 0.0
98.00633862680273 31.62106684211362 0.0
98.00315535167366 33.62104283582994 0.0
97.99999976311211 35.621026731272536 0.0
97.99686895107097 37.62101804916605 0.0
97.99375996555099 39.621016356676456 0.0
97.99066981805447 41.62102126886186 0.0
97.98759548317916 43.62103244980772 0.0
97.98453390027896 45.62104961345152 0.0
97.98148197512693 47.62107252412372 0.0
97.97843658152213 49.621100996839345 0.0
97.97539456279159 51.6211348973783 0.0
97.97235273314526 53.62117414219518 0.0
97.96930787885357 55.62121869820244 0.0
97.966256759225 57.621268582471295 0.0
97.96319610736938 59.62132386189583 0.0
97.96012263074311 61.62138465286471 0.0
97.95703301148025 63.62145112098429 0.0
97.95392390652124 65.621523480895 0.0
97.95079194756045 67.62160199622103 0.0
97.94763374083918 69.62168697968845 0.0
97.94444586681975 71.62177879344746 0.0
97.94122487978156 73.62187784962745 0.0
97.93796730738771 75.62198461115113 0.0
97.93466965027594 77.62209959283001 0.0
97.9313283817325 79.62222336275654 0.0
97.92793994751524 81.62235654400666 0.0
97.92450076589445 83.62249981665695 0.0
97.92100722798531 85.6226539201174 0.0
97.91745569845048 87.62281965577274 0.0
97.91384251665383 89.622997889918 0.0
97.91016399834777 91.62318955696675 0.0
97.90641643798176 93.623395662901 0.0
97.9025961117165 95.62361728892309 0.0
97.89869928123058 97.62385559525993 0.0
100.05995540192963 1.6268804356299014 0.0
100.0559749429621 3.626666605499624 0.0
100.05206252066328 5.626471217673145 0.0
100.04821567618879 7.626293453777347 0.0
100.04443195189717 9.626132491468494 0.0
100.04070888237494 11.625987507362304 0.0
100.03704398633393 13.62585768044082 0.0
100.03343475943765 15.625742195841521 0.0
100.0298786680908 17.625640248915587 0.0
100.02637314420537 19.625551049458124 0.0
100.02291558093725 21.62547382600785 0.0
100.01950332936615 23.625407830119574 0.0
100.01613369607496 25.625352340521925 0.0
100.01280394156836 27.625306667082086 0.0
100.00951127945815 29.625270154510996 0.0
100.00625287633157 31.625242185754804 0.0
100.00302585221189 33.62522218503039 0.0
99.99982728151606 35.62520962046887 0.0
99.99665419441207 37.62520400636728 0.0
99.99350357847993 39.62520490504621 0.0
99.99037238058231 41.62521192828413 0.0
99.98725750885724 43.62522473838734 0.0
99.98415583475106 45.62524304890554 0.0
99.9810641950186 47.62526662502692 0.0
99.9779793936247 49.62529528369276 0.0
99.97489820349492 51.62532889347697 0.0
99.97181736806883 53.625367374277886 0.0
99.96873360262302 55.625410696872294 0.0
99.96564359533926 57.62545888238324 0.0
99.96254400810507 59.62551200171201 0.0
99.95943147704126 61.625570174985484 0.0
99.95630261276374 63.62563357106698 0.0
99.95315400039283 65.6257024071781 0.0
99.9499821993337 67.62577694867494 0.0
99.9467837428586 69.62585750902014 0.0
99.9435551375301 71.62594444998813 0.0
99.94029286251127 73.62603818213715 0.0
99.93699336881468 75.62613916557723 0.0
99.93365307855098 77.62624791105956 0.0
99.9302683842412 79.62636498140603 0.0
99.92683564826476 81.62649099329478 0.0
99.92335120251883 83.62662661940907 0.0
99.91981134837225 85.6267725909527 0.0
99.91621235699773 87.6269297005268 0.0
99.91255047017526 89.62709880535593 0.0
99.90882190165843 91.62728083084284 0.0
99.90502283920075 93.62747677442209 0.0
99.90114944733988 95.62768770967315 0.0
99.89719787103839 97.62791479064184 0.0
102.06061608236327 1.6310079988708197 0.0
102.05657705976213 3.6308040698735344 0.0
102.0526072160021 5.630618247791158 0.0
102.0487041034862 7.630449716558347 0.0
102.04486527222923 9.63029765201461 0.0
102.04108826018916 11.630161225363851 0.0
102.03737058459367 13.630039607146786 0.0
102.0337097343255 15.629931971616946 0.0
102.03010316340084 17.629837501392014 0.0
102.02654828555498 19.629755392268276 0.0
102.02304246992288 21.629684858082005 0.0
102.01958303777859 23.629625135508086 0.0
102.01616726028153 25.62957548869733 0.0
102.01279235715356 27.629535213665267 0.0
102.00945549620234 29.629503642358852 0.0
102.00615379358995 31.62948014634223 0.0
102.00288431474073 33.62946414005715 0.0
101.99964407577767 35.629455083620876 0.0
101.99643004537413 37.62945248516476 0.0
101.99323914690918 39.62945590271279 0.0
101.99006826082227 41.62946494557731 0.0
101.98691422706405 43.62947927533538 0.0
101.98377384755486 45.62949860640352 0.0
101.9806438885661 47.62952270625077 0.0
101.9775210829548 49.62955139529911 0.0
101.97440213219122 51.6295845465632 0.0
101.97128370813182 53.62962208508466 0.0
101.96816245449932 55.62966398721863 0.0
101.96503498804799 57.62971027983015 0.0
101.96189789939747 59.62976103945849 0.0
101.95874775353516 61.62981639150548 0.0
101.95558108999181 63.62987650950267 0.0
101.95239442271026 65.62994161450912 0.0
101.94918423963115 67.63001197468772 0.0
101.94594700203167 69.63008790510759 0.0
101.94267914366085 71.63016976781168 0.0
101.93937706972024 73.63025797218816 0.0
101.93603715575023 75.63035297567802 0.0
101.93265574648453 77.63045528484759 0.0
101.92922915474652 79.63056545684812 0.0
101.92575366046306 81.63068410128086 0.0
101.92222550988195 83.63081188247837 0.0
101.91864091507989 85.63094952220771 0.0
101.91499605385887 87.63109780279302 0.0
101.91128707012746 89.63125757064758 0.0
101.90751007487448 91.63142974019662 0.0
101.90366114783949 93.63161529816306 0.0
101.89973633999395 95.63181530817646 0.0
101.89573167694198 97.6320309156561 0.0
104.06124601718754 1.6351954354512062 0.0
104.05714947686633 3.6350015671392395 0.0
104.05312325233203 5.634825471310143 0.0
104.04916491381415 7.634666332657024 0.0
104.04527202489456 9.634523323340456 0.0
104.04144213208531 11.63439560705286 0.0
104.0376727555449 13.634282343635778 0.0
104.03396138099973 15.634182694123265 0.0
104.03030545291067 17.634095826065497 0.0
104.02670236889354 19.63402091900293 0.0
104.02314947537725 21.633957169958684 0.0
104.01964406445289 23.633903798824665 0.0
104.01618337184773 25.633860053530466 0.0
104.01276457593494 27.6338252148976 0.0
104.0093847976741 29.633798601097872 0.0
104.00604110136675 31.633779571652642 0.0
104.00273049609936 33.633767530925624 0.0
103.99944993774564 35.63376193107313 0.0
103.99619633139699 37.633762274456956 0.0
103.99296653409415 39.633768115523516 0.0
103.98975735773821 41.63377906213303 0.0
103.98656557206766 43.633794776408884 0.0
103.98338790759946 45.63381497513296 0.0
103.98022105844186 47.63383942973576 0.0
103.97706168490112 49.633867965939196 0.0
103.97390641581717 51.633900463112106 0.0
103.97075185057625 53.633936853403306 0.0
103.96759456076208 55.63397712071709 0.0
103.96443109142072 57.6340212995969 0.0
103.96125796192479 59.6340694740822 0.0
103.95807166643804 61.63412177660097 0.0
103.95486867398782 63.63417838695858 0.0
103.95164542816703 65.63423953148039 0.0
103.94839834649542 67.63430548235978 0.0
103.94512381947855 69.63437655726572 0.0
103.94181820941337 71.63445311925075 0.0
103.93847784899437 73.63453557700282 0.0
103.93509903978496 75.6346243854775 0.0
103.93167805062401 77.63472004694106 0.0
103.92821111604566 79.63482311245205 0.0
103.92469443479682 81.63493418380129 0.0
103.92112416854326 83.63505391592513 0.0
103.91749644086325 85.63518301980054 0.0
103.91380733663071 87.63532226582252 0.0
103.91005290189905 89.63547248765678 0.0
103.90622914440014 91.63563458655177 0.0
103.90233203477841 93.6358095360837 0.0
103.8983575086835 95.63599838729755 0.0
103.89430146984964 97.63620227419499 0.0
106.06184472748281 1.639441680900877 0.0
106.05769170681806 3.639258031528194 0.0
106.05361013580709 5.6390918218434205 0.0
106.04959760962497 7.638942235447336 0.0
106.04565171177457 9.638808438631413 0.0
106.04177000284572 11.638689585133688 0.0
106.03795001057485 13.638584821491886 0.0
106.03418922128185 15.638493292846713 0.0
106.03048507272432 17.63841414902811 0.0
106.02683494837598 19.638346550775076 0.0
106.02323617310414 21.638289675937166 0.0
106.01968601018802 23.638242725516953 0.0
106.01618165959616 25.63820492942763 0.0
106.01272025741436 27.638175551857493 0.0
106.00929887629978 29.638153896151664 0.0
106.00591452682181 31.638139309143014 0.0
106.00256415954301 33.63813118488329 0.0
105.99924466768735 35.638128967739085 0.0
105.99595289024701 37.6381321548622 0.0
105.99268561538034 39.638140298042686 0.0
105.98943958396283 41.63815300493754 0.0
105.98621149316449 43.638169939752316 0.0
105.98299799993657 45.63819082341235 0.0
105.97979572430941 47.63821543328186 0.0
105.97660125241373 49.638243602499244 0.0
105.9734111391558 51.638275218998636 0.0
105.97022191049193 53.63831022429214 0.0
105.96703006526111 55.63834861208651 0.0
105.9638320765523 57.6383904268084 0.0
105.96062439259306 59.63843576211079 0.0
105.95740343716147 61.63848475942971 0.0
105.95416560953383 63.6385376066583 0.0
105.9509072839928 65.63859453700067 0.0
105.94762480892895 67.63865582806199 0.0
105.9443145055808 69.63872180123442 0.0
105.9409726664651 71.6387928214223 0.0
105.9375955535586 73.63886929715505 0.0
105.93417939629946 75.63895168112658 0.0
105.93072038948607 77.6390404711969 0.0
105.92721469115666 79.63913621188534 0.0
105.92365842054112 81.63923949637991 0.0
105.92004765618404 83.63935096908092 0.0
105.91637843434515 85.63947132869059 0.0
105.91264674778904 87.63960133185313 0.0
105.90884854508555 89.63974179734156 0.0
105.904979730546 91.63989361077826 0.0
105.90103616492831 93.64005772986691 0.0
105.89701366704905 95.64023519009974 0.0
105.89290801644391 97.64042711089493 0.0
108.06241173899421 1.6437456833376292 0.0
108.05820326364008 3.6435724101219966 0.0
108.05406737130673 5.643416246154868 0.0
108.05000168982566 7.6432763717490415 0.0
108.04600382945644 9.643151944761998 0.0
108.04207137075089 11.643042106143156 0.0
108.03820185390919 13.642945986127923 0.0
108.03439276970795 15.64286271090711 0.0
108.03064155204741 17.6427914095797 0.0
108.02694557211622 19.64273122121587 0.0
108.02330213414173 21.642681301856324 0.0
108.01970847265059 23.642640831287693 0.0
108.01616175113963 25.64260901945204 0.0
108.01265906202465 27.642585112369506 0.0
108.00919742772014 29.64256839747619 0.0
108.00577380268278 31.64255820830369 0.0
108.00238507624705 33.64255392845107 0.0
107.99902807607633 35.64255499481519 0.0
107.9956995720559 37.64256090009535 0.0
107.9923962804594 39.642571194586615 0.0
107.98911486823275 41.64258548726582 0.0
107.98585195725255 43.642603446257304 0.0
107.98260412842916 45.64262479872691 0.0
107.97936792554616 47.64264933027453 0.0
107.97613985874025 49.64267688390505 0.0
107.9729164075493 51.64270735865962 0.0
107.96969402346811 53.64274070799188 0.0
107.96646913197415 55.64277693797301 0.0
107.96323813399603 57.64281610540901 0.0
107.95999740681751 59.64285831595005 0.0
107.95674330441946 61.642903722269 0.0
107.9534721572778 63.6429525223817 0.0
107.95018027164453 65.64300495817717 0.0
107.94686392835347 67.64306131421846 0.0
107.94351938119637 69.64312191687931 0.0
107.94014285492877 71.64318713386285 0.0
107.93673054297331 73.64325737415398 0.0
107.93327860489204 75.64333308844954 0.0
107.92978316371385 77.64341477010348 0.0
107.92624030320464 79.64350295662179 0.0
107.92264606517983 81.64359823173372 0.0
107.9189964469662 83.64370122806275 0.0
107.9152873991249 85.64381263041186 0.0
107.9115148235608 87.64393317967254 0.0
107.90767457214507 89.64406367735714 0.0
107.90376244599231 91.64420499074652 0.0
107.8997741955345 93.64435805863369 0.0
107.89570552154738 95.64452389763218 0.0
107.89155207728527 97.64470360900506 0.0
110.06294658132076 1.6481064073997018 0.0
110.05868366174943 3.6479436668420235 0.0
110.05449446114046 5.647797708207709 0.0
110.05037664834312 7.647667705931018 0.0
110.04632786773116 9.64755280644196 0.0
110.0423457260885 11.647452134620691 0.0
110.03842778120568 13.64736480095395 0.0
110.0345715322786 15.647289909193253 0.0
110.03077441215565 17.647226564293472 0.0
110.02703378142935 19.647173880430557 0.0
110.02334692432396 21.647130988898894 0.0
110.01971104628849 23.6470970457054 0.0
110.01612327316785 25.6470712387002 0.0
110.01258065179732 27.6470527941089 0.0
110.00908015183707 29.647040982359297 0.0
110.00561866865651 31.647035123124834 0.0
110.00219302706104 33.647034589534954 0.0
109.99879998565812 35.647038811522414 0.0
109.9954362416615 37.64704727833092 0.0
109.99209843594177 39.64705954020632 0.0
109.9887831581466 41.64707520928866 0.0
109.98548695172889 43.6470939598041 0.0
109.9822063187419 45.647115527619675 0.0
109.97893772428014 47.64713970924483 0.0
109.97567760046476 49.647166360373596 0.0
109.97242234989608 51.64719539406182 0.0
109.96916834851137 53.64722677863627 0.0
109.96591194780945 55.647260535430554 0.0
109.96264947641858 57.64729673643997 0.0
109.95937724100183 59.647335501984706 0.0
109.95609152650793 61.64737699846481 0.0
109.95278859578914 63.64742143628601 0.0
109.94946468862165 65.6474690680304 0.0
109.94611602016936 67.64752018693531 0.0
109.94273877895014 69.64757512575297 0.0
109.93932912436448 71.64763425603746 0.0
109.93588318386026 73.64769798791605 0.0
109.93239704981443 75.64776677039116 0.0
109.92886677621918 77.64784109221513 0.0
109.9252883752704 79.64792148337426 0.0
109.9216578139623 81.648008517214 0.0
109.91797101080334 83.64810281323223 0.0
109.91422383277384 85.64820504055982 0.0
109.91041209265782 87.64831592214227 0.0
109.90653154688904 89.6484362396274 0.0
109.9025778940608 91.64856683895594 0.0
109.89854677425858 93.64870863664008 0.0
109.89443376938321 95.64886262670488 0.0
109.89023440464021 97.6490298882514 0.0
112.06344878692317 1.6525228385533723 0.0
112.05913241466442 3.652370786822405 0.0
112.05489090352506 5.652235193604861 0.0
112.05072197245178 7.652115224413227 0.0
112.04662330785982 9.6520100107658 0.0
112.0425925494442 11.651918657682709 0.0
112.03862727795634 13.651840251945973 0.0
112.03472500505167 15.651773870888427 0.0
112.0308831652521 17.6517185914555 0.0
112.02709911001418 19.651673499305225 0.0
112.02337010383701 21.6516376977171 0.0
112.01969332229496 23.651610316100673 0.0
112.01606585184132 25.651590517923196 0.0
112.0124846911913 27.65157750790575 0.0
112.00894675407031 29.651570538371406 0.0
112.00544887309626 31.65156891466398 0.0
112.00198780455578 33.65157199958855 0.0
111.99856023383768 35.651579216849704 0.0
111.99516278129019 37.651590053521375 0.0
111.99179200828492 39.65160406158271 0.0
111.98844442328692 41.651620858553486 0.0
111.98511648775056 43.651640127343654 0.0
111.9818046216866 45.651661615395604 0.0
111.97850520876823 47.65168513322106 0.0
111.97521460086936 49.65171055244073 0.0
111.97192912195182 51.65173780343639 0.0
111.96864507124269 53.651766872725645 0.0
111.96535872566199 55.65179780016523 0.0
111.96206634148206 57.65183067608606 0.0
111.95876415521658 59.65186563845751 0.0
111.9554483837541 61.65190287017165 0.0
111.95211522376172 63.651942596533 0.0
111.94876085040154 65.65198508303205 0.0
111.94538141540932 67.65203063347039 0.0
111.9419730445952 69.65207958851447 0.0
111.93853183483851 71.65213232472615 0.0
111.93505385065241 73.6521892541315 0.0
111.9315351204062 75.65225082437648 0.0
111.9279716322994 77.65231751951512 0.0
111.92435933018972 79.65238986147016 0.0
111.92069410938737 81.65246841220285 0.0
111.91697181253566 83.65255377662157 0.0
111.91318822570813 85.6526466062548 0.0
111.90933907486114 87.65274760370727 0.0
111.90542002279437 89.65285752790946 0.0
111.90142666677858 91.65297720016419 0.0
111.89735453702444 93.65310751098087 0.0
111.89319909617404 95.65324942767852 0.0
111.88895574001074 97.65340400272316 0.0
114.06391788992481 1.656993987819098 0.0
114.05954903347038 3.6568527812109313 0.0
114.05525619080018 5.656727714466612 0.0
114.05103714083283 7.656617940613913 0.0
114.04688962057526 9.656522572212168 0.0
114.04281130974788 11.656440690047123 0.0
114.03879981767635 13.656371352659033 0.0
114.03485267256673 15.65631360642757 0.0
114.03096731320733 17.656266495915222 0.0
114.0271410830785 19.656229074196062 0.0
114.02337122678196 21.65620041290448 0.0
114.01965488864668 23.656179611765374 0.0
114.01598911332151 25.65616580740105 0.0
114.01237084812091 27.656158181248074 0.0
114.00879694686988 29.656155966457888 0.0
114.00526417497018 31.656158453696815 0.0
114.00176921541015 33.65616499580031 0.0
113.99830867543758 35.65617501126574 0.0
113.99487909363198 37.656187986631025 0.0
113.99147694712543 39.656203477789056 0.0
113.98809865874726 41.6562211102907 0.0
113.98474060389452 43.65624057876959 0.0
113.98139911695509 45.65626164558758 0.0
113.97807049714481 47.6562841388212 0.0
113.97475101364418 49.65630794971589 0.0
113.97143690995016 51.65633302973386 0.0
113.96812440738589 53.65635938732002 0.0
113.96480970773011 55.65638708450498 0.0
113.9614889949555 57.656416233458415 0.0
113.95815843607755 59.65644699309962 0.0
113.95481418113786 61.656479565862455 0.0
113.95145236235403 63.6565141947063 0.0
113.94806909248645 65.65655116045566 0.0
113.94466046247763 67.6565907795392 0.0
113.94122253843241 69.65663340220958 0.0
113.93775135801616 71.6566794112937 0.0
113.93424292635274 73.65672922153747 0.0
113.93069321151705 75.65678327959697 0.0
113.9270981397201 77.65684206472403 0.0
113.92345359029564 79.65690609019013 0.0
113.9197553906069 81.65697590548899 0.0
113.91599931099795 83.65705209935237 0.0
113.91218105992935 85.65713530361042 0.0
113.90829627944404 87.65722619792035 0.0
113.90434054112588 89.6573255153817 0.0
113.90030934272086 91.6574340490477 0.0
113.8961981056095 93.6575526593321 0.0
113.89200217332665 95.65768228229959 0.0
113.88771681134203 97.65782393881244 0.0
116.06435342467564 1.6615188969667134 0.0
116.05993302501199 3.661388692449805 0.0
116.05558980734446 5.661274314798894 0.0
116.05132162132465 7.661174900396214 0.0
116.04712626378273 9.661089538147795 0.0
116.04300146204228 11.661017279561458 0.0
116.03894485985471 13.660957149735768 0.0
116.03495400608277 15.660908158933047 0.0
116.03102634617757 17.660869314388542 0.0
116.02715921641256 19.660839632035483 0.0
116.02334984076155 21.660818147839855 0.0
116.0195953302404 23.660803928470802 0.0
116.01589268447653 25.660796081076377 0.0
116.0122387952258 27.660793761979352 0.0
116.00863045153021 29.660796184157817 0.0
116.00506434618578 31.660802623425145 0.0
116.00153708319617 33.66081242327043 0.0
115.99804518588508 35.660824998355686 0.0
115.99458510536307 37.66083983673514 0.0
115.99115322906613 39.66085650086572 0.0
115.98774588911294 41.660874627486045 0.0
115.9843593702611 43.660893926519265 0.0
115.98098991727693 45.66091417912251 0.0
115.97763374156841 47.66093523502567 0.0
115.97428702696519 49.6609570093063 0.0
115.97094593455985 51.6609794787454 0.0
115.96760660655708 53.661002677903824 0.0
115.96426516909813 55.66102669505187 0.0
115.96091773405637 57.66105166807671 0.0
115.9575603998172 59.66107778048181 0.0
115.9541892510702 61.6611052575839 0.0
115.95080035765949 63.66113436300272 0.0
115.9473897725474 65.66116539553055 0.0
115.94395352895793 67.66119868645399 0.0
115.94048763677428 69.66123459741394 0.0
115.93698807827394 71.66127351885177 0.0
115.93345080329088 73.66131586911042 0.0
115.92987172390286 75.66136209424273 0.0
115.9262467087485 77.66141266857859 0.0
115.92257157708868 79.66146809609775 0.0
115.91884209273346 81.66152891265223 0.0
115.91505395796764 83.66159568907923 0.0
115.91120280761865 85.66166903523997 0.0
115.9072842034222 87.66174960501648 0.0
115.90329362885484 89.66183810229151 0.0
115.89922648461699 91.66193528792988 0.0
115.89507808496461 93.66204198776926 0.0
115.89084365510423 95.6621591016183 0.0
115.8865183298817 97.66228761324459 0.0
118.06475492404483 1.6660966442387553 0.0
118.06028388976812 3.6659776000970163 0.0
118.05589122714893 5.665874076414482 0.0
118.05157486832063 7.665785188077538 0.0
118.0473326799188 9.665709994899018 0.0
118.0431624449405 11.665647513296651 0.0
118.03906184764209 13.665596728969279 0.0
118.03502846161749 15.665556610183168 0.0
118.03105974109889 17.665526121260395 0.0
118.02715301542331 19.665504235893437 0.0
118.02330548651632 21.665489949930894 0.0
118.01951422916771 23.665482293320725 0.0
118.01577619380747 25.665480340950445 0.0
118.012088211441 27.66548322218035 0.0
118.00844700037396 29.66549012892628 0.0
118.00484917433806 31.66550032220748 0.0
118.00129125163099 33.66551313713128 0.0
117.99776966489416 35.6655279863275 0.0
117.99428077117881 37.665544361921164 0.0
117.99082086197855 39.66556183613762 0.0
117.98738617294813 41.66558006064677 0.0
117.98397289306519 43.66559876482897 0.0
117.98057717303736 45.66561775311369 0.0
117.97719513279691 47.66563690155904 0.0
117.97382286796281 49.66565615384259 0.0
117.97045645519091 51.66567551682799 0.0
117.9670919563611 53.665695055864816 0.0
117.96372542158167 55.66571488996744 0.0
117.96035289101336 57.665735187009155 0.0
117.95697039553917 59.66575615905334 0.0
117.9535739563192 61.66577805793337 0.0
117.95015958328631 63.66580117118073 0.0
117.94672327264861 65.66582581839 0.0
117.94326100347284 67.66585234809529 0.0
117.93976873343287 69.6658811352454 0.0
117.93624239381228 71.6659125793259 0.0
117.93267788385626 73.66594710319731 0.0
117.92907106457716 75.66598515270393 0.0
117.92541775212233 77.66602719710703 0.0
117.92171371082136 79.66607373039103 0.0
117.91795464604095 81.66612527349253 0.0
117.91413619698292 83.6661823774963 0.0
117.91025392957563 85.66624562784162 0.0
117.90630332961898 87.66631564957818 0.0
117.90227979636242 89.6663931137049 0.0
117.89817863670758 91.6664787446202 0.0
117.89399506024671 93.66657332870307 0.0
117.88972417536709 95.66667772403248 0.0
117.88536098666867 97.66679287124163 0.0
120.06512191739998 1.6707263506714762 0.0
120.06060111936436 3.6706186272598966 0.0
120.05615991099421 5.670526125480528 0.0
120.05179631976372 7.670447933076305 0.0
120.04750829292175 9.670383074465683 0.0
120.043293677732 11.67033052427887 0.0
120.03915020524629 13.670289221988801 0.0
120.03507547777039 15.670258087174995 0.0
120.03106696005771 17.670236034939826 0.0
120.0271219741449 19.670221991035056 0.0
120.02323769763957 21.670214906285917 0.0
120.01941116517246 23.670213769953204 0.0
120.01563927265595 25.67021762173979 0.0
120.01191878393381 27.670225562218 0.0
120.0082463393766 29.670236761527512 0.0
120.00461846596004 31.670250466264967 0.0
120.00103158837359 33.67026600455181 0.0
119.9974820407207 35.670282789317056 0.0
119.9939660784116 37.67030031991295 0.0
119.99047988988495 39.670318182189966 0.0
119.98701960784634 41.670336047172995 0.0
119.98358131976211 43.67035366855502 0.0
119.98016107739474 45.670370879191864 0.0
119.97675490521834 47.67038758679622 0.0
119.97335880759837 49.67040376902705 0.0
119.96996877465814 51.670419468161484 0.0
119.966580786794 53.670434785524385 0.0
119.96319081783182 55.67044987583624 0.0
119.95979483683962 57.67046494162501 0.0
119.9563888086378 59.67048022783255 0.0
119.95296869305855 61.67049601673064 0.0
119.94953044302494 63.670512623249245 0.0
119.94607000152506 65.67053039080693 0.0
119.9425832975669 67.67054968771646 0.0
119.93906624120639 69.67057090425507 0.0
119.93551471774282 71.67059445044404 0.0
119.93192458118601 73.67062075460841 0.0
119.92829164709971 75.67065026277112 0.0
119.92461168493591 77.67068343893659 0.0
119.92088040998117 79.67072076631575 0.0
119.9170934750428 81.6707627495452 0.0
119.91324646201636 83.67080991795133 0.0
119.90933487348761 85.67086282990877 0.0
119.90535412453457 87.67092207834101 0.0
119.90129953491432 89.67098829740725 0.0
119.89716632183716 91.671062170414 0.0
119.89294959354888 93.6711444389846 0.0
119.88864434396541 95.67123591350668 0.0
119.88424544862768 97.67133748486886 0.0
122.06545392822781 1.6754071870956802 0.0
122.06088419366442 3.6753109477254435 0.0
122.05639530317255 5.67522963977928 0.0
122.05198539367527 7.675162317284052 0.0
122.04765250475714 9.67510796196466 0.0
122.04339455709315 11.675065498944385 0.0
122.03920933500557 13.675033813647625 0.0
122.03509447331939 15.675011769352823 0.0
122.03104744854284 17.674998224827053 0.0
122.02706557425024 19.674992051520924 0.0
122.02314600041785 21.67499214984306 0.0
122.01928571635176 23.674997464102074 0.0
122.01548155676468 25.675006995785733 0.0
122.01173021049416 27.675019814934238 0.0
122.00802823132504 29.675035069453607 0.0
122.00437205036862 31.675051992300702 0.0
122.00075798946102 33.675069906549055 0.0
121.99718227507982 35.67508822840355 0.0
121.9936410523154 37.67510646832025 0.0
121.99013039849413 39.67512423039802 0.0
121.98664633610703 41.675141210227395 0.0
121.9831848447615 43.67515719145281 0.0
121.97974187193444 45.675172041270585 0.0
121.97631334236301 47.67518570509422 0.0
121.9728951659625 49.675198200613 0.0
121.96948324420687 51.67520961145456 0.0
121.96607347494779 53.67522008064564 0.0
121.96266175568091 55.675229804045706 0.0
121.95924398529459 57.67523902390894 0.0
121.95581606435661 59.67524802271085 0.0
121.9523738940118 61.67525711735756 0.0
121.9489133735705 63.675266653881394 0.0
121.94543039688143 65.67527700271097 0.0
121.94192084758255 67.67528855458683 0.0
121.93838059333223 69.67530171721047 0.0
121.93480547912262 71.67531691266858 0.0
121.93119131978102 73.67533457570157 0.0
121.92753389177307 75.67535515286991 0.0
121.9238289244195 77.67537910267455 0.0
121.92007209065092 79.675406896685 0.0
121.916258997431 81.67543902173192 0.0
121.9123851759892 83.67547598322022 0.0
121.90844607201844 85.67551830962041 0.0
121.90443703600768 87.67556655819462 0.0
121.90035331389849 89.67562132201257 0.0
121.8961900382742 91.67568323831006 0.0
121.89194222031423 93.6757529982358 0.0
121.8876047427702 95.67583135802418 0.0
121.88317235424749 97.67591915162089 0.0
124.06575047133896 1.6801383819150504 0.0
124.06113257737688 3.6800537938880282 0.0
124.05659682768308 5.679983856785111 0.0
124.05214148415212 7.679927583267517 0.0
124.04776469143755 9.6798839039072 0.0
124.04346445335248 11.67985168541768 0.0
124.03923861410797 13.679829750206306 0.0
124.03508484457741 15.679816896584384 0.0
124.03100063359263 17.67981191896036 0.0
124.0269832840996 19.679813627398907 0.0
124.02302991385054 21.679820865985633 0.0
124.01913746017617 23.679832529524756 0.0
124.01530268828577 25.679847578199713 0.0
124.0115222024797 27.67986504993517 0.0
124.00779245962151 29.67988407030713 0.0
124.00410978422063 31.679903859951022 0.0
124.00047038449478 33.679923739508574 0.0
123.99687036882919 35.67994313222361 0.0
123.99330576210936 37.679961564392194 0.0
123.98977252147289 39.67997866388419 0.0
123.98626655110532 41.67999415697438 0.0
123.9827837157777 43.68000786378748 0.0
123.97931985289814 45.68001969262352 0.0
123.97587078291951 47.680029633434444 0.0
123.97243231800375 49.68003775070945 0.0
123.96900026889507 51.680044176005836 0.0
123.96557045000063 53.68004910033821 0.0
123.96213868270898 55.680052766614786 0.0
123.95870079700347 57.68005546228352 0.0
123.95525263145016 59.68005751232897 0.0
123.95179003165066 61.6800592727384 0.0
123.94830884725894 63.68006112453803 0.0
123.94480492766996 65.68006346848516 0.0
123.94127411648566 67.68006672048095 0.0
123.93771224486942 69.6800713077898 0.0
123.93411512389667 71.68007766610008 0.0
123.93047853601463 73.68008623749309 0.0
123.92679822572266 75.68009746937287 0.0
123.92306988958887 77.68011181441047 0.0
123.9192891657264 79.6801297315599 0.0
123.91545162285875 81.68015168820548 0.0
123.91155274911387 83.68017816350206 0.0
123.90758794070372 85.68020965297475 0.0
123.90355249065927 87.68024667444418 0.0
123.89944157781338 89.6802897753462 0.0
123.89525025624418 91.68033954151188 0.0
123.89097344542196 93.68039660747111 0.0
123.88660592132477 95.68046166833624 0.0
123.8821423088249 97.68053549331121 0.0
126.06601104959152 1.684919229778458 0.0
126.06134571609589 3.6848464655945685 0.0
126.05676388381546 5.6847880826811625 0.0
126.05226395674514 7.684743043425375 0.0
126.04784419846337 9.684710217433109 0.0
126.04350270625399 11.684688402731013 0.0
126.03923739092122 13.684676348419886 0.0
126.03504596250282 15.68467277797928 0.0
126.0309259218548 17.68467641241838 0.0
126.02687455787333 19.68468599254104 0.0
126.02288894992749 21.684700299671043 0.0
126.01896597492873 23.68471817429571 0.0
126.01510231835134 25.684738532215693 0.0
126.01129448844611 27.684760377923425 0.0
126.0075388328636 29.68478281506496 0.0
126.00383155691104 31.684805053963366 0.0
126.00016874270358 33.684826416289454 0.0
125.99654636853676 35.68484633704484 0.0
125.99296032788773 37.68486436412581 0.0
125.98940644753979 39.684880155748154 0.0
125.98588050442561 41.68489347603425 0.0
125.98237824087175 43.684904189124374 0.0
125.97889537801909 45.684912252129834 0.0
125.9754276272705 47.6849177072421 0.0
125.97197069968841 49.68492067329084 0.0
125.96852031331852 51.68492133701364 0.0
125.96507219846741 53.68491994426959 0.0
125.96162210099249 55.684916791396496 0.0
125.95816578369224 57.68491221688129 0.0
125.95469902589979 59.68490659348444 0.0
125.95121762139657 61.68490032093475 0.0
125.94771737476361 63.68489381929024 0.0
125.94419409629518 65.68488752304368 0.0
125.94064359559275 67.68488187602958 0.0
125.93706167395884 69.68487732721331 0.0
125.9334441157067 71.68487432738755 0.0
125.92978667849792 73.68487332683998 0.0
125.92608508282238 75.68487477404021 0.0
125.92233500073468 77.68487911539818 0.0
125.91853204396757 79.68488679615317 0.0
125.91467175154675 81.6848982624547 0.0
125.91074957704738 83.68491396470507 0.0
125.90676087564187 85.68493436223716 0.0
125.90270089110963 87.68495992940579 0.0
125.89856474300142 89.68499116317548 0.0
125.894347414173 91.68502859228687 0.0
125.89004373893682 93.68507278808443 0.0
125.88564839210744 95.68512437708227 0.0
125.88115587925518 97.68518405533777 0.0
128.06623515005973 1.6897491012860122 0.0
128.0615230316899 3.689688340051376 0.0
128.05689584102797 5.689641702463463 0.0
128.05235214313043 7.689608090249066 0.0
128.04789033560417 9.689586300649452 0.0
128.04350862016162 11.68957505112591 0.0
128.03920498090662 13.689573005657142 0.0
128.03497716956613 15.68957880165921 0.0
128.03082269760037 17.689591076563314 0.0
128.02673883486344 19.689608493181805 0.0
128.0227226142632 21.68962976309723 0.0
128.01877084168865 23.68965366745506 0.0
128.0148801103525 25.68967907470395 0.0
128.01104681861884 27.689704954995076 0.0
128.00726719036814 29.689730391113734 0.0
128.00353729697554 31.68975458596449 0.0
127.99985308003735 33.68977686675627 0.0
127.99621037407016 35.68979668612575 0.0
127.99260492851313 37.689813620546765 0.0
127.98903242848121 39.68982736638358 0.0
127.98548851383345 41.68983773396708 0.0
127.98196879623504 43.689844640121585 0.0
127.9784688739955 45.68984809952003 0.0
127.97498434455628 47.689848215229084 0.0
127.97151081457979 49.689845168774475 0.0
127.96804390765324 51.68983921001614 0.0
127.96457926967014 53.68983064708286 0.0
127.96111257198713 55.68981983657484 0.0
127.95763951247805 57.68980717420665 0.0
127.9541558146208 59.68979308602773 0.0
127.95065722475992 61.68977802033051 0.0
127.94713950768725 63.689762440332274 0.0
127.94359844068076 65.68974681769839 0.0
127.94002980613466 67.68973162695217 0.0
127.93642938290819 69.68971734084356 0.0
127.93279293651254 71.68970442668972 0.0
127.92911620825144 73.6896933437462 0.0
127.92539490342624 75.68968454164983 0.0
127.92162467871678 77.68967845998478 0.0
127.91780112885185 79.68967552902869 0.0
127.91391977268957 81.6896761717461 0.0
127.90997603883841 83.68968080710275 0.0
127.90596525096574 85.68968985478554 0.0
127.90188261295697 87.68970374141816 0.0
127.89772319411682 89.68972290837101 0.0
127.8934819146275 91.68974782126652 0.0
127.88915353151192 93.68977898128352 0.0
127.88473262539082 95.68981693836213 0.0
127.8802135883544 97.68986230640444 0.0
130.06642223953708 1.694627453897193 0.0
130.0616639169071 3.694578882966423 0.0
130.05699203298335 5.694544191310763 0.0
130.0524053349426 7.6945222078675775 0.0
130.0479023709106 9.694511644250131 0.0
130.0434814586207 11.694511123603668 0.0
130.03914066206667 13.694519211202254 0.0
130.03487777636934 15.694534445606173 0.0
130.03069032072764 17.694555369220268 0.0
130.02657553900167 19.694580557216145 0.0
130.02253040720984 21.69460864392396 0.0
130.01855164701055 23.694638345986814 0.0
130.0146357441012 25.69466848177824 0.0
130.010778970394 27.694697986792182 0.0
130.00697740882305 29.694725924912262 0.0
130.003226979678 31.694751495644006 0.0
129.99952346745903 33.694774037539496 0.0
129.99586254735755 35.69479302814793 0.0
129.99223981061976 37.694808080939374 0.0
129.98865078818645 39.694818939656955 0.0
129.9850909721571 41.694825470567125 0.0
129.98155583475784 43.69482765311505 0.0
129.97804084461762 45.69482556942857 0.0
129.9745414802609 47.694819393085396 0.0
129.97105324081187 49.69480937751211 0.0
129.96757165397017 51.694795844330216 0.0
129.96409228137193 53.69477917191375 0.0
129.96061072147583 55.69475978437167 0.0
129.95712261014367 57.69473814112483 0.0
129.95362361908457 59.69471472720693 0.0
129.95010945233935 61.694690044386654 0.0
129.94657584097158 63.69466460318346 0.0
129.943018536125 65.69463891582859 0.0
129.9394333005934 67.69461349020112 0.0
129.93581589903755 69.69458882479836 0.0
129.9321620869728 71.69456540474012 0.0
129.92846759864034 73.69454369885558 0.0
129.92472813386954 75.69452415788804 0.0
129.9209393440349 77.69450721386323 0.0
129.91709681721323 79.69449328067971 0.0
129.91319606265085 81.69448275598937 0.0
129.9092324946623 83.69447602445003 0.0
129.90520141609605 85.69447346244344 0.0
129.90109800152456 87.69447544436403 0.0
129.8969172803398 89.69448235059296 0.0
129.89265411996934 91.69449457728068 0.0
129.88830320945854 93.69451254806461 0.0
129.88385904371086 95.69453672785136 0.0
129.8793159087182 97.69456763878851 0.0
132.0665717592682 1.6995538442448892 0.0
132.06176772907227 3.6995176611376412 0.0
132.05705175060785 5.6994951274361005 0.0
132.05242277664206 7.699484985093518 0.0
132.04787952385146 9.699485844629026 0.0
132.0434204382082 11.699496218924645 0.0
132.03904366990628 13.699514558916192 0.0
132.0347470580443 15.699539289734687 0.0
132.030528124839 17.699568845898266 0.0
132.02638407875696 19.699601704315725 0.0
132.02231182562068 21.699636414056013 0.0
132.01830798650687 23.699671622080288 0.0
132.01436892110078 25.69970609439756 0.0
132.01049075510397 27.699738732364484 0.0
132.00666941030585 29.69976858409181 0.0
132.00290063601003 31.699794851130104 0.0
131.99918004063812 33.699816890776056 0.0
131.9955031224952 35.699834214455116 0.0
131.99186529886828 37.6998464827544 0.0
131.988261932811 39.69985349767867 0.0
131.98468835715175 41.699855192707766 0.0
131.98113989542338 43.699851621253 0.0
131.97761187955706 45.69984294403043 0.0
131.97409966430018 47.69982941582091 0.0
131.97059863841153 49.699811372024364 0.0
131.96710423276005 51.699789215346485 0.0
131.9636119254954 53.699763402891776 0.0
131.9601172444943 55.69973443387602 0.0
131.95661576729796 57.69970283811788 0.0
131.95310311875463 59.6996691654249 0.0
131.9495749665803 61.69963397595214 0.0
131.94602701502865 63.69959783158515 0.0
131.94245499685428 65.69956128837823 0.0
131.93885466372186 67.69952489005728 0.0
131.93522177520805 69.6994891626293 0.0
131.93155208651558 71.69945461008176 0.0
131.92784133501146 73.69942171120778 0.0
131.9240852256872 75.69939091758356 0.0
131.92027941563458 77.69936265273948 0.0
131.91641949762962 79.69933731257993 0.0
131.91250098292073 81.69931526712493 0.0
131.90851928332597 83.69929686366085 0.0
131.9044696927658 85.69928243140497 0.0
131.90034736836904 87.69927228780467 0.0
131.89614731133014 89.69926674660475 0.0
131.8918643477173 91.69926612782858 0.0
131.88749310947932 93.69927076982792 0.0
131.88302801593858 95.69928104355978 0.0
131.87846325611085 97.69929736925093 0.0
134.06668311880222 1.7045279421034014 0.0
134.0618337827377 3.7045043567436755 0.0
134.05707423402816 5.704494206682912 0.0
134.05240365728181 7.704496130234665 0.0
134.04782095746955 9.704508618743787 0.0
134.04332472161093 11.704530056295312 0.0
134.03891319190427 13.704558761467439 0.0
134.03458425049382 15.704593029355346 0.0
134.0303354155166 17.70463117216841 0.0
134.02616384758892 19.704671556918644 0.0
134.0220663655006 21.70471263897809 0.0
134.0180394696044 23.704752990598518 0.0
134.01407937122383 25.704791323822818 0.0
134.01018202635282 27.704826507542226 0.0
134.00634317196423 29.704857578747543 0.0
134.00255836337348 31.704883748272387 0.0
133.99882301128957 33.70490440151792 0.0
133.9951324174051 35.70491909477377 0.0
133.99148180761426 37.70492754786555 0.0
133.98786636218324 39.70492963384537 0.0
133.9842812424161 41.7049253664314 0.0
133.98072161355364 43.70491488589691 0.0
133.97718266380826 45.70489844400778 0.0
133.97365961956757 47.70487638853569 0.0
133.97014775690124 49.70484914779023 0.0
133.96664240957455 51.70481721552678 0.0
133.96313897381657 53.70478113650596 0.0
133.95963291011276 55.704741492908646 0.0
133.9561197422971 57.70469889174926 0.0
133.9525950542092 59.704653953378106 0.0
133.9490544841655 61.70460730112526 0.0
133.94549371746862 63.704559552109494 0.0
133.9419084771531 65.70451130921661 0.0
133.93829451313812 67.70446315422946 0.0
133.93464758993125 69.7044156421322 0.0
133.930963473005 71.70436929654943 0.0
133.92723791394755 73.70432460634295 0.0
133.92346663447483 75.70428202338111 0.0
133.91964530938128 77.70424196151488 0.0
133.91576954850623 79.70420479681485 0.0
133.91183487778875 81.70417086914364 0.0
133.9078367195045 83.70414048515889 0.0
133.90377037178087 85.70411392286378 0.0
133.89963098752293 87.7040914378414 0.0
133.89541355290163 89.70407327132847 0.0
133.89111286559904 91.70405966029955 0.0
133.88672351304544 93.70405084974584 0.0
133.88223985093367 95.70404710734178 0.0
133.87765598235146 97.70404874069727 0.0
136.0667556887462 1.7095495463133574 0.0
136.06186134103663 3.709538783650602 0.0
136.05705866312695 5.709541259187065 0.0
136.0523471009347 7.709555487992899 0.0
136.04772576936256 9.709579821041624 0.0
136.043193409803 11.709612492030226 0.0
136.0387483614422 13.709651666379019 0.0
136.03438854650807 15.709695490222286 0.0
136.03011146891328 17.70974213732344 0.0
136.02591422514658 19.70978985213916 0.0
136.02179352579725 21.70983698760593 0.0
136.01774572577463 23.70988203663535 0.0
136.01376686111507 25.7099236567323 0.0
136.00985269024503 27.709960687556006 0.0
136.0059987376676 29.709992161601036 0.0
136.002200338231 31.710017308469585 0.0
135.99845268039996 33.71003555342082 0.0
135.9947508472393 35.71004651101524 0.0
135.991089854133 37.71004997477801 0.0
135.98746468254558 39.710045903771146 0.0
135.98387030940427 41.710034406927896 0.0
135.98030173190548 43.710015725965604 0.0
135.9767539877395 45.70999021756143 0.0
135.97322217086594 47.70995833537455 0.0
135.96970144307878 49.70992061238913 0.0
135.96618704166622 51.70987764394343 0.0
135.96267428350447 53.70983007171392 0.0
135.95915856593797 55.70977856883793 0.0
135.95563536478826 57.70972382628849 0.0
135.95210022981416 59.70966654055901 0.0
135.94854877791093 61.709607402673605 0.0
135.94497668430654 63.709547088511215 0.0
135.94137967196852 65.70948625041328 0.0
135.93775349940168 67.70942551002568 0.0
135.9340939469825 69.70936545237184 0.0
135.93039680194315 71.70930662109278 0.0
135.92665784209555 73.70924951486028 0.0
135.9228728183657 75.70919458496401 0.0
135.91903743619375 77.70914223410031 0.0
135.91514733585473 79.70909281641252 0.0
135.91119807175065 81.70904663886128 0.0
135.90718509073668 83.70900396402664 0.0
135.9031037095612 85.70896501447285 0.0
135.89894909152167 87.70892997882912 0.0
135.89471622247189 89.70889901976595 0.0
135.8903998863551 91.70887228406559 0.0
135.88599464048457 93.70884991500444 0.0
135.88149479084782 95.70883206727724 0.0
135.87689436777183 97.70881892470418 0.0
138.06678879223716 1.7146186030361017 0.0
138.0618496055192 3.7146209061204094 0.0
138.05700414648916 5.714636268499878 0.0
138.05225215557584 7.7146630588453435 0.0
138.0475929813381 9.714699462826793 0.0
138.04302553325 11.714743538534723 0.0
138.03854825121832 13.714793274183817 0.0
138.03415909188425 15.714846645383039 0.0
138.029855530888 17.71490166944832 0.0
138.02563457953167 19.71495645462751 0.0
138.02149281371686 21.71500924257902 0.0
138.01742641266506 23.715058442984795 0.0
138.01343120476935 25.71510265972577 0.0
138.0095027179484 27.71514070855264 0.0
138.00563623204334 29.715171626618947 0.0
138.00182683108878 31.71519467458391 0.0
137.99806945364517 33.71520933223019 0.0
137.99435893976602 35.71521528867151 0.0
137.99069007356778 37.71521242831271 0.0
137.98705762072942 39.71520081365784 0.0
137.983456360567 41.715180665988406 0.0
137.979881112593 43.715152344854225 0.0
137.97632675768224 45.71511632714792 0.0
137.97278825410936 47.715073186398904 0.0
137.96926064883465 49.71502357278093 0.0
137.9657390844624 51.714968194195315 0.0
137.96221880232693 53.714907798676975 0.0
137.95869514214988 55.71484315827195 0.0
137.95516353869007 57.71477505445762 0.0
137.9516195157667 59.71470426511717 0.0
137.94805867799045 61.71463155303718 0.0
137.94447670048518 63.71455765587106 0.0
137.94086931683398 65.71448327749684 0.0
137.93723230543284 67.71440908068158 0.0
137.93356147439343 69.71433568101942 0.0
137.92985264509727 71.71426364205027 0.0
137.9261016344724 73.71419347154612 0.0
137.9223042360402 75.71412561895066 0.0
137.91845619976294 77.71406047399068 0.0
137.914553210715 79.7139983665067 0.0
137.9105908666005 81.71393956758304 0.0
137.90656465414853 83.71388429208825 0.0
137.90246992443403 85.71383270276999 0.0
137.89830186719874 87.71378491607803 0.0
137.89405548427837 89.7137410099201 0.0
137.8897255622893 91.71370103357935 0.0
137.8853066447745 93.71366502004827 0.0
137.880793004071 95.7136330010503 0.0
137.87617861322806 97.71360502503585 0.0
140.0667816948743 1.7197352267977284 0.0
140.06179770416 3.719750860398157 0.0
140.0569097084182 5.719779393660334 0.0
140.05211778013742 7.719819021393793 0.0
140.04742152753693 9.719867734533617 0.0
140.04282004204455 11.71992338602529 0.0
140.03831186617631 13.719983759031956 0.0
140.0338949817149 15.720046634077546 0.0
140.02956681697455 17.72010985203185 0.0
140.02532427102076 19.720171370380953 0.0
140.02116375203937 21.72022931086394 0.0
140.0170812266488 23.72028199726453 0.0
140.01307227681212 25.72032798284532 0.0
140.0091321611032 27.720366067541566 0.0
140.0052558773647 29.720395305552824 0.0
140.00143822421205 31.72041500436222 0.0
139.99767385932526 33.72042471646576 0.0
139.99395735297824 35.720424225210905 0.0
139.99028323575405 37.72041352619743 0.0
139.98664603983246 39.72039280557652 0.0
139.98304033361723 41.72036241646001 0.0
139.97946074976895 43.720322854514336 0.0
139.97590200693773 45.72027473359445 0.0
139.97235892563947 47.720218762092976 0.0
139.96882643881727 49.720155720503755 0.0
139.965299597667 51.720086440540044 0.0
139.96177357330873 53.7200117860131 0.0
139.95824365485709 55.71993263556692 0.0
139.95470524439656 57.719849867281845 0.0
139.95115384930466 59.7197643450969 0.0
139.947585072302 61.71967690696128 0.0
139.9439945995381 63.7195883546022 0.0
139.94037818695898 65.71949944478764 0.0
139.93673164513862 67.71941088195291 0.0
139.933050822706 69.71932331212233 0.0
139.9293315884532 71.71923731800224 0.0
139.92556981216651 73.7191534152096 0.0
139.92176134420478 75.7190720496059 0.0
139.91790199381649 77.71899359574502 0.0
139.91398750618703 79.71891835647922 0.0
139.91001353819917 81.71884656380573 0.0
139.90597563290135 83.71877838107483 0.0
139.90186919269382 85.71871390671765 0.0
139.89768945127057 87.7186531796897 0.0
139.89343144439098 89.71859618686125 0.0
139.88908997960152 91.71854287261836 0.0
139.88465960508287 93.71849315096749 0.0
139.88013457786312 95.71844692046112 0.0
139.87550883171124 97.71840408228253 0.0
142.0667335927784 1.724899724894526 0.0
142.0617046771488 3.724928979770958 0.0
142.05677427363517 5.724970994823003 0.0
142.05194282939993 7.7250237582839825 0.0
142.04721024079151 9.725085031474318 0.0
142.04257579488072 11.725152427491501 0.0
142.0380381360229 13.725223492154774 0.0
142.03359525708717 15.725295782959906 0.0
142.02924451358268 17.725366942239084 0.0
142.02498265776913 19.725434761458928 0.0
142.020805889042 21.725497234453965 0.0
142.0167099164527 23.72555259832253 0.0
142.01269002914353 25.725599361606637 0.0
142.00874117069625 27.72563632015756 0.0
142.00485801383675 29.72566256171083 0.0
142.00103503253024 31.725677460633925 0.0
141.99726656916172 33.72568066456633 0.0
141.99354689516053 35.72567207475564 0.0
141.98987026404933 37.72565182189121 0.0
141.98623095643038 39.72562023904889 0.0
141.98262331686516 41.72557783316374 0.0
141.9790417829367 43.72552525623879 0.0
141.97548090701937 45.72546327721659 0.0
141.97193537142866 47.72539275520987 0.0
141.9683999976952 49.725314614570905 0.0
141.96486975072443 51.72522982209238 0.0
141.9613397385715 53.72513936647979 0.0
141.95780520850477 55.72504424011636 0.0
141.95426153995322 57.72494542305283 0.0
141.95070423484444 59.724843869096276 0.0
141.94712890575397 61.72474049383449 0.0
141.94353126219602 63.72463616441825 0.0
141.93990709530559 65.72453169092209 0.0
141.93625226108895 67.72442781910256 0.0
141.93256266235474 69.72432522444662 0.0
141.92883422938314 71.72422450735147 0.0
141.92506289934812 73.72412618937722 0.0
141.92124459447254 75.72403071052372 0.0
141.91737519887377 77.72393842753067 0.0
141.91345053404274 79.7238496132417 0.0
141.9094663328985 81.72376445711784 0.0
141.90541821236522 83.72368306703147 0.0
141.9013016444388 85.72360547251483 0.0
141.897111925735 87.72353162968302 0.0
141.89284414555425 89.72346142809126 0.0
141.88849315254353 91.72339469982732 0.0
141.8840535200984 93.72333123117491 0.0
141.87951951071707 95.72327077721522 0.0
141.8748850395996 97.72321307976007 0.0
144.06664359837686 1.730112625874726 0.0
144.06156945998868 3.7301558238409167 0.0
144.05659664917664 5.730211663199735 0.0
144.0517260363137 7.7302778864430355 0.0
144.04695783695777 9.730351983762802 0.0
144.04229154679788 11.730431287509244 0.0
144.0377259074797 13.730513068658189 0.0
144.0332589025549 15.730594629940295 0.0
144.028887780983 17.730673390938435 0.0
144.02460910419967 19.730746961480758 0.0
144.0204188118298 21.730813200830724 0.0
144.01631230069003 23.730870261399833 0.0
144.01228451175174 25.73091661685185 0.0
144.00833002014014 27.730951075430838 0.0
144.00444312391772 29.730972780076492 0.0
144.00061792823647 31.730981197369577 0.0
143.99684842232492 33.7309760975883 0.0
143.99312854763764 35.73095752817821 0.0
143.9894522562591 37.73092578284959 0.0
143.98581355929684 39.730881368225795 0.0
143.98220656549927 41.73082496967497 0.0
143.9786255106931 43.7307574176548 0.0
143.9750647788698 45.73067965554664 0.0
143.97151891587544 47.73059270966414 0.0
143.96798263669797 49.730497661862955 0.0
143.96445082731947 51.73039562496341 0.0
143.96091854203343 53.730287721029185 0.0
143.95738099702626 55.730175062420045 0.0
143.95383356091045 57.730058735450264 0.0
143.9502717427782 59.72993978643017 0.0
143.94669117822946 61.729819209841736 0.0
143.94308761371795 63.7296979383941 0.0
143.93945688946235 65.72957683471468 0.0
143.93579492108168 67.72945668444008 0.0
143.93209768003857 69.72933819055734 0.0
143.92836117291523 71.72922196880076 0.0
143.92458141949348 73.7291085440201 0.0
143.92075442957432 75.72899834745533 0.0
143.91687617844497 77.72889171490542 0.0
143.912942580887 79.72878888582949 0.0
143.90894946361206 81.72869000346965 0.0
143.9048925360222 83.72859511613632 0.0
143.90076735920647 85.7285041798493 0.0
143.89656931311615 87.72841706257739 0.0
143.89229356190194 89.7283335503695 0.0
143.88793501744888 91.7282533557167 0.0
143.88348830120978 93.72817612852789 0.0
143.87894770451356 95.72810147014015 0.0
143.87430714761294 97.72802895081733 0.0
146.06651072338985 1.7353747129961263 0.0
146.06139086328682 3.735432212946771 0.0
146.05637550289515 5.73550225626843 0.0
146.05146599125933 7.735582292571065 0.0
146.0466628969231 9.735669491281394 0.0
146.04196593565328 11.73576085564292 0.0
146.03737393651284 13.73585333819486 0.0
146.03288484489872 15.73594395095832 0.0
146.02849575882746 17.73602986452489 0.0
146.0242029929991 19.73610849166625 0.0
146.02000216409058 21.736177552680495 0.0
146.01588829033946 23.73623512130609 0.0
146.01185589868564 25.736279651493394 0.0
146.00789913343476 27.73630998650281 0.0
146.00401186139783 29.736325352642126 0.0
146.00018776962852 31.736325340454364 0.0
145.99642045305464 33.7363098763491 0.0
145.99270349039423 35.73627918758733 0.0
145.9890305076867 37.73623376330977 0.0
145.98539522952015 39.73617431386892 0.0
145.98179151859037 41.73610173030636 0.0
145.9782134045971 43.73601704540176 0.0
145.97465510369472 45.73592139727823 0.0
145.9711110297983 47.73581599619313 0.0
145.96757579902973 49.73570209484107 0.0
145.96404422851052 51.73558096225638 0.0
145.96051133058 53.73545386122376 0.0
145.9569723033709 55.7353220289804 0.0
145.95342251851875 57.73518666091468 0.0
145.9498575066251 59.735048896924525 0.0
145.9462729409549 61.73490981008551 0.0
145.9426646197099 63.73477039728966 0.0
145.93902844711099 65.73463157153903 0.0
145.93536041341903 67.73449415560044 0.0
145.93165657393897 69.73435887682763 0.0
145.9279130269862 71.73422636291912 0.0
145.9241258907354 73.7340971385039 0.0
145.9202912788343 75.73397162247132 0.0
145.9164052746298 77.73385012602468 0.0
145.91246390384472 79.73373285149292 0.0
145.90846310552718 81.7336198919954 0.0
145.90439870111047 83.73351123211154 0.0
145.90026636143244 85.7334067497668 0.0
145.89606157159636 87.73330621960424 0.0
145.89177959359813 89.73320931816856 0.0
145.88741542670044 91.73311563128354 0.0
145.8829637656027 93.73302466405619 0.0
145.878418956541 95.73293585398638 0.0
145.87377495154306 97.73284858770194 0.0
148.0663338583559 1.740687063799748 0.0
148.06116754846644 3.740759268919802 0.0
148.05610933780565 5.7408439394558375 0.0
148.05116111765486 7.740938175064163 0.0
148.0463238459687 9.741038764766127 0.0
148.04159746734535 11.741142325328877 0.0
148.03698088093347 13.741245440145649 0.0
148.0324719539203 15.74134478999473 0.0
148.02806757523635 17.741437268486685 0.0
148.02376374194654 19.741520077003038 0.0
148.01955566959168 21.741590796110547 0.0
148.0154379174709 23.741647432567664 0.0
148.0114045203807 25.74168844289354 0.0
148.007449119433 27.741712735897675 0.0
148.00356508604145 29.741719657513205 0.0
147.99974563475902 31.74170896175277 0.0
147.99598392220153 33.74168077167379 0.0
147.9922731306716 35.74163553398798 0.0
147.9886065362255 37.741573970538745 0.0
147.98497756178296 39.741497029252685 0.0
147.98137981646937 41.74140583658907 0.0
147.9778071227322 43.74130165295938 0.0
147.9742535329323 45.74118583204901 0.0
147.97071333712543 47.741059784548526 0.0
147.96718106365384 49.74092494646111 0.0
147.96365147401144 51.74078275189444 0.0
147.9601195532511 53.74063461006638 0.0
147.95658049699355 55.74048188613804 0.0
147.9530296958904 57.74032588542653 0.0
147.94946271820407 59.74016784052641 0.0
147.945875290985 61.740008900878124 0.0
147.94226328018036 63.73985012435044 0.0
147.9386226698703 65.73969247044684 0.0
147.93494954071932 67.7395367947822 0.0
147.93124004763564 69.73938384459231 0.0
147.92749039656056 71.73923425500908 0.0
147.92369682024682 73.73908854596988 0.0
147.9198555528434 75.73894711966204 0.0
147.91596280307039 77.7388102584731 0.0
147.9120147257504 79.73867812348034 0.0
147.9080073914553 81.73855075357889 0.0
147.90393675402933 83.73842806541306 0.0
147.89979861577152 85.73830985434093 0.0
147.89558859008798 87.73819579672872 0.0
147.89130206146956 89.73808545393732 0.0
147.88693414271106 91.73797827842638 0.0
147.88247962935927 93.73787362246259 0.0
147.8779329514697 95.73777074997379 0.0
147.87328812285182 97.73766885214093 0.0
150.06611174783856 1.746051097255567 0.0
150.06089799840453 3.746138463689302 0.0
150.05579646133538 5.746238235833314 0.0
150.05080964318935 7.746347093858404 0.0
150.04593893014578 9.746461374349888 0.0
150.0411844999166 11.746577239317114 0.0
150.03654529398688 13.7466908440213 0.0
150.0320190463307 15.746798492589829 0.0
150.02760236085888 17.746896772503778 0.0
150.02329082719697 19.746982661855384 0.0
150.01907916310518 21.747053606257165 0.0
150.01496137184 23.747107565099256 0.0
150.01093090378166 25.747143029193204 0.0
150.00698081339124 27.747159013537505 0.0
150.00310390466726 29.74715502995173 0.0
149.9992928604511 31.747131044705338 0.0
149.99554035294753 33.74708742613092 0.0
149.99183913453356 35.74702488669911 0.0
149.9881821092619 37.746944423352595 0.0
149.98456238640236 39.746847259029884 0.0
149.98097331795654 41.74673478752402 0.0
149.97740852236865 43.74660852311068 0.0
149.9738618967279 45.74647005573392 0.0
149.97032761965082 47.746321012049066 0.0
149.96680014684003 49.746163022249576 0.0
149.96327420105166 51.74599769234438 0.0
149.95974475792275 53.74582658138385 0.0
149.95620702883338 55.74565118304113 0.0
149.95265644171317 57.74547291092198 0.0
149.94908862046725 59.74529308698203 0.0
149.94549936349173 61.745112932467315 0.0
149.9418846215707 63.744933560848665 0.0
149.93824047530333 65.74475597228385 0.0
149.9345631120861 67.7445810491961 0.0
149.9308488025794 69.74440955269053 0.0
149.92709387650623 71.74424211950904 0.0
149.92329469757667 73.74407925937145 0.0
149.9194476372758 75.74392135259104 0.0
149.9155490472293 77.74376864792836 0.0
149.91159522983395 79.74362126071576 0.0
149.9075824068352 81.7434791713592 0.0
149.9035066855342 83.74334222439214 0.0
149.89936402232766 85.74321012833242 0.0
149.89515018330866 87.74308245666515 0.0
149.8908607017077 89.7429586503507 0.0
149.88649083200863 91.74283802232941 0.0
149.88203550065938 93.74271976456694 0.0
149.87748925338718 95.74260295824904 0.0
149.87284619924534 97.74248658779489 0.0
152.06584296019665 1.7514686303555012 0.0
152.0605804817099 3.7515716776903063 0.0
152.05543494827515 5.751687085802876 0.0
152.05040956581928 7.751811030091157 0.0
152.04550618932709 9.751939307235867 0.0
152.0407252268344 11.752067542965122 0.0
152.03606561987775 13.752191395863626 0.0
152.03152489424576 15.752306743039057 0.0
152.0270992698296 17.752409836605985 0.0
152.022783815155 19.752497423930325 0.0
152.01857263092074 21.752566828674404 0.0
152.01445904734595 23.752615993389455 0.0
152.0104358219609 25.752643487332485 0.0
152.00649532712495 27.75264848514727 0.0
152.002629719566 29.75263072304807 0.0
151.99883108716742 31.752590439303887 0.0
151.9950915708149 33.75252830534375 0.0
151.99140346119358 35.75244535290484 0.0
151.9877592719354 37.75234290159559 0.0
151.98415179150072 39.75222249005891 0.0
151.98057411669936 41.75208581289088 0.0
151.97701967092846 43.75193466458382 0.0
151.97348221011217 45.751770891011816 0.0
151.96995581907666 47.75159634843562 0.0
151.96643490074436 49.75141286962079 0.0
151.9629141601497 51.751222236417725 0.0
151.9593885848895 53.7510261580176 0.0
151.955853423268 55.75082625404645 0.0
151.9523041610698 57.75062404166808 0.0
151.94873649761868 59.750420925913055 0.0
151.94514632154662 61.75021819252251 0.0
151.94152968650226 63.75001700268173 0.0
151.93788278687228 65.74981838910513 0.0
151.93420193346273 67.74962325300964 0.0
151.9304835289856 69.74943236166318 0.0
151.92672404312145 71.74924634618058 0.0
151.9229199868618 73.74906569940137 0.0
151.91906788579553 75.74889077372606 0.0
151.91516425196426 77.74872177887104 0.0
151.91120555389494 79.74855877957629 0.0
151.90718818440166 81.74840169337654 0.0
151.90310842575852 83.74825028862368 0.0
151.89896241184897 85.74810418302877 0.0
151.89474608693558 87.74796284307408 0.0
151.89045516073284 89.7478255847297 0.0
151.88608505953093 91.74769157599498 0.0
151.88163087320154 93.74755984186733 0.0
151.87708729801918 95.7474292724207 0.0
151.87244857535367 97.74729863474666 0.0
154.06552585045168 1.7569419465905005 0.0
154.06021300896398 3.7570612706126547 0.0
154.05502259590446 5.757192919335333 0.0
154.04995861348928 7.757332458009511 0.0
154.0450234266452 9.757475036594823 0.0
154.04021766003342 11.757615646927407 0.0
154.03554019266886 13.757749371459125 0.0
154.03098824043502 15.757871605238737 0.0
154.0265575102407 17.757978237502613 0.0
154.0222424057606 19.758065784921246 0.0
154.01803626368738 21.758131474178775 0.0
154.01393160080048 23.75817327642563 0.0
154.00992035521725 25.758189899752693 0.0
154.0059941092017 27.75818074801091 0.0
154.0021442851229 29.758145855130778 0.0
153.9983623100636 31.758085803837776 0.0
153.99463974783666 33.75800163664125 0.0
153.99096839961112 35.75789476551975 0.0
153.9873403759986 37.75776688518149 0.0
153.98374814437796 39.75761989319511 0.0
153.98018455560728 41.75745581897484 0.0
153.97664285421843 43.757276762538496 0.0
153.97311667587525 45.75708484311758 0.0
153.96960003540366 47.756882157131834 0.0
153.96608730817036 49.756670744678566 0.0
153.96257320704697 51.75645256348753 0.0
153.95905275669804 53.75622946921699 0.0
153.95552126648585 55.75600320097619 0.0
153.95197430290338 57.75577537102638 0.0
153.94840766213508 59.75554745771124 0.0
153.94481734308178 61.755320800781675 0.0
153.94119952098868 63.75509659840139 0.0
153.93755052164698 65.7548759052333 0.0
153.93386679601895 67.754659631102 0.0
153.93014489503335 69.75444853989305 0.0
153.9263814442286 71.75424324834432 0.0
153.92257311785676 73.75404422455323 0.0
153.91871661202126 75.75385178607266 0.0
153.91480861638618 77.75366609755429 0.0
153.91084578397334 79.75348716797399 0.0
153.9068246985507 81.75331484755617 0.0
153.90274183911148 83.75314882459483 0.0
153.8985935409581 85.75298862245475 0.0
153.89437595292569 87.75283359712812 0.0
153.89008499032605 89.75268293581652 0.0
153.88571628325278 91.75253565710483 0.0
153.88126511997825 93.75239061339255 0.0
153.87672638527945 95.75224649634175 0.0
153.87209449366694 97.75210184618686 0.0
156.06515851429882 1.7624738795100412 0.0
156.05979327872137 3.7626101678252932 0.0
156.0545568693389 5.762758744108563 0.0
156.0494541963486 7.762914432259347 0.0
156.04448817414945 9.763071604310277 0.0
156.03965961375704 11.763224501057552 0.0
156.03496724072338 13.763367537139814 0.0
156.03040782337683 15.763495566790574 0.0
156.02597638770797 17.7636040935385 0.0
156.02166649088537 19.76368941527068 0.0
156.01747052505178 21.763748703816706 0.0
156.01338002594593 23.76378002454351 0.0
156.00938596589353 25.763782305787394 0.0
156.00547901663847 27.763755270182603 0.0
156.00164977335237 29.76369934033492 0.0
155.99788893626896 31.7636155303014 0.0
155.9941874503867 33.76350533249373 0.0
155.99053660645347 35.763370607393 0.0
155.98692810810635 37.76321348128047 0.0
155.98335411077602 39.763036255133834 0.0
155.97980723802655 41.762841326229406 0.0
155.97628058061488 43.76263112276321 0.0
155.97276768290988 45.76240805091554 0.0
155.9692625205611 47.76217445323994 0.0
155.96575947254044 49.761932576961264 0.0
155.96225328997133 51.76168455065595 0.0
155.9587390635342 53.76143236780458 0.0
155.9552121907061 55.76117787580248 0.0
155.95166834366236 57.76092276915813 0.0
155.94810343832143 59.76066858576937 0.0
155.94451360474392 61.76041670533312 0.0
155.94089515889158 63.76016834910171 0.0
155.93724457559273 65.7599245803424 0.0
155.93355846244202 67.75968630496797 0.0
155.92983353427184 69.75945427198852 0.0
155.92606658776654 71.75922907343201 0.0
155.92225447573594 73.75901114355729 0.0
155.9183940805235 75.75880075723256 0.0
155.914482285996 77.75859802743926 0.0
155.91051594753523 79.75840290193872 0.0
155.90649185943573 81.75821515922117 0.0
155.9024067191087 83.75803440394202 0.0
155.89825708749453 85.75786006213974 0.0
155.89403934510392 87.75769137663158 0.0
155.88974964314923 89.75752740308657 0.0
155.88538384928455 91.75736700738932 0.0
155.88093748756023 93.75720886502239 0.0
155.87640567231807 95.75705146330831 0.0
155.8717830358976 97.7568931074576 0.0
158.06473873064837 1.7680679156075028 0.0
158.05931861033685 3.768221966900013 0.0
158.0540348345873 5.768388253963818 0.0
158.04889335003512 7.7685606946231 0.0
158.043897654777 9.76873272086036 0.0
158.03904869095115 11.7688976816164 0.0
158.03434489993757 13.769049218765437 0.0
158.02978241645133 15.769181585336963 0.0
158.02535536689294 17.769289885705422 0.0
158.02105623267926 19.769370229197765 0.0
158.01687624041116 21.76941979919971 0.0
158.0128057461902 23.76943684798274 0.0
158.00883458934183 25.76942063248165 0.0
158.00495239946164 27.769371308207045 0.0
158.00114884872684 29.769289797960102 0.0
157.99741384795382 31.769177649830482 0.0
157.99373768961127 33.769036895900896 0.0
157.99011114394588 35.768869919806825 0.0
157.9865255158296 37.76867933832619 0.0
157.98297267024864 39.768467899596835 0.0
157.97944503391062 41.76823839866806 0.0
157.97593557956634 43.7679936097607 0.0
157.97243779855714 45.767736233745985 0.0
157.9689456660016 47.76746885890495 0.0
157.9654536019994 49.76719393286685 0.0
157.96195643133993 51.76691374365158 0.0
157.95844934344447 53.76663040788932 0.0
157.95492785367813 55.76634586450084 0.0
157.95138776668693 57.76606187235655 0.0
157.94782514206634 59.765780010667925 0.0
157.94423626238972 61.76550168108163 0.0
157.94061760343607 63.765228110645296 0.0
157.93696580630944 65.76496035498054 0.0
157.93327765103945 67.7646993011271 0.0
157.92955003117717 69.76444566971502 0.0
157.92577992884435 71.7642000161182 0.0
157.92196438964933 73.76396273042327 0.0
157.9181004968504 75.76373403609279 0.0
157.9141853441142 77.7635139872871 0.0
157.9102160061953 79.76330246488315 0.0
157.90618950683907 81.76309917131091 0.0
157.90210278319967 83.76290362441182 0.0
157.897952646057 85.76271515062025 0.0
157.89373573512725 87.76253287787402 0.0
157.88944846878863 89.7623557287797 0.0
157.88508698759878 91.76218241468527 0.0
157.88064709106496 93.76201143145094 0.0
157.87612416725145 95.7618410578445 0.0
157.87151311496942 97.76166935761799 0.0
160.06426388913823 1.7737283222287865 0.0
160.05878585969452 3.773901070174265 0.0
160.0534530760836 5.7740859635684405 0.0
160.04827266841505 7.774275805521673 0.0
160.04324874123134 9.774462886446342 0.0
160.03838227511983 11.774639494108877 0.0
160.03367124063365 13.77479837903948 0.0
160.02911088741885 15.77493313501615 0.0
160.02469415759197 17.77503847054611 0.0
160.02041216813635 19.775110364234372 0.0
160.01625471109423 21.775146111462988 0.0
160.0122107300126 23.775144280053166 0.0
160.00826874349 25.775104597969122 0.0
160.00441719914247 27.775027797151864 0.0
160.00064475206605 29.77491543538758 0.0
159.99694046998817 31.77476971404424 0.0
159.99329397260033 33.77459330473094 0.0
159.9896955153699 35.774389193307314 0.0
159.9861360290018 37.77416054578071 0.0
159.98260712527787 39.77391059753136 0.0
159.97910107878138 41.77364256521196 0.0
159.97561079244971 43.773359579345986 0.0
159.9721297532605 45.77306463492684 0.0
159.96865198284442 47.77276055707185 0.0
159.96517198649835 49.77244997883657 0.0
159.96168470298977 51.77213532852358 0.0
159.9581854566927 53.77181882413883 0.0
159.95466991293438 55.77150247299877 0.0
159.95113403695572 57.77118807483285 0.0
159.94757405652982 59.77087722703838 0.0
159.94398642804344 61.77057133101617 0.0
159.94036780566987 63.77027159874787 0.0
159.93671501314986 65.7699790589648 0.0
159.93302501761505 67.76969456239428 0.0
159.9292949048381 69.76941878576915 0.0
159.9255218552497 71.76915223427555 0.0
159.92170312003574 73.76889524229401 0.0
159.91783599659612 75.76864797232531 0.0
159.91391780262092 77.7684104120707 0.0
159.90994584801496 79.76818236970547 0.0
159.90591740386913 81.76796346745977 0.0
159.90182966766022 83.7677531337052 0.0
159.89767972383697 85.76755059384115 0.0
159.89346449894612 87.7673548603879 0.0
159.88918071046632 89.7671647228251 0.0
159.8848248085568 91.76697873785933 0.0
159.88039291000624 93.76679522096968 0.0
159.87588072379467 95.76661224024515 0.0
159.87128346785497 97.76642761369322 0.0
162.06373089772325 1.7794603082539202 0.0
162.05819131251013 3.7796528514285486 0.0
162.0528075945094 5.779857377219215 0.0
162.04758822407314 7.780065307268308 0.0
162.04253791328085 9.780267538469573 0.0
162.0376575323644 11.780455094151762 0.0
162.0329443153825 13.780619702398777 0.0
162.0283922869044 15.78075424911923 0.0
162.02399283431632 17.780853078331088 0.0
162.01973534791657 19.780912136734194 0.0
162.0156078603282 21.780928979335698 0.0
162.0115976333274 23.780902665342484 0.0
162.0076916591733 25.78083357854255 0.0
162.00387706116902 27.78072320532736 0.0
162.00014139223373 29.780573898464006 0.0
161.99647283986766 31.78038864781094 0.0
161.99286035133863 33.780170872050775 0.0
161.9892936949722 35.77992423923864 0.0
161.98576347317237 37.77965251911273 0.0
161.9822611011215 39.77935946660312 0.0
161.9787787627975 41.77904873385882 0.0
161.97530935347922 43.7787238069947 0.0
161.97184641562654 45.778387963350596 0.0
161.96838407304924 47.77804424514649 0.0
161.96491696668343 49.77769544578298 0.0
161.9614401940592 51.77734410552999 0.0
161.95794925361596 53.776992513878696 0.0
161.954439994362 55.77664271633912 0.0
161.95090857090733 57.776296523920045 0.0
161.94735140359217 59.77595552391676 0.0
161.9437651432257 61.77562109095097 0.0
161.94014663983256 63.77529439746621 0.0
161.93649291471948 65.77497642308298 0.0
161.93280113513958 67.77466796235457 0.0
161.9290685908005 69.77436963066187 0.0
161.92529267144624 71.77408186796214 0.0
161.92147084472595 73.77380494027784 0.0
161.91760063354096 75.77353893883526 0.0
161.9136795920417 77.77328377682929 0.0
161.90970527940982 79.77303918384791 0.0
161.9056752305303 81.77280469805902 0.0
161.90158692261917 83.77257965633684 0.0
161.89743773683614 85.77236318260282 0.0
161.8932249138827 87.77215417477109 0.0
161.8889455025789 89.77195129083204 0.0
161.88459630042848 91.7717529347754 0.0
161.88017378524444 93.7715572432483 0.0
161.8756740370325 95.77136207404966 0.0
161.8710926495172 97.77116499777391 0.0
164.06313606350918 1.7852702282455444 0.0
164.05753054790364 3.7854838678108096 0.0
164.05209367950638 5.785709202600269 0.0
164.0468354749623 7.785935928309053 0.0
164.04176121661436 9.786153231601896 0.0
164.03687143123236 11.786350628497955 0.0
164.03216223863174 13.786518684970144 0.0
164.0276259782242 15.786649552047344 0.0
164.02325200133544 17.786737286112277 0.0
164.01902751954114 19.786777960783446 0.0
164.014938418335 21.786769603011145 0.0
164.0109699730486 23.78671200020151 0.0
164.00710743255328 25.78660642817213 0.0
164.00333646066412 27.78645534455263 0.0
163.99964344279175 29.786262082537874 0.0
163.99601567596767 31.78603056888315 0.0
163.99244146498907 33.785765079894766 0.0
163.98891014779718 35.78547004106596 0.0
163.98541207096022 37.785149870320076 0.0
163.98193853265664 39.78480886118763 0.0
163.97848170675883 41.78445110042864 0.0
163.97503455808442 43.784080413988875 0.0
163.9715907558658 45.783700335315544 0.0
163.96814459008218 47.783314090651864 0.0
163.96469089347627 49.782924596714075 0.0
163.96122497074694 51.78253446697568 0.0
163.95774253548464 53.782146023553835 0.0
163.95423965479995 55.78176131236541 0.0
163.95071270120016 57.78138211978268 0.0
163.947158311034 59.78100998947089 0.0
163.9435733486947 61.78064623844238 0.0
163.93995487571394 63.78029197163421 0.0
163.93630012385452 65.77994809451353 0.0
163.93260647131538 67.77961532334375 0.0
163.92887142116632 69.77929419292633 0.0
163.92509258113878 71.77898506159144 0.0
163.9212676438983 73.77868811336359 0.0
163.91739436691378 75.77840335723552 0.0
163.91347055101645 77.77813062353057 0.0
163.90949401670466 79.7778695573783 0.0
163.90546257720928 81.77761960937981 0.0
163.9013740072745 83.77738002360792 0.0
163.89722600655182 85.77714982317465 0.0
163.89301615644808 87.77692779371768 0.0
163.8887418692208 89.77671246530949 0.0
163.8844003281043 91.77650209348273 0.0
163.87998841727912 93.7762946402969 0.0
163.87550264060567 95.77608775662812 0.0
163.870939028243 97.77587876713682 0.0
166.06247493714378 1.7911658450563575 0.0
166.05679826211045 3.7914021325884066 0.0
166.0513057503219 5.791649624413796 0.0
166.0460091562056 7.791895840698343 0.0
166.04091422927237 9.79212785789495 0.0
166.0360207926148 11.792333397313218 0.0
166.03132331438033 13.792501723878974 0.0
166.02681182594844 15.792624268782792 0.0
166.02247301903805 17.792694949484645 0.0
166.01829136733818 19.792710212129563 0.0
166.01425015449396 21.792668855368227 0.0
166.01033233530023 23.792571708742845 0.0
166.00652119918578 25.79242123654675 0.0
166.00280083768106 27.792221125419662 0.0
165.99915643837247 29.791975896999233 0.0
165.9955744379629 31.791690570314312 0.0
165.99204256918563 33.791370384906294 0.0
165.98854983347937 35.79102058583774 0.0
165.98508642602448 37.790646265681296 0.0
165.9816436337696 39.79025225537479 0.0
165.97821372146447 41.789843054825674 0.0
165.97478981599053 43.78942279442165 0.0
165.9713657955637 45.788995219567035 0.0
165.96793618763922 47.788563691632945 0.0
165.9644960773968 49.78813120000847 0.0
165.96104102738772 51.78770038112524 0.0
165.95756700808602 53.787273541342046 0.0
165.9540703385933 55.78685268140066 0.0
165.9505476364759 57.786439520812266 0.0
165.94699577559967 59.78603552102413 0.0
165.94341185079494 61.785641906581105 0.0
165.9397931482141 63.785259683758156 0.0
165.93613712028542 65.7848896563202 0.0
165.93244136422348 67.78453243816821 0.0
165.9287036031022 69.78418846278907 0.0
165.92492166852952 71.78385798935415 0.0
165.92109348397955 73.78354110544237 0.0
165.9172170478375 75.78323772634478 0.0
165.91329041519114 77.78294759093264 0.0
165.90931167736096 79.78267025409409 0.0
165.90527893810238 81.78240507577937 0.0
165.90119028533962 83.78215120674454 0.0
165.89704375719742 85.78190757116256 0.0
165.89283730100504 87.78167284638198 0.0
165.88856872385352 89.78144544027211 0.0
165.8842356332191 91.78122346680583 0.0
165.8798353661549 93.78100472080192 0.0
165.87536490561794 95.78078665307135 0.0
165.8708207826989 97.78056634757024 0.0
168.06174210678748 1.7971566722853316 0.0
168.05598803809508 3.797417470898448 0.0
168.05043715554217 5.797688658724335 0.0
168.04510315760098 7.797954987069456 0.0
168.03999204669503 9.798200915358109 0.0
168.03510238931796 11.798412036252405 0.0
168.0304262361584 13.79857619443086 0.0
168.02595046754192 15.798684192132201 0.0
168.0216583122044 17.798730068117262 0.0
168.01753082361415 19.798711010489527 0.0
168.01354816417705 21.798627005333167 0.0
168.00969061957358 23.798480332822752 0.0
168.0059393260886 25.798275009001742 0.0
168.0022767352498 27.79801624609386 0.0
167.9986868621225 29.797709976630944 0.0
167.99515537032806 31.797362462933723 0.0
167.99166954370406 33.79697999614333 0.0
167.9882181863706 35.796568678161 0.0
167.98479148328522 37.79613427438404 0.0
167.98138084423704 39.79568212326621 0.0
167.97797874659278 41.795217089258195 0.0
167.97457858623747 43.79474354734461 0.0
167.97117454191255 45.794265389474376 0.0
167.9677614552586 47.793786045275034 0.0
167.96433472700258 49.79330851130677 0.0
167.960890228607 51.79283538465958 0.0
167.9574242280743 53.79236889792499 0.0
167.95393332832143 55.79191095350746 0.0
167.9504144164545 57.79146315593045 0.0
167.9468646223199 59.79102684128476 0.0
167.94328128480322 61.79060310330713 0.0
167.93966192447732 63.79019281580498 0.0
167.93600422132045 65.78979665128362 0.0
167.93230599633466 67.78941509569246 0.0
167.92856519598573 69.7890484593322 0.0
167.92477987843878 71.78869688384923 0.0
167.92094820060683 73.78836034534865 0.0
167.91706840502758 75.7880386536034 0.0
167.91313880556459 77.78773144733806 0.0
167.9091577708841 79.78743818556174 0.0
167.9051237045803 81.78715813493636 0.0
167.9010350207242 83.78689035319397 0.0
167.8968901134891 85.78663366867768 0.0
167.8926873193578 87.78638665617638 0.0
167.88842487026758 89.78614760938204 0.0
167.88410083590477 91.78591451052301 0.0
167.87971305326735 93.78568499804354 0.0
167.87525904161518 95.78545633359838 0.0
167.87073590108966 97.78522537010623 0.0
170.0609309211113 1.8032544277021734 0.0
170.0550920408046 3.8035419906245376 0.0
170.0494799209083 5.803838617507457 0.0
170.04411039091272 7.8041254985924775 0.0
170.0389893052333 9.804383833537917 0.0
170.03411312675405 11.804596711352769 0.0
170.0294703954093 13.804750493473476 0.0
170.0250437017106 15.804835575118672 0.0
170.02081178606528 17.804846546928047 0.0
170.01675146663146 19.804781882111463 0.0
170.0128392155697 21.804643319621274 0.0
170.00905231566819 23.804435109261235 0.0
170.00536961278814 25.804163249547695 0.0
170.00177192792282 27.803834803443223 0.0
169.99824221095247 29.803457334953453 0.0
169.99476551619958 31.80303847792033 0.0
169.99132886728918 33.80258562841876 0.0
169.9879210627118 35.80210574206209 0.0
169.9845324581218 37.80160521436105 0.0
169.9811547486947 39.80108982310285 0.0
169.97778076531498 41.80056471466318 0.0
169.9744042916736 43.80003441972077 0.0
169.97101990496057 45.79950288728156 0.0
169.96762284014443 47.79897352890699 0.0
169.96420887631186 49.798449267447126 0.0
169.96077424279545 51.79793258642265 0.0
169.95731554255423 53.79742557756039 0.0
169.95382969029788 55.79692998495419 0.0
169.95031386300755 57.79644724498946 0.0
169.94676546074336 59.79597852161039 0.0
169.94318207588066 61.79552473678524 0.0
169.93956146914348 63.79508659618789 0.0
169.93590155101666 65.79466461019192 0.0
169.9322003672741 67.79425911027776 0.0
169.9284560874929 69.79387026103007 0.0
169.92466699550582 71.79349806774047 0.0
169.92083148079192 73.79314237969912 0.0
169.91694802981516 75.79280288917005 0.0
169.91301521630106 77.79247912601487 0.0
169.90903168937945 79.7921704478952 0.0
169.9049961584375 81.79187602596939 0.0
169.90090737339824 83.79159482599692 0.0
169.8967640989813 85.7913255847959 0.0
169.89256508130472 87.79106678207077 0.0
169.88830900495202 89.79081660776606 0.0
169.88399443838875 91.79057292533045 0.0
169.87961976539106 93.79033323162795 0.0
169.87518310003466 95.7900946147235 0.0
169.87068218286447 97.78985371139153 0.0
172.0600331104422 1.8094736439109937 0.0
172.05410060884378 3.8097907158999114 0.0
172.0484244322046 5.810114725663421 0.0
172.0430226585023 7.810422231945235 0.0
172.0379002794096 9.810690362332032 0.0
172.0330503551474 11.81089930845912 0.0
172.02845635167805 13.811034009299709 0.0
172.02409503891857 15.811084895192547 0.0
172.01993938088796 17.81104779525464 0.0
172.01596101949164 19.81092324900157 0.0
172.0121321558606 21.810715499018425 0.0
172.00842680212025 23.810431402781017 0.0
172.00482148387286 25.81007942776147 0.0
172.001295521088 27.80966881780939 0.0
171.9978310194154 29.809208958927304 0.0
171.99441268468652 31.808708934313923 0.0
171.99102754577197 33.80817723924019 0.0
171.98766464416897 35.807621620277295 0.0
171.98431472679695 37.80704900512626 0.0
171.98096996243072 39.80646549447895 0.0
171.97762369137035 41.80587639361722 0.0
171.97427021115473 43.805286267299 0.0
171.97090459720727 45.804699006349736 0.0
171.9675225552864 47.80411789817543 0.0
171.9641203017815 49.80354569621752 0.0
171.96069446775877 51.8029846853547 0.0
171.95724202290074 53.80243674161348 0.0
171.95376021588683 55.80190338543774 0.0
171.9502465282283 57.801385828326225 0.0
171.94669863902067 59.80088501297022 0.0
171.9431143984765 61.80040164719338 0.0
171.93949180845198 63.79993623206083 0.0
171.93582900845212 65.79948908451972 0.0
171.93212426582315 67.79906035486727 0.0
171.9283759689926 69.7986500393622 0.0
171.92458262272828 71.79825798807983 0.0
171.92074284443822 73.7978839081397 0.0
171.91685536055243 75.79752736230816 0.0
171.91291900199306 77.79718776291354 0.0
171.9089326976809 79.79686436094742 0.0
171.90489546491415 81.79655623017648 0.0
171.90080639531624 83.79626224605639 0.0
171.89666463484664 85.79598105922905 0.0
171.89246935611786 87.79571106341855 0.0
171.88821972094024 89.79545035763503 0.0
171.8839148306342 91.79519670280362 0.0
171.87955366125976 93.79494747330223 0.0
171.87513498058314 95.79469960447187 0.0
171.87065724350103 97.79444953797417 0.0
174.05903825852798 1.8158325067703152 0.0
174.05300169990352 3.8161824550144905 0.0
174.0472590395119 5.816535951774283 0.0
174.04183055021954 7.8168634606631 0.0
174.03671911542705 9.817137022197167 0.0
174.0319123939205 11.817333576471857 0.0
174.02738654258465 13.817436947136462 0.0
174.02311047321183 15.817438404009758 0.0
174.01904979782262 17.8173360782241 0.0
174.01516995689892 19.817133671555894 0.0
174.01143836392458 21.816838894979224 0.0
174.00782564114962 23.81646196073371 0.0
174.00430614312273 25.816014313525336 0.0
174.00085799142406 27.815507669166987 0.0
173.9974628160849 29.81495335204133 0.0
173.99410535043506 31.81436188384169 0.0
173.99077297745194 33.81374276406046 0.0
173.98745528640862 35.81310438594609 0.0
173.984143670697 37.81245404157814 0.0
173.9808309796468 39.8117979809403 0.0
173.97751122649137 41.81114150011399 0.0
173.97417934891573 43.810489041882555 0.0
173.9708310160519 45.80984429811313 0.0
173.96746247501798 47.80921030758431 0.0
173.96407043032852 49.80858954583162 0.0
173.96065195017852 51.80798400546178 0.0
173.95720439445654 53.807395266547964 0.0
173.95372536019457 55.806824557389795 0.0
173.95021264092696 57.80627280627212 0.0
173.94666419710765 59.805740685000664 0.0
173.9430781352768 61.805228645009365 0.0
173.93945269411196 63.80473694677587 0.0
173.93578623584017 65.80426568317829 0.0
173.93207724174397 67.80381479727947 0.0
173.9283243106776 69.80338409498256 0.0
173.9245261596211 71.80297325273183 0.0
173.9206816253672 73.80258182041852 0.0
173.91678966643934 75.80220921948705 0.0
173.91284936430924 77.80185473613818 0.0
173.90885992290484 79.80151750942937 0.0
173.90482066528233 81.80119651399076 0.0
173.90073102617228 83.80089053700326 0.0
173.89659053889196 85.80059814903173 0.0
173.89239881480498 87.80031766827322 0.0
173.88815551310782 89.80004711780948 0.0
173.88386029817417 91.79978417558438 0.0
173.87951278105527 93.7995261171663 0.0
173.87511244107452 95.79926975199552 0.0
173.8706585230164 97.79901135484475 0.0
176.05793304976092 1.8223540320022873 0.0
176.0517801269496 3.8227410138993436 0.0
176.04596957283283 5.82312614221242 0.0
176.0405234267071 7.82347176227961 0.0
176.0354403115603 9.823743592602332 0.0
176.03069939675137 11.823915139971112 0.0
176.0262663447698 13.823969885016128 0.0
176.0220995469643 15.82390132520066 0.0
176.0181554226032 17.823711495694795 0.0
176.01439220875258 19.82340874881656 0.0
176.0107722141198 21.823005444867523 0.0
176.0072628238152 23.82251595929868 0.0
176.0038366421919 25.821955173653542 0.0
176.0004711269586 27.821337455015694 0.0
175.99714797913398 29.820676045300363 0.0
175.99385246081155 31.81998275634337 0.0
175.990572738871 33.8192678732924 0.0
175.98729930215376 35.81854018823146 0.0
175.98402446860453 37.81780710735674 0.0
175.9807419818004 39.81707479332393 0.0
175.97744668807636 41.81634831846491 0.0
175.97413428243965 43.8156318144892 0.0
175.97080111122455 45.814928610908574 0.0
175.9674440205224 47.81424135864738 0.0
175.96406024100528 49.813572137851594 0.0
175.9606473014079 51.81292255035414 0.0
175.95720296444628 53.81229379799363 0.0
175.95372518024195 55.81168674828858 0.0
175.95021205339185 57.811101989018425 0.0
175.94666182067073 59.8105398731684 0.0
175.94307283702577 61.81000055552718 0.0
175.93944356803104 63.809484022028876 0.0
175.9357725873564 65.80899011271867 0.0
175.93205857808522 67.80851853899432 0.0
175.92830033690214 69.8080688956714 0.0
175.92449678029897 71.80764066809661 0.0
175.92064695199454 73.80723323448002 0.0
175.91675003077424 75.80684586341677 0.0
175.91280533790558 77.80647770643611 0.0
175.9088123432041 79.80612778529 0.0
175.90477066869173 81.80579497357944 0.0
175.90068008862693 83.80547797220754 0.0
175.89654052444868 85.80517527804315 0.0
175.8923520328576 87.80488514507039 0.0
175.888114784773 89.80460553721447 0.0
175.8838290322082 91.80433407203033 0.0
175.87949505914494 93.80406795465211 0.0
175.87511311134972 95.8038039020223 0.0
175.87068329901297 97.80353805865364 0.0
178.05670016927508 1.829067758802428 0.0
178.05041649155584 3.829496931683572 0.0
178.04453877508757 5.829915590338634 0.0
178.0390896108095 7.830275140419301 0.0
178.03405964133674 9.830533564955251 0.0
178.0294147596251 11.830661212081775 0.0
178.02510563718556 13.830642842177781 0.0
178.02107678295997 15.830476485119624 0.0
178.01727344898342 17.8301704148816 0.0
178.01364591208366 19.82973956041416 0.0
178.01015147813104 21.829202266595654 0.0
178.00675488839607 23.828577826747367 0.0
178.00342779559284 25.827884845837815 0.0
178.00014781276565 27.827140301756987 0.0
177.9968974522074 29.82635911411287 0.0
177.9936631250384 31.825554043564235 0.0
177.99043427578198 33.82473578506431 0.0
177.98720267115846 35.823913160526594 0.0
177.9839618346491 37.82309335083578 0.0
177.98070660698218 39.822282131763664 0.0
177.97743280998478 41.82148409481556 0.0
177.97413699266139 43.82070284426721 0.0
177.97081624138272 45.81994116767274 0.0
177.96746803942415 47.81920118043554 0.0
177.96409016419082 49.818484446669885 0.0
177.96068061309387 51.81779207922682 0.0
177.95723755117618 53.81712482185688 0.0
177.953759275257 55.816483116288964 0.0
177.95024419065933 57.81586715668451 0.0
177.94669079756088 59.81527693355806 0.0
177.94309768475256 61.814712268891256 0.0
177.93946352912826 63.81417284382718 0.0
177.9357870996344 65.8136582200186 0.0
177.93206726468318 67.81316785540142 0.0
177.9283030022232 69.81270111500837 0.0
177.92449341177425 71.81225727706584 0.0
177.9206377277738 73.81183553453317 0.0
177.91673533357854 75.81143499200705 0.0
177.91278577540476 77.81105465775443 0.0
177.9087887753907 79.81069343048317 0.0
177.90474424283377 81.81035008031593 0.0
177.90065228248702 83.81002322329579 0.0
177.89651319858567 85.80971128859554 0.0
177.89232749297665 87.80941247741637 0.0
177.8880958552412 89.80912471232607 0.0
177.88381914188582 91.80884557555487 0.0
177.87949834038176 93.8085722346968 0.0
177.87513451199897 95.80830135467185 0.0
177.8707287052977 97.80802899613212 0.0
180.05531664870898 1.8360122590116261 0.0
180.0488856756256 3.8364900283326477 0.0
180.04294570678152 5.83694323115333 0.0
180.0375170385253 7.837308392609103 0.0
180.03257586601137 9.837534369481048 0.0
180.02806738207684 11.837589676894853 0.0
180.0239210545143 13.8374634869769 0.0
180.0200635310742 15.837162052314156 0.0
180.01642714169907 17.83670313036432 0.0
180.01295409402536 19.83611052991966 0.0
180.00959753433995 21.83540987869603 0.0
180.00632079552366 23.83462586707665 0.0
180.00309585136736 25.833780743555376 0.0
179.9999015989617 27.83289369384518 0.0
179.99672228068954 29.831980763877187 0.0
179.99354616327176 31.831055076433977 0.0
179.9903644897841 33.830127178903425 0.0
179.98717067564286 35.82920542652703 0.0
179.98395970525294 37.82829635025035 0.0
179.9807276861487 39.82740498561382 0.0
179.9774715232942 41.82653515481992 0.0
179.97418868346512 43.82568970236168 0.0
179.97087702643236 45.82487068847895 0.0
179.96753468537767 47.82407954615568 0.0
179.96415998347797 49.8233172075265 0.0
179.96075137705301 51.82258420509991 0.0
179.95730741825594 53.82188075249902 0.0
179.95382673220487 55.82120680866175 0.0
179.9503080048561 57.82056212872713 0.0
179.94674997894708 59.819946304197735 0.0
179.94315145608115 61.81935879442035 0.0
179.93951130355916 63.818798950966354 0.0
179.93582846494294 65.81826603609642 0.0
179.93210197359946 67.8177592361362 0.0
179.92833096863694 69.81727767039634 0.0
179.92451471274498 71.8168203958639 0.0
179.9206526114759 73.81638640778547 0.0
179.91674423348417 75.8159746359984 0.0
179.9127893311617 77.81558393668347 0.0
179.90878786099833 79.81521307902919 0.0
179.90474000285076 81.81486072613522 0.0
179.90064617714458 83.81452540931855 0.0
179.8965070588671 85.81420549480416 0.0
179.89232358699599 87.8138991415304 0.0
179.8880969676474 89.81360424840852 0.0
179.8838286684581 91.8133183888227 0.0
179.87952040017078 93.81303872957128 0.0
179.8751740787243 95.81276193127836 0.0
179.87079175743716 97.8124840283641 0.0
182.0537512932157 1.8432389912541616 0.0
182.0471546915454 3.8437732465440257 0.0
182.04116530739233 5.844259733107622 0.0
182.03579488937515 7.844614621114534 0.0
182.03099384230575 9.844776928881096 0.0
182.02667523238892 11.84471690228407 0.0
182.02273911436114 13.8444338659953 0.0
182.0190901776769 15.843947925148017 0.0
182.0156470487315 17.84329049602946 0.0
182.01234505557827 19.84249662875346 0.0
182.00913517684492 21.841600081295695 0.0
182.00598140145487 23.840630778797994 0.0
182.00285781071966 25.839613905385043 0.0
181.99974598757024 27.83856992903872 0.0
181.99663293653003 29.83751507647437 0.0
181.99350950466155 31.836461968834772 0.0
181.99036922225864 33.83542026522416 0.0
181.9872074695899 35.83439724374531 0.0
181.98402088647697 37.83339829546701 0.0
181.98080695833832 39.83242732970127 0.0
181.97756372861 41.83148709926063 0.0
181.9742896009084 43.83057945783195 0.0
181.9709832046303 45.82970556177932 0.0
181.96764330531843 47.82886602744701 0.0
181.96426874662743 49.82806105331935 0.0
181.96085841464654 51.82729051466845 0.0
181.95741121811363 53.826554036776706 0.0
181.9539260800086 55.82585105151501 0.0
181.9504019373927 57.825180840993816 0.0
181.9468377473256 59.824542571146566 0.0
181.9432324973746 61.82393531742283 0.0
181.93958521970413 63.82335808422568 0.0
181.93589500806468 65.82280981928461 0.0
181.93216103721755 67.8222894237695 0.0
181.92838258447415 69.82179575874352 0.0
181.9245590530956 71.82132764813136 0.0
181.920689997313 73.82088387826136 0.0
181.9167751486868 75.82046319375993 0.0
181.91281444343562 77.82006428936901 0.0
181.90880805022752 79.81968579705143 0.0
181.90475639777318 81.8193262675603 0.0
181.90066020139503 83.81898414547054 0.0
181.89652048763384 85.81865773649025 0.0
181.89233861589392 87.81834516560507 0.0
181.88811629605624 89.81804432412471 0.0
181.88385560059174 91.81775280279699 0.0
181.87955896828447 93.81746780678806 0.0
181.87522919327012 95.8171860469417 0.0
181.8708693870735 97.81690360167359 0.0
184.05196051582303 1.8508184347378465 0.0
184.04517962609398 3.851418662839492 0.0
184.0391686496023 5.851931789791996 0.0
184.03391726537353 7.85224647683799 0.0
184.02933006344418 9.852293498292992 0.0
184.02527078688186 11.85205309429402 0.0
184.021600266012 13.851544672885828 0.0
184.01819841241777 15.850810196074239 0.0
184.01497173831504 17.84989932948618 0.0
184.01185206457882 19.848859974587327 0.0
184.00879173268262 21.847733674819935 0.0
184.00575834254317 23.84655427926688 0.0
184.00273029356907 25.845348283641208 0.0
183.99969339304377 27.844135859375896 0.0
183.9966384220551 29.84293203870123 0.0
183.99355944441174 31.841747814685114 0.0
183.99045265475462 33.84059107014447 0.0
183.98731560395757 35.83946732356377 0.0
183.984146683315 37.838380310882634 0.0
183.9809447842795 39.83733243130921 0.0
183.97770907659515 41.83632508527018 0.0
183.97443886606015 43.835358928896824 0.0
183.97113350579863 45.834434064884555 0.0
183.96779234350117 47.83355018528423 0.0
183.96441469287402 49.832706678173274 0.0
183.96099982142954 51.8319027072642 0.0
183.95754694936718 53.831137271266826 0.0
183.95405525605716 55.83040924810569 0.0
183.9505238918342 57.82971742780043 0.0
183.94695199361797 59.82906053683676 0.0
183.9433387034284 61.82843725611599 0.0
183.93968318923663 63.82784623400783 0.0
183.9359846678472 65.8272860955872 0.0
183.93224242967264 67.82675544875947 0.0
183.92845586535879 69.82625288778593 0.0
183.92462449426864 71.82577699430584 0.0
183.92074799482558 73.82532633584168 0.0
183.91682623666958 75.82489946148537 0.0
183.91285931446996 77.82449489424042 0.0
183.90884758309292 79.8241111192584 0.0
183.90479169362837 81.8237465669875 0.0
183.90069262959733 83.82339959005118 0.0
183.896551742559 85.82306843251291 0.0
183.8923707864359 87.82275118999229 0.0
183.88815195026535 89.82244575868555 0.0
183.88389788954834 91.82214977025885 0.0
183.87961175595817 93.8218605072955 0.0
183.87529722186517 95.82157479050208 0.0
183.8709584874793 97.82128882594117 0.0
186.04988127169636 1.85885054116389 0.0
186.04290145289434 3.859527027341877 0.0
186.03692532007295 5.8600479577608136 0.0
186.03189114884407 7.8602656678881875 0.0
186.02762225632074 9.86011157779169 0.0
186.02390884344362 11.859592993053315 0.0
186.02056340276945 13.858765704661172 0.0
186.0174427323522 15.857703168172712 0.0
186.01444727135006 17.856476669935038 0.0
186.01151179088004 19.85514617677913 0.0
186.0085951451361 21.853758430338527 0.0
186.00567216066614 23.852348202612752 0.0
186.00272788959666 25.850940559246304 0.0
185.99975377772668 27.849553123928395 0.0
185.9967451837827 29.848197992029768 0.0
185.9936998016652 31.846883227893862 0.0
185.99061666833668 33.845613990183985 0.0
185.9874955462426 35.84439335888324 0.0
185.9843365435705 37.84322293532742 0.0
185.98113988506574 39.84210327431502 0.0
185.97790577799398 41.84103419393934 0.0
185.9746343381427 43.84001499712463 0.0
185.9713255536138 45.83904462968115 0.0
185.9679792723193 47.83812179281264 0.0
185.9645952042576 49.83724502297123 0.0
185.96117293295504 51.836412748311204 0.0
185.9577119325633 53.83562332838089 0.0
185.95421158846432 55.83487508181844 0.0
185.95067122011096 57.83416630547795 0.0
185.94709010540524 59.833495287445096 0.0
185.94346750628767 61.832860315703826 0.0
185.9398026954561 63.8322596837014 0.0
185.93609498429598 65.83169169367092 0.0
185.93234375220595 67.83115465824157 0.0
185.92854847756064 69.83064690072123 0.0
185.92470877058014 71.83016675405298 0.0
185.9208244083618 73.82971255836276 0.0
185.91689537227776 75.82928265673957 0.0
185.91292188783424 77.82887538865252 0.0
185.90890446692768 79.82848908014698 0.0
185.90484395220707 81.82812202968393 0.0
185.90074156299946 83.82777248823908 0.0
185.89659894208341 85.82743863210167 0.0
185.8924182027259 87.82711852675064 0.0
185.88820197623468 89.82681008010357 0.0
185.88395346210214 91.82651098269167 0.0
185.8796764849658 93.82621862955064 0.0
185.875375561897 95.82593001229944 0.0
185.87105597372982 97.82564156100021 0.0
188.0474183652634 1.8674825696550423 0.0
188.04024094806383 3.8682443368969612 0.0
188.03441195706733 5.868724685990612 0.0
188.02975293148725 7.868737249648631 0.0
188.0259452992973 9.868238670546091 0.0
188.02267619827964 11.867298550298297 0.0
188.01970919642514 13.866030978749523 0.0
188.0168894412652 15.864549047396512 0.0
188.01412423115605 17.86294365247088 0.0
188.0113608263194 19.861281303099407 0.0
188.00857074121637 21.859608045813147 0.0
188.00573960332386 23.857954608187907 0.0
188.00286103531903 25.856340842483586 0.0
187.99993304442913 27.85477909884761 0.0
187.99695592610024 29.853276636553748 0.0
187.99393106028683 31.85183729780675 0.0
187.99086023070714 33.85046265211499 0.0
187.98774524937014 35.84915277250098 0.0
187.98458775894716 37.84790675965591 0.0
187.9813891383239 39.84672309467739 0.0
187.97815046750762 41.84559987556461 0.0
187.97487252612902 43.84453497490494 0.0
187.97155581042097 45.84352614410564 0.0
187.9682005598501 47.84257108136008 0.0
187.9648067883293 49.84166747503426 0.0
187.96137431717625 51.84081303044035 0.0
187.95790280832352 53.8400054854524 0.0
187.95439179709484 55.839242618707445 0.0
187.95084072434102 57.8385222529703 0.0
187.94724896802146 59.83784225543693 0.0
187.94361587449347 61.83720053619579 0.0
187.9399407898773 63.836595045676766 0.0
187.93622309193313 65.83602377163194 0.0
187.93246222292683 67.83548473595074 0.0
187.9286577239899 69.83497599154316 0.0
187.9248092714841 71.83449561919811 0.0
187.92091671587633 73.83404172429216 0.0
187.91698012358646 75.83361243297661 0.0
187.91299982218422 77.83320588724635 0.0
187.90897644916018 79.83282023800524 0.0
187.9049110042418 81.83245363490347 0.0
187.9008049048973 83.83210421136295 0.0
187.8966600443002 85.83177006292115 0.0
187.89247885092115 87.83144921698484 0.0
187.88826434973058 89.83113959245463 0.0
187.884020228104 91.83083894817844 0.0
187.87975091595257 93.83054481762233 0.0
187.87546169673456 95.83025441896393 0.0
187.87115886202128 97.82996451098259 0.0
190.04442018529363 1.8769480785823922 0.0
190.03709638349972 3.877785559859459 0.0
190.03163672253714 5.87811118029334 0.0
190.027602357332 7.877705270840312 0.0
190.02443380804624 9.876629486141287 0.0
190.0216999872904 11.875068393522804 0.0
190.0191378629454 13.873218773710583 0.0
190.0166105181397 15.871227136713994 0.0
190.01405097759576 17.86919101086871 0.0
190.01142984192532 19.867171024679767 0.0
190.0087366673031 21.86520313484664 0.0
190.0059702604615 23.863307539066632 0.0
190.00313362314247 25.86149462169191 0.0
190.00023137835018 27.85976875284723 0.0
189.99726848365955 29.85813067478697 0.0
189.9942496158558 31.8565789886686 0.0
189.99117890341213 33.85511107663977 0.0
189.98805983747448 35.85372367078407 0.0
189.9848952720978 37.852413201196725 0.0
189.98168746671968 39.851176005626705 0.0
189.9784381462712 41.85000845229253 0.0
189.9751485663037 43.84890700828263 0.0
189.97181957693343 45.8478682740083 0.0
189.9684516828411 47.8468889966967 0.0
189.96504509838076 49.845966071195356 0.0
189.961599797795 51.84509653336736 0.0
189.95811556099662 53.84427754944796 0.0
189.9545920155914 55.84350640350894 0.0
189.95102867589657 57.84278048439205 0.0
189.9474249797248 59.842097272965184 0.0
189.94378032369312 61.84145433022897 0.0
189.94009409779665 63.840849286591286 0.0
189.9363657199726 65.84027983248447 0.0
189.93259467136863 67.83974371037301 0.0
189.92878053303323 69.83923870823044 0.0
189.92492302474753 71.83876265431674 0.0
189.92102204672253 73.83831341313147 0.0
189.91707772487644 75.83788888222946 0.0
189.91309046036332 77.83748698940498 0.0
189.90906098390886 79.83710568947284 0.0
189.90499041529327 81.83674295948956 0.0
189.900880327919 83.83639679076067 0.0
189.8967328178167 85.8360651754459 0.0
189.89255057577512 87.83574608523803 0.0
189.88833696122086 89.83543744001017 0.0
189.88409607906732 91.835137066285 0.0
189.8798328712259 93.83484264849407 0.0
189.87555325652164 95.83455167143116 0.0
189.8712643738266 97.8342613240552 0.0
192.04063009226098 1.88762194377423 0.0
192.0333570049624 3.8884936633941374 0.0
192.02871172909897 5.88835372380816 0.0
192.0256598588389 7.887132088261355 0.0
192.0233071952677 9.885113756912736 0.0
192.02114115018028 11.8826954693139 0.0
192.01895516771856 13.88013151911776 0.0
192.01666948934655 15.877567665339573 0.0
192.0142625526521 17.8750797287129 0.0
192.01173564772105 19.87270405444838 0.0
192.00909851395255 21.87045538702188 0.0
192.00636304407382 23.868336986141237 0.0
192.00354075351152 25.866346192562165 0.0
192.00064184544368 27.864477474509194 0.0
191.99767497197413 29.86272408284631 0.0
191.994647281725 31.861078938135353 0.0
191.99156457391348 33.85953509170049 0.0
191.9884314796736 35.85808595006535 0.0
191.9852516375492 37.856725368520735 0.0
191.9820278509135 39.85544767327786 0.0
191.97876222435687 41.85424764589993 0.0
191.97545628000694 43.85312048908417 0.0
191.9721110562035 45.85206178453953 0.0
191.96872719129672 47.85106744892528 0.0
191.96530499521646 49.85013369106022 0.0
191.96184451117392 51.849256972029856 0.0
191.95834556952568 53.848433968917696 0.0
191.95480783553379 55.847661542386426 0.0
191.95123085249813 57.84693670806839 0.0
191.94761408153093 59.84625661159582 0.0
191.94395693908766 61.84561850705316 0.0
191.9402588332502 63.845019738630825 0.0
191.9365191996851 65.84445772527798 0.0
191.9327375381544 67.84392994815188 0.0
191.92891345044106 69.84343394080287 0.0
191.92504668056029 71.8429672818802 0.0
191.921137158154 73.84252759028337 0.0
191.91718504599214 75.84211252258694 0.0
191.91319079252767 77.84171977247681 0.0
191.90915519041928 79.84134707173865 0.0
191.9050794417973 81.84099219199209 0.0
191.90096523070426 83.84065294580971 0.0
191.89681480242774 85.8403271850524 0.0
191.89263104819975 87.84001279329847 0.0
191.88841759203328 89.83970766870571 0.0
191.88417887582523 91.83940969530914 0.0
191.8799202454905 93.83911670839899 0.0
191.87564807814886 95.83882647472822 0.0
191.87137007058925 97.83853668793843 0.0
194.03558331626246 1.9003038661434764 0.0
194.0290296807797 3.900786901432431 0.0
194.02600594690898 5.899523090920169 0.0
194.02436340735883 7.896686277530711 0.0
194.0228423473131 9.893296689946794 0.0
194.0211587566858 11.889828041812134 0.0
194.01924008316723 13.886490288885527 0.0
194.0170994103184 15.883358689831775 0.0
194.0147666434056 17.880451195520003 0.0
194.01227272405484 19.877761820683506 0.0
194.00964436207317 21.875275628923145 0.0
194.00690338515864 23.872975222577708 0.0
194.00406721626536 25.870843499220005 0.0
194.00114962911186 27.868864724570866 0.0
193.9981614608549 29.867024852338304 0.0
193.99511120925044 31.865311514680535 0.0
193.99200551011901 33.86371387926746 0.0
193.98884951280147 35.86222246318676 0.0
193.98564717425072 37.86082894429685 0.0
193.98240149006045 39.85952598695534 0.0
193.97911467716975 41.85830708799281 0.0
193.97578831966496 43.857166443657086 0.0
193.97242348639347 45.85609883605746 0.0
193.9690208270138 47.85509953684506 0.0
193.96558065152234 49.85416422573363 0.0
193.9621029971268 51.853288921624596 0.0
193.958587685463 53.852469924371064 0.0
193.95503437251233 55.85170376551264 0.0
193.9514425931041 57.850987166595246 0.0
193.947811801545 59.850317003947325 0.0
193.94414140967223 61.849690279008016 0.0
193.9404308234561 63.849104093501154 0.0
193.93667947916973 65.84855562891659 0.0
193.93288688007922 67.84804212988098 0.0
193.92905263459173 69.84756089124724 0.0
193.92517649681082 71.84710924867034 0.0
193.92125841050165 73.84668457268506 0.0
193.91729855753132 75.84628426631728 0.0
193.91329741193834 77.84590576631359 0.0
193.90925580084783 79.84554654804569 0.0
193.90517497344865 81.84520413399295 0.0
193.90105667906545 83.8448761053268 0.0
193.89690325476678 85.84456011534714 0.0
193.89271772152273 87.84425390214714 0.0
193.88850388490806 89.84395529583747 0.0
193.88426643092444 91.84366221395288 0.0
193.88001100198264 93.84337264265942 0.0
193.87574425032508 95.84308462982463 0.0
193.87147401906537 97.84279639110224 0.0
196.02854150958012 1.9159592342417056 0.0
196.02460893014523 3.9154894441443684 0.0
196.02463305941814 5.910776186588713 0.0
196.02421207231407 7.905487522084395 0.0
196.0232734059017 9.900485732282075 0.0
196.02182857621347 11.895982114017581 0.0
196.02000028221383 13.891964756049124 0.0
196.01787852910329 15.888374751955295 0.0
196.01553121472588 17.88514959240172 0.0
196.01300717308152 19.882234794684997 0.0
196.0103420678091 21.87958540825079 0.0
196.00756222331148 23.877164953470512 0.0
196.00468732897073 25.874943870971407 0.0
196.00173226757235 27.872898095100897 0.0
195.99870837797673 29.87100788373337 0.0
195.9956243393411 31.86925689698532 0.0
195.99248680231014 33.86763148210466 0.0
195.98930084791726 35.86612011978539 0.0
195.9860703273109 37.86471299419193 0.0
195.98279811765482 39.863401657061274 0.0
195.97948631814725 41.86217876341878 0.0
195.97613640265092 43.86103786200686 0.0
195.9727493404901 45.85997322776604 0.0
195.969325693645 47.858979726864696 0.0
195.96586569631413 49.85805270711451 0.0
195.96236932123622 51.85718790834501 0.0
195.95883633607875 53.85638138860456 0.0
195.9552663524155 55.85562946302606 0.0
195.9516588692757 57.85492865293257 0.0
195.94801331285305 59.85427564332132 0.0
195.9443290736969 61.85366724730537 0.0
195.94060554251942 63.85310037644355 0.0
195.93684214563498 65.85257201617092 0.0
195.93303838098987 67.85207920575465 0.0
195.92919385571813 69.85161902252811 0.0
195.92530832618579 71.85118857017433 0.0
195.9213817415476 73.85078497117028 0.0
195.91741429193527 75.85040536364171 0.0
195.9134064625201 77.85004690309536 0.0
195.9093590948373 79.84970676970889 0.0
195.90527345687124 81.849382182055 0.0
195.901151323419 83.84907041825393 0.0
195.89699506794332 85.84876884543414 0.0
195.89280776603056 87.84847495768255 0.0
195.88859330749017 89.8481864206698 0.0
195.88435650638513 91.84790111660823 0.0
195.88010317974542 93.84761717595956 0.0
195.8758401311428 95.84733298385612 0.0
195.8715749640248 97.84704725727732 0.0
198.01868698500286 1.9404341796038673 0.0
198.02405477183484 3.9293451683492 0.0
198.02536995061666 5.919713240871778 0.0
198.02547803456147 7.912026627898367 0.0
198.02456919082596 9.905817638110587 0.0
198.02305941732158 11.900653899738948 0.0
198.0211349796101 13.896252536746035 0.0
198.01891687776813 15.892427893731002 0.0
198.01648048899733 17.889054154065366 0.0
198.0138766132459 19.88604293026717 0.0
198.0111405633724 21.883330100795025 0.0
198.0082976851406 23.880867850897538 0.0
198.00536657447086 25.878619671985206 0.0
198.00236110349815 27.876557109636988 0.0
197.99929173718482 29.874657581143236 0.0
197.9961664214513 31.872902870031997 0.0
197.99299120014 33.87127806204325 0.0
197.98977065520464 35.86977077675838 0.0
197.98650822827508 37.86837060203842 0.0
197.98320646066776 39.86706867048939 0.0
197.97986717611425 41.86585733733838 0.0
197.97649162251767 43.86472993194509 0.0
197.97308058394168 45.86368056361198 0.0
197.96963447070263 47.86270396799819 0.0
197.96615339319916 49.861795384289145 0.0
197.9626372236045 51.86095045594106 0.0
197.9590856484941 53.86016514970406 0.0
197.95549821475726 55.859435688974685 0.0
197.9518743706221 57.858758498512245 0.0
197.94821350327334 59.85813015828246 0.0
197.9445149742825 61.857547364741585 0.0
197.9407781539115 63.85700689830378 0.0
197.93700245523797 65.85650559607325 0.0
197.93318736900468 67.85604032917867 0.0
197.9293325000762 69.85560798441959 0.0
197.92543760641965 71.85520544999513 0.0
197.92150264158803 73.85482960548747 0.0
197.91752780178317 75.8544773164979 0.0
197.9135135787069 77.85414543469132 0.0
197.90946081956278 79.85383080444639 0.0
197.90537079572277 81.85353027789827 0.0
197.90124528166353 83.85324074094773 0.0
197.89708664564213 85.85295915386482 0.0
197.89289795282156 87.85268261144115 0.0
197.88868307910423 89.85240842901631 0.0
197.88444682677417 91.85213426094332 0.0
197.88019501224377 93.85185825271519 0.0
197.87593443314586 95.85157920474984 0.0
197.87167242487206 97.85129666570687 0.0

CELLS 5000 25000
4 0 4 300 299
4 299 300 301 298
4 298 301 302 297
4 297 302 303 296
4 296 303 304 295
4 295 304 305 294
4 294 305 306 293
4 293 306 307 292
4 292 307 308 291
4 291 308 309 290
4 290 309 310 289
4 289 310 311 288
4 288 311 312 287
4 287 312 313 286
4 286 313 314 285
4 285 314 315 284
4 284 315 316 283
4 283 316 317 282
4 282 317 318 281
4 281 318 319 280
4 280 319 320 279
4 279 320 321 278
4 278 321 322 277
4 277 322 323 276
4 276 323 324 275
4 275 324 325 274
4 274 325 326 273
4 273 326 327 272
4 272 327 328 271
4 271 328 329 270
4 270 329 330 269
4 269 330 331 268
4 268 331 332 267
4 267 332 333 266
4 266 333 334 265
4 265 334 335 264
4 264 335 336 263
4 263 336 337 262
4 262 337 338 261
4 261 338 339 260
4 260 339 340 259
4 259 340 341 258
4 258 341 342 257
4 257 342 343 256
4 256 343 344 255
4 255 344 345 254
4 254 345 346 253
4 253 346 347 252
4 252 347 348 251
4 251 348 250 3
4 4 5 349 300
4 300 349 350 301
4 301 350 351 302
4 302 351 352 303
4 303 352 353 304
4 304 353 354 305
4 305 354 355 306
4 306 355 356 307
4 307 356 357 308
4 308 357 358 309
4 309 358 359 310
4 310 359 360 311
4 311 360 361 312
4 312 361 362 313
4 313 362 363 314
4 314 363 364 315
4 315 364 365 316
4 316 365 366 317
4 317 366 367 318
4 318 367 368 319
4 319 368 369 320
4 320 369 370 321
4 321 370 371 322
4 322 371 372 323
4 323 372 373 324
4 324 373 374 325
4 325 374 375 326
4 326 375 376 327
4 327 376 377 328
4 328 377 378 329
4 329 378 379 330
4 330 379 380 331
4 331 380 381 332
4 332 381 382 333
4 333 382 383 334
4 334 383 384 335
4 335 384 385 336
4 336 385 386 337
4 337 386 387 338
4 338 387 388 339
4 339 388 389 340
4 340 389 390 341
4 341 390 391 342
4 342 391 392 343
4 343 392 393 344
4 344 393 394 345
4 345 394 395 346
4 346 395 396 347
4 347 396 397 348
4 348 397 249 250
4 5 6 398 349
4 349 398 399 350
4 350 399 400 351
4 351 400 401 352
4 352 401 402 353
4 353 402 403 354
4 354 403 404 355
4 355 404 405 356
4 356 405 406 357
4 357 406 407 358
4 358 407 408 359
4 359 408 409 360
4 360 409 410 361
4 361 410 411 362
4 362 411 412 363
4 363 412 413 364
4 364 413 414 365
4 365 414 415 366
4 366 415 416 367
4 367 416 417 368
4 368 417 418 369
4 369 418 419 370
4 370 419 420 371
4 371 420 421 372
4 372 421 422 373
4 373 422 423 374
4 374 423 424 375
4 375 424 425 376
4 376 425 426 377
4 377 426 427 378
4 378 427 428 379
4 379 428 429 380
4 380 429 430 381
4 381 430 431 382
4 382 431 432 383
4 383 432 433 384
4 384 433 434 385
4 385 434 435 386
4 386 435 436 387
4 387 436 437 388
4 388 437 438 389
4 389 438 439 390
4 390 439 440 391
4 391 440 441 392
4 392 441 442 393
4 393 442 443 394
4 394 443 444 395
4 395 444 445 396
4 396 445 446 397
4 397 446 248 249
4 6 7 447 398
4 398 447 448 399
4 399 448 449 400
4 400 449 450 401
4 401 450 451 402
4 402 451 452 403
4 403 452 453 404
4 404 453 454 405
4 405 454 455 406
4 406 455 456 407
4 407 456 457 408
4 408 457 458 409
4 409 458 459 410
4 410 459 460 411
4 411 460 461 412
4 412 461 462 413
4 413 462 463 414
4 414 463 464 415
4 415 464 465 416
4 416 465 466 417
4 417 466 467 418
4 418 467 468 419
4 419 468 469 420
4 420 469 470 421
4 421 470 471 422
4 422 471 472 423
4 423 472 473 424
4 424 473 474 425
4 425 474 475 426
4 426 475 476 427
4 427 476 477 428
4 428 477 478 429
4 429 478 479 430
4 430 479 480 431
4 431 480 481 432
4 432 481 482 433
4 433 482 483 434
4 434 483 484 435
4 435 484 485 436
4 436 485 486 437
4 437 486 487 438
4 438 487 488 439
4 439 488 489 440
4 440 489 490 441
4 441 490 491 442
4 442 491 492 443
4 443 492 493 444
4 444 493 494 445
4 445 494 495 446
4 446 495 247 248
4 7 8 496 447
4 447 496 497 448
4 448 497 498 449
4 449 498 499 450
4 450 499 500 451
4 451 500 501 452
4 452 501 502 453
4 453 502 503 454
4 454 503 504 455
4 455 504 505 456
4 456 505 506 457
4 457 506 507 458
4 458 507 508 459
4 459 508 509 460
4 460 509 510 461
4 461 510 511 462
4 462 511 512 463
4 463 512 513 464
4 464 513 514 465
4 465 514 515 466
4 466 515 516 467
4 467 516 517 468
4 468 517 518 469
4 469 518 519 470
4 470 519 520 471
4 471 520 521 472
4 472 521 522 473
4 473 522 523 474
4 474 523 524 475
4 475 524 525 476
4 476 525 526 477
4 477 526 527 478
4 478 527 528 479
4 479 528 529 480
4 480 529 530 481
4 481 530 531 482
4 482 531 532 483
4 483 532 533 484
4 484 533 534 485
4 485 534 535 486
4 486 535 536 487
4 487 536 537 488
4 488 537 538 489
4 489 538 539 490
4 490 539 540 491
4 491 540 541 492
4 492 541 542 493
4 493 542 543 494
4 494 543 544 495
4 495 544 246 247
4 8 9 545 496
4 496 545 546 497
4 497 546 547 498
4 498 547 548 499
4 499 548 549 500
4 500 549 550 501
4 501 550 551 502
4 502 551 552 503
4 503 552 553 504
4 504 553 554 505
4 505 554 555 506
4 506 555 556 507
4 507 556 557 508
4 508 557 558 509
4 509 558 559 510
4 510 559 560 511
4 511 560 561 512
4 512 561 562 513
4 513 562 563 514
4 514 563 564 515
4 515 564 565 516
4 516 565 566 517
4 517 566 567 518
4 518 567 568 519
4 519 568 569 520
4 520 569 570 521
4 521 570 571 522
4 522 571 572 523
4 523 572 573 524
4 524 573 574 525
4 525 574 575 526
4 526 575 576 527
4 527 576 577 528
4 528 577 578 529
4 529 578 579 530
4 530 579 580 531
4 531 580 581 532
4 532 581 582 533
4 533 582 583 534
4 534 583 584 535
4 535 584 585 536
4 536 585 586 537
4 537 586 587 538
4 538 587 588 539
4 539 588 589 540
4 540 589 590 541
4 541 590 591 542
4 542 591 592 543
4 543 592 593 544
4 544 593 245 246
4 9 10 594 545
4 545 594 595 546
4 546 595 596 547
4 547 596 597 548
4 548 597 598 549
4 549 598 599 550
4 550 599 600 551
4 551 600 601 552
4 552 601 602 553
4 553 602 603 554
4 554 603 604 555
4 555 604 605 556
4 556 605 606 557
4 557 606 607 558
4 558 607 608 559
4 559 608 609 560
4 560 609 610 561
4 561 610 611 562
4 562 611 612 563
4 563 612 613 564
4 564 613 614 565
4 565 614 615 566
4 566 615 616 567
4 567 616 617 568
4 568 617 618 569
4 569 618 619 570
4 570 619 620 571
4 571 620 621 572
4 572 621 622 573
4 573 622 623 574
4 574 623 624 575
4 575 624 625 576
4 576 625 626 577
4 577 626 627 578
4 578 627 628 579
4 579 628 629 580
4 580 629 630 581
4 581 630 631 582
4 582 631 632 583
4 583 632 633 584
4 584 633 634 585
4 585 634 635 586
4 586 635 636 587
4 587 636 637 588
4 588 637 638 589
4 589 638 639 590
4 590 639 640 591
4 591 640 641 592
4 592 641 642 593
4 593 642 244 245
4 10 11 643 594
4 594 643 644 595
4 595 644 645 596
4 596 645 646 597
4 597 646 647 598
4 598 647 648 599
4 599 648 649 600
4 600 649 650 601
4 601 650 651 602
4 602 651 652 603
4 603 652 653 604
4 604 653 654 605
4 605 654 655 606
4 606 655 656 607
4 607 656 657 608
4 608 657 658 609
4 609 658 659 610
4 610 659 660 611
4 611 660 661 612
4 612 661 662 613
4 613 662 663 614
4 614 663 664 615
4 615 664 665 616
4 616 665 666 617
4 617 666 667 618
4 618 667 668 619
4 619 668 669 620
4 620 669 670 621
4 621 670 671 622
4 622 671 672 623
4 623 672 673 624
4 624 673 674 625
4 625 674 675 626
4 626 675 676 627
4 627 676 677 628
4 628 677 678 629
4 629 678 679 630
4 630 679 680 631
4 631 680 681 632
4 632 681 682 633
4 633 682 683 634
4 634 683 684 635
4 635 684 685 636
4 636 685 686 637
4 637 686 687 638
4 638 687 688 639
4 639 688 689 640
4 640 689 690 641
4 641 690 691 642
4 642 691 243 244
4 11 12 692 643
4 643 692 693 644
4 644 693 694 645
4 645 694 695 646
4 646 695 696 647
4 647 696 697 648
4 648 697 698 649
4 649 698 699 650
4 650 699 700 651
4 651 700 701 652
4 652 701 702 653
4 653 702 703 654
4 654 703 704 655
4 655 704 705 656
4 656 705 706 657
4 657 706 707 658
4 658 707 708 659
4 659 708 709 660
4 660 709 710 661
4 661 710 711 662
4 662 711 712 663
4 663 712 713 664
4 664 713 714 665
4 665 714 715 666
4 666 715 716 667
4 667 716 717 668
4 668 717 718 669
4 669 718 719 670
4 670 719 720 671
4 671 720 721 672
4 672 721 722 673
4 673 722 723 674
4 674 723 724 675
4 675 724 725 676
4 676 725 726 677
4 677 726 727 678
4 678 727 728 679
4 679 728 729 680
4 680 729 730 681
4 681 730 731 682
4 682 731 732 683
4 683 732 733 684
4 684 733 734 685
4 685 734 735 686
4 686 735 736 687
4 687 736 737 688
4 688 737 738 689
4 689 738 739 690
4 690 739 740 691
4 691 740 242 243
4 12 13 741 692
4 692 741 742 693
4 693 742 743 694
4 694 743 744 695
4 695 744 745 696
4 696 745 746 697
4 697 746 747 698
4 698 747 748 699
4 699 748 749 700
4 700 749 750 701
4 701 750 751 702
4 702 751 752 703
4 703 752 753 704
4 704 753 754 705
4 705 754 755 706
4 706 755 756 707
4 707 756 757 708
4 708 757 758 709
4 709 758 759 710
4 710 759 760 711
4 711 760 761 712
4 712 761 762 713
4 713 762 763 714
4 714 763 764 715
4 715 764 765 716
4 716 765 766 717
4 717 766 767 718
4 718 767 768 719
4 719 768 769 720
4 720 769 770 721
4 721 770 771 722
4 722 771 772 723
4 723 772 773 724
4 724 773 774 725
4 725 774 775 726
4 726 775 776 727
4 727 776 777 728
4 728 777 778 729
4 729 778 779 730
4 730 779 780 731
4 731 780 781 732
4 732 781 782 733
4 733 782 783 734
4 734 783 784 735
4 735 784 785 736
4 736 785 786 737
4 737 786 787 738
4 738 787 788 739
4 739 788 789 740
4 740 789 241 242
4 13 14 790 741
4 741 790 791 742
4 742 791 792 743
4 743 792 793 744
4 744 793 794 745
4 745 794 795 746
4 746 795 796 747
4 747 796 797 748
4 748 797 798 749
4 749 798 799 750
4 750 799 800 751
4 751 800 801 752
4 752 801 802 753
4 753 802 803 754
4 754 803 804 755
4 755 804 805 756
4 756 805 806 757
4 757 806 807 758
4 758 807 808 759
4 759 808 809 760
4 760 809 810 761
4 761 810 811 762
4 762 811 812 763
4 763 812 813 764
4 764 813 814 765
4 765 814 815 766
4 766 815 816 767
4 767 816 817 768
4 768 817 818 769
4 769 818 819 770
4 770 819 820 771
4 771 820 821 772
4 772 821 822 773
4 773 822 823 774
4 774 823 824 775
4 775 824 825 776
4 776 825 826 777
4 777 826 827 778
4 778 827 828 779
4 779 828 829 780
4 780 829 830 781
4 781 830 831 782
4 782 831 832 783
4 783 832 833 784
4 784 833 834 785
4 785 834 835 786
4 786 835 836 787
4 787 836 837 788
4 788 837 838 789
4 789 838 240 241
4 14 15 839 790
4 790 839 840 791
4 791 840 841 792
4 792 841 842 793
4 793 842 843 794
4 794 843 844 795
4 795 844 845 796
4 796 845 846 797
4 797 846 847 798
4 798 847 848 799
4 799 848 849 800
4 800 849 850 801
4 801 850 851 802
4 802 851 852 803
4 803 852 853 804
4 804 853 854 805
4 805 854 855 806
4 806 855 856 807
4 807 856 857 808
4 808 857 858 809
4 809 858 859 810
4 810 859 860 811
4 811 860 861 812
4 812 861 862 813
4 813 862 863 814
4 814 863 864 815
4 815 864 865 816
4 816 865 866 817
4 817 866 867 818
4 818 867 868 819
4 819 868 869 820
4 820 869 870 821
4 821 870 871 822
4 822 871 872 823
4 823 872 873 824
4 824 873 874 825
4 825 874 875 826
4 826 875 876 827
4 827 876 877 828
4 828 877 878 829
4 829 878 879 830
4 830 879 880 831
4 831 880 881 832
4 832 881 882 833
4 833 882 883 834
4 834 883 884 835
4 835 884 885 836
4 836 885 886 837
4 837 886 887 838
4 838 887 239 240
4 15 16 888 839
4 839 888 889 840
4 840 889 890 841
4 841 890 891 842
4 842 891 892 843
4 843 892 893 844
4 844 893 894 845
4 845 894 895 846
4 846 895 896 847
4 847 896 897 848
4 848 897 898 849
4 849 898 899 850
4 850 899 900 851
4 851 900 901 852
4 852 901 902 853
4 853 902 903 854
4 854 903 904 855
4 855 904 905 856
4 856 905 906 857
4 857 906 907 858
4 858 907 908 859
4 859 908 909 860
4 860 909 910 861
4 861 910 911 862
4 862 911 912 863
4 863 912 913 864
4 864 913 914 865
4 865 914 915 866
4 866 915 916 867
4 867 916 917 868
4 868 917 918 869
4 869 918 919 870
4 870 919 920 871
4 871 920 921 872
4 872 921 922 873
4 873 922 923 874
4 874 923 924 875
4 875 924 925 876
4 876 925 926 877
4 877 926 927 878
4 878 927 928 879
4 879 928 929 880
4 880 929 930 881
4 881 930 931 882
4 882 931 932 883
4 883 932 933 884
4 884 933 934 885
4 885 934 935 886
4 886 935 936 887
4 887 936 238 239
4 16 17 937 888
4 888 937 938 889
4 889 938 939 890
4 890 939 940 891
4 891 940 941 892
4 892 941 942 893
4 893 942 943 894
4 894 943 944 895
4 895 944 945 896
4 896 945 946 897
4 897 946 947 898
4 898 947 948 899
4 899 948 949 900
4 900 949 950 901
4 901 950 951 902
4 902 951 952 903
4 903 952 953 904
4 904 953 954 905
4 905 954 955 906
4 906 955 956 907
4 907 956 957 908
4 908 957 958 909
4 909 958 959 910
4 910 959 960 911
4 911 960 961 912
4 912 961 962 913
4 913 962 963 914
4 914 963 964 915
4 915 964 965 916
4 916 965 966 917
4 917 966 967 918
4 918 967 968 919
4 919 968 969 920
4 920 969 970 921
4 921 970 971 922
4 922 971 972 923
4 923 972 973 924
4 924 973 974 925
4 925 974 975 926
4 926 975 976 927
4 927 976 977 928
4 928 977 978 929
4 929 978 979 930
4 930 979 980 931
4 931 980 981 932
4 932 981 982 933
4 933 982 983 934
4 934 983 984 935
4 935 984 985 936
4 936 985 237 238
4 17 18 986 937
4 937 986 987 938
4 938 987 988 939
4 939 988 989 940
4 940 989 990 941
4 941 990 991 942
4 942 991 992 943
4 943 992 993 944
4 944 993 994 945
4 945 994 995 946
4 946 995 996 947
4 947 996 997 948
4 948 997 998 949
4 949 998 999 950
4 950 999 1000 951
4 951 1000 1001 952
4 952 1001 1002 953
4 953 1002 1003 954
4 954 1003 1004 955
4 955 1004 1005 956
4 956 1005 1006 957
4 957 1006 1007 958
4 958 1007 1008 959
4 959 1008 1009 960
4 960 1009 1010 961
4 961 1010 1011 962
4 962 1011 1012 963
4 963 1012 1013 964
4 964 1013 1014 965
4 965 1014 1015 966
4 966 1015 1016 967
4 967 1016 1017 968
4 968 1017 1018 969
4 969 1018 1019 970
4 970 1019 1020 971
4 971 1020 1021 972
4 972 1021 1022 973
4 973 1022 1023 974
4 974 1023 1024 975
4 975 1024 1025 976
4 976 1025 1026 977
4 977 1026 1027 978
4 978 1027 1028 979
4 979 1028 1029 980
4 980 1029 1030 981
4 981 1030 1031 982
4 982 1031 1032 983
4 983 1032 1033 984
4 984 1033 1034 985
4 985 1034 236 237
4 18 19 1035 986
4 986 1035 1036 987
4 987 1036 1037 988
4 988 1037 1038 989
4 989 1038 1039 990
4 990 1039 1040 991
4 991 1040 1041 992
4 992 1041 1042 993
4 993 1042 1043 994
4 994 1043 1044 995
4 995 1044 1045 996
4 996 1045 1046 997
4 997 1046 1047 998
4 998 1047 1048 999
4 999 1048 1049 1000
4 1000 1049 1050 1001
4 1001 1050 1051 1002
4 1002 1051 1052 1003
4 1003 1052 1053 1004
4 1004 1053 1054 1005
4 1005 1054 1055 1006
4 1006 1055 1056 1007
4 1007 1056 1057 1008
4 1008 1057 1058 1009
4 1009 1058 1059 1010
4 1010 1059 1060 1011
4 1011 1060 1061 1012
4 1012 1061 1062 1013
4 1013 1062 1063 1014
4 1014 1063 1064 1015
4 1015 1064 1065 1016
4 1016 1065 1066 1017
4 1017 1066 1067 1018
4 1018 1067 1068 1019
4 1019 1068 1069 1020
4 1020 1069 1070 1021
4 1021 1070 1071 1022
4 1022 1071 1072 1023
4 1023 1072 1073 1024
4 1024 1073 1074 1025
4 1025 1074 1075 1026
4 1026 1075 1076 1027
4 1027 1076 1077 1028
4 1028 1077 1078 1029
4 1029 1078 1079 1030
4 1030 1079 1080 1031
4 1031 1080 1081 1032
4 1032 1081 1082 1033
4 1033 1082 1083 1034
4 1034 1083 235 236
4 19 20 1084 1035
4 1035 1084 1085 1036
4 1036 1085 1086 1037
4 1037 1086 1087 1038
4 1038 1087 1088 1039
4 1039 1088 1089 1040
4 1040 1089 1090 1041
4 1041 1090 1091 1042
4 1042 1091 1092 1043
4 1043 1092 1093 1044
4 1044 1093 1094 1045
4 1045 1094 1095 1046
4 1046 1095 1096 1047
4 1047 1096 1097 1048
4 1048 1097 1098 1049
4 1049 1098 1099 1050
4 1050 1099 1100 1051
4 1051 1100 1101 1052
4 1052 1101 1102 1053
4 1053 1102 1103 1054
4 1054 1103 1104 1055
4 1055 1104 1105 1056
4 1056 1105 1106 1057
4 1057 1106 1107 1058
4 1058 1107 1108 1059
4 1059 1108 1109 1060
4 1060 1109 1110 1061
4 1061 1110 1111 1062
4 1062 1111 1112 1063
4 1063 1112 1113 1064
4 1064 1113 1114 1065
4 1065 1114 1115 1066
4 1066 1115 1116 1067
4 1067 1116 1117 1068
4 1068 1117 1118 1069
4 1069 1118 1119 1070
4 1070 1119 1120 1071
4 1071 1120 1121 1072
4 1072 1121 1122 1073
4 1073 1122 1123 1074
4 1074 1123 1124 1075
4 1075 1124 1125 1076
4 1076 1125 1126 1077
4 1077 1126 1127 1078
4 1078 1127 1128 1079
4 1079 1128 1129 1080
4 1080 1129 1130 1081
4 1081 1130 1131 1082
4 1082 1131 1132 1083
4 1083 1132 234 235
4 20 21 1133 1084
4 1084 1133 1134 1085
4 1085 1134 1135 1086
4 1086 1135 1136 1087
4 1087 1136 1137 1088
4 1088 1137 1138 1089
4 1089 1138 1139 1090
4 1090 1139 1140 1091
4 1091 1140 1141 1092
4 1092 1141 1142 1093
4 1093 1142 1143 1094
4 1094 1143 1144 1095
4 1095 1144 1145 1096
4 1096 1145 1146 1097
4 1097 1146 1147 1098
4 1098 1147 1148 1099
4 1099 1148 1149 1100
4 1100 1149 1150 1101
4 1101 1150 1151 1102
4 1102 1151 1152 1103
4 1103 1152 1153 1104
4 1104 1153 1154 1105
4 1105 1154 1155 1106
4 1106 1155 1156 1107
4 1107 1156 1157 1108
4 1108 1157 1158 1109
4 1109 1158 1159 1110
4 1110 1159 1160 1111
4 1111 1160 1161 1112
4 1112 1161 1162 1113
4 1113 1162 1163 1114
4 1114 1163 1164 1115
4 1115 1164 1165 1116
4 1116 1165 1166 1117
4 1117 1166 1167 1118
4 1118 1167 1168 1119
4 1119 1168 1169 1120
4 1120 1169 1170 1121
4 1121 1170 1171 1122
4 1122 1171 1172 1123
4 1123 1172 1173 1124
4 1124 1173 1174 1125
4 1125 1174 1175 1126
4 1126 1175 1176 1127
4 1127 1176 1177 1128
4 1128 1177 1178 1129
4 1129 1178 1179 1130
4 1130 1179 1180 1131
4 1131 1180 1181 1132
4 1132 1181 233 234
4 21 22 1182 1133
4 1133 1182 1183 1134
4 1134 1183 1184 1135
4 1135 1184 1185 1136
4 1136 1185 1186 1137
4 1137 1186 1187 1138
4 1138 1187 1188 1139
4 1139 1188 1189 1140
4 1140 1189 1190 1141
4 1141 1190 1191 1142
4 1142 1191 1192 1143
4 1143 1192 1193 1144
4 1144 1193 1194 1145
4 1145 1194 1195 1146
4 1146 1195 1196 1147
4 1147 1196 1197 1148
4 1148 1197 1198 1149
4 1149 1198 1199 1150
4 1150 1199 1200 1151
4 1151 1200 1201 1152
4 1152 1201 1202 1153
4 1153 1202 1203 1154
4 1154 1203 1204 1155
4 1155 1204 1205 1156
4 1156 1205 1206 1157
4 1157 1206 1207 1158
4 1158 1207 1208 1159
4 1159 1208 1209 1160
4 1160 1209 1210 1161
4 1161 1210 1211 1162
4 1162 1211 1212 1163
4 1163 1212 1213 1164
4 1164 1213 1214 1165
4 1165 1214 1215 1166
4 1166 1215 1216 1167
4 1167 1216 1217 1168
4 1168 1217 1218 1169
4 1169 1218 1219 1170
4 1170 1219 1220 1171
4 1171 1220 1221 1172
4 1172 1221 1222 1173
4 1173 1222 1223 1174
4 1174 1223 1224 1175
4 1175 1224 1225 1176
4 1176 1225 1226 1177
4 1177 1226 1227 1178
4 1178 1227 1228 1179
4 1179 1228 1229 1180
4 1180 1229 1230 1181
4 1181 1230 232 233
4 22 23 1231 1182
4 1182 1231 1232 1183
4 1183 1232 1233 1184
4 1184 1233 1234 1185
4 1185 1234 1235 1186
4 1186 1235 1236 1187
4 1187 1236 1237 1188
4 1188 1237 1238 1189
4 1189 1238 1239 1190
4 1190 1239 1240 1191
4 1191 1240 1241 1192
4 1192 1241 1242 1193
4 1193 1242 1243 1194
4 1194 1243 1244 1195
4 1195 1244 1245 1196
4 1196 1245 1246 1197
4 1197 1246 1247 1198
4 1198 1247 1248 1199
4 1199 1248 1249 1200
4 1200 1249 1250 1201
4 1201 1250 1251 1202
4 1202 1251 1252 1203
4 1203 1252 1253 1204
4 1204 1253 1254 1205
4 1205 1254 1255 1206
4 1206 1255 1256 1207
4 1207 1256 1257 1208
4 1208 1257 1258 1209
4 1209 1258 1259 1210
4 1210 1259 1260 1211
4 1211 1260 1261 1212
4 1212 1261 1262 1213
4 1213 1262 1263 1214
4 1214 1263 1264 1215
4 1215 1264 1265 1216
4 1216 1265 1266 1217
4 1217 1266 1267 1218
4 1218 1267 1268 1219
4 1219 1268 1269 1220
4 1220 1269 1270 1221
4 1221 1270 1271 1222
4 1222 1271 1272 1223
4 1223 1272 1273 1224
4 1224 1273 1274 1225
4 1225 1274 1275 1226
4 1226 1275 1276 1227
4 1227 1276 1277 1228
4 1228 1277 1278 1229
4 1229 1278 1279 1230
4 1230 1279 231 232
4 23 24 1280 1231
4 1231 1280 1281 1232
4 1232 1281 1282 1233
4 1233 1282 1283 1234
4 1234 1283 1284 1235
4 1235 1284 1285 1236
4 1236 1285 1286 1237
4 1237 1286 1287 1238
4 1238 1287 1288 1239
4 1239 1288 1289 1240
4 1240 1289 1290 1241
4 1241 1290 1291 1242
4 1242 1291 1292 1243
4 1243 1292 1293 1244
4 1244 1293 1294 1245
4 1245 1294 1295 1246
4 1246 1295 1296 1247
4 1247 1296 1297 1248
4 1248 1297 1298 1249
4 1249 1298 1299 1250
4 1250 1299 1300 1251
4 1251 1300 1301 1252
4 1252 1301 1302 1253
4 1253 1302 1303 1254
4 1254 1303 1304 1255
4 1255 1304 1305 1256
4 1256 1305 1306 1257
4 1257 1306 1307 1258
4 1258 1307 1308 1259
4 1259 1308 1309 1260
4 1260 1309 1310 1261
4 1261 1310 1311 1262
4 1262 1311 1312 1263
4 1263 1312 1313 1264
4 1264 1313 1314 1265
4 1265 1314 1315 1266
4 1266 1315 1316 1267
4 1267 1316 1317 1268
4 1268 1317 1318 1269
4 1269 1318 1319 1270
4 1270 1319 1320 1271
4 1271 1320 1321 1272
4 1272 1321 1322 1273
4 1273 1322 1323 1274
4 1274 1323 1324 1275
4 1275 1324 1325 1276
4 1276 1325 1326 1277
4 1277 1326 1327 1278
4 1278 1327 1328 1279
4 1279 1328 230 231
4 24 25 1329 1280
4 1280 1329 1330 1281
4 1281 1330 1331 1282
4 1282 1331 1332 1283
4 1283 1332 1333 1284
4 1284 1333 1334 1285
4 1285 1334 1335 1286
4 1286 1335 1336 1287
4 1287 1336 1337 1288
4 1288 1337 1338 1289
4 1289 1338 1339 1290
4 1290 1339 1340 1291
4 1291 1340 1341 1292
4 1292 1341 1342 1293
4 1293 1342 1343 1294
4 1294 1343 1344 1295
4 1295 1344 1345 1296
4 1296 1345 1346 1297
4 1297 1346 1347 1298
4 1298 1347 1348 1299
4 1299 1348 1349 1300
4 1300 1349 1350 1301
4 1301 1350 1351 1302
4 1302 1351 1352 1303
4 1303 1352 1353 1304
4 1304 1353 1354 1305
4 1305 1354 1355 1306
4 1306 1355 1356 1307
4 1307 1356 1357 1308
4 1308 1357 1358 1309
4 1309 1358 1359 1310
4 1310 1359 1360 1311
4 1311 1360 1361 1312
4 1312 1361 1362 1313
4 1313 1362 1363 1314
4 1314 1363 1364 1315
4 1315 1364 1365 1316
4 1316 1365 1366 1317
4 1317 1366 1367 1318
4 1318 1367 1368 1319
4 1319 1368 1369 1320
4 1320 1369 1370 1321
4 1321 1370 1371 1322
4 1322 1371 1372 1323
4 1323 1372 1373 1324
4 1324 1373 1374 1325
4 1325 1374 1375 1326
4 1326 1375 1376 1327
4 1327 1376 1377 1328
4 1328 1377 229 230
4 25 26 1378 1329
4 1329 1378 1379 1330
4 1330 1379 1380 1331
4 1331 1380 1381 1332
4 1332 1381 1382 1333
4 1333 1382 1383 1334
4 1334 1383 1384 1335
4 1335 1384 1385 1336
4 1336 1385 1386 1337
4 1337 1386 1387 1338
4 1338 1387 1388 1339
4 1339 1388 1389 1340
4 1340 1389 1390 1341
4 1341 1390 1391 1342
4 1342 1391 1392 1343
4 1343 1392 1393 1344
4 1344 1393 1394 1345
4 1345 1394 1395 1346
4 1346 1395 1396 1347
4 1347 1396 1397 1348
4 1348 1397 1398 1349
4 1349 1398 1399 1350
4 1350 1399 1400 1351
4 1351 1400 1401 1352
4 1352 1401 1402 1353
4 1353 1402 1403 1354
4 1354 1403 1404 1355
4 1355 1404 1405 1356
4 1356 1405 1406 1357
4 1357 1406 1407 1358
4 1358 1407 1408 1359
4 1359 1408 1409 1360
4 1360 1409 1410 1361
4 1361 1410 1411 1362
4 1362 1411 1412 1363
4 1363 1412 1413 1364
4 1364 1413 1414 1365
4 1365 1414 1415 1366
4 1366 1415 1416 1367
4 1367 1416 1417 1368
4 1368 1417 1418 1369
4 1369 1418 1419 1370
4 1370 1419 1420 1371
4 1371 1420 1421 1372
4 1372 1421 1422 1373
4 1373 1422 1423 1374
4 1374 1423 1424 1375
4 1375 1424 1425 1376
4 1376 1425 1426 1377
4 1377 1426 228 229
4 26 27 1427 1378
4 1378 1427 1428 1379
4 1379 1428 1429 1380
4 1380 1429 1430 1381
4 1381 1430 1431 1382
4 1382 1431 1432 1383
4 1383 1432 1433 1384
4 1384 1433 1434 1385
4 1385 1434 1435 1386
4 1386 1435 1436 1387
4 1387 1436 1437 1388
4 1388 1437 1438 1389
4 1389 1438 1439 1390
4 1390 1439 1440 1391
4 1391 1440 1441 1392
4 1392 1441 1442 1393
4 1393 1442 1443 1394
4 1394 1443 1444 1395
4 1395 1444 1445 1396
4 1396 1445 1446 1397
4 1397 1446 1447 1398
4 1398 1447 1448 1399
4 1399 1448 1449 1400
4 1400 1449 1450 1401
4 1401 1450 1451 1402
4 1402 1451 1452 1403
4 1403 1452 1453 1404
4 1404 1453 1454 1405
4 1405 1454 1455 1406
4 1406 1455 1456 1407
4 1407 1456 1457 1408
4 1408 1457 1458 1409
4 1409 1458 1459 1410
4 1410 1459 1460 1411
4 1411 1460 1461 1412
4 1412 1461 1462 1413
4 1413 1462 1463 1414
4 1414 1463 1464 1415
4 1415 1464 1465 1416
4 1416 1465 1466 1417
4 1417 1466 1467 1418
4 1418 1467 1468 1419
4 1419 1468 1469 1420
4 1420 1469 1470 1421
4 1421 1470 1471 1422
4 1422 1471 1472 1423
4 1423 1472 1473 1424
4 1424 1473 1474 1425
4 1425 1474 1475 1426
4 1426 1475 227 228
4 27 28 1476 1427
4 1427 1476 1477 1428
4 1428 1477 1478 1429
4 1429 1478 1479 1430
4 1430 1479 1480 1431
4 1431 1480 1481 1432
4 1432 1481 1482 1433
4 1433 1482 1483 1434
4 1434 1483 1484 1435
4 1435 1484 1485 1436
4 1436 1485 1486 1437
4 1437 1486 1487 1438
4 1438 1487 1488 1439
4 1439 1488 1489 1440
4 1440 1489 1490 1441
4 1441 1490 1491 1442
4 1442 1491 1492 1443
4 1443 1492 1493 1444
4 1444 1493 1494 1445
4 1445 1494 1495 1446
4 1446 1495 1496 1447
4 1447 1496 1497 1448
4 1448 1497 1498 1449
4 1449 1498 1499 1450
4 1450 1499 1500 1451
4 1451 1500 1501 1452
4 1452 1501 1502 1453
4 1453 1502 1503 1454
4 1454 1503 1504 1455
4 1455 1504 1505 1456
4 1456 1505 1506 1457
4 1457 1506 1507 1458
4 1458 1507 1508 1459
4 1459 1508 1509 1460
4 1460 1509 1510 1461
4 1461 1510 1511 1462
4 1462 1511 1512 1463
4 1463 1512 1513 1464
4 1464 1513 1514 1465
4 1465 1514 1515 1466
4 1466 1515 1516 1467
4 1467 1516 1517 1468
4 1468 1517 1518 1469
4 1469 1518 1519 1470
4 1470 1519 1520 1471
4 1471 1520 1521 1472
4 1472 1521 1522 1473
4 1473 1522 1523 1474
4 1474 1523 1524 1475
4 1475 1524 226 227
4 28 29 1525 1476
4 1476 1525 1526 1477
4 1477 1526 1527 1478
4 1478 1527 1528 1479
4 1479 1528 1529 1480
4 1480 1529 1530 1481
4 1481 1530 1531 1482
4 1482 1531 1532 1483
4 1483 1532 1533 1484
4 1484 1533 1534 1485
4 1485 1534 1535 1486
4 1486 1535 1536 1487
4 1487 1536 1537 1488
4 1488 1537 1538 1489
4 1489 1538 1539 1490
4 1490 1539 1540 1491
4 1491 1540 1541 1492
4 1492 1541 1542 1493
4 1493 1542 1543 1494
4 1494 1543 1544 1495
4 1495 1544 1545 1496
4 1496 1545 1546 1497
4 1497 1546 1547 1498
4 1498 1547 1548 1499
4 1499 1548 1549 1500
4 1500 1549 1550 1501
4 1501 1550 1551 1502
4 1502 1551 1552 1503
4 1503 1552 1553 1504
4 1504 1553 1554 1505
4 1505 1554 1555 1506
4 1506 1555 1556 1507
4 1507 1556 1557 1508
4 1508 1557 1558 1509
4 1509 1558 1559 1510
4 1510 1559 1560 1511
4 1511 1560 1561 1512
4 1512 1561 1562 1513
4 1513 1562 1563 1514
4 1514 1563 1564 1515
4 1515 1564 1565 1516
4 1516 1565 1566 1517
4 1517 1566 1567 1518
4 1518 1567 1568 1519
4 1519 1568 1569 1520
4 1520 1569 1570 1521
4 1521 1570 1571 1522
4 1522 1571 1572 1523
4 1523 1572 1573 1524
4 1524 1573 225 226
4 29 30 1574 1525
4 1525 1574 1575 1526
4 1526 1575 1576 1527
4 1527 1576 1577 1528
4 1528 1577 1578 1529
4 1529 1578 1579 1530
4 1530 1579 1580 1531
4 1531 1580 1581 1532
4 1532 1581 1582 1533
4 1533 1582 1583 1534
4 1534 1583 1584 1535
4 1535 1584 1585 1536
4 1536 1585 1586 1537
4 1537 1586 1587 1538
4 1538 1587 1588 1539
4 1539 1588 1589 1540
4 1540 1589 1590 1541
4 1541 1590 1591 1542
4 1542 1591 1592 1543
4 1543 1592 1593 1544
4 1544 1593 1594 1545
4 1545 1594 1595 1546
4 1546 1595 1596 1547
4 1547 1596 1597 1548
4 1548 1597 1598 1549
4 1549 1598 1599 1550
4 1550 1599 1600 1551
4 1551 1600 1601 1552
4 1552 1601 1602 1553
4 1553 1602 1603 1554
4 1554 1603 1604 1555
4 1555 1604 1605 1556
4 1556 1605 1606 1557
4 1557 1606 1607 1558
4 1558 1607 1608 1559
4 1559 1608 1609 1560
4 1560 1609 1610 1561
4 1561 1610 1611 1562
4 1562 1611 1612 1563
4 1563 1612 1613 1564
4 1564 1613 1614 1565
4 1565 1614 1615 1566
4 1566 1615 1616 1567
4 1567 1616 1617 1568
4 1568 1617 1618 1569
4 1569 1618 1619 1570
4 1570 1619 1620 1571
4 1571 1620 1621 1572
4 1572 1621 1622 1573
4 1573 1622 224 225
4 30 31 1623 1574
4 1574 1623 1624 1575
4 1575 1624 1625 1576
4 1576 1625 1626 1577
4 1577 1626 1627 1578
4 1578 1627 1628 1579
4 1579 1628 1629 1580
4 1580 1629 1630 1581
4 1581 1630 1631 1582
4 1582 1631 1632 1583
4 1583 1632 1633 1584
4 1584 1633 1634 1585
4 1585 1634 1635 1586
4 1586 1635 1636 1587
4 1587 1636 1637 1588
4 1588 1637 1638 1589
4 1589 1638 1639 1590
4 1590 1639 1640 1591
4 1591 1640 1641 1592
4 1592 1641 1642 1593
4 1593 1642 1643 1594
4 1594 1643 1644 1595
4 1595 1644 1645 1596
4 1596 1645 1646 1597
4 1597 1646 1647 1598
4 1598 1647 1648 1599
4 1599 1648 1649 1600
4 1600 1649 1650 1601
4 1601 1650 1651 1602
4 1602 1651 1652 1603
4 1603 1652 1653 1604
4 1604 1653 1654 1605
4 1605 1654 1655 1606
4 1606 1655 1656 1607
4 1607 1656 1657 1608
4 1608 1657 1658 1609
4 1609 1658 1659 1610
4 1610 1659 1660 1611
4 1611 1660 1661 1612
4 1612 1661 1662 1613
4 1613 1662 1663 1614
4 1614 1663 1664 1615
4 1615 1664 1665 1616
4 1616 1665 1666 1617
4 1617 1666 1667 1618
4 1618 1667 1668 1619
4 1619 1668 1669 1620
4 1620 1669 1670 1621
4 1621 1670 1671 1622
4 1622 1671 223 224
4 31 32 1672 1623
4 1623 1672 1673 1624
4 1624 1673 1674 1625
4 1625 1674 1675 1626
4 1626 1675 1676 1627
4 1627 1676 1677 1628
4 1628 1677 1678 1629
4 1629 1678 1679 1630
4 1630 1679 1680 1631
4 1631 1680 1681 1632
4 1632 1681 1682 1633
4 1633 1682 1683 1634
4 1634 1683 1684 1635
4 1635 1684 1685 1636
4 1636 1685 1686 1637
4 1637 1686 1687 1638
4 1638 1687 1688 1639
4 1639 1688 1689 1640
4 1640 1689 1690 1641
4 1641 1690 1691 1642
4 1642 1691 1692 1643
4 1643 1692 1693 1644
4 1644 1693 1694 1645
4 1645 1694 1695 1646
4 1646 1695 1696 1647
4 1647 1696 1697 1648
4 1648 1697 1698 1649
4 1649 1698 1699 1650
4 1650 1699 1700 1651
4 1651 1700 1701 1652
4 1652 1701 1702 1653
4 1653 1702 1703 1654
4 1654 1703 1704 1655
4 1655 1704 1705 1656
4 1656 1705 1706 1657
4 1657 1706 1707 1658
4 1658 1707 1708 1659
4 1659 1708 1709 1660
4 1660 1709 1710 1661
4 1661 1710 1711 1662
4 1662 1711 1712 1663
4 1663 1712 1713 1664
4 1664 1713 1714 1665
4 1665 1714 1715 1666
4 1666 1715 1716 1667
4 1667 1716 1717 1668
4 1668 1717 1718 1669
4 1669 1718 1719 1670
4 1670 1719 1720 1671
4 1671 1720 222 223
4 32 33 1721 1672
4 1672 1721 1722 1673
4 1673 1722 1723 1674
4 1674 1723 1724 1675
4 1675 1724 1725 1676
4 1676 1725 1726 1677
4 1677 1726 1727 1678
4 1678 1727 1728 1679
4 1679 1728 1729 1680
4 1680 1729 1730 1681
4 1681 1730 1731 1682
4 1682 1731 1732 1683
4 1683 1732 1733 1684
4 1684 1733 1734 1685
4 1685 1734 1735 1686
4 1686 1735 1736 1687
4 1687 1736 1737 1688
4 1688 1737 1738 1689
4 1689 1738 1739 1690
4 1690 1739 1740 1691
4 1691 1740 1741 1692
4 1692 1741 1742 1693
4 1693 1742 1743 1694
4 1694 1743 1744 1695
4 1695 1744 1745 1696
4 1696 1745 1746 1697
4 1697 1746 1747 1698
4 1698 1747 1748 1699
4 1699 1748 1749 1700
4 1700 1749 1750 1701
4 1701 1750 1751 1702
4 1702 1751 1752 1703
4 1703 1752 1753 1704
4 1704 1753 1754 1705
4 1705 1754 1755 1706
4 1706 1755 1756 1707
4 1707 1756 1757 1708
4 1708 1757 1758 1709
4 1709 1758 1759 1710
4 1710 1759 1760 1711
4 1711 1760 1761 1712
4 1712 1761 1762 1713
4 1713 1762 1763 1714
4 1714 1763 1764 1715
4 1715 1764 1765 1716
4 1716 1765 1766 1717
4 1717 1766 1767 1718
4 1718 1767 1768 1719
4 1719 1768 1769 1720
4 1720 1769 221 222
4 33 34 1770 1721
4 1721 1770 1771 1722
4 1722 1771 1772 1723
4 1723 1772 1773 1724
4 1724 1773 1774 1725
4 1725 1774 1775 1726
4 1726 1775 1776 1727
4 1727 1776 1777 1728
4 1728 1777 1778 1729
4 1729 1778 1779 1730
4 1730 1779 1780 1731
4 1731 1780 1781 1732
4 1732 1781 1782 1733
4 1733 1782 1783 1734
4 1734 1783 1784 1735
4 1735 1784 1785 1736
4 1736 1785 1786 1737
4 1737 1786 1787 1738
4 1738 1787 1788 1739
4 1739 1788 1789 1740
4 1740 1789 1790 1741
4 1741 1790 1791 1742
4 1742 1791 1792 1743
4 1743 1792 1793 1744
4 1744 1793 1794 1745
4 1745 1794 1795 1746
4 1746 1795 1796 1747
4 1747 1796 1797 1748
4 1748 1797 1798 1749
4 1749 1798 1799 1750
4 1750 1799 1800 1751
4 1751 1800 1801 1752
4 1752 1801 1802 1753
4 1753 1802 1803 1754
4 1754 1803 1804 1755
4 1755 1804 1805 1756
4 1756 1805 1806 1757
4 1757 1806 1807 1758
4 1758 1807 1808 1759
4 1759 1808 1809 1760
4 1760 1809 1810 1761
4 1761 1810 1811 1762
4 1762 1811 1812 1763
4 1763 1812 1813 1764
4 1764 1813 1814 1765
4 1765 1814 1815 1766
4 1766 1815 1816 1767
4 1767 1816 1817 1768
4 1768 1817 1818 1769
4 1769 1818 220 221
4 34 35 1819 1770
4 1770 1819 1820 1771
4 1771 1820 1821 1772
4 1772 1821 1822 1773
4 1773 1822 1823 1774
4 1774 1823 1824 1775
4 1775 1824 1825 1776
4 1776 1825 1826 1777
4 1777 1826 1827 1778
4 1778 1827 1828 1779
4 1779 1828 1829 1780
4 1780 1829 1830 1781
4 1781 1830 1831 1782
4 1782 1831 1832 1783
4 1783 1832 1833 1784
4 1784 1833 1834 1785
4 1785 1834 1835 1786
4 1786 1835 1836 1787
4 1787 1836 1837 1788
4 1788 1837 1838 1789
4 1789 1838 1839 1790
4 1790 1839 1840 1791
4 1791 1840 1841 1792
4 1792 1841 1842 1793
4 1793 1842 1843 1794
4 1794 1843 1844 1795
4 1795 1844 1845 1796
4 1796 1845 1846 1797
4 1797 1846 1847 1798
4 1798 1847 1848 1799
4 1799 1848 1849 1800
4 1800 1849 1850 1801
4 1801 1850 1851 1802
4 1802 1851 1852 1803
4 1803 1852 1853 1804
4 1804 1853 1854 1805
4 1805 1854 1855 1806
4 1806 1855 1856 1807
4 1807 1856 1857 1808
4 1808 1857 1858 1809
4 1809 1858 1859 1810
4 1810 1859 1860 1811
4 1811 1860 1861 1812
4 1812 1861 1862 1813
4 1813 1862 1863 1814
4 1814 1863 1864 1815
4 1815 1864 1865 1816
4 1816 1865 1866 1817
4 1817 1866 1867 1818
4 1818 1867 219 220
4 35 36 1868 1819
4 1819 1868 1869 1820
4 1820 1869 1870 1821
4 1821 1870 1871 1822
4 1822 1871 1872 1823
4 1823 1872 1873 1824
4 1824 1873 1874 1825
4 1825 1874 1875 1826
4 1826 1875 1876 1827
4 1827 1876 1877 1828
4 1828 1877 1878 1829
4 1829 1878 1879 1830
4 1830 1879 1880 1831
4 1831 1880 1881 1832
4 1832 1881 1882 1833
4 1833 1882 1883 1834
4 1834 1883 1884 1835
4 1835 1884 1885 1836
4 1836 1885 1886 1837
4 1837 1886 1887 1838
4 1838 1887 1888 1839
4 1839 1888 1889 1840
4 1840 1889 1890 1841
4 1841 1890 1891 1842
4 1842 1891 1892 1843
4 1843 1892 1893 1844
4 1844 1893 1894 1845
4 1845 1894 1895 1846
4 1846 1895 1896 1847
4 1847 1896 1897 1848
4 1848 1897 1898 1849
4 1849 1898 1899 1850
4 1850 1899 1900 1851
4 1851 1900 1901 1852
4 1852 1901 1902 1853
4 1853 1902 1903 1854
4 1854 1903 1904 1855
4 1855 1904 1905 1856
4 1856 1905 1906 1857
4 1857 1906 1907 1858
4 1858 1907 1908 1859
4 1859 1908 1909 1860
4 1860 1909 1910 1861
4 1861 1910 1911 1862
4 1862 1911 1912 1863
4 1863 1912 1913 1864
4 1864 1913 1914 1865
4 1865 1914 1915 1866
4 1866 1915 1916 1867
4 1867 1916 218 219
4 36 37 1917 1868
4 1868 1917 1918 1869
4 1869 1918 1919 1870
4 1870 1919 1920 1871
4 1871 1920 1921 1872
4 1872 1921 1922 1873
4 1873 1922 1923 1874
4 1874 1923 1924 1875
4 1875 1924 1925 1876
4 1876 1925 1926 1877
4 1877 1926 1927 1878
4 1878 1927 1928 1879
4 1879 1928 1929 1880
4 1880 1929 1930 1881
4 1881 1930 1931 1882
4 1882 1931 1932 1883
4 1883 1932 1933 1884
4 1884 1933 1934 1885
4 1885 1934 1935 1886
4 1886 1935 1936 1887
4 1887 1936 1937 1888
4 1888 1937 1938 1889
4 1889 1938 1939 1890
4 1890 1939 1940 1891
4 1891 1940 1941 1892
4 1892 1941 1942 1893
4 1893 1942 1943 1894
4 1894 1943 1944 1895
4 1895 1944 1945 1896
4 1896 1945 1946 1897
4 1897 1946 1947 1898
4 1898 1947 1948 1899
4 1899 1948 1949 1900
4 1900 1949 1950 1901
4 1901 1950 1951 1902
4 1902 1951 1952 1903
4 1903 1952 1953 1904
4 1904 1953 1954 1905
4 1905 1954 1955 1906
4 1906 1955 1956 1907
4 1907 1956 1957 1908
4 1908 1957 1958 1909
4 1909 1958 1959 1910
4 1910 1959 1960 1911
4 1911 1960 1961 1912
4 1912 1961 1962 1913
4 1913 1962 1963 1914
4 1914 1963 1964 1915
4 1915 1964 1965 1916
4 1916 1965 217 218
4 37 38 1966 1917
4 1917 1966 1967 1918
4 1918 1967 1968 1919
4 1919 1968 1969 1920
4 1920 1969 1970 1921
4 1921 1970 1971 1922
4 1922 1971 1972 1923
4 1923 1972 1973 1924
4 1924 1973 1974 1925
4 1925 1974 1975 1926
4 1926 1975 1976 1927
4 1927 1976 1977 1928
4 1928 1977 1978 1929
4 1929 1978 1979 1930
4 1930 1979 1980 1931
4 1931 1980 1981 1932
4 1932 1981 1982 1933
4 1933 1982 1983 1934
4 1934 1983 1984 1935
4 1935 1984 1985 1936
4 1936 1985 1986 1937
4 1937 1986 1987 1938
4 1938 1987 1988 1939
4 1939 1988 1989 1940
4 1940 1989 1990 1941
4 1941 1990 1991 1942
4 1942 1991 1992 1943
4 1943 1992 1993 1944
4 1944 1993 1994 1945
4 1945 1994 1995 1946
4 1946 1995 1996 1947
4 1947 1996 1997 1948
4 1948 1997 1998 1949
4 1949 1998 1999 1950
4 1950 1999 2000 1951
4 1951 2000 2001 1952
4 1952 2001 2002 1953
4 1953 2002 2003 1954
4 1954 2003 2004 1955
4 1955 2004 2005 1956
4 1956 2005 2006 1957
4 1957 2006 2007 1958
4 1958 2007 2008 1959
4 1959 2008 2009 1960
4 1960 2009 2010 1961
4 1961 2010 2011 1962
4 1962 2011 2012 1963
4 1963 2012 2013 1964
4 1964 2013 2014 1965
4 1965 2014 216 217
4 38 39 2015 1966
4 1966 2015 2016 1967
4 1967 2016 2017 1968
4 1968 2017 2018 1969
4 1969 2018 2019 1970
4 1970 2019 2020 1971
4 1971 2020 2021 1972
4 1972 2021 2022 1973
4 1973 2022 2023 1974
4 1974 2023 2024 1975
4 1975 2024 2025 1976
4 1976 2025 2026 1977
4 1977 2026 2027 1978
4 1978 2027 2028 1979
4 1979 2028 2029 1980
4 1980 2029 2030 1981
4 1981 2030 2031 1982
4 1982 2031 2032 1983
4 1983 2032 2033 1984
4 1984 2033 2034 1985
4 1985 2034 2035 1986
4 1986 2035 2036 1987
4 1987 2036 2037 1988
4 1988 2037 2038 1989
4 1989 2038 2039 1990
4 1990 2039 2040 1991
4 1991 2040 2041 1992
4 1992 2041 2042 1993
4 1993 2042 2043 1994
4 1994 2043 2044 1995
4 1995 2044 2045 1996
4 1996 2045 2046 1997
4 1997 2046 2047 1998
4 1998 2047 2048 1999
4 1999 2048 2049 2000
4 2000 2049 2050 2001
4 2001 2050 2051 2002
4 2002 2051 2052 2003
4 2003 2052 2053 2004
4 2004 2053 2054 2005
4 2005 2054 2055 2006
4 2006 2055 2056 2007
4 2007 2056 2057 2008
4 2008 2057 2058 2009
4 2009 2058 2059 2010
4 2010 2059 2060 2011
4 2011 2060 2061 2012
4 2012 2061 2062 2013
4 2013 2062 2063 2014
4 2014 2063 215 216
4 39 40 2064 2015
4 2015 2064 2065 2016
4 2016 2065 2066 2017
4 2017 2066 2067 2018
4 2018 2067 2068 2019
4 2019 2068 2069 2020
4 2020 2069 2070 2021
4 2021 2070 2071 2022
4 2022 2071 2072 2023
4 2023 2072 2073 2024
4 2024 2073 2074 2025
4 2025 2074 2075 2026
4 2026 2075 2076 2027
4 2027 2076 2077 2028
4 2028 2077 2078 2029
4 2029 2078 2079 2030
4 2030 2079 2080 2031
4 2031 2080 2081 2032
4 2032 2081 2082 2033
4 2033 2082 2083 2034
4 2034 2083 2084 2035
4 2035 2084 2085 2036
4 2036 2085 2086 2037
4 2037 2086 2087 2038
4 2038 2087 2088 2039
4 2039 2088 2089 2040
4 2040 2089 2090 2041
4 2041 2090 2091 2042
4 2042 2091 2092 2043
4 2043 2092 2093 2044
4 2044 2093 2094 2045
4 2045 2094 2095 2046
4 2046 2095 2096 2047
4 2047 2096 2097 2048
4 2048 2097 2098 2049
4 2049 2098 2099 2050
4 2050 2099 2100 2051
4 2051 2100 2101 2052
4 2052 2101 2102 2053
4 2053 2102 2103 2054
4 2054 2103 2104 2055
4 2055 2104 2105 2056
4 2056 2105 2106 2057
4 2057 2106 2107 2058
4 2058 2107 2108 2059
4 2059 2108 2109 2060
4 2060 2109 2110 2061
4 2061 2110 2111 2062
4 2062 2111 2112 2063
4 2063 2112 214 215
4 40 41 2113 2064
4 2064 2113 2114 2065
4 2065 2114 2115 2066
4 2066 2115 2116 2067
4 2067 2116 2117 2068
4 2068 2117 2118 2069
4 2069 2118 2119 2070
4 2070 2119 2120 2071
4 2071 2120 2121 2072
4 2072 2121 2122 2073
4 2073 2122 2123 2074
4 2074 2123 2124 2075
4 2075 2124 2125 2076
4 2076 2125 2126 2077
4 2077 2126 2127 2078
4 2078 2127 2128 2079
4 2079 2128 2129 2080
4 2080 2129 2130 2081
4 2081 2130 2131 2082
4 2082 2131 2132 2083
4 2083 2132 2133 2084
4 2084 2133 2134 2085
4 2085 2134 2135 2086
4 2086 2135 2136 2087
4 2087 2136 2137 2088
4 2088 2137 2138 2089
4 2089 2138 2139 2090
4 2090 2139 2140 2091
4 2091 2140 2141 2092
4 2092 2141 2142 2093
4 2093 2142 2143 2094
4 2094 2143 2144 2095
4 2095 2144 2145 2096
4 2096 2145 2146 2097
4 2097 2146 2147 2098
4 2098 2147 2148 2099
4 2099 2148 2149 2100
4 2100 2149 2150 2101
4 2101 2150 2151 2102
4 2102 2151 2152 2103
4 2103 2152 2153 2104
4 2104 2153 2154 2105
4 2105 2154 2155 2106
4 2106 2155 2156 2107
4 2107 2156 2157 2108
4 2108 2157 2158 2109
4 2109 2158 2159 2110
4 2110 2159 2160 2111
4 2111 2160 2161 2112
4 2112 2161 213 214
4 41 42 2162 2113
4 2113 2162 2163 2114
4 2114 2163 2164 2115
4 2115 2164 2165 2116
4 2116 2165 2166 2117
4 2117 2166 2167 2118
4 2118 2167 2168 2119
4 2119 2168 2169 2120
4 2120 2169 2170 2121
4 2121 2170 2171 2122
4 2122 2171 2172 2123
4 2123 2172 2173 2124
4 2124 2173 2174 2125
4 2125 2174 2175 2126
4 2126 2175 2176 2127
4 2127 2176 2177 2128
4 2128 2177 2178 2129
4 2129 2178 2179 2130
4 2130 2179 2180 2131
4 2131 2180 2181 2132
4 2132 2181 2182 2133
4 2133 2182 2183 2134
4 2134 2183 2184 2135
4 2135 2184 2185 2136
4 2136 2185 2186 2137
4 2137 2186 2187 2138
4 2138 2187 2188 2139
4 2139 2188 2189 2140
4 2140 2189 2190 2141
4 2141 2190 2191 2142
4 2142 2191 2192 2143
4 2143 2192 2193 2144
4 2144 2193 2194 2145
4 2145 2194 2195 2146
4 2146 2195 2196 2147
4 2147 2196 2197 2148
4 2148 2197 2198 2149
4 2149 2198 2199 2150
4 2150 2199 2200 2151
4 2151 2200 2201 2152
4 2152 2201 2202 2153
4 2153 2202 2203 2154
4 2154 2203 2204 2155
4 2155 2204 2205 2156
4 2156 2205 2206 2157
4 2157 2206 2207 2158
4 2158 2207 2208 2159
4 2159 2208 2209 2160
4 2160 2209 2210 2161
4 2161 2210 212 213
4 42 43 2211 2162
4 2162 2211 2212 2163
4 2163 2212 2213 2164
4 2164 2213 2214 2165
4 2165 2214 2215 2166
4 2166 2215 2216 2167
4 2167 2216 2217 2168
4 2168 2217 2218 2169
4 2169 2218 2219 2170
4 2170 2219 2220 2171
4 2171 2220 2221 2172
4 2172 2221 2222 2173
4 2173 2222 2223 2174
4 2174 2223 2224 2175
4 2175 2224 2225 2176
4 2176 2225 2226 2177
4 2177 2226 2227 2178
4 2178 2227 2228 2179
4 2179 2228 2229 2180
4 2180 2229 2230 2181
4 2181 2230 2231 2182
4 2182 2231 2232 2183
4 2183 2232 2233 2184
4 2184 2233 2234 2185
4 2185 2234 2235 2186
4 2186 2235 2236 2187
4 2187 2236 2237 2188
4 2188 2237 2238 2189
4 2189 2238 2239 2190
4 2190 2239 2240 2191
4 2191 2240 2241 2192
4 2192 2241 2242 2193
4 2193 2242 2243 2194
4 2194 2243 2244 2195
4 2195 2244 2245 2196
4 2196 2245 2246 2197
4 2197 2246 2247 2198
4 2198 2247 2248 2199
4 2199 2248 2249 2200
4 2200 2249 2250 2201
4 2201 2250 2251 2202
4 2202 2251 2252 2203
4 2203 2252 2253 2204
4 2204 2253 2254 2205
4 2205 2254 2255 2206
4 2206 2255 2256 2207
4 2207 2256 2257 2208
4 2208 2257 2258 2209
4 2209 2258 2259 2210
4 2210 2259 211 212
4 43 44 2260 2211
4 2211 2260 2261 2212
4 2212 2261 2262 2213
4 2213 2262 2263 2214
4 2214 2263 2264 2215
4 2215 2264 2265 2216
4 2216 2265 2266 2217
4 2217 2266 2267 2218
4 2218 2267 2268 2219
4 2219 2268 2269 2220
4 2220 2269 2270 2221
4 2221 2270 2271 2222
4 2222 2271 2272 2223
4 2223 2272 2273 2224
4 2224 2273 2274 2225
4 2225 2274 2275 2226
4 2226 2275 2276 2227
4 2227 2276 2277 2228
4 2228 2277 2278 2229
4 2229 2278 2279 2230
4 2230 2279 2280 2231
4 2231 2280 2281 2232
4 2232 2281 2282 2233
4 2233 2282 2283 2234
4 2234 2283 2284 2235
4 2235 2284 2285 2236
4 2236 2285 2286 2237
4 2237 2286 2287 2238
4 2238 2287 2288 2239
4 2239 2288 2289 2240
4 2240 2289 2290 2241
4 2241 2290 2291 2242
4 2242 2291 2292 2243
4 2243 2292 2293 2244
4 2244 2293 2294 2245
4 2245 2294 2295 2246
4 2246 2295 2296 2247
4 2247 2296 2297 2248
4 2248 2297 2298 2249
4 2249 2298 2299 2250
4 2250 2299 2300 2251
4 2251 2300 2301 2252
4 2252 2301 2302 2253
4 2253 2302 2303 2254
4 2254 2303 2304 2255
4 2255 2304 2305 2256
4 2256 2305 2306 2257
4 2257 2306 2307 2258
4 2258 2307 2308 2259
4 2259 2308 210 211
4 44 45 2309 2260
4 2260 2309 2310 2261
4 2261 2310 2311 2262
4 2262 2311 2312 2263
4 2263 2312 2313 2264
4 2264 2313 2314 2265
4 2265 2314 2315 2266
4 2266 2315 2316 2267
4 2267 2316 2317 2268
4 2268 2317 2318 2269
4 2269 2318 2319 2270
4 2270 2319 2320 2271
4 2271 2320 2321 2272
4 2272 2321 2322 2273
4 2273 2322 2323 2274
4 2274 2323 2324 2275
4 2275 2324 2325 2276
4 2276 2325 2326 2277
4 2277 2326 2327 2278
4 2278 2327 2328 2279
4 2279 2328 2329 2280
4 2280 2329 2330 2281
4 2281 2330 2331 2282
4 2282 2331 2332 2283
4 2283 2332 2333 2284
4 2284 2333 2334 2285
4 2285 2334 2335 2286
4 2286 2335 2336 2287
4 2287 2336 2337 2288
4 2288 2337 2338 2289
4 2289 2338 2339 2290
4 2290 2339 2340 2291
4 2291 2340 2341 2292
4 2292 2341 2342 2293
4 2293 2342 2343 2294
4 2294 2343 2344 2295
4 2295 2344 2345 2296
4 2296 2345 2346 2297
4 2297 2346 2347 2298
4 2298 2347 2348 2299
4 2299 2348 2349 2300
4 2300 2349 2350 2301
4 2301 2350 2351 2302
4 2302 2351 2352 2303
4 2303 2352 2353 2304
4 2304 2353 2354 2305
4 2305 2354 2355 2306
4 2306 2355 2356 2307
4 2307 2356 2357 2308
4 2308 2357 209 210
4 45 46 2358 2309
4 2309 2358 2359 2310
4 2310 2359 2360 2311
4 2311 2360 2361 2312
4 2312 2361 2362 2313
4 2313 2362 2363 2314
4 2314 2363 2364 2315
4 2315 2364 2365 2316
4 2316 2365 2366 2317
4 2317 2366 2367 2318
4 2318 2367 2368 2319
4 2319 2368 2369 2320
4 2320 2369 2370 2321
4 2321 2370 2371 2322
4 2322 2371 2372 2323
4 2323 2372 2373 2324
4 2324 2373 2374 2325
4 2325 2374 2375 2326
4 2326 2375 2376 2327
4 2327 2376 2377 2328
4 2328 2377 2378 2329
4 2329 2378 2379 2330
4 2330 2379 2380 2331
4 2331 2380 2381 2332
4 2332 2381 2382 2333
4 2333 2382 2383 2334
4 2334 2383 2384 2335
4 2335 2384 2385 2336
4 2336 2385 2386 2337
4 2337 2386 2387 2338
4 2338 2387 2388 2339
4 2339 2388 2389 2340
4 2340 2389 2390 2341
4 2341 2390 2391 2342
4 2342 2391 2392 2343
4 2343 2392 2393 2344
4 2344 2393 2394 2345
4 2345 2394 2395 2346
4 2346 2395 2396 2347
4 2347 2396 2397 2348
4 2348 2397 2398 2349
4 2349 2398 2399 2350
4 2350 2399 2400 2351
4 2351 2400 2401 2352
4 2352 2401 2402 2353
4 2353 2402 2403 2354
4 2354 2403 2404 2355
4 2355 2404 2405 2356
4 2356 2405 2406 2357
4 2357 2406 208 209
4 46 47 2407 2358
4 2358 2407 2408 2359
4 2359 2408 2409 2360
4 2360 2409 2410 2361
4 2361 2410 2411 2362
4 2362 2411 2412 2363
4 2363 2412 2413 2364
4 2364 2413 2414 2365
4 2365 2414 2415 2366
4 2366 2415 2416 2367
4 2367 2416 2417 2368
4 2368 2417 2418 2369
4 2369 2418 2419 2370
4 2370 2419 2420 2371
4 2371 2420 2421 2372
4 2372 2421 2422 2373
4 2373 2422 2423 2374
4 2374 2423 2424 2375
4 2375 2424 2425 2376
4 2376 2425 2426 2377
4 2377 2426 2427 2378
4 2378 2427 2428 2379
4 2379 2428 2429 2380
4 2380 2429 2430 2381
4 2381 2430 2431 2382
4 2382 2431 2432 2383
4 2383 2432 2433 2384
4 2384 2433 2434 2385
4 2385 2434 2435 2386
4 2386 2435 2436 2387
4 2387 2436 2437 2388
4 2388 2437 2438 2389
4 2389 2438 2439 2390
4 2390 2439 2440 2391
4 2391 2440 2441 2392
4 2392 2441 2442 2393
4 2393 2442 2443 2394
4 2394 2443 2444 2395
4 2395 2444 2445 2396
4 2396 2445 2446 2397
4 2397 2446 2447 2398
4 2398 2447 2448 2399
4 2399 2448 2449 2400
4 2400 2449 2450 2401
4 2401 2450 2451 2402
4 2402 2451 2452 2403
4 2403 2452 2453 2404
4 2404 2453 2454 2405
4 2405 2454 2455 2406
4 2406 2455 207 208
4 47 48 2456 2407
4 2407 2456 2457 2408
4 2408 2457 2458 2409
4 2409 2458 2459 2410
4 2410 2459 2460 2411
4 2411 2460 2461 2412
4 2412 2461 2462 2413
4 2413 2462 2463 2414
4 2414 2463 2464 2415
4 2415 2464 2465 2416
4 2416 2465 2466 2417
4 2417 2466 2467 2418
4 2418 2467 2468 2419
4 2419 2468 2469 2420
4 2420 2469 2470 2421
4 2421 2470 2471 2422
4 2422 2471 2472 2423
4 2423 2472 2473 2424
4 2424 2473 2474 2425
4 2425 2474 2475 2426
4 2426 2475 2476 2427
4 2427 2476 2477 2428
4 2428 2477 2478 2429
4 2429 2478 2479 2430
4 2430 2479 2480 2431
4 2431 2480 2481 2432
4 2432 2481 2482 2433
4 2433 2482 2483 2434
4 2434 2483 2484 2435
4 2435 2484 2485 2436
4 2436 2485 2486 2437
4 2437 2486 2487 2438
4 2438 2487 2488 2439
4 2439 2488 2489 2440
4 2440 2489 2490 2441
4 2441 2490 2491 2442
4 2442 2491 2492 2443
4 2443 2492 2493 2444
4 2444 2493 2494 2445
4 2445 2494 2495 2446
4 2446 2495 2496 2447
4 2447 2496 2497 2448
4 2448 2497 2498 2449
4 2449 2498 2499 2450
4 2450 2499 2500 2451
4 2451 2500 2501 2452
4 2452 2501 2502 2453
4 2453 2502 2503 2454
4 2454 2503 2504 2455
4 2455 2504 206 207
4 48 49 2505 2456
4 2456 2505 2506 2457
4 2457 2506 2507 2458
4 2458 2507 2508 2459
4 2459 2508 2509 2460
4 2460 2509 2510 2461
4 2461 2510 2511 2462
4 2462 2511 2512 2463
4 2463 2512 2513 2464
4 2464 2513 2514 2465
4 2465 2514 2515 2466
4 2466 2515 2516 2467
4 2467 2516 2517 2468
4 2468 2517 2518 2469
4 2469 2518 2519 2470
4 2470 2519 2520 2471
4 2471 2520 2521 2472
4 2472 2521 2522 2473
4 2473 2522 2523 2474
4 2474 2523 2524 2475
4 2475 2524 2525 2476
4 2476 2525 2526 2477
4 2477 2526 2527 2478
4 2478 2527 2528 2479
4 2479 2528 2529 2480
4 2480 2529 2530 2481
4 2481 2530 2531 2482
4 2482 2531 2532 2483
4 2483 2532 2533 2484
4 2484 2533 2534 2485
4 2485 2534 2535 2486
4 2486 2535 2536 2487
4 2487 2536 2537 2488
4 2488 2537 2538 2489
4 2489 2538 2539 2490
4 2490 2539 2540 2491
4 2491 2540 2541 2492
4 2492 2541 2542 2493
4 2493 2542 2543 2494
4 2494 2543 2544 2495
4 2495 2544 2545 2496
4 2496 2545 2546 2497
4 2497 2546 2547 2498
4 2498 2547 2548 2499
4 2499 2548 2549 2500
4 2500 2549 2550 2501
4 2501 2550 2551 2502
4 2502 2551 2552 2503
4 2503 2552 2553 2504
4 2504 2553 205 206
4 49 50 2554 2505
4 2505 2554 2555 2506
4 2506 2555 2556 2507
4 2507 2556 2557 2508
4 2508 2557 2558 2509
4 2509 2558 2559 2510
4 2510 2559 2560 2511
4 2511 2560 2561 2512
4 2512 2561 2562 2513
4 2513 2562 2563 2514
4 2514 2563 2564 2515
4 2515 2564 2565 2516
4 2516 2565 2566 2517
4 2517 2566 2567 2518
4 2518 2567 2568 2519
4 2519 2568 2569 2520
4 2520 2569 2570 2521
4 2521 2570 2571 2522
4 2522 2571 2572 2523
4 2523 2572 2573 2524
4 2524 2573 2574 2525
4 2525 2574 2575 2526
4 2526 2575 2576 2527
4 2527 2576 2577 2528
4 2528 2577 2578 2529
4 2529 2578 2579 2530
4 2530 2579 2580 2531
4 2531 2580 2581 2532
4 2532 2581 2582 2533
4 2533 2582 2583 2534
4 2534 2583 2584 2535
4 2535 2584 2585 2536
4 2536 2585 2586 2537
4 2537 2586 2587 2538
4 2538 2587 2588 2539
4 2539 2588 2589 2540
4 2540 2589 2590 2541
4 2541 2590 2591 2542
4 2542 2591 2592 2543
4 2543 2592 2593 2544
4 2544 2593 2594 2545
4 2545 2594 2595 2546
4 2546 2595 2596 2547
4 2547 2596 2597 2548
4 2548 2597 2598 2549
4 2549 2598 2599 2550
4 2550 2599 2600 2551
4 2551 2600 2601 2552
4 2552 2601 2602 2553
4 2553 2602 204 205
4 50 51 2603 2554
4 2554 2603 2604 2555
4 2555 2604 2605 2556
4 2556 2605 2606 2557
4 2557 2606 2607 2558
4 2558 2607 2608 2559
4 2559 2608 2609 2560
4 2560 2609 2610 2561
4 2561 2610 2611 2562
4 2562 2611 2612 2563
4 2563 2612 2613 2564
4 2564 2613 2614 2565
4 2565 2614 2615 2566
4 2566 2615 2616 2567
4 2567 2616 2617 2568
4 2568 2617 2618 2569
4 2569 2618 2619 2570
4 2570 2619 2620 2571
4 2571 2620 2621 2572
4 2572 2621 2622 2573
4 2573 2622 2623 2574
4 2574 2623 2624 2575
4 2575 2624 2625 2576
4 2576 2625 2626 2577
4 2577 2626 2627 2578
4 2578 2627 2628 2579
4 2579 2628 2629 2580
4 2580 2629 2630 2581
4 2581 2630 2631 2582
4 2582 2631 2632 2583
4 2583 2632 2633 2584
4 2584 2633 2634 2585
4 2585 2634 2635 2586
4 2586 2635 2636 2587
4 2587 2636 2637 2588
4 2588 2637 2638 2589
4 2589 2638 2639 2590
4 2590 2639 2640 2591
4 2591 2640 2641 2592
4 2592 2641 2642 2593
4 2593 2642 2643 2594
4 2594 2643 2644 2595
4 2595 2644 2645 2596
4 2596 2645 2646 2597
4 2597 2646 2647 2598
4 2598 2647 2648 2599
4 2599 2648 2649 2600
4 2600 2649 2650 2601
4 2601 2650 2651 2602
4 2602 2651 203 204
4 51 52 2652 2603
4 2603 2652 2653 2604
4 2604 2653 2654 2605
4 2605 2654 2655 2606
4 2606 2655 2656 2607
4 2607 2656 2657 2608
4 2608 2657 2658 2609
4 2609 2658 2659 2610
4 2610 2659 2660 2611
4 2611 2660 2661 2612
4 2612 2661 2662 2613
4 2613 2662 2663 2614
4 2614 2663 2664 2615
4 2615 2664 2665 2616
4 2616 2665 2666 2617
4 2617 2666 2667 2618
4 2618 2667 2668 2619
4 2619 2668 2669 2620
4 2620 2669 2670 2621
4 2621 2670 2671 2622
4 2622 2671 2672 2623
4 2623 2672 2673 2624
4 2624 2673 2674 2625
4 2625 2674 2675 2626
4 2626 2675 2676 2627
4 2627 2676 2677 2628
4 2628 2677 2678 2629
4 2629 2678 2679 2630
4 2630 2679 2680 2631
4 2631 2680 2681 2632
4 2632 2681 2682 2633
4 2633 2682 2683 2634
4 2634 2683 2684 2635
4 2635 2684 2685 2636
4 2636 2685 2686 2637
4 2637 2686 2687 2638
4 2638 2687 2688 2639
4 2639 2688 2689 2640
4 2640 2689 2690 2641
4 2641 2690 2691 2642
4 2642 2691 2692 2643
4 2643 2692 2693 2644
4 2644 2693 2694 2645
4 2645 2694 2695 2646
4 2646 2695 2696 2647
4 2647 2696 2697 2648
4 2648 2697 2698 2649
4 2649 2698 2699 2650
4 2650 2699 2700 2651
4 2651 2700 202 203
4 52 53 2701 2652
4 2652 2701 2702 2653
4 2653 2702 2703 2654
4 2654 2703 2704 2655
4 2655 2704 2705 2656
4 2656 2705 2706 2657
4 2657 2706 2707 2658
4 2658 2707 2708 2659
4 2659 2708 2709 2660
4 2660 2709 2710 2661
4 2661 2710 2711 2662
4 2662 2711 2712 2663
4 2663 2712 2713 2664
4 2664 2713 2714 2665
4 2665 2714 2715 2666
4 2666 2715 2716 2667
4 2667 2716 2717 2668
4 2668 2717 2718 2669
4 2669 2718 2719 2670
4 2670 2719 2720 2671
4 2671 2720 2721 2672
4 2672 2721 2722 2673
4 2673 2722 2723 2674
4 2674 2723 2724 2675
4 2675 2724 2725 2676
4 2676 2725 2726 2677
4 2677 2726 2727 2678
4 2678 2727 2728 2679
4 2679 2728 2729 2680
4 2680 2729 2730 2681
4 2681 2730 2731 2682
4 2682 2731 2732 2683
4 2683 2732 2733 2684
4 2684 2733 2734 2685
4 2685 2734 2735 2686
4 2686 2735 2736 2687
4 2687 2736 2737 2688
4 2688 2737 2738 2689
4 2689 2738 2739 2690
4 2690 2739 2740 2691
4 2691 2740 2741 2692
4 2692 2741 2742 2693
4 2693 2742 2743 2694
4 2694 2743 2744 2695
4 2695 2744 2745 2696
4 2696 2745 2746 2697
4 2697 2746 2747 2698
4 2698 2747 2748 2699
4 2699 2748 2749 2700
4 2700 2749 201 202
4 53 54 2750 2701
4 2701 2750 2751 2702
4 2702 2751 2752 2703
4 2703 2752 2753 2704
4 2704 2753 2754 2705
4 2705 2754 2755 2706
4 2706 2755 2756 2707
4 2707 2756 2757 2708
4 2708 2757 2758 2709
4 2709 2758 2759 2710
4 2710 2759 2760 2711
4 2711 2760 2761 2712
4 2712 2761 2762 2713
4 2713 2762 2763 2714
4 2714 2763 2764 2715
4 2715 2764 2765 2716
4 2716 2765 2766 2717
4 2717 2766 2767 2718
4 2718 2767 2768 2719
4 2719 2768 2769 2720
4 2720 2769 2770 2721
4 2721 2770 2771 2722
4 2722 2771 2772 2723
4 2723 2772 2773 2724
4 2724 2773 2774 2725
4 2725 2774 2775 2726
4 2726 2775 2776 2727
4 2727 2776 2777 2728
4 2728 2777 2778 2729
4 2729 2778 2779 2730
4 2730 2779 2780 2731
4 2731 2780 2781 2732
4 2732 2781 2782 2733
4 2733 2782 2783 2734
4 2734 2783 2784 2735
4 2735 2784 2785 2736
4 2736 2785 2786 2737
4 2737 2786 2787 2738
4 2738 2787 2788 2739
4 2739 2788 2789 2740
4 2740 2789 2790 2741
4 2741 2790 2791 2742
4 2742 2791 2792 2743
4 2743 2792 2793 2744
4 2744 2793 2794 2745
4 2745 2794 2795 2746
4 2746 2795 2796 2747
4 2747 2796 2797 2748
4 2748 2797 2798 2749
4 2749 2798 200 201
4 54 55 2799 2750
4 2750 2799 2800 2751
4 2751 2800 2801 2752
4 2752 2801 2802 2753
4 2753 2802 2803 2754
4 2754 2803 2804 2755
4 2755 2804 2805 2756
4 2756 2805 2806 2757
4 2757 2806 2807 2758
4 2758 2807 2808 2759
4 2759 2808 2809 2760
4 2760 2809 2810 2761
4 2761 2810 2811 2762
4 2762 2811 2812 2763
4 2763 2812 2813 2764
4 2764 2813 2814 2765
4 2765 2814 2815 2766
4 2766 2815 2816 2767
4 2767 2816 2817 2768
4 2768 2817 2818 2769
4 2769 2818 2819 2770
4 2770 2819 2820 2771
4 2771 2820 2821 2772
4 2772 2821 2822 2773
4 2773 2822 2823 2774
4 2774 2823 2824 2775
4 2775 2824 2825 2776
4 2776 2825 2826 2777
4 2777 2826 2827 2778
4 2778 2827 2828 2779
4 2779 2828 2829 2780
4 2780 2829 2830 2781
4 2781 2830 2831 2782
4 2782 2831 2832 2783
4 2783 2832 2833 2784
4 2784 2833 2834 2785
4 2785 2834 2835 2786
4 2786 2835 2836 2787
4 2787 2836 2837 2788
4 2788 2837 2838 2789
4 2789 2838 2839 2790
4 2790 2839 2840 2791
4 2791 2840 2841 2792
4 2792 2841 2842 2793
4 2793 2842 2843 2794
4 2794 2843 2844 2795
4 2795 2844 2845 2796
4 2796 2845 2846 2797
4 2797 2846 2847 2798
4 2798 2847 199 200
4 55 56 2848 2799
4 2799 2848 2849 2800
4 2800 2849 2850 2801
4 2801 2850 2851 2802
4 2802 2851 2852 2803
4 2803 2852 2853 2804
4 2804 2853 2854 2805
4 2805 2854 2855 2806
4 2806 2855 2856 2807
4 2807 2856 2857 2808
4 2808 2857 2858 2809
4 2809 2858 2859 2810
4 2810 2859 2860 2811
4 2811 2860 2861 2812
4 2812 2861 2862 2813
4 2813 2862 2863 2814
4 2814 2863 2864 2815
4 2815 2864 2865 2816
4 2816 2865 2866 2817
4 2817 2866 2867 2818
4 2818 2867 2868 2819
4 2819 2868 2869 2820
4 2820 2869 2870 2821
4 2821 2870 2871 2822
4 2822 2871 2872 2823
4 2823 2872 2873 2824
4 2824 2873 2874 2825
4 2825 2874 2875 2826
4 2826 2875 2876 2827
4 2827 2876 2877 2828
4 2828 2877 2878 2829
4 2829 2878 2879 2830
4 2830 2879 2880 2831
4 2831 2880 2881 2832
4 2832 2881 2882 2833
4 2833 2882 2883 2834
4 2834 2883 2884 2835
4 2835 2884 2885 2836
4 2836 2885 2886 2837
4 2837 2886 2887 2838
4 2838 2887 2888 2839
4 2839 2888 2889 2840
4 2840 2889 2890 2841
4 2841 2890 2891 2842
4 2842 2891 2892 2843
4 2843 2892 2893 2844
4 2844 2893 2894 2845
4 2845 2894 2895 2846
4 2846 2895 2896 2847
4 2847 2896 198 199
4 56 57 2897 2848
4 2848 2897 2898 2849
4 2849 2898 2899 2850
4 2850 2899 2900 2851
4 2851 2900 2901 2852
4 2852 2901 2902 2853
4 2853 2902 2903 2854
4 2854 2903 2904 2855
4 2855 2904 2905 2856
4 2856 2905 2906 2857
4 2857 2906 2907 2858
4 2858 2907 2908 2859
4 2859 2908 2909 2860
4 2860 2909 2910 2861
4 2861 2910 2911 2862
4 2862 2911 2912 2863
4 2863 2912 2913 2864
4 2864 2913 2914 2865
4 2865 2914 2915 2866
4 2866 2915 2916 2867
4 2867 2916 2917 2868
4 2868 2917 2918 2869
4 2869 2918 2919 2870
4 2870 2919 2920 2871
4 2871 2920 2921 2872
4 2872 2921 2922 2873
4 2873 2922 2923 2874
4 2874 2923 2924 2875
4 2875 2924 2925 2876
4 2876 2925 2926 2877
4 2877 2926 2927 2878
4 2878 2927 2928 2879
4 2879 2928 2929 2880
4 2880 2929 2930 2881
4 2881 2930 2931 2882
4 2882 2931 2932 2883
4 2883 2932 2933 2884
4 2884 2933 2934 2885
4 2885 2934 2935 2886
4 2886 2935 2936 2887
4 2887 2936 2937 2888
4 2888 2937 2938 2889
4 2889 2938 2939 2890
4 2890 2939 2940 2891
4 2891 2940 2941 2892
4 2892 2941 2942 2893
4 2893 2942 2943 2894
4 2894 2943 2944 2895
4 2895 2944 2945 2896
4 2896 2945 197 198
4 57 58 2946 2897
4 2897 2946 2947 2898
4 2898 2947 2948 2899
4 2899 2948 2949 2900
4 2900 2949 2950 2901
4 2901 2950 2951 2902
4 2902 2951 2952 2903
4 2903 2952 2953 2904
4 2904 2953 2954 2905
4 2905 2954 2955 2906
4 2906 2955 2956 2907
4 2907 2956 2957 2908
4 2908 2957 2958 2909
4 2909 2958 2959 2910
4 2910 2959 2960 2911
4 2911 2960 2961 2912
4 2912 2961 2962 2913
4 2913 2962 2963 2914
4 2914 2963 2964 2915
4 2915 2964 2965 2916
4 2916 2965 2966 2917
4 2917 2966 2967 2918
4 2918 2967 2968 2919
4 2919 2968 2969 2920
4 2920 2969 2970 2921
4 2921 2970 2971 2922
4 2922 2971 2972 2923
4 2923 2972 2973 2924
4 2924 2973 2974 2925
4 2925 2974 2975 2926
4 2926 2975 2976 2927
4 2927 2976 2977 2928
4 2928 2977 2978 2929
4 2929 2978 2979 2930
4 2930 2979 2980 2931
4 2931 2980 2981 2932
4 2932 2981 2982 2933
4 2933 2982 2983 2934
4 2934 2983 2984 2935
4 2935 2984 2985 2936
4 2936 2985 2986 2937
4 2937 2986 2987 2938
4 2938 2987 2988 2939
4 2939 2988 2989 2940
4 2940 2989 2990 2941
4 2941 2990 2991 2942
4 2942 2991 2992 2943
4 2943 2992 2993 2944
4 2944 2993 2994 2945
4 2945 2994 196 197
4 58 59 2995 2946
4 2946 2995 2996 2947
4 2947 2996 2997 2948
4 2948 2997 2998 2949
4 2949 2998 2999 2950
4 2950 2999 3000 2951
4 2951 3000 3001 2952
4 2952 3001 3002 2953
4 2953 3002 3003 2954
4 2954 3003 3004 2955
4 2955 3004 3005 2956
4 2956 3005 3006 2957
4 2957 3006 3007 2958
4 2958 3007 3008 2959
4 2959 3008 3009 2960
4 2960 3009 3010 2961
4 2961 3010 3011 2962
4 2962 3011 3012 2963
4 2963 3012 3013 2964
4 2964 3013 3014 2965
4 2965 3014 3015 2966
4 2966 3015 3016 2967
4 2967 3016 3017 2968
4 2968 3017 3018 2969
4 2969 3018 3019 2970
4 2970 3019 3020 2971
4 2971 3020 3021 2972
4 2972 3021 3022 2973
4 2973 3022 3023 2974
4 2974 3023 3024 2975
4 2975 3024 3025 2976
4 2976 3025 3026 2977
4 2977 3026 3027 2978
4 2978 3027 3028 2979
4 2979 3028 3029 2980
4 2980 3029 3030 2981
4 2981 3030 3031 2982
4 2982 3031 3032 2983
4 2983 3032 3033 2984
4 2984 3033 3034 2985
4 2985 3034 3035 2986
4 2986 3035 3036 2987
4 2987 3036 3037 2988
4 2988 3037 3038 2989
4 2989 3038 3039 2990
4 2990 3039 3040 2991
4 2991 3040 3041 2992
4 2992 3041 3042 2993
4 2993 3042 3043 2994
4 2994 3043 195 196
4 59 60 3044 2995
4 2995 3044 3045 2996
4 2996 3045 3046 2997
4 2997 3046 3047 2998
4 2998 3047 3048 2999
4 2999 3048 3049 3000
4 3000 3049 3050 3001
4 3001 3050 3051 3002
4 3002 3051 3052 3003
4 3003 3052 3053 3004
4 3004 3053 3054 3005
4 3005 3054 3055 3006
4 3006 3055 3056 3007
4 3007 3056 3057 3008
4 3008 3057 3058 3009
4 3009 3058 3059 3010
4 3010 3059 3060 3011
4 3011 3060 3061 3012
4 3012 3061 3062 3013
4 3013 3062 3063 3014
4 3014 3063 3064 3015
4 3015 3064 3065 3016
4 3016 3065 3066 3017
4 3017 3066 3067 3018
4 3018 3067 3068 3019
4 3019 3068 3069 3020
4 3020 3069 3070 3021
4 3021 3070 3071 3022
4 3022 3071 3072 3023
4 3023 3072 3073 3024
4 3024 3073 3074 3025
4 3025 3074 3075 3026
4 3026 3075 3076 3027
4 3027 3076 3077 3028
4 3028 3077 3078 3029
4 3029 3078 3079 3030
4 3030 3079 3080 3031
4 3031 3080 3081 3032
4 3032 3081 3082 3033
4 3033 3082 3083 3034
4 3034 3083 3084 3035
4 3035 3084 3085 3036
4 3036 3085 3086 3037
4 3037 3086 3087 3038
4 3038 3087 3088 3039
4 3039 3088 3089 3040
4 3040 3089 3090 3041
4 3041 3090 3091 3042
4 3042 3091 3092 3043
4 3043 3092 194 195
4 60 61 3093 3044
4 3044 3093 3094 3045
4 3045 3094 3095 3046
4 3046 3095 3096 3047
4 3047 3096 3097 3048
4 3048 3097 3098 3049
4 3049 3098 3099 3050
4 3050 3099 3100 3051
4 3051 3100 3101 3052
4 3052 3101 3102 3053
4 3053 3102 3103 3054
4 3054 3103 3104 3055
4 3055 3104 3105 3056
4 3056 3105 3106 3057
4 3057 3106 3107 3058
4 3058 3107 3108 3059
4 3059 3108 3109 3060
4 3060 3109 3110 3061
4 3061 3110 3111 3062
4 3062 3111 3112 3063
4 3063 3112 3113 3064
4 3064 3113 3114 3065
4 3065 3114 3115 3066
4 3066 3115 3116 3067
4 3067 3116 3117 3068
4 3068 3117 3118 3069
4 3069 3118 3119 3070
4 3070 3119 3120 3071
4 3071 3120 3121 3072
4 3072 3121 3122 3073
4 3073 3122 3123 3074
4 3074 3123 3124 3075
4 3075 3124 3125 3076
4 3076 3125 3126 3077
4 3077 3126 3127 3078
4 3078 3127 3128 3079
4 3079 3128 3129 3080
4 3080 3129 3130 3081
4 3081 3130 3131 3082
4 3082 3131 3132 3083
4 3083 3132 3133 3084
4 3084 3133 3134 3085
4 3085 3134 3135 3086
4 3086 3135 3136 3087
4 3087 3136 3137 3088
4 3088 3137 3138 3089
4 3089 3138 3139 3090
4 3090 3139 3140 3091
4 3091 3140 3141 3092
4 3092 3141 193 194
4 61 62 3142 3093
4 3093 3142 3143 3094
4 3094 3143 3144 3095
4 3095 3144 3145 3096
4 3096 3145 3146 3097
4 3097 3146 3147 3098
4 3098 3147 3148 3099
4 3099 3148 3149 3100
4 3100 3149 3150 3101
4 3101 3150 3151 3102
4 3102 3151 3152 3103
4 3103 3152 3153 3104
4 3104 3153 3154 3105
4 3105 3154 3155 3106
4 3106 3155 3156 3107
4 3107 3156 3157 3108
4 3108 3157 3158 3109
4 3109 3158 3159 3110
4 3110 3159 3160 3111
4 3111 3160 3161 3112
4 3112 3161 3162 3113
4 3113 3162 3163 3114
4 3114 3163 3164 3115
4 3115 3164 3165 3116
4 3116 3165 3166 3117
4 3117 3166 3167 3118
4 3118 3167 3168 3119
4 3119 3168 3169 3120
4 3120 3169 3170 3121
4 3121 3170 3171 3122
4 3122 3171 3172 3123
4 3123 3172 3173 3124
4 3124 3173 3174 3125
4 3125 3174 3175 3126
4 3126 3175 3176 3127
4 3127 3176 3177 3128
4 3128 3177 3178 3129
4 3129 3178 3179 3130
4 3130 3179 3180 3131
4 3131 3180 3181 3132
4 3132 3181 3182 3133
4 3133 3182 3183 3134
4 3134 3183 3184 3135
4 3135 3184 3185 3136
4 3136 3185 3186 3137
4 3137 3186 3187 3138
4 3138 3187 3188 3139
4 3139 3188 3189 3140
4 3140 3189 3190 3141
4 3141 3190 192 193
4 62 63 3191 3142
4 3142 3191 3192 3143
4 3143 3192 3193 3144
4 3144 3193 3194 3145
4 3145 3194 3195 3146
4 3146 3195 3196 3147
4 3147 3196 3197 3148
4 3148 3197 3198 3149
4 3149 3198 3199 3150
4 3150 3199 3200 3151
4 3151 3200 3201 3152
4 3152 3201 3202 3153
4 3153 3202 3203 3154
4 3154 3203 3204 3155
4 3155 3204 3205 3156
4 3156 3205 3206 3157
4 3157 3206 3207 3158
4 3158 3207 3208 3159
4 3159 3208 3209 3160
4 3160 3209 3210 3161
4 3161 3210 3211 3162
4 3162 3211 3212 3163
4 3163 3212 3213 3164
4 3164 3213 3214 3165
4 3165 3214 3215 3166
4 3166 3215 3216 3167
4 3167 3216 3217 3168
4 3168 3217 3218 3169
4 3169 3218 3219 3170
4 3170 3219 3220 3171
4 3171 3220 3221 3172
4 3172 3221 3222 3173
4 3173 3222 3223 3174
4 3174 3223 3224 3175
4 3175 3224 3225 3176
4 3176 3225 3226 3177
4 3177 3226 3227 3178
4 3178 3227 3228 3179
4 3179 3228 3229 3180
4 3180 3229 3230 3181
4 3181 3230 3231 3182
4 3182 3231 3232 3183
4 3183 3232 3233 3184
4 3184 3233 3234 3185
4 3185 3234 3235 3186
4 3186 3235 3236 3187
4 3187 3236 3237 3188
4 3188 3237 3238 3189
4 3189 3238 3239 3190
4 3190 3239 191 192
4 63 64 3240 3191
4 3191 3240 3241 3192
4 3192 3241 3242 3193
4 3193 3242 3243 3194
4 3194 3243 3244 3195
4 3195 3244 3245 3196
4 3196 3245 3246 3197
4 3197 3246 3247 3198
4 3198 3247 3248 3199
4 3199 3248 3249 3200
4 3200 3249 3250 3201
4 3201 3250 3251 3202
4 3202 3251 3252 3203
4 3203 3252 3253 3204
4 3204 3253 3254 3205
4 3205 3254 3255 3206
4 3206 3255 3256 3207
4 3207 3256 3257 3208
4 3208 3257 3258 3209
4 3209 3258 3259 3210
4 3210 3259 3260 3211
4 3211 3260 3261 3212
4 3212 3261 3262 3213
4 3213 3262 3263 3214
4 3214 3263 3264 3215
4 3215 3264 3265 3216
4 3216 3265 3266 3217
4 3217 3266 3267 3218
4 3218 3267 3268 3219
4 3219 3268 3269 3220
4 3220 3269 3270 3221
4 3221 3270 3271 3222
4 3222 3271 3272 3223
4 3223 3272 3273 3224
4 3224 3273 3274 3225
4 3225 3274 3275 3226
4 3226 3275 3276 3227
4 3227 3276 3277 3228
4 3228 3277 3278 3229
4 3229 3278 3279 3230
4 3230 3279 3280 3231
4 3231 3280 3281 3232
4 3232 3281 3282 3233
4 3233 3282 3283 3234
4 3234 3283 3284 3235
4 3235 3284 3285 3236
4 3236 3285 3286 3237
4 3237 3286 3287 3238
4 3238 3287 3288 3239
4 3239 3288 190 191
4 64 65 3289 3240
4 3240 3289 3290 3241
4 3241 3290 3291 3242
4 3242 3291 3292 3243
4 3243 3292 3293 3244
4 3244 3293 3294 3245
4 3245 3294 3295 3246
4 3246 3295 3296 3247
4 3247 3296 3297 3248
4 3248 3297 3298 3249
4 3249 3298 3299 3250
4 3250 3299 3300 3251
4 3251 3300 3301 3252
4 3252 3301 3302 3253
4 3253 3302 3303 3254
4 3254 3303 3304 3255
4 3255 3304 3305 3256
4 3256 3305 3306 3257
4 3257 3306 3307 3258
4 3258 3307 3308 3259
4 3259 3308 3309 3260
4 3260 3309 3310 3261
4 3261 3310 3311 3262
4 3262 3311 3312 3263
4 3263 3312 3313 3264
4 3264 3313 3314 3265
4 3265 3314 3315 3266
4 3266 3315 3316 3267
4 3267 3316 3317 3268
4 3268 3317 3318 3269
4 3269 3318 3319 3270
4 3270 3319 3320 3271
4 3271 3320 3321 3272
4 3272 3321 3322 3273
4 3273 3322 3323 3274
4 3274 3323 3324 3275
4 3275 3324 3325 3276
4 3276 3325 3326 3277
4 3277 3326 3327 3278
4 3278 3327 3328 3279
4 3279 3328 3329 3280
4 3280 3329 3330 3281
4 3281 3330 3331 3282
4 3282 3331 3332 3283
4 3283 3332 3333 3284
4 3284 3333 3334 3285
4 3285 3334 3335 3286
4 3286 3335 3336 3287
4 3287 3336 3337 3288
4 3288 3337 189 190
4 65 66 3338 3289
4 3289 3338 3339 3290
4 3290 3339 3340 3291
4 3291 3340 3341 3292
4 3292 3341 3342 3293
4 3293 3342 3343 3294
4 3294 3343 3344 3295
4 3295 3344 3345 3296
4 3296 3345 3346 3297
4 3297 3346 3347 3298
4 3298 3347 3348 3299
4 3299 3348 3349 3300
4 3300 3349 3350 3301
4 3301 3350 3351 3302
4 3302 3351 3352 3303
4 3303 3352 3353 3304
4 3304 3353 3354 3305
4 3305 3354 3355 3306
4 3306 3355 3356 3307
4 3307 3356 3357 3308
4 3308 3357 3358 3309
4 3309 3358 3359 3310
4 3310 3359 3360 3311
4 3311 3360 3361 3312
4 3312 3361 3362 3313
4 3313 3362 3363 3314
4 3314 3363 3364 3315
4 3315 3364 3365 3316
4 3316 3365 3366 3317
4 3317 3366 3367 3318
4 3318 3367 3368 3319
4 3319 3368 3369 3320
4 3320 3369 3370 3321
4 3321 3370 3371 3322
4 3322 3371 3372 3323
4 3323 3372 3373 3324
4 3324 3373 3374 3325
4 3325 3374 3375 3326
4 3326 3375 3376 3327
4 3327 3376 3377 3328
4 3328 3377 3378 3329
4 3329 3378 3379 3330
4 3330 3379 3380 3331
4 3331 3380 3381 3332
4 3332 3381 3382 3333
4 3333 3382 3383 3334
4 3334 3383 3384 3335
4 3335 3384 3385 3336
4 3336 3385 3386 3337
4 3337 3386 188 189
4 66 67 3387 3338
4 3338 3387 3388 3339
4 3339 3388 3389 3340
4 3340 3389 3390 3341
4 3341 3390 3391 3342
4 3342 3391 3392 3343
4 3343 3392 3393 3344
4 3344 3393 3394 3345
4 3345 3394 3395 3346
4 3346 3395 3396 3347
4 3347 3396 3397 3348
4 3348 3397 3398 3349
4 3349 3398 3399 3350
4 3350 3399 3400 3351
4 3351 3400 3401 3352
4 3352 3401 3402 3353
4 3353 3402 3403 3354
4 3354 3403 3404 3355
4 3355 3404 3405 3356
4 3356 3405 3406 3357
4 3357 3406 3407 3358
4 3358 3407 3408 3359
4 3359 3408 3409 3360
4 3360 3409 3410 3361
4 3361 3410 3411 3362
4 3362 3411 3412 3363
4 3363 3412 3413 3364
4 3364 3413 3414 3365
4 3365 3414 3415 3366
4 3366 3415 3416 3367
4 3367 3416 3417 3368
4 3368 3417 3418 3369
4 3369 3418 3419 3370
4 3370 3419 3420 3371
4 3371 3420 3421 3372
4 3372 3421 3422 3373
4 3373 3422 3423 3374
4 3374 3423 3424 3375
4 3375 3424 3425 3376
4 3376 3425 3426 3377
4 3377 3426 3427 3378
4 3378 3427 3428 3379
4 3379 3428 3429 3380
4 3380 3429 3430 3381
4 3381 3430 3431 3382
4 3382 3431 3432 3383
4 3383 3432 3433 3384
4 3384 3433 3434 3385
4 3385 3434 3435 3386
4 3386 3435 187 188
4 67 68 3436 3387
4 3387 3436 3437 3388
4 3388 3437 3438 3389
4 3389 3438 3439 3390
4 3390 3439 3440 3391
4 3391 3440 3441 3392
4 3392 3441 3442 3393
4 3393 3442 3443 3394
4 3394 3443 3444 3395
4 3395 3444 3445 3396
4 3396 3445 3446 3397
4 3397 3446 3447 3398
4 3398 3447 3448 3399
4 3399 3448 3449 3400
4 3400 3449 3450 3401
4 3401 3450 3451 3402
4 3402 3451 3452 3403
4 3403 3452 3453 3404
4 3404 3453 3454 3405
4 3405 3454 3455 3406
4 3406 3455 3456 3407
4 3407 3456 3457 3408
4 3408 3457 3458 3409
4 3409 3458 3459 3410
4 3410 3459 3460 3411
4 3411 3460 3461 3412
4 3412 3461 3462 3413
4 3413 3462 3463 3414
4 3414 3463 3464 3415
4 3415 3464 3465 3416
4 3416 3465 3466 3417
4 3417 3466 3467 3418
4 3418 3467 3468 3419
4 3419 3468 3469 3420
4 3420 3469 3470 3421
4 3421 3470 3471 3422
4 3422 3471 3472 3423
4 3423 3472 3473 3424
4 3424 3473 3474 3425
4 3425 3474 3475 3426
4 3426 3475 3476 3427
4 3427 3476 3477 3428
4 3428 3477 3478 3429
4 3429 3478 3479 3430
4 3430 3479 3480 3431
4 3431 3480 3481 3432
4 3432 3481 3482 3433
4 3433 3482 3483 3434
4 3434 3483 3484 3435
4 3435 3484 186 187
4 68 69 3485 3436
4 3436 3485 3486 3437
4 3437 3486 3487 3438
4 3438 3487 3488 3439
4 3439 3488 3489 3440
4 3440 3489 3490 3441
4 3441 3490 3491 3442
4 3442 3491 3492 3443
4 3443 3492 3493 3444
4 3444 3493 3494 3445
4 3445 3494 3495 3446
4 3446 3495 3496 3447
4 3447 3496 3497 3448
4 3448 3497 3498 3449
4 3449 3498 3499 3450
4 3450 3499 3500 3451
4 3451 3500 3501 3452
4 3452 3501 3502 3453
4 3453 3502 3503 3454
4 3454 3503 3504 3455
4 3455 3504 3505 3456
4 3456 3505 3506 3457
4 3457 3506 3507 3458
4 3458 3507 3508 3459
4 3459 3508 3509 3460
4 3460 3509 3510 3461
4 3461 3510 3511 3462
4 3462 3511 3512 3463
4 3463 3512 3513 3464
4 3464 3513 3514 3465
4 3465 3514 3515 3466
4 3466 3515 3516 3467
4 3467 3516 3517 3468
4 3468 3517 3518 3469
4 3469 3518 3519 3470
4 3470 3519 3520 3471
4 3471 3520 3521 3472
4 3472 3521 3522 3473
4 3473 3522 3523 3474
4 3474 3523 3524 3475
4 3475 3524 3525 3476
4 3476 3525 3526 3477
4 3477 3526 3527 3478
4 3478 3527 3528 3479
4 3479 3528 3529 3480
4 3480 3529 3530 3481
4 3481 3530 3531 3482
4 3482 3531 3532 3483
4 3483 3532 3533 3484
4 3484 3533 185 186
4 69 70 3534 3485
4 3485 3534 3535 3486
4 3486 3535 3536 3487
4 3487 3536 3537 3488
4 3488 3537 3538 3489
4 3489 3538 3539 3490
4 3490 3539 3540 3491
4 3491 3540 3541 3492
4 3492 3541 3542 3493
4 3493 3542 3543 3494
4 3494 3543 3544 3495
4 3495 3544 3545 3496
4 3496 3545 3546 3497
4 3497 3546 3547 3498
4 3498 3547 3548 3499
4 3499 3548 3549 3500
4 3500 3549 3550 3501
4 3501 3550 3551 3502
4 3502 3551 3552 3503
4 3503 3552 3553 3504
4 3504 3553 3554 3505
4 3505 3554 3555 3506
4 3506 3555 3556 3507
4 3507 3556 3557 3508
4 3508 3557 3558 3509
4 3509 3558 3559 3510
4 3510 3559 3560 3511
4 3511 3560 3561 3512
4 3512 3561 3562 3513
4 3513 3562 3563 3514
4 3514 3563 3564 3515
4 3515 3564 3565 3516
4 3516 3565 3566 3517
4 3517 3566 3567 3518
4 3518 3567 3568 3519
4 3519 3568 3569 3520
4 3520 3569 3570 3521
4 3521 3570 3571 3522
4 3522 3571 3572 3523
4 3523 3572 3573 3524
4 3524 3573 3574 3525
4 3525 3574 3575 3526
4 3526 3575 3576 3527
4 3527 3576 3577 3528
4 3528 3577 3578 3529
4 3529 3578 3579 3530
4 3530 3579 3580 3531
4 3531 3580 3581 3532
4 3532 3581 3582 3533
4 3533 3582 184 185
4 70 71 3583 3534
4 3534 3583 3584 3535
4 3535 3584 3585 3536
4 3536 3585 3586 3537
4 3537 3586 3587 3538
4 3538 3587 3588 3539
4 3539 3588 3589 3540
4 3540 3589 3590 3541
4 3541 3590 3591 3542
4 3542 3591 3592 3543
4 3543 3592 3593 3544
4 3544 3593 3594 3545
4 3545 3594 3595 3546
4 3546 3595 3596 3547
4 3547 3596 3597 3548
4 3548 3597 3598 3549
4 3549 3598 3599 3550
4 3550 3599 3600 3551
4 3551 3600 3601 3552
4 3552 3601 3602 3553
4 3553 3602 3603 3554
4 3554 3603 3604 3555
4 3555 3604 3605 3556
4 3556 3605 3606 3557
4 3557 3606 3607 3558
4 3558 3607 3608 3559
4 3559 3608 3609 3560
4 3560 3609 3610 3561
4 3561 3610 3611 3562
4 3562 3611 3612 3563
4 3563 3612 3613 3564
4 3564 3613 3614 3565
4 3565 3614 3615 3566
4 3566 3615 3616 3567
4 3567 3616 3617 3568
4 3568 3617 3618 3569
4 3569 3618 3619 3570
4 3570 3619 3620 3571
4 3571 3620 3621 3572
4 3572 3621 3622 3573
4 3573 3622 3623 3574
4 3574 3623 3624 3575
4 3575 3624 3625 3576
4 3576 3625 3626 3577
4 3577 3626 3627 3578
4 3578 3627 3628 3579
4 3579 3628 3629 3580
4 3580 3629 3630 3581
4 3581 3630 3631 3582
4 3582 3631 183 184
4 71 72 3632 3583
4 3583 3632 3633 3584
4 3584 3633 3634 3585
4 3585 3634 3635 3586
4 3586 3635 3636 3587
4 3587 3636 3637 3588
4 3588 3637 3638 3589
4 3589 3638 3639 3590
4 3590 3639 3640 3591
4 3591 3640 3641 3592
4 3592 3641 3642 3593
4 3593 3642 3643 3594
4 3594 3643 3644 3595
4 3595 3644 3645 3596
4 3596 3645 3646 3597
4 3597 3646 3647 3598
4 3598 3647 3648 3599
4 3599 3648 3649 3600
4 3600 3649 3650 3601
4 3601 3650 3651 3602
4 3602 3651 3652 3603
4 3603 3652 3653 3604
4 3604 3653 3654 3605
4 3605 3654 3655 3606
4 3606 3655 3656 3607
4 3607 3656 3657 3608
4 3608 3657 3658 3609
4 3609 3658 3659 3610
4 3610 3659 3660 3611
4 3611 3660 3661 3612
4 3612 3661 3662 3613
4 3613 3662 3663 3614
4 3614 3663 3664 3615
4 3615 3664 3665 3616
4 3616 3665 3666 3617
4 3617 3666 3667 3618
4 3618 3667 3668 3619
4 3619 3668 3669 3620
4 3620 3669 3670 3621
4 3621 3670 3671 3622
4 3622 3671 3672 3623
4 3623 3672 3673 3624
4 3624 3673 3674 3625
4 3625 3674 3675 3626
4 3626 3675 3676 3627
4 3627 3676 3677 3628
4 3628 3677 3678 3629
4 3629 3678 3679 3630
4 3630 3679 3680 3631
4 3631 3680 182 183
4 72 73 3681 3632
4 3632 3681 3682 3633
4 3633 3682 3683 3634
4 3634 3683 3684 3635
4 3635 3684 3685 3636
4 3636 3685 3686 3637
4 3637 3686 3687 3638
4 3638 3687 3688 3639
4 3639 3688 3689 3640
4 3640 3689 3690 3641
4 3641 3690 3691 3642
4 3642 3691 3692 3643
4 3643 3692 3693 3644
4 3644 3693 3694 3645
4 3645 3694 3695 3646
4 3646 3695 3696 3647
4 3647 3696 3697 3648
4 3648 3697 3698 3649
4 3649 3698 3699 3650
4 3650 3699 3700 3651
4 3651 3700 3701 3652
4 3652 3701 3702 3653
4 3653 3702 3703 3654
4 3654 3703 3704 3655
4 3655 3704 3705 3656
4 3656 3705 3706 3657
4 3657 3706 3707 3658
4 3658 3707 3708 3659
4 3659 3708 3709 3660
4 3660 3709 3710 3661
4 3661 3710 3711 3662
4 3662 3711 3712 3663
4 3663 3712 3713 3664
4 3664 3713 3714 3665
4 3665 3714 3715 3666
4 3666 3715 3716 3667
4 3667 3716 3717 3668
4 3668 3717 3718 3669
4 3669 3718 3719 3670
4 3670 3719 3720 3671
4 3671 3720 3721 3672
4 3672 3721 3722 3673
4 3673 3722 3723 3674
4 3674 3723 3724 3675
4 3675 3724 3725 3676
4 3676 3725 3726 3677
4 3677 3726 3727 3678
4 3678 3727 3728 3679
4 3679 3728 3729 3680
4 3680 3729 181 182
4 73 74 3730 3681
4 3681 3730 3731 3682
4 3682 3731 3732 3683
4 3683 3732 3733 3684
4 3684 3733 3734 3685
4 3685 3734 3735 3686
4 3686 3735 3736 3687
4 3687 3736 3737 3688
4 3688 3737 3738 3689
4 3689 3738 3739 3690
4 3690 3739 3740 3691
4 3691 3740 3741 3692
4 3692 3741 3742 3693
4 3693 3742 3743 3694
4 3694 3743 3744 3695
4 3695 3744 3745 3696
4 3696 3745 3746 3697
4 3697 3746 3747 3698
4 3698 3747 3748 3699
4 3699 3748 3749 3700
4 3700 3749 3750 3701
4 3701 3750 3751 3702
4 3702 3751 3752 3703
4 3703 3752 3753 3704
4 3704 3753 3754 3705
4 3705 3754 3755 3706
4 3706 3755 3756 3707
4 3707 3756 3757 3708
4 3708 3757 3758 3709
4 3709 3758 3759 3710
4 3710 3759 3760 3711
4 3711 3760 3761 3712
4 3712 3761 3762 3713
4 3713 3762 3763 3714
4 3714 3763 3764 3715
4 3715 3764 3765 3716
4 3716 3765 3766 3717
4 3717 3766 3767 3718
4 3718 3767 3768 3719
4 3719 3768 3769 3720
4 3720 3769 3770 3721
4 3721 3770 3771 3722
4 3722 3771 3772 3723
4 3723 3772 3773 3724
4 3724 3773 3774 3725
4 3725 3774 3775 3726
4 3726 3775 3776 3727
4 3727 3776 3777 3728
4 3728 3777 3778 3729
4 3729 3778 180 181
4 74 75 3779 3730
4 3730 3779 3780 3731
4 3731 3780 3781 3732
4 3732 3781 3782 3733
4 3733 3782 3783 3734
4 3734 3783 3784 3735
4 3735 3784 3785 3736
4 3736 3785 3786 3737
4 3737 3786 3787 3738
4 3738 3787 3788 3739
4 3739 3788 3789 3740
4 3740 3789 3790 3741
4 3741 3790 3791 3742
4 3742 3791 3792 3743
4 3743 3792 3793 3744
4 3744 3793 3794 3745
4 3745 3794 3795 3746
4 3746 3795 3796 3747
4 3747 3796 3797 3748
4 3748 3797 3798 3749
4 3749 3798 3799 3750
4 3750 3799 3800 3751
4 3751 3800 3801 3752
4 3752 3801 3802 3753
4 3753 3802 3803 3754
4 3754 3803 3804 3755
4 3755 3804 3805 3756
4 3756 3805 3806 3757
4 3757 3806 3807 3758
4 3758 3807 3808 3759
4 3759 3808 3809 3760
4 3760 3809 3810 3761
4 3761 3810 3811 3762
4 3762 3811 3812 3763
4 3763 3812 3813 3764
4 3764 3813 3814 3765
4 3765 3814 3815 3766
4 3766 3815 3816 3767
4 3767 3816 3817 3768
4 3768 3817 3818 3769
4 3769 3818 3819 3770
4 3770 3819 3820 3771
4 3771 3820 3821 3772
4 3772 3821 3822 3773
4 3773 3822 3823 3774
4 3774 3823 3824 3775
4 3775 3824 3825 3776
4 3776 3825 3826 3777
4 3777 3826 3827 3778
4 3778 3827 179 180
4 75 76 3828 3779
4 3779 3828 3829 3780
4 3780 3829 3830 3781
4 3781 3830 3831 3782
4 3782 3831 3832 3783
4 3783 3832 3833 3784
4 3784 3833 3834 3785
4 3785 3834 3835 3786
4 3786 3835 3836 3787
4 3787 3836 3837 3788
4 3788 3837 3838 3789
4 3789 3838 3839 3790
4 3790 3839 3840 3791
4 3791 3840 3841 3792
4 3792 3841 3842 3793
4 3793 3842 3843 3794
4 3794 3843 3844 3795
4 3795 3844 3845 3796
4 3796 3845 3846 3797
4 3797 3846 3847 3798
4 3798 3847 3848 3799
4 3799 3848 3849 3800
4 3800 3849 3850 3801
4 3801 3850 3851 3802
4 3802 3851 3852 3803
4 3803 3852 3853 3804
4 3804 3853 3854 3805
4 3805 3854 3855 3806
4 3806 3855 3856 3807
4 3807 3856 3857 3808
4 3808 3857 3858 3809
4 3809 3858 3859 3810
4 3810 3859 3860 3811
4 3811 3860 3861 3812
4 3812 3861 3862 3813
4 3813 3862 3863 3814
4 3814 3863 3864 3815
4 3815 3864 3865 3816
4 3816 3865 3866 3817
4 3817 3866 3867 3818
4 3818 3867 3868 3819
4 3819 3868 3869 3820
4 3820 3869 3870 3821
4 3821 3870 3871 3822
4 3822 3871 3872 3823
4 3823 3872 3873 3824
4 3824 3873 3874 3825
4 3825 3874 3875 3826
4 3826 3875 3876 3827
4 3827 3876 178 179
4 76 77 3877 3828
4 3828 3877 3878 3829
4 3829 3878 3879 3830
4 3830 3879 3880 3831
4 3831 3880 3881 3832
4 3832 3881 3882 3833
4 3833 3882 3883 3834
4 3834 3883 3884 3835
4 3835 3884 3885 3836
4 3836 3885 3886 3837
4 3837 3886 3887 3838
4 3838 3887 3888 3839
4 3839 3888 3889 3840
4 3840 3889 3890 3841
4 3841 3890 3891 3842
4 3842 3891 3892 3843
4 3843 3892 3893 3844
4 3844 3893 3894 3845
4 3845 3894 3895 3846
4 3846 3895 3896 3847
4 3847 3896 3897 3848
4 3848 3897 3898 3849
4 3849 3898 3899 3850
4 3850 3899 3900 3851
4 3851 3900 3901 3852
4 3852 3901 3902 3853
4 3853 3902 3903 3854
4 3854 3903 3904 3855
4 3855 3904 3905 3856
4 3856 3905 3906 3857
4 3857 3906 3907 3858
4 3858 3907 3908 3859
4 3859 3908 3909 3860
4 3860 3909 3910 3861
4 3861 3910 3911 3862
4 3862 3911 3912 3863
4 3863 3912 3913 3864
4 3864 3913 3914 3865
4 3865 3914 3915 3866
4 3866 3915 3916 3867
4 3867 3916 3917 3868
4 3868 3917 3918 3869
4 3869 3918 3919 3870
4 3870 3919 3920 3871
4 3871 3920 3921 3872
4 3872 3921 3922 3873
4 3873 3922 3923 3874
4 3874 3923 3924 3875
4 3875 3924 3925 3876
4 3876 3925 177 178
4 77 78 3926 3877
4 3877 3926 3927 3878
4 3878 3927 3928 3879
4 3879 3928 3929 3880
4 3880 3929 3930 3881
4 3881 3930 3931 3882
4 3882 3931 3932 3883
4 3883 3932 3933 3884
4 3884 3933 3934 3885
4 3885 3934 3935 3886
4 3886 3935 3936 3887
4 3887 3936 3937 3888
4 3888 3937 3938 3889
4 3889 3938 3939 3890
4 3890 3939 3940 3891
4 3891 3940 3941 3892
4 3892 3941 3942 3893
4 3893 3942 3943 3894
4 3894 3943 3944 3895
4 3895 3944 3945 3896
4 3896 3945 3946 3897
4 3897 3946 3947 3898
4 3898 3947 3948 3899
4 3899 3948 3949 3900
4 3900 3949 3950 3901
4 3901 3950 3951 3902
4 3902 3951 3952 3903
4 3903 3952 3953 3904
4 3904 3953 3954 3905
4 3905 3954 3955 3906
4 3906 3955 3956 3907
4 3907 3956 3957 3908
4 3908 3957 3958 3909
4 3909 3958 3959 3910
4 3910 3959 3960 3911
4 3911 3960 3961 3912
4 3912 3961 3962 3913
4 3913 3962 3963 3914
4 3914 3963 3964 3915
4 3915 3964 3965 3916
4 3916 3965 3966 3917
4 3917 3966 3967 3918
4 3918 3967 3968 3919
4 3919 3968 3969 3920
4 3920 3969 3970 3921
4 3921 3970 3971 3922
4 3922 3971 3972 3923
4 3923 3972 3973 3924
4 3924 3973 3974 3925
4 3925 3974 176 177
4 78 79 3975 3926
4 3926 3975 3976 3927
4 3927 3976 3977 3928
4 3928 3977 3978 3929
4 3929 3978 3979 3930
4 3930 3979 3980 3931
4 3931 3980 3981 3932
4 3932 3981 3982 3933
4 3933 3982 3983 3934
4 3934 3983 3984 3935
4 3935 3984 3985 3936
4 3936 3985 3986 3937
4 3937 3986 3987 3938
4 3938 3987 3988 3939
4 3939 3988 3989 3940
4 3940 3989 3990 3941
4 3941 3990 3991 3942
4 3942 3991 3992 3943
4 3943 3992 3993 3944
4 3944 3993 3994 3945
4 3945 3994 3995 3946
4 3946 3995 3996 3947
4 3947 3996 3997 3948
4 3948 3997 3998 3949
4 3949 3998 3999 3950
4 3950 3999 4000 3951
4 3951 4000 4001 3952
4 3952 4001 4002 3953
4 3953 4002 4003 3954
4 3954 4003 4004 3955
4 3955 4004 4005 3956
4 3956 4005 4006 3957
4 3957 4006 4007 3958
4 3958 4007 4008 3959
4 3959 4008 4009 3960
4 3960 4009 4010 3961
4 3961 4010 4011 3962
4 3962 4011 4012 3963
4 3963 4012 4013 3964
4 3964 4013 4014 3965
4 3965 4014 4015 3966
4 3966 4015 4016 3967
4 3967 4016 4017 3968
4 3968 4017 4018 3969
4 3969 4018 4019 3970
4 3970 4019 4020 3971
4 3971 4020 4021 3972
4 3972 4021 4022 3973
4 3973 4022 4023 3974
4 3974 4023 175 176
4 79 80 4024 3975
4 3975 4024 4025 3976
4 3976 4025 4026 3977
4 3977 4026 4027 3978
4 3978 4027 4028 3979
4 3979 4028 4029 3980
4 3980 4029 4030 3981
4 3981 4030 4031 3982
4 3982 4031 4032 3983
4 3983 4032 4033 3984
4 3984 4033 4034 3985
4 3985 4034 4035 3986
4 3986 4035 4036 3987
4 3987 4036 4037 3988
4 3988 4037 4038 3989
4 3989 4038 4039 3990
4 3990 4039 4040 3991
4 3991 4040 4041 3992
4 3992 4041 4042 3993
4 3993 4042 4043 3994
4 3994 4043 4044 3995
4 3995 4044 4045 3996
4 3996 4045 4046 3997
4 3997 4046 4047 3998
4 3998 4047 4048 3999
4 3999 4048 4049 4000
4 4000 4049 4050 4001
4 4001 4050 4051 4002
4 4002 4051 4052 4003
4 4003 4052 4053 4004
4 4004 4053 4054 4005
4 4005 4054 4055 4006
4 4006 4055 4056 4007
4 4007 4056 4057 4008
4 4008 4057 4058 4009
4 4009 4058 4059 4010
4 4010 4059 4060 4011
4 4011 4060 4061 4012
4 4012 4061 4062 4013
4 4013 4062 4063 4014
4 4014 4063 4064 4015
4 4015 4064 4065 4016
4 4016 4065 4066 4017
4 4017 4066 4067 4018
4 4018 4067 4068 4019
4 4019 4068 4069 4020
4 4020 4069 4070 4021
4 4021 4070 4071 4022
4 4022 4071 4072 4023
4 4023 4072 174 175
4 80 81 4073 4024
4 4024 4073 4074 4025
4 4025 4074 4075 4026
4 4026 4075 4076 4027
4 4027 4076 4077 4028
4 4028 4077 4078 4029
4 4029 4078 4079 4030
4 4030 4079 4080 4031
4 4031 4080 4081 4032
4 4032 4081 4082 4033
4 4033 4082 4083 4034
4 4034 4083 4084 4035
4 4035 4084 4085 4036
4 4036 4085 4086 4037
4 4037 4086 4087 4038
4 4038 4087 4088 4039
4 4039 4088 4089 4040
4 4040 4089 4090 4041
4 4041 4090 4091 4042
4 4042 4091 4092 4043
4 4043 4092 4093 4044
4 4044 4093 4094 4045
4 4045 4094 4095 4046
4 4046 4095 4096 4047
4 4047 4096 4097 4048
4 4048 4097 4098 4049
4 4049 4098 4099 4050
4 4050 4099 4100 4051
4 4051 4100 4101 4052
4 4052 4101 4102 4053
4 4053 4102 4103 4054
4 4054 4103 4104 4055
4 4055 4104 4105 4056
4 4056 4105 4106 4057
4 4057 4106 4107 4058
4 4058 4107 4108 4059
4 4059 4108 4109 4060
4 4060 4109 4110 4061
4 4061 4110 4111 4062
4 4062 4111 4112 4063
4 4063 4112 4113 4064
4 4064 4113 4114 4065
4 4065 4114 4115 4066
4 4066 4115 4116 4067
4 4067 4116 4117 4068
4 4068 4117 4118 4069
4 4069 4118 4119 4070
4 4070 4119 4120 4071
4 4071 4120 4121 4072
4 4072 4121 173 174
4 81 82 4122 4073
4 4073 4122 4123 4074
4 4074 4123 4124 4075
4 4075 4124 4125 4076
4 4076 4125 4126 4077
4 4077 4126 4127 4078
4 4078 4127 4128 4079
4 4079 4128 4129 4080
4 4080 4129 4130 4081
4 4081 4130 4131 4082
4 4082 4131 4132 4083
4 4083 4132 4133 4084
4 4084 4133 4134 4085
4 4085 4134 4135 4086
4 4086 4135 4136 4087
4 4087 4136 4137 4088
4 4088 4137 4138 4089
4 4089 4138 4139 4090
4 4090 4139 4140 4091
4 4091 4140 4141 4092
4 4092 4141 4142 4093
4 4093 4142 4143 4094
4 4094 4143 4144 4095
4 4095 4144 4145 4096
4 4096 4145 4146 4097
4 4097 4146 4147 4098
4 4098 4147 4148 4099
4 4099 4148 4149 4100
4 4100 4149 4150 4101
4 4101 4150 4151 4102
4 4102 4151 4152 4103
4 4103 4152 4153 4104
4 4104 4153 4154 4105
4 4105 4154 4155 4106
4 4106 4155 4156 4107
4 4107 4156 4157 4108
4 4108 4157 4158 4109
4 4109 4158 4159 4110
4 4110 4159 4160 4111
4 4111 4160 4161 4112
4 4112 4161 4162 4113
4 4113 4162 4163 4114
4 4114 4163 4164 4115
4 4115 4164 4165 4116
4 4116 4165 4166 4117
4 4117 4166 4167 4118
4 4118 4167 4168 4119
4 4119 4168 4169 4120
4 4120 4169 4170 4121
4 4121 4170 172 173
4 82 83 4171 4122
4 4122 4171 4172 4123
4 4123 4172 4173 4124
4 4124 4173 4174 4125
4 4125 4174 4175 4126
4 4126 4175 4176 4127
4 4127 4176 4177 4128
4 4128 4177 4178 4129
4 4129 4178 4179 4130
4 4130 4179 4180 4131
4 4131 4180 4181 4132
4 4132 4181 4182 4133
4 4133 4182 4183 4134
4 4134 4183 4184 4135
4 4135 4184 4185 4136
4 4136 4185 4186 4137
4 4137 4186 4187 4138
4 4138 4187 4188 4139
4 4139 4188 4189 4140
4 4140 4189 4190 4141
4 4141 4190 4191 4142
4 4142 4191 4192 4143
4 4143 4192 4193 4144
4 4144 4193 4194 4145
4 4145 4194 4195 4146
4 4146 4195 4196 4147
4 4147 4196 4197 4148
4 4148 4197 4198 4149
4 4149 4198 4199 4150
4 4150 4199 4200 4151
4 4151 4200 4201 4152
4 4152 4201 4202 4153
4 4153 4202 4203 4154
4 4154 4203 4204 4155
4 4155 4204 4205 4156
4 4156 4205 4206 4157
4 4157 4206 4207 4158
4 4158 4207 4208 4159
4 4159 4208 4209 4160
4 4160 4209 4210 4161
4 4161 4210 4211 4162
4 4162 4211 4212 4163
4 4163 4212 4213 4164
4 4164 4213 4214 4165
4 4165 4214 4215 4166
4 4166 4215 4216 4167
4 4167 4216 4217 4168
4 4168 4217 4218 4169
4 4169 4218 4219 4170
4 4170 4219 171 172
4 83 84 4220 4171
4 4171 4220 4221 4172
4 4172 4221 4222 4173
4 4173 4222 4223 4174
4 4174 4223 4224 4175
4 4175 4224 4225 4176
4 4176 4225 4226 4177
4 4177 4226 4227 4178
4 4178 4227 4228 4179
4 4179 4228 4229 4180
4 4180 4229 4230 4181
4 4181 4230 4231 4182
4 4182 4231 4232 4183
4 4183 4232 4233 4184
4 4184 4233 4234 4185
4 4185 4234 4235 4186
4 4186 4235 4236 4187
4 4187 4236 4237 4188
4 4188 4237 4238 4189
4 4189 4238 4239 4190
4 4190 4239 4240 4191
4 4191 4240 4241 4192
4 4192 4241 4242 4193
4 4193 4242 4243 4194
4 4194 4243 4244 4195
4 4195 4244 4245 4196
4 4196 4245 4246 4197
4 4197 4246 4247 4198
4 4198 4247 4248 4199
4 4199 4248 4249 4200
4 4200 4249 4250 4201
4 4201 4250 4251 4202
4 4202 4251 4252 4203
4 4203 4252 4253 4204
4 4204 4253 4254 4205
4 4205 4254 4255 4206
4 4206 4255 4256 4207
4 4207 4256 4257 4208
4 4208 4257 4258 4209
4 4209 4258 4259 4210
4 4210 4259 4260 4211
4 4211 4260 4261 4212
4 4212 4261 4262 4213
4 4213 4262 4263 4214
4 4214 4263 4264 4215
4 4215 4264 4265 4216
4 4216 4265 4266 4217
4 4217 4266 4267 4218
4 4218 4267 4268 4219
4 4219 4268 170 171
4 84 85 4269 4220
4 4220 4269 4270 4221
4 4221 4270 4271 4222
4 4222 4271 4272 4223
4 4223 4272 4273 4224
4 4224 4273 4274 4225
4 4225 4274 4275 4226
4 4226 4275 4276 4227
4 4227 4276 4277 4228
4 4228 4277 4278 4229
4 4229 4278 4279 4230
4 4230 4279 4280 4231
4 4231 4280 4281 4232
4 4232 4281 4282 4233
4 4233 4282 4283 4234
4 4234 4283 4284 4235
4 4235 4284 4285 4236
4 4236 4285 4286 4237
4 4237 4286 4287 4238
4 4238 4287 4288 4239
4 4239 4288 4289 4240
4 4240 4289 4290 4241
4 4241 4290 4291 4242
4 4242 4291 4292 4243
4 4243 4292 4293 4244
4 4244 4293 4294 4245
4 4245 4294 4295 4246
4 4246 4295 4296 4247
4 4247 4296 4297 4248
4 4248 4297 4298 4249
4 4249 4298 4299 4250
4 4250 4299 4300 4251
4 4251 4300 4301 4252
4 4252 4301 4302 4253
4 4253 4302 4303 4254
4 4254 4303 4304 4255
4 4255 4304 4305 4256
4 4256 4305 4306 4257
4 4257 4306 4307 4258
4 4258 4307 4308 4259
4 4259 4308 4309 4260
4 4260 4309 4310 4261
4 4261 4310 4311 4262
4 4262 4311 4312 4263
4 4263 4312 4313 4264
4 4264 4313 4314 4265
4 4265 4314 4315 4266
4 4266 4315 4316 4267
4 4267 4316 4317 4268
4 4268 4317 169 170
4 85 86 4318 4269
4 4269 4318 4319 4270
4 4270 4319 4320 4271
4 4271 4320 4321 4272
4 4272 4321 4322 4273
4 4273 4322 4323 4274
4 4274 4323 4324 4275
4 4275 4324 4325 4276
4 4276 4325 4326 4277
4 4277 4326 4327 4278
4 4278 4327 4328 4279
4 4279 4328 4329 4280
4 4280 4329 4330 4281
4 4281 4330 4331 4282
4 4282 4331 4332 4283
4 4283 4332 4333 4284
4 4284 4333 4334 4285
4 4285 4334 4335 4286
4 4286 4335 4336 4287
4 4287 4336 4337 4288
4 4288 4337 4338 4289
4 4289 4338 4339 4290
4 4290 4339 4340 4291
4 4291 4340 4341 4292
4 4292 4341 4342 4293
4 4293 4342 4343 4294
4 4294 4343 4344 4295
4 4295 4344 4345 4296
4 4296 4345 4346 4297
4 4297 4346 4347 4298
4 4298 4347 4348 4299
4 4299 4348 4349 4300
4 4300 4349 4350 4301
4 4301 4350 4351 4302
4 4302 4351 4352 4303
4 4303 4352 4353 4304
4 4304 4353 4354 4305
4 4305 4354 4355 4306
4 4306 4355 4356 4307
4 4307 4356 4357 4308
4 4308 4357 4358 4309
4 4309 4358 4359 4310
4 4310 4359 4360 4311
4 4311 4360 4361 4312
4 4312 4361 4362 4313
4 4313 4362 4363 4314
4 4314 4363 4364 4315
4 4315 4364 4365 4316
4 4316 4365 4366 4317
4 4317 4366 168 169
4 86 87 4367 4318
4 4318 4367 4368 4319
4 4319 4368 4369 4320
4 4320 4369 4370 4321
4 4321 4370 4371 4322
4 4322 4371 4372 4323
4 4323 4372 4373 4324
4 4324 4373 4374 4325
4 4325 4374 4375 4326
4 4326 4375 4376 4327
4 4327 4376 4377 4328
4 4328 4377 4378 4329
4 4329 4378 4379 4330
4 4330 4379 4380 4331
4 4331 4380 4381 4332
4 4332 4381 4382 4333
4 4333 4382 4383 4334
4 4334 4383 4384 4335
4 4335 4384 4385 4336
4 4336 4385 4386 4337
4 4337 4386 4387 4338
4 4338 4387 4388 4339
4 4339 4388 4389 4340
4 4340 4389 4390 4341
4 4341 4390 4391 4342
4 4342 4391 4392 4343
4 4343 4392 4393 4344
4 4344 4393 4394 4345
4 4345 4394 4395 4346
4 4346 4395 4396 4347
4 4347 4396 4397 4348
4 4348 4397 4398 4349
4 4349 4398 4399 4350
4 4350 4399 4400 4351
4 4351 4400 4401 4352
4 4352 4401 4402 4353
4 4353 4402 4403 4354
4 4354 4403 4404 4355
4 4355 4404 4405 4356
4 4356 4405 4406 4357
4 4357 4406 4407 4358
4 4358 4407 4408 4359
4 4359 4408 4409 4360
4 4360 4409 4410 4361
4 4361 4410 4411 4362
4 4362 4411 4412 4363
4 4363 4412 4413 4364
4 4364 4413 4414 4365
4 4365 4414 4415 4366
4 4366 4415 167 168
4 87 88 4416 4367
4 4367 4416 4417 4368
4 4368 4417 4418 4369
4 4369 4418 4419 4370
4 4370 4419 4420 4371
4 4371 4420 4421 4372
4 4372 4421 4422 4373
4 4373 4422 4423 4374
4 4374 4423 4424 4375
4 4375 4424 4425 4376
4 4376 4425 4426 4377
4 4377 4426 4427 4378
4 4378 4427 4428 4379
4 4379 4428 4429 4380
4 4380 4429 4430 4381
4 4381 4430 4431 4382
4 4382 4431 4432 4383
4 4383 4432 4433 4384
4 4384 4433 4434 4385
4 4385 4434 4435 4386
4 4386 4435 4436 4387
4 4387 4436 4437 4388
4 4388 4437 4438 4389
4 4389 4438 4439 4390
4 4390 4439 4440 4391
4 4391 4440 4441 4392
4 4392 4441 4442 4393
4 4393 4442 4443 4394
4 4394 4443 4444 4395
4 4395 4444 4445 4396
4 4396 4445 4446 4397
4 4397 4446 4447 4398
4 4398 4447 4448 4399
4 4399 4448 4449 4400
4 4400 4449 4450 4401
4 4401 4450 4451 4402
4 4402 4451 4452 4403
4 4403 4452 4453 4404
4 4404 4453 4454 4405
4 4405 4454 4455 4406
4 4406 4455 4456 4407
4 4407 4456 4457 4408
4 4408 4457 4458 4409
4 4409 4458 4459 4410
4 4410 4459 4460 4411
4 4411 4460 4461 4412
4 4412 4461 4462 4413
4 4413 4462 4463 4414
4 4414 4463 4464 4415
4 4415 4464 166 167
4 88 89 4465 4416
4 4416 4465 4466 4417
4 4417 4466 4467 4418
4 4418 4467 4468 4419
4 4419 4468 4469 4420
4 4420 4469 4470 4421
4 4421 4470 4471 4422
4 4422 4471 4472 4423
4 4423 4472 4473 4424
4 4424 4473 4474 4425
4 4425 4474 4475 4426
4 4426 4475 4476 4427
4 4427 4476 4477 4428
4 4428 4477 4478 4429
4 4429 4478 4479 4430
4 4430 4479 4480 4431
4 4431 4480 4481 4432
4 4432 4481 4482 4433
4 4433 4482 4483 4434
4 4434 4483 4484 4435
4 4435 4484 4485 4436
4 4436 4485 4486 4437
4 4437 4486 4487 4438
4 4438 4487 4488 4439
4 4439 4488 4489 4440
4 4440 4489 4490 4441
4 4441 4490 4491 4442
4 4442 4491 4492 4443
4 4443 4492 4493 4444
4 4444 4493 4494 4445
4 4445 4494 4495 4446
4 4446 4495 4496 4447
4 4447 4496 4497 4448
4 4448 4497 4498 4449
4 4449 4498 4499 4450
4 4450 4499 4500 4451
4 4451 4500 4501 4452
4 4452 4501 4502 4453
4 4453 4502 4503 4454
4 4454 4503 4504 4455
4 4455 4504 4505 4456
4 4456 4505 4506 4457
4 4457 4506 4507 4458
4 4458 4507 4508 4459
4 4459 4508 4509 4460
4 4460 4509 4510 4461
4 4461 4510 4511 4462
4 4462 4511 4512 4463
4 4463 4512 4513 4464
4 4464 4513 165 166
4 89 90 4514 4465
4 4465 4514 4515 4466
4 4466 4515 4516 4467
4 4467 4516 4517 4468
4 4468 4517 4518 4469
4 4469 4518 4519 4470
4 4470 4519 4520 4471
4 4471 4520 4521 4472
4 4472 4521 4522 4473
4 4473 4522 4523 4474
4 4474 4523 4524 4475
4 4475 4524 4525 4476
4 4476 4525 4526 4477
4 4477 4526 4527 4478
4 4478 4527 4528 4479
4 4479 4528 4529 4480
4 4480 4529 4530 4481
4 4481 4530 4531 4482
4 4482 4531 4532 4483
4 4483 4532 4533 4484
4 4484 4533 4534 4485
4 4485 4534 4535 4486
4 4486 4535 4536 4487
4 4487 4536 4537 4488
4 4488 4537 4538 4489
4 4489 4538 4539 4490
4 4490 4539 4540 4491
4 4491 4540 4541 4492
4 4492 4541 4542 4493
4 4493 4542 4543 4494
4 4494 4543 4544 4495
4 4495 4544 4545 4496
4 4496 4545 4546 4497
4 4497 4546 4547 4498
4 4498 4547 4548 4499
4 4499 4548 4549 4500
4 4500 4549 4550 4501
4 4501 4550 4551 4502
4 4502 4551 4552 4503
4 4503 4552 4553 4504
4 4504 4553 4554 4505
4 4505 4554 4555 4506
4 4506 4555 4556 4507
4 4507 4556 4557 4508
4 4508 4557 4558 4509
4 4509 4558 4559 4510
4 4510 4559 4560 4511
4 4511 4560 4561 4512
4 4512 4561 4562 4513
4 4513 4562 164 165
4 90 91 4563 4514
4 4514 4563 4564 4515
4 4515 4564 4565 4516
4 4516 4565 4566 4517
4 4517 4566 4567 4518
4 4518 4567 4568 4519
4 4519 4568 4569 4520
4 4520 4569 4570 4521
4 4521 4570 4571 4522
4 4522 4571 4572 4523
4 4523 4572 4573 4524
4 4524 4573 4574 4525
4 4525 4574 4575 4526
4 4526 4575 4576 4527
4 4527 4576 4577 4528
4 4528 4577 4578 4529
4 4529 4578 4579 4530
4 4530 4579 4580 4531
4 4531 4580 4581 4532
4 4532 4581 4582 4533
4 4533 4582 4583 4534
4 4534 4583 4584 4535
4 4535 4584 4585 4536
4 4536 4585 4586 4537
4 4537 4586 4587 4538
4 4538 4587 4588 4539
4 4539 4588 4589 4540
4 4540 4589 4590 4541
4 4541 4590 4591 4542
4 4542 4591 4592 4543
4 4543 4592 4593 4544
4 4544 4593 4594 4545
4 4545 4594 4595 4546
4 4546 4595 4596 4547
4 4547 4596 4597 4548
4 4548 4597 4598 4549
4 4549 4598 4599 4550
4 4550 4599 4600 4551
4 4551 4600 4601 4552
4 4552 4601 4602 4553
4 4553 4602 4603 4554
4 4554 4603 4604 4555
4 4555 4604 4605 4556
4 4556 4605 4606 4557
4 4557 4606 4607 4558
4 4558 4607 4608 4559
4 4559 4608 4609 4560
4 4560 4609 4610 4561
4 4561 4610 4611 4562
4 4562 4611 163 164
4 91 92 4612 4563
4 4563 4612 4613 4564
4 4564 4613 4614 4565
4 4565 4614 4615 4566
4 4566 4615 4616 4567
4 4567 4616 4617 4568
4 4568 4617 4618 4569
4 4569 4618 4619 4570
4 4570 4619 4620 4571
4 4571 4620 4621 4572
4 4572 4621 4622 4573
4 4573 4622 4623 4574
4 4574 4623 4624 4575
4 4575 4624 4625 4576
4 4576 4625 4626 4577
4 4577 4626 4627 4578
4 4578 4627 4628 4579
4 4579 4628 4629 4580
4 4580 4629 4630 4581
4 4581 4630 4631 4582
4 4582 4631 4632 4583
4 4583 4632 4633 4584
4 4584 4633 4634 4585
4 4585 4634 4635 4586
4 4586 4635 4636 4587
4 4587 4636 4637 4588
4 4588 4637 4638 4589
4 4589 4638 4639 4590
4 4590 4639 4640 4591
4 4591 4640 4641 4592
4 4592 4641 4642 4593
4 4593 4642 4643 4594
4 4594 4643 4644 4595
4 4595 4644 4645 4596
4 4596 4645 4646 4597
4 4597 4646 4647 4598
4 4598 4647 4648 4599
4 4599 4648 4649 4600
4 4600 4649 4650 4601
4 4601 4650 4651 4602
4 4602 4651 4652 4603
4 4603 4652 4653 4604
4 4604 4653 4654 4605
4 4605 4654 4655 4606
4 4606 4655 4656 4607
4 4607 4656 4657 4608
4 4608 4657 4658 4609
4 4609 4658 4659 4610
4 4610 4659 4660 4611
4 4611 4660 162 163
4 92 93 4661 4612
4 4612 4661 4662 4613
4 4613 4662 4663 4614
4 4614 4663 4664 4615
4 4615 4664 4665 4616
4 4616 4665 4666 4617
4 4617 4666 4667 4618
4 4618 4667 4668 4619
4 4619 4668 4669 4620
4 4620 4669 4670 4621
4 4621 4670 4671 4622
4 4622 4671 4672 4623
4 4623 4672 4673 4624
4 4624 4673 4674 4625
4 4625 4674 4675 4626
4 4626 4675 4676 4627
4 4627 4676 4677 4628
4 4628 4677 4678 4629
4 4629 4678 4679 4630
4 4630 4679 4680 4631
4 4631 4680 4681 4632
4 4632 4681 4682 4633
4 4633 4682 4683 4634
4 4634 4683 4684 4635
4 4635 4684 4685 4636
4 4636 4685 4686 4637
4 4637 4686 4687 4638
4 4638 4687 4688 4639
4 4639 4688 4689 4640
4 4640 4689 4690 4641
4 4641 4690 4691 4642
4 4642 4691 4692 4643
4 4643 4692 4693 4644
4 4644 4693 4694 4645
4 4645 4694 4695 4646
4 4646 4695 4696 4647
4 4647 4696 4697 4648
4 4648 4697 4698 4649
4 4649 4698 4699 4650
4 4650 4699 4700 4651
4 4651 4700 4701 4652
4 4652 4701 4702 4653
4 4653 4702 4703 4654
4 4654 4703 4704 4655
4 4655 4704 4705 4656
4 4656 4705 4706 4657
4 4657 4706 4707 4658
4 4658 4707 4708 4659
4 4659 4708 4709 4660
4 4660 4709 161 162
4 93 94 4710 4661
4 4661 4710 4711 4662
4 4662 4711 4712 4663
4 4663 4712 4713 4664
4 4664 4713 4714 4665
4 4665 4714 4715 4666
4 4666 4715 4716 4667
4 4667 4716 4717 4668
4 4668 4717 4718 4669
4 4669 4718 4719 4670
4 4670 4719 4720 4671
4 4671 4720 4721 4672
4 4672 4721 4722 4673
4 4673 4722 4723 4674
4 4674 4723 4724 4675
4 4675 4724 4725 4676
4 4676 4725 4726 4677
4 4677 4726 4727 4678
4 4678 4727 4728 4679
4 4679 4728 4729 4680
4 4680 4729 4730 4681
4 4681 4730 4731 4682
4 4682 4731 4732 4683
4 4683 4732 4733 4684
4 4684 4733 4734 4685
4 4685 4734 4735 4686
4 4686 4735 4736 4687
4 4687 4736 4737 4688
4 4688 4737 4738 4689
4 4689 4738 4739 4690
4 4690 4739 4740 4691
4 4691 4740 4741 4692
4 4692 4741 4742 4693
4 4693 4742 4743 4694
4 4694 4743 4744 4695
4 4695 4744 4745 4696
4 4696 4745 4746 4697
4 4697 4746 4747 4698
4 4698 4747 4748 4699
4 4699 4748 4749 4700
4 4700 4749 4750 4701
4 4701 4750 4751 4702
4 4702 4751 4752 4703
4 4703 4752 4753 4704
4 4704 4753 4754 4705
4 4705 4754 4755 4706
4 4706 4755 4756 4707
4 4707 4756 4757 4708
4 4708 4757 4758 4709
4 4709 4758 160 161
4 94 95 4759 4710
4 4710 4759 4760 4711
4 4711 4760 4761 4712
4 4712 4761 4762 4713
4 4713 4762 4763 4714
4 4714 4763 4764 4715
4 4715 4764 4765 4716
4 4716 4765 4766 4717
4 4717 4766 4767 4718
4 4718 4767 4768 4719
4 4719 4768 4769 4720
4 4720 4769 4770 4721
4 4721 4770 4771 4722
4 4722 4771 4772 4723
4 4723 4772 4773 4724
4 4724 4773 4774 4725
4 4725 4774 4775 4726
4 4726 4775 4776 4727
4 4727 4776 4777 4728
4 4728 4777 4778 4729
4 4729 4778 4779 4730
4 4730 4779 4780 4731
4 4731 4780 4781 4732
4 4732 4781 4782 4733
4 4733 4782 4783 4734
4 4734 4783 4784 4735
4 4735 4784 4785 4736
4 4736 4785 4786 4737
4 4737 4786 4787 4738
4 4738 4787 4788 4739
4 4739 4788 4789 4740
4 4740 4789 4790 4741
4 4741 4790 4791 4742
4 4742 4791 4792 4743
4 4743 4792 4793 4744
4 4744 4793 4794 4745
4 4745 4794 4795 4746
4 4746 4795 4796 4747
4 4747 4796 4797 4748
4 4748 4797 4798 4749
4 4749 4798 4799 4750
4 4750 4799 4800 4751
4 4751 4800 4801 4752
4 4752 4801 4802 4753
4 4753 4802 4803 4754
4 4754 4803 4804 4755
4 4755 4804 4805 4756
4 4756 4805 4806 4757
4 4757 4806 4807 4758
4 4758 4807 159 160
4 95 96 4808 4759
4 4759 4808 4809 4760
4 4760 4809 4810 4761
4 4761 4810 4811 4762
4 4762 4811 4812 4763
4 4763 4812 4813 4764
4 4764 4813 4814 4765
4 4765 4814 4815 4766
4 4766 4815 4816 4767
4 4767 4816 4817 4768
4 4768 4817 4818 4769
4 4769 4818 4819 4770
4 4770 4819 4820 4771
4 4771 4820 4821 4772
4 4772 4821 4822 4773
4 4773 4822 4823 4774
4 4774 4823 4824 4775
4 4775 4824 4825 4776
4 4776 4825 4826 4777
4 4777 4826 4827 4778
4 4778 4827 4828 4779
4 4779 4828 4829 4780
4 4780 4829 4830 4781
4 4781 4830 4831 4782
4 4782 4831 4832 4783
4 4783 4832 4833 4784
4 4784 4833 4834 4785
4 4785 4834 4835 4786
4 4786 4835 4836 4787
4 4787 4836 4837 4788
4 4788 4837 4838 4789
4 4789 4838 4839 4790
4 4790 4839 4840 4791
4 4791 4840 4841 4792
4 4792 4841 4842 4793
4 4793 4842 4843 4794
4 4794 4843 4844 4795
4 4795 4844 4845 4796
4 4796 4845 4846 4797
4 4797 4846 4847 4798
4 4798 4847 4848 4799
4 4799 4848 4849 4800
4 4800 4849 4850 4801
4 4801 4850 4851 4802
4 4802 4851 4852 4803
4 4803 4852 4853 4804
4 4804 4853 4854 4805
4 4805 4854 4855 4806
4 4806 4855 4856 4807
4 4807 4856 158 159
4 96 97 4857 4808
4 4808 4857 4858 4809
4 4809 4858 4859 4810
4 4810 4859 4860 4811
4 4811 4860 4861 4812
4 4812 4861 4862 4813
4 4813 4862 4863 4814
4 4814 4863 4864 4815
4 4815 4864 4865 4816
4 4816 4865 4866 4817
4 4817 4866 4867 4818
4 4818 4867 4868 4819
4 4819 4868 4869 4820
4 4820 4869 4870 4821
4 4821 4870 4871 4822
4 4822 4871 4872 4823
4 4823 4872 4873 4824
4 4824 4873 4874 4825
4 4825 4874 4875 4826
4 4826 4875 4876 4827
4 4827 4876 4877 4828
4 4828 4877 4878 4829
4 4829 4878 4879 4830
4 4830 4879 4880 4831
4 4831 4880 4881 4832
4 4832 4881 4882 4833
4 4833 4882 4883 4834
4 4834 4883 4884 4835
4 4835 4884 4885 4836
4 4836 4885 4886 4837
4 4837 4886 4887 4838
4 4838 4887 4888 4839
4 4839 4888 4889 4840
4 4840 4889 4890 4841
4 4841 4890 4891 4842
4 4842 4891 4892 4843
4 4843 4892 4893 4844
4 4844 4893 4894 4845
4 4845 4894 4895 4846
4 4846 4895 4896 4847
4 4847 4896 4897 4848
4 4848 4897 4898 4849
4 4849 4898 4899 4850
4 4850 4899 4900 4851
4 4851 4900 4901 4852
4 4852 4901 4902 4853
4 4853 4902 4903 4854
4 4854 4903 4904 4855
4 4855 4904 4905 4856
4 4856 4905 157 158
4 97 98 4906 4857
4 4857 4906 4907 4858
4 4858 4907 4908 4859
4 4859 4908 4909 4860
4 4860 4909 4910 4861
4 4861 4910 4911 4862
4 4862 4911 4912 4863
4 4863 4912 4913 4864
4 4864 4913 4914 4865
4 4865 4914 4915 4866
4 4866 4915 4916 4867
4 4867 4916 4917 4868
4 4868 4917 4918 4869
4 4869 4918 4919 4870
4 4870 4919 4920 4871
4 4871 4920 4921 4872
4 4872 4921 4922 4873
4 4873 4922 4923 4874
4 4874 4923 4924 4875
4 4875 4924 4925 4876
4 4876 4925 4926 4877
4 4877 4926 4927 4878
4 4878 4927 4928 4879
4 4879 4928 4929 4880
4 4880 4929 4930 4881
4 4881 4930 4931 4882
4 4882 4931 4932 4883
4 4883 4932 4933 4884
4 4884 4933 4934 4885
4 4885 4934 4935 4886
4 4886 4935 4936 4887
4 4887 4936 4937 4888
4 4888 4937 4938 4889
4 4889 4938 4939 4890
4 4890 4939 4940 4891
4 4891 4940 4941 4892
4 4892 4941 4942 4893
4 4893 4942 4943 4894
4 4894 4943 4944 4895
4 4895 4944 4945 4896
4 4896 4945 4946 4897
4 4897 4946 4947 4898
4 4898 4947 4948 4899
4 4899 4948 4949 4900
4 4900 4949 4950 4901
4 4901 4950 4951 4902
4 4902 4951 4952 4903
4 4903 4952 4953 4904
4 4904 4953 4954 4905
4 4905 4954 156 157
4 98 99 4955 4906
4 4906 4955 4956 4907
4 4907 4956 4957 4908
4 4908 4957 4958 4909
4 4909 4958 4959 4910
4 4910 4959 4960 4911
4 4911 4960 4961 4912
4 4912 4961 4962 4913
4 4913 4962 4963 4914
4 4914 4963 4964 4915
4 4915 4964 4965 4916
4 4916 4965 4966 4917
4 4917 4966 4967 4918
4 4918 4967 4968 4919
4 4919 4968 4969 4920
4 4920 4969 4970 4921
4 4921 4970 4971 4922
4 4922 4971 4972 4923
4 4923 4972 4973 4924
4 4924 4973 4974 4925
4 4925 4974 4975 4926
4 4926 4975 4976 4927
4 4927 4976 4977 4928
4 4928 4977 4978 4929
4 4929 4978 4979 4930
4 4930 4979 4980 4931
4 4931 4980 4981 4932
4 4932 4981 4982 4933
4 4933 4982 4983 4934
4 4934 4983 4984 4935
4 4935 4984 4985 4936
4 4936 4985 4986 4937
4 4937 4986 4987 4938
4 4938 4987 4988 4939
4 4939 4988 4989 4940
4 4940 4989 4990 4941
4 4941 4990 4991 4942
4 4942 4991 4992 4943
4 4943 4992 4993 4944
4 4944 4993 4994 4945
4 4945 4994 4995 4946
4 4946 4995 4996 4947
4 4947 4996 4997 4948
4 4948 4997 4998 4949
4 4949 4998 4999 4950
4 4950 4999 5000 4951
4 4951 5000 5001 4952
4 4952 5001 5002 4953
4 4953 5002 5003 4954
4 4954 5003 155 156
4 99 100 5004 4955
4 4955 5004 5005 4956
4 4956 5005 5006 4957
4 4957 5006 5007 4958
4 4958 5007 5008 4959
4 4959 5008 5009 4960
4 4960 5009 5010 4961
4 4961 5010 5011 4962
4 4962 5011 5012 4963
4 4963 5012 5013 4964
4 4964 5013 5014 4965
4 4965 5014 5015 4966
4 4966 5015 5016 4967
4 4967 5016 5017 4968
4 4968 5017 5018 4969
4 4969 5018 5019 4970
4 4970 5019 5020 4971
4 4971 5020 5021 4972
4 4972 5021 5022 4973
4 4973 5022 5023 4974
4 4974 5023 5024 4975
4 4975 5024 5025 4976
4 4976 5025 5026 4977
4 4977 5026 5027 4978
4 4978 5027 5028 4979
4 4979 5028 5029 4980
4 4980 5029 5030 4981
4 4981 5030 5031 4982
4 4982 5031 5032 4983
4 4983 5032 5033 4984
4 4984 5033 5034 4985
4 4985 5034 5035 4986
4 4986 5035 5036 4987
4 4987 5036 5037 4988
4 4988 5037 5038 4989
4 4989 5038 5039 4990
4 4990 5039 5040 4991
4 4991 5040 5041 4992
4 4992 5041 5042 4993
4 4993 5042 5043 4994
4 4994 5043 5044 4995
4 4995 5044 5045 4996
4 4996 5045 5046 4997
4 4997 5046 5047 4998
4 4998 5047 5048 4999
4 4999 5048 5049 5000
4 5000 5049 5050 5001
4 5001 5050 5051 5002
4 5002 5051 5052 5003
4 5003 5052 154 155
4 100 101 5053 5004
4 5004 5053 5054 5005
4 5005 5054 5055 5006
4 5006 5055 5056 5007
4 5007 5056 5057 5008
4 5008 5057 5058 5009
4 5009 5058 5059 5010
4 5010 5059 5060 5011
4 5011 5060 5061 5012
4 5012 5061 5062 5013
4 5013 5062 5063 5014
4 5014 5063 5064 5015
4 5015 5064 5065 5016
4 5016 5065 5066 5017
4 5017 5066 5067 5018
4 5018 5067 5068 5019
4 5019 5068 5069 5020
4 5020 5069 5070 5021
4 5021 5070 5071 5022
4 5022 5071 5072 5023
4 5023 5072 5073 5024
4 5024 5073 5074 5025
4 5025 5074 5075 5026
4 5026 5075 5076 5027
4 5027 5076 5077 5028
4 5028 5077 5078 5029
4 5029 5078 5079 5030
4 5030 5079 5080 5031
4 5031 5080 5081 5032
4 5032 5081 5082 5033
4 5033 5082 5083 5034
4 5034 5083 5084 5035
4 5035 5084 5085 5036
4 5036 5085 5086 5037
4 5037 5086 5087 5038
4 5038 5087 5088 5039
4 5039 5088 5089 5040
4 5040 5089 5090 5041
4 5041 5090 5091 5042
4 5042 5091 5092 5043
4 5043 5092 5093 5044
4 5044 5093 5094 5045
4 5045 5094 5095 5046
4 5046 5095 5096 5047
4 5047 5096 5097 5048
4 5048 5097 5098 5049
4 5049 5098 5099 5050
4 5050 5099 5100 5051
4 5051 5100 5101 5052
4 5052 5101 153 154
4 101 102 5102 5053
4 5053 5102 5103 5054
4 5054 5103 5104 5055
4 5055 5104 5105 5056
4 5056 5105 5106 5057
4 5057 5106 5107 5058
4 5058 5107 5108 5059
4 5059 5108 5109 5060
4 5060 5109 5110 5061
4 5061 5110 5111 5062
4 5062 5111 5112 5063
4 5063 5112 5113 5064
4 5064 5113 5114 5065
4 5065 5114 5115 5066
4 5066 5115 5116 5067
4 5067 5116 5117 5068
4 5068 5117 5118 5069
4 5069 5118 5119 5070
4 5070 5119 5120 5071
4 5071 5120 5121 5072
4 5072 5121 5122 5073
4 5073 5122 5123 5074
4 5074 5123 5124 5075
4 5075 5124 5125 5076
4 5076 5125 5126 5077
4 5077 5126 5127 5078
4 5078 5127 5128 5079
4 5079 5128 5129 5080
4 5080 5129 5130 5081
4 5081 5130 5131 5082
4 5082 5131 5132 5083
4 5083 5132 5133 5084
4 5084 5133 5134 5085
4 5085 5134 5135 5086
4 5086 5135 5136 5087
4 5087 5136 5137 5088
4 5088 5137 5138 5089
4 5089 5138 5139 5090
4 5090 5139 5140 5091
4 5091 5140 5141 5092
4 5092 5141 5142 5093
4 5093 5142 5143 5094
4 5094 5143 5144 5095
4 5095 5144 5145 5096
4 5096 5145 5146 5097
4 5097 5146 5147 5098
4 5098 5147 5148 5099
4 5099 5148 5149 5100
4 5100 5149 5150 5101
4 5101 5150 152 153
4 102 1 103 5102
4 5102 103 104 5103
4 5103 104 105 5104
4 5104 105 106 5105
4 5105 106 107 5106
4 5106 107 108 5107
4 5107 108 109 5108
4 5108 109 110 5109
4 5109 110 111 5110
4 5110 111 112 5111
4 5111 112 113 5112
4 5112 113 114 5113
4 5113 114 115 5114
4 5114 115 116 5115
4 5115 116 117 5116
4 5116 117 118 5117
4 5117 118 119 5118
4 5118 119 120 5119
4 5119 120 121 5120
4 5120 121 122 5121
4 5121 122 123 5122
4 5122 123 124 5123
4 5123 124 125 5124
4 5124 125 126 5125
4 5125 126 127 5126
4 5126 127 128 5127
4 5127 128 129 5128
4 5128 129 130 5129
4 5129 130 131 5130
4 5130 131 132 5131
4 5131 132 133 5132
4 5132 133 134 5133
4 5133 134 135 5134
4 5134 135 136 5135
4 5135 136 137 5136
4 5136 137 138 5137
4 5137 138 139 5138
4 5138 139 140 5139
4 5139 140 141 5140
4 5140 141 142 5141
4 5141 142 143 5142
4 5142 143 144 5143
4 5143 144 145 5144
4 5144 145 146 5145
4 5145 146 147 5146
4 5146 147 148 5147
4 5147 148 149 5148
4 5148 149 150 5149
4 5149 150 151 5150
4 5150 151 2 152

CELL_TYPES 5000
9
9
9
9
9
9
9
9
9
9
9
9
9
9
9
9
9
9
9
9
9
9
9
9
9
9
9
9
9
9
9
9
9
9
9
9
9
9
9
9
9
9
9
9
9
9
9
9
9
9
9
9
9
9
9
9
9
9
9
9
9
9
9
9
9
9
9
9
9
9
9
9
9
9
9
9
9
9
9
9
9
9
9
9
9
9
9
9
9
9
9
9
9
9
9
9
9
9
9
9
9
9
9
9
9
9
9
9
9
9
9
9
9
9
9
9
9
9
9
9
9
9
9
9
9
9
9
9
9
9
9
9
9
9
9
9
9
9
9
9
9
9
9
9
9
9
9
9
9
9
9
9
9
9
9
9
9
9
9
9
9
9
9
9
9
9
9
9
9
9
9
9
9
9
9
9
9
9
9
9
9
9
9
9
9
9
9
9
9
9
9
9
9
9
9
9
9
9
9
9
9
9
9
9
9
9
9
9
9
9
9
9
9
9
9
9
9
9
9
9
9
9
9
9
9
9
9
9
9
9
9
9
9
9
9
9
9
9
9
9
9
9
9
9
9
9
9
9
9
9
9
9
9
9
9
9
9
9
9
9
9
9
9
9
9
9
9
9
9
9
9
9
9
9
9
9
9
9
9
9
9
9
9
9
9
9
9
9
9
9
9
9
9
9
9
9
9
9
9
9
9
9
9
9
9
9
9
9
9
9
9
9
9
9
9
9
9
9
9
9
9
9
9
9
9
9
9
9
9
9
9
9
9
9
9
9
9
9
9
9
9
9
9
9
9
9
9
9
9
9
9
9
9
9
9
9
9
9
9
9
9
9
9
9
9
9
9
9
9
9
9
9
9
9
9
9
9
9
9
9
9
9
9
9
9
9
9
9
9
9
9
9
9
9
9
9
9
9
9
9
9
9
9
9
9
9
9
9
9
9
9
9
9
9
9
9
9
9
9
9
9
9
9
9
9
9
9
9
9
9
9
9
9
9
9
9
9
9
9
9
9
9
9
9
9
9
9
9
9
9
9
9
9
9
9
9
9
9
9
9
9
9
9
9
9
9
9
9
9
9
9
9
9
9
9
9
9
9
9
9
9
9
9
9
9
9
9
9
9
9
9
9
9
9
9
9
9
9
9
9
9
9
9
9
9
9
9
9
9
9
9
9
9
9
9
9
9
9
9
9
9
9
9
9
9
9
9
9
9
9
9
9
9
9
9
9
9
9
9
9
9
9
9
9
9
9
9
9
9
9
9
9
9
9
9
9
9
9
9
9
9
9
9
9
9
9
9
9
9
9
9
9
9
9
9
9
9
9
9
9
9
9
9
9
9
9
9
9
9
9
9
9
9
9
9
9
9
9
9
9
9
9
9
9
9
9
9
9
9
9
9
9
9
9
9
9
9
9
9
9
9
9
9
9
9
9
9
9
9
9
9
9
9
9
9
9
9
9
9
9
9
9
9
9
9
9
9
9
9
9
9
9
9
9
9
9
9
9
9
9
9
9
9
9
9
9
9
9
9
9
9
9
9
9
9
9
9
9
9
9
9
9
9
9
9
9
9
9
9
9
9
9
9
9
9
9
9
9
9
9
9
9
9
9
9
9
9
9
9
9
9
9
9
9
9
9
9
9
9
9
9
9
9
9
9
9
9
9
9
9
9
9
9
9
9
9
9
9
9
9
9
9
9
9
9
9
9
9
9
9
9
9
9
9
9
9
9
9
9
9
9
9
9
9
9
9
9
9
9
9
9
9
9
9
9
9
9
9
9
9
9
9
9
9
9
9
9
9
9
9
9
9
9
9
9
9
9
9
9
9
9
9
9
9
9
9
9
9
9
9
9
9
9
9
9
9
9
9
9
9
9
9
9
9
9
9
9
9
9
9
9
9
9
9
9
9
9
9
9
9
9
9
9
9
9
9
9
9
9
9
9
9
9
9
9
9
9
9
9
9
9
9
9
9
9
9
9
9
9
9
9
9
9
9
9
9
9
9
9
9
9
9
9
9
9
9
9
9
9
9
9
9
9
9
9
9
9
9
9
9
9
9
9
9
9
9
9
9
9
9
9
9
9
9
9
9
9
9
9
9
9
9
9
9
9
9
9
9
9
9
9
9
9
9
9
9
9
9
9
9
9
9
9
9
9
9
9
9
9
9
9
9
9
9
9
9
9
9
9
9
9
9
9
9
9
9
9
9
9
9
9
9
9
9
9
9
9
9
9
9
9
9
9
9
9
9
9
9
9
9
9
9
9
9
9
9
9
9
9
9
9
9
9
9
9
9
9
9
9
9
9
9
9
9
9
9
9
9
9
9
9
9
9
9
9
9
9
9
9
9
9
9
9
9
9
9
9
9
9
9
9
9
9
9
9
9
9
9
9
9
9
9
9
9
9
9
9
9
9
9
9
9
9
9
9
9
9
9
9
9
9
9
9
9
9
9
9
9
9
9
9
9
9
9
9
9
9
9
9
9
9
9
9
9
9
9
9
9
9
9
9
9
9
9
9
9
9
9
9
9
9
9
9
9
9
9
9
9
9
9
9
9
9
9
9
9
9
9
9
9
9
9
9
9
9
9
9
9
9
9
9
9
9
9
9
9
9
9
9
9
9
9
9
9
9
9
9
9
9
9
9
9
9
9
9
9
9
9
9
9
9
9
9
9
9
9
9
9
9
9
9
9
9
9
9
9
9
9
9
9
9
9
9
9
9
9
9
9
9
9
9
9
9
9
9
9
9
9
9
9
9
9
9
9
9
9
9
9
9
9
9
9
9
9
9
9
9
9
9
9
9
9
9
9
9
9
9
9
9
9
9
9
9
9
9
9
9
9
9
9
9
9
9
9
9
9
9
9
9
9
9
9
9
9
9
9
9
9
9
9
9
9
9
9
9
9
9
9
9
9
9
9
9
9
9
9
9
9
9
9
9
9
9
9
9
9
9
9
9
9
9
9
9
9
9
9
9
9
9
9
9
9
9
9
9
9
9
9
9
9
9
9
9
9
9
9
9
9
9
9
9
9
9
9
9
9
9
9
9
9
9
9
9
9
9
9
9
9
9
9
9
9
9
9
9
9
9
9
9
9
9
9
9
9
9
9
9
9
9
9
9
9
9
9
9
9
9
9
9
9
9
9
9
9
9
9
9
9
9
9
9
9
9
9
9
9
9
9
9
9
9
9
9
9
9
9
9
9
9
9
9
9
9
9
9
9
9
9
9
9
9
9
9
9
9
9
9
9
9
9
9
9
9
9
9
9
9
9
9
9
9
9
9
9
9
9
9
9
9
9
9
9
9
9
9
9
9
9
9
9
9
9
9
9
9
9
9
9
9
9
9
9
9
9
9
9
9
9
9
9
9
9
9
9
9
9
9
9
9
9
9
9
9
9
9
9
9
9
9
9
9
9
9
9
9
9
9
9
9
9
9
9
9
9
9
9
9
9
9
9
9
9
9
9
9
9
9
9
9
9
9
9
9
9
9
9
9
9
9
9
9
9
9
9
9
9
9
9
9
9
9
9
9
9
9
9
9
9
9
9
9
9
9
9
9
9
9
9
9
9
9
9
9
9
9
9
9
9
9
9
9
9
9
9
9
9
9
9
9
9
9
9
9
9
9
9
9
9
9
9
9
9
9
9
9
9
9
9
9
9
9
9
9
9
9
9
9
9
9
9
9
9
9
9
9
9
9
9
9
9
9
9
9
9
9
9
9
9
9
9
9
9
9
9
9
9
9
9
9
9
9
9
9
9
9
9
9
9
9
9
9
9
9
9
9
9
9
9
9
9
9
9
9
9
9
9
9
9
9
9
9
9
9
9
9
9
9
9
9
9
9
9
9
9
9
9
9
9
9
9
9
9
9
9
9
9
9
9
9
9
9
9
9
9
9
9
9
9
9
9
9
9
9
9
9
9
9
9
9
9
9
9
9
9
9
9
9
9
9
9
9
9
9
9
9
9
9
9
9
9
9
9
9
9
9
9
9
9
9
9
9
9
9
9
9
9
9
9
9
9
9
9
9
9
9
9
9
9
9
9
9
9
9
9
9
9
9
9
9
9
9
9
9
9
9
9
9
9
9
9
9
9
9
9
9
9
9
9
9
9
9
9
9
9
9
9
9
9
9
9
9
9
9
9
9
9
9
9
9
9
9
9
9
9
9
9
9
9
9
9
9
9
9
9
9
9
9
9
9
9
9
9
9
9
9
9
9
9
9
9
9
9
9
9
9
9
9
9
9
9
9
9
9
9
9
9
9
9
9
9
9
9
9
9
9
9
9
9
9
9
9
9
9
9
9
9
9
9
9
9
9
9
9
9
9
9
9
9
9
9
9
9
9
9
9
9
9
9
9
9
9
9
9
9
9
9
9
9
9
9
9
9
9
9
9
9
9
9
9
9
9
9
9
9
9
9
9
9
9
9
9
9
9
9
9
9
9
9
9
9
9
9
9
9
9
9
9
9
9
9
9
9
9
9
9
9
9
9
9
9
9
9
9
9
9
9
9
9
9
9
9
9
9
9
9
9
9
9
9
9
9
9
9
9
9
9
9
9
9
9
9
9
9
9
9
9
9
9
9
9
9
9
9
9
9
9
9
9
9
9
9
9
9
9
9
9
9
9
9
9
9
9
9
9
9
9
9
9
9
9
9
9
9
9
9
9
9
9
9
9
9
9
9
9
9
9
9
9
9
9
9
9
9
9
9
9
9
9
9
9
9
9
9
9
9
9
9
9
9
9
9
9
9
9
9
9
9
9
9
9
9
9
9
9
9
9
9
9
9
9
9
9
9
9
9
9
9
9
9
9
9
9
9
9
9
9
9
9
9
9
9
9
9
9
9
9
9
9
9
9
9
9
9
9
9
9
9
9
9
9
9
9
9
9
9
9
9
9
9
9
9
9
9
9
9
9
9
9
9
9
9
9
9
9
9
9
9
9
9
9
9
9
9
9
9
9
9
9
9
9
9
9
9
9
9
9
9
9
9
9
9
9
9
9
9
9
9
9
9
9
9
9
9
9
9
9
9
9
9
9
9
9
9
9
9
9
9
9
9
9
9
9
9
9
9
9
9
9
9
9
9
9
9
9
9
9
9
9
9
9
9
9
9
9
9
9
9
9
9
9
9
9
9
9
9
9
9
9
9
9
9
9
9
9
9
9
9
9
9
9
9
9
9
9
9
9
9
9
9
9
9
9
9
9
9
9
9
9
9
9
9
9
9
9
9
9
9
9
9
9
9
9
9
9
9
9
9
9
9
9
9
9
9
9
9
9
9
9
9
9
9
9
9
9
9
9
9
9
9
9
9
9
9
9
9
9
9
9
9
9
9
9
9
9
9
9
9
9
9
9
9
9
9
9
9
9
9
9
9
9
9
9
9
9
9
9
9
9
9
9
9
9
9
9
9
9
9
9
9
9
9
9
9
9
9
9
9
9
9
9
9
9
9
9
9
9
9
9
9
9
9
9
9
9
9
9
9
9
9
9
9
9
9
9
9
9
9
9
9
9
9
9
9
9
9
9
9
9
9
9
9
9
9
9
9
9
9
9
9
9
9
9
9
9
9
9
9
9
9
9
9
9
9
9
9
9
9
9
9
9
9
9
9
9
9
9
9
9
9
9
9
9
9
9
9
9
9
9
9
9
9
9
9
9
9
9
9
9
9
9
9
9
9
9
9
9
9
9
9
9
9
9
9
9
9
9
9
9
9
9
9
9
9
9
9
9
9
9
9
9
9
9
9
9
9
9
9
9
9
9
9
9
9
9
9
9
9
9
9
9
9
9
9
9
9
9
9
9
9
9
9
9
9
9
9
9
9
9
9
9
9
9
9
9
9
9
9
9
9
9
9
9
9
9
9
9
9
9
9
9
9
9
9
9
9
9
9
9
9
9
9
9
9
9
9
9
9
9
9
9
9
9
9
9
9
9
9
9
9
9
9
9
9
9
9
9
9
9
9
9
9
9
9
9
9
9
9
9
9
9
9
9
9
9
9
9
9
9
9
9
9
9
9
9
9
9
9
9
9
9
9
9
9
9
9
9
9
9
9
9
9
9
9
9
9
9
9
9
9
9
9
9
9
9
9
9
9
9
9
9
9
9
9
9
9
9
9
9
9
9
9
9
9
9
9
9
9
9
9
9
9
9
9
9
9
9
9
9
9
9
9
9
9
9
9
9
9
9
9
9
9
9
9
9
9
9
9
9
9
9
9
9
9
9
9
9
9
9
9
9
9
9
9
9
9
9
9
9
9
9
9
9
9
9
9
9
9
9
9
9
9
9
9
9
9
9
9
9
9
9
9
9
9
9
9
9
9
9
9
9
9
9
9
9
9
9
9
9
9
9
9
9
9
9
9
9
9
9
9
9
9
9
9
9
9
9
9
9
9
9
9
9
9
9
9
9
9
9
9
9
9
9
9
9
9
9
9
9
9
9
9
9
9
9
9
9
9
9
9
9
9
9
9
9
9
9
9
9
9
9
9
9
9
9
9
9
9
9
9
9
9
9
9
9
9
9
9
9
9
9
9
9
9
9
9
9
9
9
9
9
9
9
9
9
9
9
9
9
9
9
9
9
9
9
9
9
9
9
9
9
9
9
9
9
9
9
9
9
9
9
9
9
9
9
9
9
9
9
9
9
9
9
9
9
9
9
9
9
9
9
9
9
9
9
9
9
9
9
9
9
9
9
9
9
9
9
9
9
9
9
9
9
9
9
9
9
9
9
9
9
9
9
9
9
9
9
9
9
9
9
9
9
9
9
9
9
9
9
9
9
9
9
9
9
9
9
9
9
9
9
9
9
9
9
9
9
9
9
9
9
9
9
9
9
9
9
9
9
9
9
9
9
9
9
9
9
9
9
9
9
9
9
9
9
9
9
9
9
9
9
9
9
9
9
9
9
9
9
9
9
9
9
9
9
9
9
9
9
9
9
9
9
9
9
9
9
9
9
9
9
9
9
9
9
9
9
9
9
9
9
9
9
9
9
9
9
9
9
9
9
9
9
9
9
9
9
9
9
9
9
9
9
9
9
9
9
9
9
9
9
9
9
9
9
9
9
9
9
9
9
9
9
9
9
9
9
9
9
9
9
9
9
9
9
9
9
9
9
9
9
9
9
9
9
9
9
9
9
9
9
9
9
9
9
9
9
9
9
9
9
9
9
9
9
9
9
9
9
9
9
9
9
9
9
9
9
9
9
9
9
9
9
9
9
9
9
9
9
9
9
9
9
9
9
9
9
9
9
9
9
9
9
9
9
9
9
9
9
9
9
9
9
9
9
9
9
9
9
9
9
9
9
9
9
9
9
9
9
9
9
9
9
9
9
9
9
9
9
9
9
9
9
9
9
9
9
9
9
9
9
9
9
9
9
9
9
9
9
9
9
9
9
9
9
9
9
9
9
9
9
9
9
9
9
9
9
9
9
9
9
9
9
9
9
9
9
9
9
9
9
9
9
9
9
9
9
9
9
9
9
9
9
9
9
9
9
9
9
9
9
9
9
9
9
9
9
9
9
9
9
9
9
9
9
9
9
9
9
9
9
9
9
9
9
9
9
9
9
9
9
9
9
9
9
9
9
9
9
9
9
9
9
9
9
9
9
9
9
9
9
9
9
9
9
9
9
9
9
9
9
9
9
9
9
9
9
9
9
9
9
9
9
9
9
9
9
9
9
9
9
9
9
9
9
9
9
9
9
9
9
9
9
9
9
9
9
9
9
9
9
9
9
9
9
9
9
9
9
9
9
9
9
9
9
9
9
9
9
9
9
9
9
9
9
9
9
9
9
9
9
9
9
9
9
9
9
9
9
9
9
9
9
9
9
9
9
9
9
9
9
9
9
9
9
9
9
9
9
9
9
9
9
9
9
9
9
9
9
9
9
9
9
9
9
9
9
9
9
9
9
9
9
9
9
9
9
9
9
9
9
9
9
9
9
9
9
9
9
9
9
9
9
9
9
9
9
9
9
9
9
9
9
9
9
9
9
9
9
9
9
9
9
9
9
9
9
9
9
9
9
9
9
9
9
9
9
9
9
9
9
9
9
9
9
9
9
9
9
9
9
9
9
9
9
9
9
9
9
9
9
9
9
9
9
9
9
9
9
9
9
9
9
9
9
9
9
9
9
9
9
9
9
9
9
9
9
9
9
9
9
9
9
9
9
9
9
9
9
9
9
9
9
9
9
9
9
9
9
9
9
9
9
9
9
9
9
9
9
9
9
9
9
9
9
9
9
9
9
9
9
9
9
9
9
9
9
9
9
9
9
9
9
9
9
9
9
9
9
9
9
9
9
9
9
9
9
9
9
9
9
9
9
9
9
9
9
9
9
9
9
9
9
9
9
9
9
9
9
9
9
9
9
9
9
9
9
9
9
9
9
9
9
9
9
9
9
9
9
9
9
9
9
9
9
9
9
9
9
9
9
9
9
9
9
9
9
9
9
9
9
9
9
9
9
9
9
9
9
9
9
9
9
9
9
9
9
9
9
9
9
9
9
9
9
9
9
9
9
9
9
9
9
9
9
9
9
9
9
9
9
9
9
9
9
9
9
9
9
9
9
9
9
9
9
9
9
9
9
9
9
9
9
9
9
9
9
9
9
9
9
9
9
9
9
9
9
9
9
9
9
9
9
9
9
9
9
9
9
9
9
9
9
9
9
9
9
9
9
9
9
9
9
9
9
9
9
9
9
9
9
9
9
9
9
9
9
9
9
9
9
9
9
9
9
9
9
9
9
9
9
9
9
9
9
9
9
9
9
9
9
9
9
9
9
9
9
9
9
9
9
9
9
9
9
9
9
9
9
9
9
9
9
9
9
9
9
9
9
9
9
9
9
9
9
9
9
9
9
9
9
9
9
9
9
9
9
9
9
9
9
9
9
9
9
9
9
9
9
9
9
9
9
9
9
9
9
9
9
9
9
9
9
9
9
9
9
9
9
9
9
9
9
9
9
9
9
9
9
9
9
9
9
9
9
9
9
9
9
9
9
9
9
9
9
9
9
9
9
9
9
9
9
9
9
9
9
9
9
9
9
9
9
9
9
9
9
9
9
9
9
9
9
9
9
9
9
9
9
9
9
9
9
9
9
9
9
9
9
9
9
9
9
9
9
9
9
9
9
9
9
9
9
9
9
9
9
9
9
9
9
9
9
9
9
9
9
9
9
9
9
9
9
9
9
9
9
9
9
9
9
9
9
9
9
9
9
9
9
9
9
9
9
9
9
9
9
9
9
9
9
9
9
9
9
9
9
9
9
9
9
9
9
9
9
9
9
9
9
9
9
9
9
9
9
9
9
9
9
9
9
9
9
9
9
9
9
9
9
9
9
9
9
9
9
9
9
9
9
9
9
9
9
9
9
9
9
9
9
9
9
9
9
9
9
9
9
9
9
9
9
9
9
9
9
9
9
9
9
9
9
9
9
9
9
9
9
9
9
9
9
9
9
9
9
9
9
9
9
9
9
9
9
9
9
9
9
9
9
9
9
9
9
9
9
9
9
9
9
9
9
9
9
9
9
9
9
9
9
9
9
9
9
9
9
9
9
9
9
9
9
9
9
9
9
9
9
9
9
9
9
9
9
9
9
9
9
9
9
9
9
9
9
9
9
9
9
9
9
9
9
9
9
9
9
9
9
9
9
9
9
9
9
9
9
9
9
9
9
9
9
9
9
9
9
9
9
9
9
9
9
9
9
9
9
9
9
9
9
9
9
9
9
9
9
9
9
9
9
9
9
9
9
9
9
9
9
9
9
9
9
9
9
9
9
9
9
9
9
9
9
9
9
9
9
9
9
9
9
9
9
9
9
9
9
9
9
9
9
9
9
9
9
9
9
9
9
9
9
9
9
9
9
9
9
9
9
9
9
9
9
9
9
9
9
9
9
9
9
9
9
9
9
9
9
9
9
9
9
9
9
9
9
9
9
9
9
9
9
9
9
9
9
9
9
9
9
9
9
9
9
9
9
9
9
9
9
9
9
9
9
9
9
9
9
9
9
9
9
9
9
9
9
9
9
9
9
9
9
9
9
9
9
9
9
9
9
9
9
9
9
9
9
9
9
9
9
9
9
9
9
9
9
9
9
9
9
9
9
9
9
9
9
9
9
9
9
9
9
9
9
9
9
9
9
9
9
9
9
9
9
9
9
9
9
9
9
9
9
9
9
9
9
9
9
9
9
9
9
9
9
9
9
9
9
9
9
9
9
9
9
9
9
9
9
9
9
9
9
9
9
9
9
9
9
9
9
9
9
9
9
9
9
9
9
9
9
9
9
9
9
9
9
9
9
9
9
9
9
9
9
9
9
9
9
9
9
9
9
9
9
9
9
9
9
9
9
9
9
9
9
9
9
9
9
9
9
9
9
9
9
9
9
9
9
9
9
9
9
9
9
9
9
9
9
9
9
9
9
9
9
9
9
9
9
9
9
9
9
9
9
9
9
9
9
9
9
9
9
9
9
9
9
9
9
9
9
9
9
9
9
9
9
9
9
9
9
9
9
9
9
9
9
9
9
9
9
9
9
9
9
9
9
9
9
9
9
9
9
9
9
9
9
9
9
9
9
9
9
9
9
9
9
9
9
9
9
9
9
9
9
9
9
9
9
9
9
9
9
9
9
9
9
9
9
9
9
9
9
9
9
9
9
9
9
9
9
9
9
9
9
9
9
9
9
9
9
9
9
9
9
9
9
9
9
9
9
9
9
9
9
9
9
9
9
9
9
9
9
9
9
9
9
9
9
9
9
9
9
9
9
9
9
9
9
9
9
9
9
9
9
9
9
9
9
9
9
9
9
9
9
9
9
9
9
9
9
9
9
9
9
9
9
9
9
9
9
9
9
9
9
9
9
9
9
9
9
9
9
9
9
9
9
9
9
9
9
9
9
9
9
9
9
9
9
9
9
9
9
9
9
9
9
9
9
9
9
9
9
9
9
9
9
9
9
9
9
9
9
9
9
9
9
9
9
9
9
9
9
9
9
9
9
9
9
9
9
9
9
9
9
9
9
9
9
9
9
9
9
9
9
9
9
9
9
9
9
9
9
9
9
9
9
9
9
9
9
9
9
9
9
9
9
9
9
9
9
9
9
9
9
9
9
9
9
9
9
9
9
9
9
9
9
9
9
9
9
9
9
9
9
9
9
9
9
9
9
9
9
9
9
9
9
9
9
9
9
9
9
9
9
9
9
9
9
9
9
9
9
9
9
9
9
9
9
9
9
9
9
9
9
9
9
9
9
9
9
9
9
9
9
9
9
9
9
9
9
9
9
9
9
9
9
9
9
9
9
9
9
9
9
9
9
9
9
9
9
9
9
9
9

POINT_DATA 5151
SCALARS STRESS_EQV float 1
LOOKUP_TABLE default
158.86767067361154
4065.370457812956
29.959049543984534
246.43956635542997
158.83254434718145
158.72716927785
158.55155722396103
158.3057278776819
157.989709007361
157.6035366566719
157.14725540043057
156.62091865684943
156.02458905599218
155.35833886398524
154.62225046243378
153.81641688244432
152.94094239224304
151.99594313733667
150.98154783179484
149.89789849895055
148.74515125935847
147.52347716332062
146.23306306513356
144.8741125352554
143.44684680604462
141.95150574611114
140.3883488573856
138.75765628811
137.0597298538958
135.29489405805722
133.46349710100063
131.5659118672288
129.60253687706268
127.57379718856161
125.48014523344656
123.32206156895985
121.1000555257313
118.81466572945558
116.46646047203029
114.0560379054485
111.58402602915339
109.05108243898499
106.45789380309199
103.80517502733304
101.09366806985659
98.32414036179185
95.49738278819746
92.61420718100528
89.67544327397084
86.68193506855792
83.63453656039997
80.53410677903585
77.38150410064478
74.17757980717136
70.92317088912858
67.61909213043381
64.26612758280898
60.865021653871125
57.41647023091518
53.921112602570446
50.379525537726764
46.792221957683566
43.15965864175458
39.48226129074629
35.76048317538852
31.994930654066994
28.186628434842397
24.337598054439738
20.452209916112096
16.540721225846795
12.630300052476201
8.810122631290247
5.496653464510269
4.298362167421527
6.234795656152176
9.991018640565548
14.258540474397307
18.755087150103705
23.424160231314097
28.258605790280527
33.26885908575449
38.47527764195486
43.90638958704078
49.599245428420794
55.60091808457203
61.97098587934547
68.78515992850897
76.14045702366026
84.162607613918
93.01682847800947
102.92382641986109
114.18420574294217
127.21684431523275
142.62157684039695
161.28559468694266
184.5768866754908
214.7019735722606
255.52407533687966
314.02151724124894
406.6762080027467
565.5265815657255
954.3292058235816
2653.7587878457966
2955.9004804417355
1496.9875168242227
996.8687910592496
754.7437596758427
604.3632451817166
503.8217276265326
431.33257376377105
376.5588356793396
333.5750146421324
298.8332011617558
270.06473168253797
245.75712776823957
224.8645482046595
206.64246308280548
190.54776099149353
176.1761090887059
163.2212885464749
151.44802366396618
140.67336132187484
130.7536244973067
121.57509049082879
113.04721345700128
105.09761931698634
97.66835718648218
90.71305570770376
84.19474025637597
78.08413878057885
72.3583527231958
66.99980297828921
61.995384124353336
57.335776454025975
53.01487661421787
49.029315233683306
45.37803441918495
42.06189964157565
39.08331907336617
36.445838267641406
34.15366833982985
32.21109072446957
30.62166064735318
29.387104267356385
28.505768870221026
27.970433720834514
27.76520327355516
27.861060417830334
28.209461337486708
28.733275280427463
29.315311217351294
29.781197169284596
30.058922526715328
30.330305814755285
30.66947177985552
30.96457212203653
31.153884365272035
31.19562733579351
31.06544198915975
30.755606587435793
30.27456323824643
29.64680907128891
28.913251221933898
28.131882755626783
27.3782339206074
26.74446821258019
26.33538863722047
26.259610828532402
26.615719550365004
27.476552310553203
28.877699480703562
30.8154281046153
33.25420561389077
36.13913597348581
39.40780729276217
42.99854762794462
46.854830402340255
50.92690794466125
55.17188243715194
59.55307399663949
64.0391720020859
68.60340036305396
73.22278515153968
77.87754425695181
82.55059005041967
87.22712685191087
91.89432428755963
96.54105006224626
101.15764886479673
105.73575711446938
110.26814574258776
114.74858515050434
119.17172796240826
123.53300629120594
127.82854104524728
132.05506139537954
136.2098329531101
140.29059352462266
144.29549553431974
148.22305437918794
152.07210209881313
155.84174583807498
159.5313306489212
163.14040623138487
166.66869725626594
170.11607694608463
173.4825436193682
176.76819992774773
179.9732345369193
183.09790602151975
186.1425287617273
189.10746064569048
191.99309239686994
194.79983835983955
197.52812859150774
200.17840211718715
202.75110122297917
205.24666666708777
207.66553370311652
210.00812881819698
212.27486709799956
214.46615013906333
216.58236443676998
218.62388018464097
220.59105042713298
222.48421051437504
224.30367781289226
226.04975163138624
227.72271332536698
229.3228265485809
230.85033762310402
232.3054760032785
233.68845481177985
234.99947142896735
236.23870811900377
237.40633267851433
238.5024990955024
239.52734820789834
240.4810083527525
241.36359599833781
242.1752163525677
242.91596394231902
243.58592315893287
244.18516876607384
244.7137663667584
245.1717728268363
245.55923665285735
245.8761983225539
246.12269056651735
246.29873860002226
246.40436030412542
241.66062231164597
232.18590436800002
222.87389773577996
213.71734994880566
204.70902125071305
195.84168821737262
187.10814770215393
178.50122117055207
170.01375953445967
161.6386486573994
153.36881578899295
145.19723731332988
137.1169483839545
129.12105530441966
121.20275195979067
113.355342319129
105.5722722056093
97.84717552919236
90.17394368964104
82.54683327951791
74.96063949495408
67.4109873907841
59.89484606925775
52.41149291062817
44.96446242237909
37.5658802991931
30.24739389563201
23.0928565531735
16.36079060133143
11.019048264102478
9.51582146732678
12.922685205106426
19.16970529310595
26.34726205681918
33.888998315785386
41.633746706349115
49.52523289640696
57.541718545837014
65.67534160865904
73.92467680600342
82.29162188966987
90.77993995727799
99.39451586500184
108.14095042089535
117.02532659291168
126.05406873536501
135.2338546679413
144.57155904311833
154.07421587378826
154.03986758948543
144.53881424048447
135.20281274180138
126.02483958853968
116.99803371465077
108.11573510846
99.37154315246113
90.7594071629352
82.27377130744352
73.90981519956185
65.66387136866922
57.53418990751767
49.522436639165406
41.636890797982595
33.90007522650005
26.369894898206756
19.211252694567758
12.997641853437715
9.62525790497856
11.12526743689947
16.437621458042432
23.14871492639743
30.290305017601597
37.59995601028176
44.99191808189715
52.43363110359299
59.912491177254914
67.42469283881954
74.97079519099077
82.55372544917904
90.17779023647982
97.8481479841646
105.5705099222582
113.35096197565579
121.19585410702408
129.1117289896357
137.1052744829015
145.1832909710987
153.35266823072112
161.62036854302292
169.99341397636704
178.47887649685418
187.08387002418175
195.81554384365128
204.68107697830743
213.68767325502856
222.84255688763847
232.15296846266588
241.6261612583377
153.93682664760286
144.44058384057814
135.10969128138822
125.93715703965674
116.91616086735425
108.04009624479434
99.30263384228326
90.69781991315227
82.22023363320224
73.86524807404301
65.62948257909066
57.511630357610706
49.51407740317781
41.646349760496065
33.93330744971552
26.437682955776985
19.335273877381873
13.219405635898244
9.946314654673271
11.437489424003743
16.665738517972898
23.315427611112156
30.41865864492891
37.70199374539386
45.07418464576125
52.49999200581978
59.96539937142177
67.46579791215365
75.0012607497612
82.57440644706207
90.18933800500817
97.85107553602788
105.56523423671547
113.33783233120727
121.17517162075936
129.08376042337952
137.0702621971928
145.14146021994554
153.3042325747979
161.5655339007413
169.9323816674248
178.41184552516253
187.0110387751933
195.7371113222351
204.59724367956184
213.59864173674907
222.74853209629924
232.054157852735
241.52277473600222
153.76510480832064
144.2768798924389
134.95450326529235
125.79103578957613
116.77972544347486
107.91405508751801
99.18781446322521
90.59521166666812
82.13105115772655
73.79102859797261
65.57224112470861
57.474119071322065
49.50024382049374
41.66220357981533
33.98869953491414
26.550298830860605
19.53996010680305
13.579349557919237
10.459460009427914
11.938320122282418
17.03839910560404
23.590477087462784
30.631333107209198
37.87143082767353
45.21096283277531
52.610415319752114
60.05348952919131
67.5342688842355
75.05203160200995
82.60888973907282
90.208611378326
97.85598875159765
105.55647865695971
113.31598756578067
121.1407377449716
129.0371807714229
137.0119398121928
145.07176991917146
153.2235299086205
161.47416186049705
169.83067572664567
178.30013742149282
186.88965932197402
195.60639245820266
204.4575199094434
213.4502510764005
222.59181660822588
231.88946383796386
241.35045263380243
153.5247217622872
144.04772256128115
134.73727040639295
125.58650042672542
116.58875653059626
107.73764718864018
99.02712938506404
90.45163838530831
82.0062946112455
73.68724567659262
65.49225712603169
57.421788274236505
49.48108369340908
41.68458530954681
34.06625931513763
26.707209860899308
19.822466723611463
14.065056949831153
11.138142256544734
12.60392767997065
17.545502972084563
23.969886812305454
30.926515519592904
38.107347474676374
45.401760293787156
52.76463630109788
60.176627330005815
67.63004982853877
75.12310019442171
82.65719776547543
90.2356509914844
97.86293859516736
105.5442990775159
113.28548471937256
121.0926079789229
128.972042081553
136.93035458025068
144.97426160995684
153.11059548035647
161.34628106367364
169.6883180958945
178.14376752199684
186.71974064930308
195.4233902796635
204.26190325822307
213.242494055822
222.3723991251254
231.65887185660097
241.10917802176158
153.21570526605177
143.75314025360865
134.4580232747129
125.32358555780708
116.34329506222267
107.51092257952823
98.82064105290948
90.26717883199629
81.84606353444161
73.55402439113547
65.38968541008798
57.354823642748194
49.456804115518224
41.713680686703924
34.16599827010037
26.90769649934309
20.17913282916925
14.662340589600994
11.954242500859138
13.408749110760084
18.17489056715823
24.448508155407005
31.301780293725276
38.40849253521339
45.64590098319259
52.96228930638607
60.33462656005943
67.75306303982575
75.21445608105076
82.71936193525976
90.27051372495798
97.87199645654384
105.52877385003461
113.24640380089235
121.03086021526207
128.88841744024808
136.82557288552434
144.8489936788432
152.96547885287885
161.18193180066902
169.50533965563528
177.94275742271572
186.5012954207961
195.18810906787326
204.01039035005368
212.97536052347868
222.09026374084428
231.3623613937712
240.79892703322167
152.8380913315178
143.3931697922626
134.11680146947427
125.00233599124732
116.04339402998144
107.23394603184714
98.56843031835437
90.04193499229457
81.65048680317332
73.39152661937253
65.26472617370666
57.27346486494058
49.42767163673642
41.74972759404921
34.287932010058675
27.15087597072594
20.605730890516938
15.356910944994128
12.881800003003907
14.328758128219267
18.91358442487885
25.02035185457263
31.75418762204597
38.773317118959305
45.9425376894964
53.20291260431742
60.52725089798362
67.90320961330718
75.32608604785662
82.79542261579036
90.3132726927923
97.88325418737017
105.51000387929965
113.19884793825776
120.9555949315511
128.7864011907997
136.6976804740643
144.69604158647064
152.78824411959965
160.9811662041625
169.28178038790438
177.69713510638425
186.23434006532466
194.90055440062113
203.70297684218417
212.64883734968413
221.74538985401355
230.999905854088
240.4196687009735
152.39192446923678
142.96785664123496
133.71365384042448
124.62280697387494
115.68911875837854
106.90679739651941
98.27059687062376
89.77603262385486
81.41972331231159
73.19995184297089
65.11762584328656
57.17800636200941
49.39401246786562
41.79301536967497
34.43208085791369
27.435729479803822
21.097710788014794
16.135437949085063
13.898721020546922
15.34304848380142
19.748757687036402
25.678919260659626
32.280393035921016
39.20001406190593
46.29066719282858
53.485954306188425
60.75421614239953
68.0803701713319
75.45797426690672
82.88542911527449
90.36401722267686
97.89682414282133
105.48811274187571
113.14294356722931
120.86693543330149
128.66610921161686
136.54678274854487
144.51549816147588
152.57897018252663
160.74404849878124
169.01768958749506
177.4069351073844
185.9188948902042
194.56073321018945
203.33965742609865
212.26290837104563
221.3377520575317
230.57147239937757
239.97136474775613
151.877257985296
142.47725518003082
133.24863875846626
124.18506448143931
115.28054724362202
106.52957202344756
97.92725977197613
89.46962193962
81.1539628257765
72.97953814900632
64.94867813639154
57.068798170300155
49.356212718915174
41.84388396467373
34.59847050324697
27.761131183193008
21.65041279177732
16.98606215253744
14.987079499216001
16.434226731045676
20.668367846493844
26.417499401302567
32.87675940863373
39.68656100405774
46.689147439114
53.810779243214014
61.0151928336864
68.2844057247234
75.61010247579809
82.98943965482115
90.42285282445091
97.91283922492482
105.46324682379282
113.07884065591232
120.76502814613661
128.5276792530188
136.3730051266673
144.307473959299
152.33775109291838
160.47065530803974
168.7131261225889
177.07219871634783
185.55498422279874
194.16865385752533
202.9204258321425
211.81755432559467
220.8673200062021
230.07702175263802
239.4539693320668
151.29415433151195
141.92142902732988
132.72182443566356
123.68918556371167
114.8177705583978
106.10238126548023
97.53855810272576
89.12287843210223
80.85342700167348
72.73056343469354
64.75822533161701
56.94624698402121
49.31471866429151
41.90272295036041
34.787132700034
28.125877254476407
22.25923628504537
17.89853210510596
16.132709598208034
17.588180723472327
21.661496441428483
27.22941224267995
33.539464092480614
40.230764899077464
47.13671608490285
54.17667659981974
61.30980921545227
68.51515865371519
75.78245017708622
83.10752132622913
90.48990114269841
97.9314529228129
105.43557547271661
113.00671296089868
120.65004295386954
128.37127133030202
136.17649346197155
144.07209768550743
152.06469645492552
160.1610760195179
168.3681587462429
176.69297422617313
185.1426365825061
193.7243262246601
202.44527483966021
211.31275278050126
220.33405826426946
229.5165079698125
238.8674287505446
150.64268550842866
141.30045141355185
132.13328929473363
123.135258745197
114.30089332498085
105.62535307084983
97.10465172241302
88.73600384771355
80.51837060342285
72.45334682634837
64.5466597543054
56.81081735819949
49.27003702655349
41.969970377203126
34.99810597929455
28.528713638932857
22.91976168141707
18.86413535859964
17.324559550529752
18.793607450962075
22.718474870958957
28.108191720204697
34.26459579506445
40.83030599217326
47.63200977215064
54.5828681024167
61.63765447614447
68.77245379144196
75.97499485153432
83.23975003076691
90.56529988810883
97.95283934417611
105.40529115903512
112.92675831014554
120.52217357861068
128.19706817035825
135.95741452551374
143.8095166831253
151.75993189256752
159.8154132094205
167.98286646048675
176.26931722157894
184.68188488549362
193.22776182788672
201.91419629514408
210.74847805475267
219.73792613498824
228.88987818117792
238.2116810984548
149.9229335205642
140.6144056018765
131.48312238810593
122.52338448264047
113.73003425953934
105.09863266919984
96.62572215505541
88.30922732204176
80.149082909908
72.1482503255652
64.31442548695605
56.663033071296596
49.222735269282666
42.046111488570155
35.23143634963616
28.968361441337365
23.627830011972566
19.875537479834023
18.554044443444614
20.041502265472232
23.830874894871954
29.04771159543326
35.048237867232295
41.48277963874135
48.173583532704725
55.02851656231314
61.99828220810831
69.0560995912558
76.18771217812562
83.38621039361243
90.64920274163177
97.9771932313273
105.37260963935765
112.8391989068539
120.38163799829387
128.00527570850042
135.71595654639896
143.51989748327247
151.4235995804786
159.43378312780197
167.55733893497683
175.80129091466102
184.1727666849574
192.6789739545725
201.3271811412543
210.12470113956508
219.07887747480197
228.19707230464022
237.4866558902266
149.1349908832196
139.86338535715615
130.77142386664258
121.85367568069127
113.1053267910771
104.52238335748767
96.1019736080418
87.84280668892072
79.74588933995136
71.81568069770971
64.0620203141903
56.503478646373836
49.17344188854983
42.13167729358034
35.48717796173641
29.44353925921652
24.379588060746947
20.926594175108615
19.814490040754393
21.324696487936095
24.991424251539872
30.042262523840236
35.88653655061828
42.18573473365373
48.75992978990208
55.512734578391985
62.391214020245854
69.36588935812696
76.42057625316178
83.54699564786819
90.74177922447066
98.00472995422295
105.33777011482809
112.74428164748538
120.22867889599503
127.79612363138295
135.45232980856053
143.2034264179247
151.0558588385705
159.0163162457182
167.0916769823445
175.28896652921816
183.61532445005216
192.07797782699092
200.68421946016815
209.4413896198424
218.35686049523324
227.4380227337518
236.69227364238952
148.27896117988303
139.04749546202885
129.99830549815323
121.12625826746242
112.42691975918537
103.89678739320989
95.53363413604228
87.33702997855903
79.30915330902636
71.45609162007946
63.78999791322067
56.332801028867124
49.12284669122462
42.22724300473759
35.76539371728103
29.95298211711217
25.17150764878476
22.012168714615708
21.10068748240525
22.637470684754607
26.19388792072705
31.086590676612964
36.775754220543405
42.936707928100255
49.389496510842804
56.03459321899351
62.81594324097262
69.70160252336998
76.67355979982383
83.72220748112215
90.84321452587078
98.03568547155744
105.30103537538245
112.64227844587398
120.06356413441267
127.56986596110275
135.16676730071663
142.8603102934144
150.6568867906697
158.5631578657064
166.58599309267632
174.73242373697752
183.00960588714486
191.42479079707618
199.98530053518346
208.69850760052617
217.57181755605544
226.61265400365428
235.8284454217841
147.35495966908192
138.16685227930307
129.16389123582934
120.34127183201483
111.69497819546228
103.22204700359464
94.92095696315192
86.79221712262749
78.83927833916111
71.069986109568
63.498970301763265
56.15171141819494
49.07170104732795
42.33342634768158
36.066155808711535
30.495456944868184
26.00038684098266
23.12796816965222
22.408549190335066
23.9752440328105
27.43293966044264
32.17590802919451
37.71230869557696
43.73325318703606
50.060704158112664
56.593130521195015
63.271938650289094
70.06300594143343
76.94663435894407
83.9119558369406
90.95370927997357
98.07031625013784
105.26269191997969
112.5334865542447
119.8865872478049
127.32678167462186
134.8595254155908
142.49077712275326
150.22687908705075
158.07446879691423
166.0404120296044
174.1317511491841
182.35566430746343
190.71943257649383
199.23041293510457
207.89601564228747
216.7236849539908
225.72088243887367
234.89507236250807
146.36311393928554
137.22158435961552
128.26831783678884
119.4988703262038
110.90968419450677
102.4983855212489
94.2642219790051
86.20872188704139
78.33671044598695
70.65791925229036
63.18961055627743
55.960987249296046
49.020818102732946
42.4508857521144
36.38954618221849
31.069774759332343
26.863339374990662
24.27040244247487
23.734847567753008
25.334330065796603
28.704037481013053
33.30588306432231
38.692800297026245
44.5729665592864
50.77196118609099
57.187359667887236
63.758648183232495
70.44985518739416
77.23977045121039
84.11635866292688
91.07347928185283
98.1088991312931
105.22305004134786
112.41822887051798
119.69806794230419
127.06717535149289
134.53088469367003
142.0950769142462
149.7660506903306
157.55042609611758
165.4550714906788
173.48704686724278
181.653559045593
189.9619255070475
198.41954462665515
207.03387071176127
215.8123927119326
224.76261578753582
233.892045155651
145.30356461015242
136.2118330930673
127.31173553087469
118.59922283376265
110.07123788144624
101.72604865859505
93.56373742742547
85.58693405684446
77.80194083052884
70.22050126024168
62.86265581413873
55.76147431883504
48.9710729378427
42.580318435279
36.73565692347476
31.674799855188507
27.75777705006893
25.43646563786346
25.077018007788734
26.711746675791307
30.00330979269142
34.47261887741376
39.714028611868
45.453506282839655
51.521677918431685
57.816276727362464
64.27550255145489
70.86189583375032
77.55293770022551
84.33554159598549
91.20275513177168
98.15173113191
105.18244386236576
112.29685421972093
119.49835259416956
126.79137784172786
134.18115060582036
141.67348251315767
149.27463672374813
156.99122387573067
164.83012283485837
172.79841909660053
180.90335593394545
189.15229487699003
197.5526831206837
206.11202615213523
214.8378643743095
223.73775284735012
232.81924351679012
144.17646607798403
135.13775340334794
126.29430874010572
117.64251441015828
109.17985848416492
100.90530593544378
92.81984180906564
84.92728190137532
77.235508907474
69.75840088304597
62.51891057376679
55.554089049000474
48.92340265725617
42.72245839174569
37.10459057276744
32.309456394300945
28.681388443925798
26.62363751952965
26.433010584361398
28.105068990956287
31.3274548658097
35.67262394784515
40.773000936289954
46.37260852780442
52.3082787246531
58.47886786463418
64.82191873498641
71.29886468557802
77.88610490534009
84.56963757481374
91.34178179586088
98.19912916640551
105.14123130969546
112.16973759580415
119.2878147339704
126.49974694413623
133.81065436778147
141.2262904923408
148.75289338049237
156.39707417975342
164.16573187993617
172.0659868281765
180.105127838566
188.29056928938542
196.6298156588361
205.13043168091158
213.80001681527773
222.64618308971396
231.67653563702098
142.9819873028746
133.99951448269644
125.21621684918652
116.62894699746144
108.23578552021847
100.03645227697999
92.03290602347344
84.230234952415
76.63800570601167
69.27234920596372
62.159250307047124
55.33982087967262
48.878806394905865
42.87807430557001
37.4964603826678
32.972732815677645
29.632116239673017
27.82980225924464
27.80117815675149
29.51231554063947
32.67365396530202
36.90277935300325
41.86693424282301
47.32809919481739
53.13021248282973
59.174115957780984
65.39730330199092
71.76049095356798
78.2392400526604
84.81878636878722
91.49081807014835
98.25142967443091
105.09979400860124
112.03728034829224
119.0668555027938
126.1926680838557
133.41975377836803
140.75382208673
148.2010988918882
155.7682079281497
163.4620797726708
171.2898805919035
179.25895526228015
187.3767810895926
195.65092944825787
204.08903342251136
212.69876006729203
221.48778628910878
230.46377762428
141.7203126347542
132.7973005656625
124.07765502749547
115.55874041919596
107.23928011009883
99.11980980241931
91.20333578037085
83.49630713333197
76.01007768432936
68.76314386836367
61.784625398267025
55.11973477738033
48.83834521915513
43.047967403579555
37.911390537535155
33.66368448476584
30.608134639893922
29.053181728385972
29.180191601525927
30.93186003938851
34.039497353227645
38.160305014087
42.9932522947635
48.3179022486505
53.98596137088634
59.901006574754966
66.00105552014242
72.24649734519153
78.61231025210307
85.08313401155118
91.650135933848
98.30898813773263
105.05853708106929
111.8999102962103
118.8359040647328
125.87055497605024
133.00883407156914
140.25642416532838
147.61955455141796
155.10487592972856
162.71936393443042
170.4702432874421
178.3649270218567
186.41096685947818
194.61601195251106
202.987773984259
211.5339971786621
220.2624321662143
229.1808129429628
140.39164267472432
131.5313117394305
122.87883510362062
114.43213346147007
106.19062643070637
98.15572982813644
90.331574314876
82.72606028312597
75.35243100451012
68.231653740078
61.396065423055624
54.89497384662264
48.803141922753156
43.23296927176826
38.349516360243214
34.38143497354398
31.607827774940024
30.2922808583358
30.568975269456548
32.362362825200094
35.422921834613234
39.44272666447635
44.14957927855416
49.34004508593266
54.87404807066419
60.65853328596733
66.63257022923811
72.75660105505196
79.00528158784878
85.3628321268581
91.82001977670427
98.37217846804478
105.01788882752808
111.75808174972866
118.5954179577086
125.53385026057049
132.5783087708781
139.73447023294972
147.0085857907225
154.4073499631561
161.93779908489736
169.60723109702332
177.42314100607757
185.3931679867353
193.5250512481117
201.82659258564803
210.30562411001569
218.96998005445926
227.82747186113238
138.9961951675954
130.2017647880685
121.61998649343819
113.24938504794449
105.09013332605187
97.14459511383959
89.4181054475685
81.92010812622348
74.66583632075472
67.67882409635408
60.994683779675384
54.66676202569358
48.77438068298886
43.43393965960369
38.810984536271086
35.12517632196383
32.629769623804776
31.54584294440837
31.966657579090427
33.80271738108028
36.82215836443228
40.74784457717305
45.333731071424126
50.392661424268056
55.79304149821617
61.44570230533046
67.29124045049349
73.29051463641277
79.41811886914516
85.658037133374
92.00076548409427
98.44139224645802
104.97830027055561
111.6122754176193
118.34588336223244
125.18302609018642
132.12862053229549
139.18836145229187
146.36854330232578
153.67592392479466
161.11761834610977
168.70101448566453
176.4337050222431
184.3234313185537
192.37803645703772
200.60542525183303
209.0135296809088
217.61027860117525
226.40357091613586
137.53420592103714
128.8088940679159
120.30135718330823
112.0107755177232
103.93813609515242
96.08682238546038
88.46345703745595
81.07912074686085
73.95113414056672
67.10568233500871
60.581682682810325
54.436406845223644
48.753306578276984
43.65176429987988
39.29595338886783
35.89416858395031
33.67270570854489
32.812813113716416
33.372533005012166
35.25200846344643
38.23568826728287
42.07370462839193
46.54370502900475
51.47399216846681
56.74156119220874
62.26153646646422
67.97645971297753
73.8479467366724
79.85078526786806
85.9689093142886
92.19267936232731
98.51703779295013
104.94024453680917
111.46299817621758
118.08781526517596
124.81858465235
131.66024195995686
138.61852767491015
145.69980420241697
152.91091504129787
160.25907442881825
167.75177929411012
175.39673773920603
183.20180990977838
191.17495826673928
199.32420508375947
207.65759557936084
216.1831655160755
224.9089124110796
136.0059297459146
127.35295241101254
118.92321477072589
110.71660801746826
102.73499848115819
94.98286517472062
87.46820488427056
80.20382963623287
73.20924082630023
66.51334428238079
60.15835852723497
54.205302223662954
48.74122494933596
43.88735277525704
39.804593242198294
36.687738913736105
34.73553665812139
34.09230848920549
34.78603270546565
36.70947920139009
39.66220674729412
43.418571962500046
47.77766897428906
52.58238466517566
57.718280501261006
63.105078552136234
68.68762408257557
74.42860268046614
80.3032418288291
86.29561173682511
92.39607688564269
98.59953904336362
104.90421605134134
111.31078267302506
117.82175749281767
124.4410586017
131.1736763758651
138.02542846759803
145.00277322542763
152.112665143675
159.36244090243144
166.75972792980414
174.31236973551094
182.02836387657692
189.9158095504152
197.9828626187758
206.23769644868165
214.6884673816195
223.3432839565761
134.41164141161852
125.83421205316355
117.48584756539775
109.3672100215771
101.48111489097784
93.83321702313808
86.43297714618481
79.29503339071401
72.44115531228537
65.90302113671157
59.72610762429561
53.97493126881697
48.73950059488944
44.141636465684684
40.33708691146549
37.505280403941605
35.8173036360422
35.383593851135934
36.206701753707634
38.174505167411866
41.10059252517243
44.78090731804686
49.03394989871598
53.7162907072132
58.72192871285946
63.97539400359746
69.42413388314391
75.03218488499843
80.77544683843121
86.63830900591658
92.6112812451553
98.68933420934104
104.87072951620902
111.15618673532128
117.54828258428942
124.05101137729228
130.66945852211967
137.40955411795863
144.27788393998406
151.28154199813798
158.42801354919203
165.72508066111334
173.18074466156347
180.8031613674328
188.6005861015051
196.5813262971226
204.7537000678656
213.12599954188912
221.70645807435383
132.75163660933725
124.2529655830918
115.98956575500111
107.96293499754856
100.17691288055512
92.63841510748328
85.35845935134722
78.3536041521192
71.64796662167542
65.27602709917213
59.28643230853008
53.74686904949846
48.7495567947102
44.41556661393926
40.89363035988468
38.34625084671458
36.91717556605302
36.686061822524124
37.63418146239832
39.64657390114033
42.54988260527265
46.15934594629531
50.31102274698661
54.8742635974302
59.751292262684466
64.87157304218476
70.18539510272484
75.65839309266983
81.26735503661907
86.99716583537739
92.83862167883845
98.7868741952168
104.84031864319016
110.99979255137846
117.2679914733497
123.64903737518732
130.14815517083753
136.77142660014445
143.52559997361524
150.41794068755388
157.45611180231012
164.64807701972296
172.00202052520717
179.52627966440903
187.22928749792362
195.11952305154676
203.20546764382632
211.49556608872817
219.99819188159273
131.0262329153951
122.60952690892663
114.43470264123553
106.50416423761061
98.82285594831521
91.39904435459944
84.24540009511156
77.38049489476667
70.83086227675696
64.63378774348324
58.84094740459834
53.52278529570657
48.772874156137156
44.710112549567924
41.47443356234837
39.210171554742836
38.03443805796011
37.99921679098631
39.06819567398078
41.12526872902939
44.00925133028761
47.552678977888014
51.607499547028134
56.05495453241008
60.80521515529808
65.79273223927066
70.97082048076693
76.30692440682469
81.77891665668433
87.372345419197
93.07843156076558
98.89262074437946
104.81353460805384
110.84220558891856
116.98151294295798
123.2357619433149
129.610365613378
136.11160047849796
142.7464162308018
149.52228503514792
156.44708026654098
163.52897731581993
170.7763711104263
178.19780642847297
185.80191811293184
193.59737903914768
201.59285423600147
209.79695996649744
218.218226877661
129.2357707457489
120.90423223835738
112.82161595373458
104.9913088826826
97.41944668852759
90.11574212712836
83.09461753123023
76.37674767950514
69.99113770556401
63.97784917355905
58.39138703505765
53.30444697975578
48.81098928424969
45.02626011447795
42.07972161541824
40.09662635053109
39.16848392104113
39.32266193065103
40.508540170479804
42.61025599430515
45.47799301896367
48.959837053169586
52.92211906043866
57.2571085204002
61.88259871683083
66.7380155724793
71.77983027443736
76.9774731168619
82.31007627699566
87.76400758481509
93.33104622670265
99.00704428602634
104.79094419168896
110.68405321238464
116.68950281335341
122.81184116144323
129.05672199622515
135.43066372290758
141.94086008582045
148.59502905985644
155.4012903182247
162.36806427003745
169.5039875391505
176.81784110366792
184.31848829111578
192.01482053660433
199.9157093362674
208.0299632194275
216.36628885783477
127.38061429177296
119.13744106891998
111.15068925195506
103.42481217107415
95.96723036743185
88.78920357792889
81.90700678525378
75.34350301350733
69.13020675761554
63.30988801541185
57.93961173774018
53.093720724610314
48.86549328079059
45.36501033587974
42.70973613138281
41.005260808284135
40.31880514886795
40.656088811204185
41.9550745644447
44.10127501755028
46.95550760228812
50.379876015520395
54.25373706309426
58.47956000659225
62.98240078801922
67.70659500576068
72.61185270341485
77.66973029908837
82.86077146802866
88.17230670933641
93.59680051218228
99.13062145184567
104.77312757115973
110.52598295761578
116.39264282069925
122.37796136488484
128.48788946668628
134.72923840580643
141.10949252841823
147.63665845004562
154.31914178011908
161.1656447654011
168.18507998619094
175.38649649581055
182.77901570960455
190.37177502214007
198.17387762973476
206.19434740862903
214.44208798188725
125.46115242634882
117.30953718519343
109.42233342849666
101.80515195232458
94.46679899891802
87.42018779062693
80.68354844093064
74.28201047456633
68.24961345102543
62.631722283488
57.487615847177416
52.89257497979979
48.938030082574485
45.72737839474752
43.36473695244946
41.935781813985386
41.48498626247517
41.99926918009964
43.40771618588705
45.598130262545155
48.44128877362654
51.811964464956034
55.60131731632097
59.72122834252328
64.1036344529257
68.69767062962924
73.46632407358057
78.38338318001253
83.43093121767437
88.59738937891211
93.87602597819856
99.26383223074299
104.76067572165562
110.36866041946087
116.09163913926551
121.93483836584883
127.90456608662048
134.00798124597097
140.25290923620327
146.647692039102
153.2010646641242
159.92205172131443
166.81987955733123
173.90390054240632
181.18352694638764
188.66817246997624
196.3671999649779
204.28987422914716
212.44531902912047
123.47779956815467
115.42092966036932
107.6369883315719
100.13284351644626
92.91879601366749
86.00952484802767
79.42531827801555
73.19364078130926
67.35104508146209
61.945323151706944
57.03753507694424
52.703081899463044
49.03029465673218
46.11439293998521
44.045004218856356
42.88795749448247
42.666698905860244
43.35204858388289
44.86643559467347
47.1006853002907
49.93491425365871
53.25537297725835
56.963923252962694
60.98111320539197
65.24536638593416
69.71047039557044
74.34268858001504
79.11811424810418
84.02047411659176
89.0393917705486
94.1690477990496
99.40715672892512
104.75418738865427
110.21276670494973
115.78722049618274
121.48321632173779
127.30748246736992
133.2675839592437
139.37174154307695
145.62868326263526
152.04752097232836
158.63764609026376
165.40864034040305
172.3701982912393
179.53205927932927
186.90394688555358
194.4955145652969
202.31629636094976
210.37566187535623
121.43099649105643
113.47205386085581
105.79512452988867
98.40844280133953
91.32392163672688
84.5581239989263
78.13349847177646
72.07989951580696
66.43634682989423
61.2528276446793
56.59165421910551
52.52741885169093
49.14403107699247
46.52709579942655
44.750840821281905
43.8616175540421
43.86369759637064
44.71434155905035
46.331253433864816
48.608858253353475
51.436037840037685
54.7094648058429
58.34071037623548
62.25829004624745
66.40671488635145
70.74424947508624
75.24039778967955
79.87360010032933
84.62930628532565
89.4984367352361
94.476181286097
99.56107150132081
104.75426558755514
110.0589954018269
115.48013582394518
121.02386619469844
126.69740107347815
132.50877337069656
138.46665726789905
144.58022157285802
150.85900654392114
157.31281897627323
163.9516416386416
170.7855541058073
177.8246627412822
185.07903811242397
192.55865851600095
200.2733585918433
208.2327822319767
119.32121106432936
111.46337245417931
103.89724525049532
96.63255005711967
89.68293911517566
83.06698312982834
76.80939050243525
70.94244273211638
65.50753800939923
60.55655224366397
56.152414852916294
52.367869485022325
49.28103051419011
46.96654214040298
45.482575265699346
44.85665404837896
45.07581654210942
46.08612817398622
47.80223840371447
50.12261847101708
52.944382968946414
56.17368789805836
59.73091935049084
63.551905623592226
67.58684765772956
71.79828926989299
76.15890980313128
80.64951000890937
85.25731902376151
89.97463056021078
94.79772802043722
99.72604541964714
104.76151358679934
109.90804900968524
115.17115139179585
120.55758374156446
126.0751151368687
131.73231123673887
137.538361362027
143.50293378091152
149.63605293170014
155.9479938717192
162.44919039490895
169.15015411645663
176.06140245846464
183.19339394453814
190.55646956638267
198.16079925451683
206.01633269182682
117.14893890841145
109.39537642283206
101.94388852962378
94.80581406617826
87.99668197021519
81.53719979128839
75.4544300670915
69.78309471327131
64.56683009021447
59.85900737367595
55.72242292709356
52.22682427489764
49.44312918245551
47.433801132200614
46.24056497516966
45.87302261891817
46.3029674481685
47.46745174533088
49.27950618535907
51.64198423866716
54.459737563166
57.6475680735748
61.13386975059592
64.86117366048146
68.78497937756869
72.87189609542696
77.09768809319917
81.44550419260955
85.90438616221849
90.46805938734948
95.13397156728067
99.90253504219832
104.77653032944424
109.7606347786816
114.86104735351566
120.08518696839015
125.44144711722957
130.9389937191342
136.58759632785268
142.3974852922791
148.3792292877621
154.54362900653223
160.90162381423514
167.46420893647337
174.24236130121838
181.24697258076557
188.48878828895286
195.97835202454752
203.72595413208649
114.91470394998466
107.26858609021542
99.9356296287003
92.92893704334116
86.2660624891783
79.96998408136342
74.07020433803281
68.60386816854432
63.616646633476655
59.16291270044284
55.304456049551526
52.10678047324463
49.63220629256203
47.92995716237331
47.02520004996062
46.91074420479366
47.545138242524345
48.85841758517461
50.76321917990622
53.1670213642147
55.98194997825715
59.13070322631707
62.54895442706793
66.1853706470105
70.00036909169948
73.96439955480584
78.05620001708529
82.26123177647739
86.57036109320549
90.97878526423486
95.485172744241
100.090979449879
104.79990524741868
109.61745989915036
114.55061364586672
119.60751297880303
124.79724663808281
130.12965044599468
135.61514235368486
141.26458119434963
147.08914423304242
153.10021980050354
159.30931219061145
165.72795666260433
172.36764287790172
179.23974546135307
186.35546064261848
193.72574813133588
201.36127753013798
112.61905885946119
105.083552169639
97.87308378362381
91.00268037308757
84.49208172464971
78.36667375348912
72.65847197125781
67.40698719185455
62.65964524594827
58.47121311724778
54.90147028488489
52.01034138757582
49.850182074498036
48.45611165774065
47.83690750443282
47.96990724577681
48.80239266013554
50.25919266129709
52.25358695645431
54.69784251536104
57.51092588935284
60.62275842530116
63.975634438495184
67.52383179723793
71.23231745775306
75.07515061527437
79.0339149958386
83.0963284220782
87.2550734611986
91.50684180359909
95.85156441591681
100.29179451351958
104.83221242262543
109.47922598412256
114.24064516908108
119.12541414080282
124.14338782171947
129.30514308753212
134.621817102871
140.1049671482709
145.76644767964706
151.61830140539604
157.67266194194173
163.94166617930875
170.43737490429558
177.17170052927918
184.15634099089624
191.4027190393083
198.92192625462607
110.26258535347142
102.840856853886
95.75690937627027
89.027871382667
82.67584133251724
76.72875199443006
71.22118633702823
66.19491332780754
61.698741636167206
57.787095240711494
54.51660622485217
51.94021492263362
50.099015941831766
49.013385558417895
48.67615599600557
49.05067038642684
50.07487063170624
51.67000607428625
53.750867323945656
56.234607204824954
59.04662598557158
62.12346180184217
65.41343449877081
68.87594715835198
72.48016385246159
76.20351939387974
80.03030235275784
83.9504136089729
87.95832548683173
92.05222942609232
96.233345786905
100.50536655784683
104.87400404940496
109.34662278623286
113.93193617846103
118.63975349218713
123.48076594004164
128.4663633669569
133.6084750870284
138.91943002959263
144.41183256858557
150.09845131898723
155.99211885448761
162.1056407857285
168.451712982604
175.04284596279751
181.89129563097896
189.00899966247397
196.40751890066574
107.84589434487646
100.54111497192231
93.58781164436644
87.00541140360394
80.81855766243498
75.05786841375716
69.76052252128092
64.9703751108813
60.737135802030124
57.11400415885089
54.15319406203341
51.89921132982242
50.38070488192865
49.60292249066449
49.543461058829365
50.153265688976134
51.362789429502584
53.0911502713769
55.25536795730231
57.7775223380735
60.58906435781953
63.632601120372385
66.86193888360623
70.24115786027117
73.74328334849127
77.34889265336163
81.04482879929574
84.82308754646849
88.67988790066691
92.61491016073393
96.63067616569555
100.73204538862306
104.92580315417328
109.22032109092919
113.62527381499068
118.15139930154348
122.81029329272806
127.61423041928622
132.57600654472978
137.70879825379896
143.02603647805617
148.54129204753795
154.26817153480116
160.22022216329535
166.41084482529033
172.8532144286406
179.5602068943213
186.54433218170018
193.81767274557097
105.36962592348546
98.18497525173467
91.3665470815522
84.93628544331591
78.92157861709572
73.35586390231113
68.27890873176085
63.73640145049018
59.77834030551321
56.45566008374982
53.81475736369708
51.89024012721089
50.69728216702947
50.225892680288695
50.43939085204752
51.27800236016796
52.66644552760543
54.52298292935324
56.767448519413186
59.32684325087868
62.1383074807589
65.15002093863286
68.32078773861642
71.61895248544725
75.02108355822182
78.51067100378751
82.07695555386859
85.71392769263261
89.41949546035904
93.19480197704456
97.04366817268576
100.97213665106091
104.98809552993649
109.10096472928772
113.32143070260527
117.66121869895537
122.13289421870581
126.74968740334171
131.52533573820642
136.47394171380893
141.60984304933785
146.94749378681072
152.50135506311085
158.285794700502
164.3149949601039
170.60286790861093
177.1629778844582
184.00847054066526
191.1520079093264
102.83444915206651
95.77312174502157
89.09392872658191
82.82157387848848
76.98640392699971
71.62480015714566
66.77906283363829
62.49635922231592
58.826210484941946
55.816074454545806
53.50501521542505
51.916306177430755
51.05081649220288
50.88349764431435
51.364572430353896
52.42527099546861
53.98621713846754
55.9659294489032
58.28752322897205
60.88287517328447
63.69447370068383
66.67562026922909
69.78967372908741
73.0088635309576
76.31300133355673
79.68826579946428
83.12613507538747
86.62248485532164
90.17684202346499
93.79177262193753
97.47238036590417
101.22589348962828
105.06132084639583
108.98916165641995
113.02115654078459
117.17007028905473
121.44949914258687
125.87369726526263
130.45741857176517
135.215771246862
140.1640831682219
145.3177770843867
150.69225483722667
156.30279018927064
162.16442995331929
168.29190315549414
174.69953792313788
181.40118570342918
188.41015231244558
100.24106166485572
93.30627549233645
86.77083260316465
80.6624666987737
75.01470965245849
69.8669948388361
65.26403483259487
61.25399538431351
57.88497631153949
55.19956491493191
53.227882385404776
51.98050494258415
51.443411655962066
51.57697569333622
52.31969854218789
53.59554834195079
55.32256739032472
57.42048600921565
59.8160638290492
62.445975062510826
65.25773314895491
68.20935065934484
71.26833896956805
74.41046392810824
77.6184993031286
80.88109571444116
84.19180738919648
87.54827884751589
90.95157514692708
94.40563293455861
97.91680925960154
101.493507482248
105.14586290008906
108.8854740452205
112.72516862388679
116.67879565956581
120.76103755491572
124.98723754551887
129.3732394266141
133.93523753796634
138.68963582988567
143.65291543751658
148.84151059005174
154.271692904414
159.9594641884434
165.92045783734247
172.16984878126198
178.72227176391024
185.59174753290563
97.59018906034721
90.78519653857573
84.39820565501887
78.46028098217467
73.00837793364403
68.0850635268248
63.73725621107545
60.01348384950488
56.959275406286224
54.61076845645451
52.98746715618346
52.08601697523862
51.87720690853641
52.30760827211701
53.30553495931094
54.78940257924364
56.676048112044825
58.88722313622515
61.353602913722106
64.0165537503373
66.8283080055183
69.75121460786383
72.75657216833646
75.8233635774815
78.93706222040026
82.0885829740239
85.27339597941254
88.49079366693674
91.74329018280226
95.03612961180154
98.3768807120024
101.7750988251498
105.24203897420239
108.79040735113306
112.43414122339891
116.188209700381
120.06842982337055
124.09129411607695
128.27380709839167
132.63332935678645
137.1874286044032
141.95373777121728
146.9498205567558
152.19304507394585
157.70046623732782
163.48871743197114
169.5739117766728
175.97155300535104
182.69645567344344
94.88258408708879
88.21068645132851
81.97707563226751
76.21648248447765
70.96953327480233
66.28196987258895
62.202597093485224
58.77947719886241
56.05418648795545
54.0546518802863
52.78806648656929
52.23610175249824
52.3543780999718
53.076727160512846
54.32292833967372
56.00749911556605
58.04730419255835
60.36678974012921
62.90073757082972
65.59507835152746
68.40647303935242
71.301264240045
74.25420591866158
77.24720585067526
80.26819308841446
83.31014921315216
86.37030321705177
89.44947216703162
92.55152383835399
95.68293739746733
98.85244066091626
102.0707057493265
105.35008828426973
108.70439831099787
112.1486937760184
115.69908965272855
119.37257773283005
123.18685373071996
127.16014971592949
131.31107101413306
135.65843760840664
140.22113073060495
145.01794575937348
150.06745274310833
155.38786585951215
160.99692293600455
166.91177582638846
173.14889201590682
179.72396736065434
92.11902563167035
85.58359155335569
79.50856353578375
73.93271249018761
68.90058698452944
64.46108561919361
60.664432249356764
57.55716308231222
55.17526221784368
53.536518596099086
52.634158208393316
52.43409101506111
52.8771397649379
53.8857225509601
55.37281462376055
57.250606893564665
59.43707848208912
61.85991757860656
64.45813329760333
67.18207487875738
69.9925563530386
72.85960015914459
75.76111406456748
78.68166400289299
81.6114090191308
84.545210925735
87.48190528857124
90.42371018372765
93.37574716760275
96.34565066847027
99.34324518828289
102.38027315452092
105.47015949345985
108.62780184825644
111.86937782987218
115.21216281541908
118.67435365582776
122.27489527016186
126.03330851344687
129.9695189141889
134.10368687646934
138.45604070970697
143.04671436708026
147.8955920289988
153.0221616637335
158.44537945495694
164.18354654647737
170.25419897488422
176.67401100819202
89.30031753385255
82.90480716185233
76.99389943036957
71.61082142379045
66.80429181803407
62.6262624544119
59.12771690936215
56.35232480396269
54.32856003834979
53.062010661675785
52.53039003840585
52.68338183508999
53.447748284303906
54.73605201440089
56.456227963613216
58.51960519759276
60.846217200473674
63.36742610033539
66.02652814211699
68.77813100566286
71.58694025610075
74.42637039140516
77.27720906340309
80.12643743273728
82.96623677711132
85.79317446254225
88.60754658514679
91.41285007979313
94.21535796045161
97.02377439246047
99.84894989811016
102.7036404529043
105.60229729056323
108.56087686871015
111.59666271367657
114.72809284587359
117.97458826162419
121.35637956483131
124.89433032393114
128.60975706928772
132.52424701346322
136.65947552620298
141.0370260794266
145.6782157552815
150.60392946264
155.83446574244766
161.38939649837005
167.2874422329755
173.5463634877041
86.42728727679592
80.17528324020628
74.43444271717766
69.25291118777228
64.6838093993593
60.78191797935606
57.59807322358816
55.171405085887976
53.52066917695464
52.63710489093759
52.48156529956295
52.987429702045056
54.06850626310724
55.62925036140957
57.574310181858515
59.81549095060685
62.27567581524349
64.8902276203057
67.6067370186911
70.38389891464065
73.19006218748545
76.00176933622868
78.80243926134125
81.58124771784517
84.3322079491505
87.05343052802839
89.74653350783022
92.41617366587637
95.06967249489243
97.71671443270424
100.3690985964128
103.04052862230739
105.74642803519602
108.50377094527977
111.33091990919092
114.24746460815877
117.2740566829884
120.43223768331238
123.74425865970608
127.23289143601947
130.92123299689803
134.83250563776116
138.9898564673444
143.41616044766562
148.13383134771615
153.1646447575365
158.52957668574487
164.24866031881635
170.34086236314133
83.5007846341602
77.39603202708832
71.83170834128319
66.86138881834462
62.542793663372834
58.93313837676586
56.081887870372064
54.02157131667008
52.75873152168821
52.26810184717268
52.492625402797
53.34974198195172
54.74176826148674
56.56694040166455
58.72832075704032
61.13938648503991
63.726525348215105
66.42933277353973
69.19965613827704
72.00009815852053
74.80241560108537
77.58603662697297
80.33678599007115
83.04583434575312
85.70885367240442
88.32534811922207
90.89812763903443
93.43289445507989
95.93791661783553
98.42376717846352
100.90311126703494
103.39052647770745
105.90234448763871
108.4565039069586
111.0724061264473
113.77076753913079
116.57346307528714
119.50335758375388
122.58412324791684
125.84004292576611
129.29580098680182
132.97626478137278
136.90626119293398
141.11035366019644
145.61262550587537
150.43647530922803
155.60442941119302
161.1379755134574
167.0574198568896
80.52168040559643
74.56813843329024
69.18740094624279
64.43903488586359
60.38549436846823
57.08580059956122
54.586420739614915
52.910779683076626
52.050453602291796
51.961606623548775
52.568629341934646
53.773872169615004
55.469948009442575
57.55084460188774
59.91964732976826
62.49254776691883
65.19995906343615
67.98585618631685
70.80626748531024
73.62751845547034
76.42455071943272
79.17945579944795
81.880260384233
84.51995005022954
87.09569884483288
89.60826784271326
92.06153822613564
94.46214920607648
96.81921612106686
99.14410848286948
101.4502713441247
103.75307618030021
106.06968965586542
108.41895036696786
110.82124510434022
113.29837752753055
115.87342352350747
118.57056904057889
121.4149278952117
124.43233894017563
127.64914399059558
131.0919499026567
134.78738001408414
138.761821590318
143.04117679218854
147.65062485634687
152.61440260690165
157.95560914403916
163.69603872950617
77.4908654452071
71.6927743195191
66.50345973872317
61.98909118738002
58.21688570071685
55.24671697584938
53.119923650211426
51.84783443736618
51.404106490167635
51.7245005267259
52.71473069618129
54.26341540972017
56.25552722792558
58.582797640525165
61.14981672245426
63.87637304681674
66.69729948241012
69.56102229537305
72.42764326188006
75.26702232502959
78.05707504935015
80.78235265420057
83.43289980821753
86.00335565258837
88.49225573199631
90.90149453807548
93.23591391837321
95.50298870834666
97.71258638027956
99.87678189458984
102.0097122898106
104.12745801596466
106.24793981018607
108.39082124814345
110.57740818653232
112.83053733026551
115.17444728034259
117.63462678024155
120.23763656807299
123.01090328379944
125.98248622254808
129.18082022762673
132.63444046331148
136.37169692640032
140.42046806453078
144.8078835289918
149.56006575797255
154.70189875775267
160.25683026910093
74.40925029628436
68.77121823628543
63.78211788822437
59.51537377901897
56.04282610649287
53.423804887208114
51.691766572135386
50.84243717920555
50.82851014562366
51.5639031534025
52.936152907297405
54.82200580681395
57.1010661680488
59.66475985623757
62.42050646301742
65.29241190430544
68.2200056633215
71.15617123384601
74.06495020592219
76.91954745852154
79.70065353991795
82.39509318630448
84.99476376891238
87.49581429590592
89.89801687423164
92.20428912887157
94.42033369437755
96.55436776288279
98.61692122859574
100.62068617663925
102.5804034963078
104.51277448969638
106.43638673614548
108.37164439033549
110.34069375485939
112.36733558513285
114.47691635259585
116.69619178850168
119.05315759440211
121.57684431318994
124.29707599271558
127.24419531611997
130.44876107306712
133.9412268553911
137.75161227504634
141.90917943424085
146.44212754099013
151.37731734762409
156.74003460193148
71.27776590874844
65.80488289331653
61.02598180094302
57.02241939605904
53.870256689698266
51.62628337843391
50.31256664736096
49.9052194946586
50.33299870753433
51.48712490746961
53.238163888120816
55.453316072771855
58.009215968455436
60.79883158736635
63.73355679981107
66.74237464404102
69.76968066972503
72.77276468861692
75.71945367377276
78.58610870027913
81.35600824708185
84.01808094150735
86.56592917732915
88.99708494785023
91.31244718804766
93.51585961503466
95.6137969141376
97.61513431244681
99.53098104066896
101.37456211405106
103.16113554418332
104.90793380025491
106.63411931993568
108.36074435457367
110.11070563884141
111.90868452048706
113.78106349528733
115.75581078939987
117.86232591988471
120.131241196246
122.59417696071682
125.28345192506457
128.23175400233964
131.47178114047583
135.03586530047443
138.95559530410287
143.2614553043889
147.98249481255993
153.1460435522033
68.09736616298832
62.795353645799764
58.23813778248888
54.5156759509817
51.70744663142395
49.864896829702786
48.99431228477722
49.04775074815099
49.9273635808624
51.501610751073095
53.62605130058206
56.1610600687261
58.982732918575834
61.98726840052351
65.09098319124665
68.22814199131456
71.34807914009895
74.41239161665936
77.39252135807754
80.26779949581642
83.02391734936619
85.65175363919334
88.14648480561281
90.50691503377023
92.73497514460702
94.83535111347128
96.81521242685733
98.68401767765158
100.45338001016066
102.13697862335094
103.75050486421361
105.31163277994709
106.84000458739806
108.35722157297532
109.88683066187454
111.45429651049879
113.08694872330584
114.81389394317294
116.6658833902041
118.67512817874675
120.87505759623785
123.30001950141407
125.98492690167897
128.96486015903224
132.2746394784238
135.94838653711292
140.01909652000063
144.51824184566573
149.47542629765906
64.86903330475089
59.74444282276431
55.422296752419626
52.001751230958746
49.56429480006179
48.1521626461665
47.75047065294463
48.28251153538577
49.621772079873736
51.614876893685306
54.10510008720773
56.948998783720285
60.02449470274331
63.232497207349766
66.4949892477896
69.7517750223763
72.95711485290137
76.07677368734026
79.0856264886298
81.96579263933424
84.70521333709362
87.29657888278146
89.73652476844747
92.02503204698908
94.1649828970241
96.16183484717679
98.02338666491971
99.75961585971837
101.38257261347309
102.90631819164673
104.34689786969598
105.7223394088628
107.05266834855317
108.35993103249945
109.66821553246598
111.00365967981631
112.3944345097233
113.87069086811319
115.4644570792163
117.20947678862728
119.14097870277656
121.29537412115472
123.70988383752552
126.42210276998495
129.46951779880615
132.88900067635848
136.71630233789233
140.98557645773639
145.7289580884226
61.5937879920157
56.65426707796388
52.58299225523552
49.48873823673909
47.45269637705057
46.50263460553301
46.596062088444164
47.62282270127463
49.426660962369276
51.83444314267267
54.68057402294959
57.820950257109885
61.137518689123844
64.53713326995361
67.94798009651414
71.31552524887302
74.59886816048652
77.76777029229578
80.80035033596175
83.68134012488926
86.40078017095063
88.95304875439395
91.3361408375723
93.55113396715714
95.60179521718527
97.49429597774885
99.23701065481657
100.84038187742925
102.31683926500052
103.68076169088077
104.9484746491368
106.13827504195945
107.27047563536281
108.36746072389201
109.45374334118279
110.55601282326144
111.70315990847936
112.92626516078802
114.25853574534163
115.73517595516898
117.39317888655378
119.27103069421914
121.40832508296518
123.84529385774883
126.62226867968572
129.77909835652508
133.35455337937435
137.3857533574537
141.90765232073693
58.272706606047805
53.52735860797307
49.72585369769187
46.98664074714413
45.38698079403305
44.933165251338934
45.5476796758516
47.08272047858938
49.35260650396077
52.16776466640192
55.357703142360336
58.7808038951579
62.32498231752926
65.90399809566507
69.45257612783313
72.92184475619156
76.27559313963327
79.48738293465196
82.53838380533499
85.41577187309909
88.11154917493768
90.62167306326847
92.94541337554271
95.08487830029411
97.044667091345
98.83162017126288
100.4546458781014
101.92460911524248
103.25427118571804
104.45827263597397
105.5531523381178
106.55739652141554
107.49151116071012
108.3781101361412
109.24200998329431
110.11031997581134
111.01251391709206
111.98046767012856
113.04844457423532
114.25301008113547
115.63285789044343
117.22853326708297
119.08204557191797
121.23637137769663
123.73486123445585
126.62057573995695
129.93558790520592
133.72029642680695
138.0127962862838
54.90695002935699
50.366826881227226
46.85798648068705
44.507928160134846
43.38442068051288
43.46313880358018
44.623427468441164
46.67677087397988
49.41017574164302
52.622167823356804
56.14167887120841
59.832539558939246
63.59024563219552
67.33613822085496
71.01162706981611
74.57339627083633
77.98972427496385
81.23775877275526
84.30152786945165
87.17049306662716
89.8384933936294
92.30297098703265
94.5644006498576
96.62586953546527
98.49276981248313
100.17257878438943
101.67470892093829
103.01041567359167
104.1927545285552
105.23658098359064
106.1585883230357
106.97737838665073
107.71356007328613
108.38986913142556
109.03130089183007
109.66524504481082
110.32160848279582
111.03290887482483
111.83431845721935
112.763635183545
113.8611577661371
115.16944327835783
116.73293180975442
118.59743270643747
120.80948091244426
123.4155884470432
126.46143249879455
129.9910345509856
134.0459909534176
51.497810682105474
47.17659685635718
43.98850474528291
42.068252996885306
41.465797969664756
42.11463026411136
43.84274817834353
46.41982152912119
49.609766914406634
53.20479533739182
57.03765854386684
60.980251717903876
64.93687599929198
68.8368448790883
72.62822631602592
76.2730630006968
79.74388245216994
83.0211930493705
86.09169254223296
88.94697978268778
91.58262010210933
93.99746080921172
96.19312626043191
98.17364479345137
99.94517539694682
101.51581255663078
102.89545485926473
104.09572772994741
105.12995383032406
106.01316660254332
106.76216347041918
107.39559544134272
107.93408933617093
108.40039759634293
108.81956853677542
109.21912699972029
109.62925165172827
110.08293081938811
110.6160741621615
111.26755331467409
112.07914192930119
113.09532566094603
114.36295703794431
115.93074008096971
117.8485453685323
120.16657696933089
122.9344354076725
126.20014108802295
130.00919518193805
48.04678904959425
43.961764944932256
41.12928226070942
39.68736426509518
39.655988835549756
40.91242784222988
43.226113167374166
46.32669718888264
49.9614504805046
53.92256630837796
58.05078072354239
62.22817887638756
66.36867504374823
70.40967453976997
74.30572540580295
78.02395805251219
81.54087999015161
84.84013008418584
87.91089404117686
90.74677255802382
93.3449611094006
95.7056474163733
97.83156438253343
99.72765742197693
101.40083914275688
102.85981369539446
104.11495933857064
105.17826194212405
106.06329489276254
106.78524258819385
107.3609656239332
107.8091059910038
108.1502301169958
108.40700633285388
108.60441122398164
108.76995620563298
108.9339214663279
109.12957918228798
109.3933818767277
109.76508559049557
110.28777223465806
111.00773274010652
111.9741744659803
113.23872489512442
114.85472038942294
116.87629353479763
119.35730269148678
122.35017729668438
125.90477483124151
44.55571878669912
40.72913935036949
38.29601356212401
37.39023817287061
37.98448923075621
39.88383824056727
42.794557266781396
46.411855204479856
50.474824757667406
54.78215624286297
59.18619238566363
63.580738396490034
67.88970783405651
72.05847028744944
76.04774851968412
79.82943317974446
83.38372438058899
86.69716244191295
89.76124971956091
92.5714674591963
95.12656044094113
97.42800717272274
99.47962249287036
101.28725826995279
102.85858013782374
104.20290624469582
105.33109932425909
106.25550695425912
106.9899472349725
107.54973864193309
107.95177366741297
108.21463612749736
108.35876164632813
108.40663972742641
108.38305381123149
108.31535258361674
108.23374132922399
108.17157617888503
108.16563674332919
108.25634429008946
108.48788432313626
108.90818595391623
109.56870841475381
110.52399061269497
111.83093567578197
113.54783037362908
115.7331373319897
118.44414008463485
121.73555729870523
41.026973849160655
37.488074026705426
35.50970948278132
35.208411501520025
36.48574446977122
39.058185553559426
42.569060999760985
46.68902876627245
51.15890152354264
55.790001453269134
60.44908861220604
65.04256676603904
69.50433433537285
73.78738398624559
77.85820680433562
81.69308655002106
85.27562032927581
88.59502780929543
91.64497027146204
94.42270415805686
96.9284589216087
99.16496973800457
101.13712120883207
102.85167435059859
104.31705951903922
105.54322463608176
106.5415325208248
107.32470410159674
107.90680630720487
108.303284794933
108.53104251852697
108.60856550879278
108.55609707749205
108.39586081915616
108.1523310496136
107.85254638390803
107.52645767147385
107.20729514033405
106.93193115874772
106.74120464645443
106.68016163386169
106.798155525055
107.14874326548801
107.7893140568832
108.78040025181764
110.18464930997236
112.06548147119067
114.48551449643598
117.50489212788148
37.463818377026456
34.251777222881024
32.79878020320079
33.18142093355368
35.199073031268824
38.46592724786646
42.56981362858624
47.170895311048085
52.022036277624004
56.95233088550836
61.844765022969256
66.61856529889367
71.21724313647576
75.60089913368418
79.74131227532988
83.61876913812
87.2199696006271
90.53660301779263
93.56434861821928
96.30215042574513
98.75167510676751
100.91689633597731
102.80377082930691
104.41998457964965
105.77475627759969
106.8786903321274
107.74367548603917
108.38282745303297
108.81047571179644
109.0421958216661
109.09488949201527
108.98691516287137
108.73827196669812
108.3708394780277
107.90867435530949
107.37836246613178
106.80942088822285
106.23473775621866
105.69102877858475
105.21927712664525
104.86510864080077
104.67903834341521
104.71651018168916
105.03764484888097
105.70661724842768
106.7906125804647
108.35836195906624
110.47833143737668
113.21671846455267
33.87101401230521
31.039394518129356
30.201858328100716
31.358094339545207
34.1679057141728
38.137360347061424
42.81542806000546
47.8688126875373
53.0719151073996
58.27522686164002
63.37868278476283
68.31395120813099
73.03348743105677
77.50385424968023
81.7015909589748
85.61058924451878
89.22036805045401
92.52489453028112
95.5217447718637
98.21148235688693
100.59718192327466
102.6840539144076
104.47914412014853
105.99109225087402
107.22994040265209
108.20698648933356
108.93468050115752
109.42656338138721
109.69724974184827
109.76245676475914
109.63908255628841
109.34533793559524
108.90093608677
108.32734450188217
107.6481029193113
106.88920909263126
106.07957063313481
105.25151512016365
104.4413413436017
103.6898811943752
103.04302406766259
102.55213448146957
102.27427167363051
102.27210279899313
102.61339778477497
103.37001475395579
104.61633941310365
106.42723123037123
108.8756403261433
30.25591080251752
27.87935362795671
27.771419618366167
29.797180095596737
33.43804392587161
38.10098756644492
43.32221309957546
48.792663524062284
54.315605524441445
59.764714595435656
65.0565457300707
70.13431395774026
74.95852319211224
79.50146656278476
83.74389481880925
87.67291450453135
91.2805990881217
94.5630245663162
97.51956583602407
100.15235951652622
102.4658782839963
104.46658456307391
106.16264483821212
107.56369388723847
108.68064315577256
109.5255305899191
110.11141130047474
110.45228991069195
110.56309662181619
110.45971007793776
110.15903110070786
109.6791123009575
109.03934938950133
108.26074054453488
107.36622016968019
106.3810723557286
105.3334266926425
104.25483387123997
103.18090962870414
102.15202175914979
101.21397505495256
100.4186229608142
99.82430421027689
99.4959731069792
99.50487365894537
99.9276155987167
100.84456101960384
102.33753373709894
104.48701090454749
26.630488150502018
24.814715035217667
25.577938255692313
28.566448865007043
33.05475647229967
38.38174653560752
44.10362571732983
49.95083788010868
55.75967302903799
61.42687889516915
66.88438891075386
72.08567677052874
76.99824941129579
81.59935563780213
85.87341185931086
89.81037057958076
93.40462262856143
96.65421186450132
99.56024014301302
102.12639406212266
104.35855482614437
106.26446947292717
107.85347143518102
109.13624408296481
110.12462427289597
110.83144502041145
111.27041781309735
111.45605615731229
111.40364291646277
111.12924498697666
110.64977993157764
109.98314035782502
109.14838303970781
108.16599089622527
107.05821671093827
105.84951747473275
104.56708678902277
103.24148887574103
101.9073900009803
100.60436973752883
99.3777734962834
98.27953761967565
97.36887925742296
96.71269930994505
96.3855085539771
96.46867371270002
97.04881734072622
98.2153159495056
100.05702746772215
23.015347594390867
21.91149640129072
23.713542588115352
27.739099337774867
33.05886734302669
38.99943132034075
45.17001346782287
51.3503673372052
57.410359607356185
63.268005408482836
68.86867781756493
74.17456313855124
79.15905017357753
83.80356642680458
88.09567359898566
92.0278355024459
95.59655837104833
98.80174586654894
101.64618433287441
104.1351127296721
106.2758527953477
108.07748662789706
109.55057532687047
110.70691593000204
111.55933589913533
112.1215256103739
112.40791012758243
112.43356225727797
112.21415966368919
111.76598976795802
111.10600732155945
110.25195094767636
109.2225265550472
108.03766724764874
106.71888097461441
105.28969831062722
103.77623278393641
102.20786403930396
100.61804825492804
99.0452483783138
97.53395602387798
96.13574419779793
94.91024333758261
93.92587403288863
93.26010747474685
92.99898069732754
93.23560342994635
94.06749818302464
95.5928388919507
19.44784773017603
19.270746609527375
22.292607022484376
27.38646736014392
33.48252459740337
39.967682813563975
46.528712409132126
52.997204240870566
59.273815929683785
65.2947432072832
71.01641750304597
76.40806813262438
81.44783818620213
86.12059100419938
90.41655884281201
94.3304283684377
97.86066196390044
101.00895284850301
103.77976195228192
106.1799103845186
108.21821495241208
109.9051613205074
111.25261305633012
112.2735566041581
112.98188307729137
113.39220818751471
113.51973195471565
113.3801402535386
112.98955088052159
112.36450774425886
111.5220280440205
110.47970893668166
109.25590219462404
107.86996767576554
106.34261891942108
104.69637655140066
102.95614686714356
101.14994297346476
99.30976256508417
97.47262722762305
95.68176939888988
93.98792005387679
92.45059796970867
91.1392277553743
90.13382415805845
89.5248956126744
89.41218459637365
89.90194028650203
91.10266848313185
15.998889174689893
17.04378106332835
21.4443092348451
27.567376929458806
34.34584191031199
41.2938355043657
48.184500588248675
54.89662287041406
61.35637645098561
67.51428547897518
73.3352709291099
78.79393422116274
83.87209916308797
88.55738794883091
92.84229234389124
96.72349071078371
100.20129227109064
103.27915221123173
105.96323188157325
108.26199362022116
110.18582721839618
111.74670847580734
112.95789162247664
113.83363767291092
114.38898063342886
114.63953325616276
114.60133393535233
114.29073650303285
113.72434518696795
112.91899790423858
111.89180242653454
110.66023180788653
109.24228783917465
107.65674418583211
105.92348421260499
104.06395211290365
102.10173941259177
100.06333135685188
97.97903755033855
95.88412582225276
93.82016334158826
91.83653825644394
89.99208065689284
88.35661601465765
87.01216624695742
86.05337939560123
85.5866671829719
85.72754962919836
86.59595557732062
12.804806013629296
15.44609560916017
21.290773632414233
28.317160655004177
35.65564206654077
42.97969346883237
50.14034363509208
57.053708954050215
63.66486617339797
69.93456551541531
75.83368598009582
81.34063115869361
86.43993615600486
91.12139793700857
95.37943650344398
99.21255845314005
102.62286753577312
105.61560076769605
108.19868458466787
110.38231264383305
112.1785495983561
113.60096565840013
114.66430619388208
115.38419968237011
115.77690633516788
115.85910896480195
115.64774721619
115.15989624907196
114.41269138206862
113.42330113168033
112.20895254599715
110.7870147942368
109.17514968682701
107.39154122076158
105.45522039593138
103.38650636951824
101.20759025710093
98.94329292079584
96.62203157123652
94.27702938999872
91.94779310904258
89.68185813378538
87.53674844633518
85.58200572695156
83.90099809501302
82.59202884139128
81.76807471074147
81.55440302323831
82.08352049633379
10.111488089404853
14.7497091901319
21.911282677205733
29.641570623998987
37.40686257253668
45.02306102309353
52.39832868450867
59.47390184528513
66.20692928650985
72.56446594235783
78.52103068784493
84.05743925898327
89.16011249149378
93.82055358098279
98.03487369150011
101.80332177347113
105.1298077210775
108.02142241921734
110.4879638156039
112.54147941425181
114.19583473849414
115.46631552918159
116.36926938435768
116.92179058881578
117.14145024247298
117.0460725951651
116.65355779455523
115.9817510855734
115.04835888439578
113.87091311206223
112.46678675051443
110.853265837835
109.04768613586891
107.06764659039949
104.93131657687142
102.65785986428688
100.26800519612243
97.78480104383357
95.23459947268633
92.64831899297346
90.0630343802979
87.52392472006707
85.08656598324208
82.81946162785182
80.80654116982171
79.14910962675202
77.96642964713388
77.39388515586266
77.57775881203385
8.347227293847123
15.192978431895565
23.312160936687945
31.519340982149373
39.586133849994184
47.419690765153035
54.96067565421735
62.16355891022293
68.99137269435062
75.41404004670154
81.4077362473239
86.9545349827961
92.04209137574676
96.66328084871519
100.8157760453646
104.5015695189858
107.72645968662222
110.49952009105277
112.83257100688549
114.73966970664574
116.23663228453351
117.34059642275315
118.06963124307072
118.44239762758491
118.47786023016523
118.1950508801174
117.61288220972357
116.7500101079495
115.62474400338132
114.25500501544755
112.65833371479022
110.85195166821107
108.85288422242026
106.67815626271046
104.34507817145392
101.87164613366384
99.2770894813254
96.5826079453027
93.81235302584375
90.99471865932814
88.16401322477692
85.36257987728798
82.64340040927951
80.07313421199746
77.73537215883157
75.73358765908003
74.19284080482365
73.2588464519349
73.0928725402524
8.3883884557617
16.809898426981352
25.429508932936287
33.91210303427049
42.176311491142506
50.16529378410539
57.830736355868645
65.1305216006815
72.02852088730023
78.49474496796685
84.50544728783245
90.04307718691072
95.09606941176693
99.65848848230952
103.72955867873526
107.31311395257603
110.41700111396791
113.0524661949988
115.23354911463781
116.97650647202119
118.29927703414334
119.22099964608573
119.76158911864023
119.94137226822866
119.78078374155001
119.30011954044787
118.51934522777435
117.45795559096325
116.1348830239221
114.56845304239977
112.77638719370124
110.7758562283765
108.58358990176396
106.21605437098165
103.68971413446516
101.02140319406689
98.22884002539388
95.3313334067882
92.35074129814575
89.31276209363674
86.24865408978707
83.19748818543931
80.20902590053092
77.34725098568873
74.69441904184892
72.3551577307049
70.45959583650921
69.1637833750957
68.64514772883757
10.609170527120089
19.396091189515573
28.163957758171566
36.77641977633439
45.16074270012183
53.257356675506216
61.01392858259281
68.38467425127749
75.33058210286956
81.81968726733204
87.82717852115488
93.33529152213094
98.33300016256712
102.81554063391329
106.78381106636344
110.24369055969586
113.20531821490462
115.68236720629173
117.69134221625715
119.25092156616756
120.38135873580606
121.10395207596777
121.44058661207899
121.41334800182342
121.04420593902327
120.35476252130302
119.36606022354042
118.09844404519109
116.57147304839458
114.8038778327639
112.81356250982117
110.61765251500591
108.23259327692372
105.67430959484892
102.95844191582928
100.10068404843422
97.11725784576899
94.02557480089837
90.84515307141865
87.59888151813419
84.31474882556343
81.0281809505133
77.7851410761923
74.64611332254417
71.69095557435078
69.02426797278994
66.78025724891387
65.12504363192991
64.25328955368369
14.15104983908386
22.68135032186726
31.418160796604617
40.07327491418718
48.526571458329684
56.69665305518916
64.51859022730228
71.93849742189141
78.91202878312278
85.40388182247173
91.38747620236003
96.84454922647467
101.76460239323168
106.14420637974646
109.98619990268412
113.29882637251613
116.09485123770108
118.3906971972482
120.2056266742213
121.56099266900846
122.4795713144872
122.98498268818747
123.10120096306137
122.85215086224409
122.261384560144
121.35183150820644
120.14561299895679
118.66391346544347
116.92690142539522
114.95369455022282
112.76236556171284
110.3699886023172
107.7927295499172
105.04598873017054
102.14461103999236
99.10318724276053
95.93648197479467
92.66003993580958
89.29104320419509
85.84952104822806
82.360049742906
78.8541218487721
75.37340290259044
71.97410170701917
68.73259480575811
65.75213784912577
63.16975847415306
61.16105686305842
59.93882656806298
18.215993123554405
26.468368241465875
35.11671494294488
43.77349870968332
52.26697073856397
60.48845897091677
68.3567687288222
75.8076262680198
82.78999769606608
89.26452496607052
95.20258166215508
100.58543478971593
105.40334560698322
109.6545777605611
113.34433490919179
116.48366875176646
119.08840063538428
121.17809439065005
122.77510923885218
123.90375205395613
124.58953934990691
124.85857182825201
124.73701845187405
124.25070282176375
123.42478197911231
122.28350641275043
120.85004978460779
119.14639747974294
117.19328437841989
115.01017413737975
112.61527473495204
110.02558814740287
107.25699595471809
104.32438772489289
101.24184566801722
98.02290798567789
94.68094558207542
91.22970378897212
87.68408445810022
84.06127671110599
80.38238953261924
76.67479776370045
72.97548102006553
69.33569262228143
65.82728240339384
62.55076627989163
59.644493291664865
57.29258691883879
55.726593109187974
22.58533524876915
30.644486442498987
39.210301211941044
47.859979895836396
56.382545191770014
64.64355513257429
72.54498092976259
80.0114306019782
86.98471658281609
93.42128210241162
99.29059229352112
104.57379446860939
109.2624027920246
113.35694541544837
116.8655868242274
119.80276479592956
122.18788550648185
124.04411403911986
125.39728713527461
126.27496387312719
126.70561986744532
126.71798239290719
126.34049779304863
125.60091855482231
124.52599523141589
123.14125764306054
121.47087014304668
119.53754691985324
117.3625151058631
114.9655157542124
112.36483549720708
109.57736498186163
106.61868417529301
103.50317967044853
100.2442057123233
96.85430957859882
93.34555433530657
89.72998954605366
86.02034572575862
82.23106472670756
78.37983051893026
74.48983822346194
70.59313656599872
66.73549072199826
62.98329061283884
59.432924782136546
56.22238654402585
53.54299254865868
51.6452888146074
27.194150154972483
35.15354270084781
43.672968864947876
52.32814238724098
60.88225644748081
69.17912867237195
77.10498921931837
84.57363726583986
91.519964692007
97.89658843418354
103.67161250150093
108.82675413646
113.35555670693157
117.26161759399147
120.55684409735447
123.25977953758374
125.39404462848587
126.98693029959469
128.0681650751199
128.6688669061693
128.82067802134523
128.5550727128505
127.9028221054234
126.8935965725414
125.55568510666298
123.91581112225413
121.99902542387821
119.8286590475935
117.4263211299512
114.81192973268479
112.00376662024723
109.01855043078636
105.8715266995897
102.57657813554766
99.14636495952335
95.59251381365985
91.92588599008265
88.1569734025534
84.29649673179603
80.3563189119801
76.35084509836362
72.29916643233449
68.2283294613206
64.17828011817424
60.2092135759786
56.412128086433555
52.92292566675931
49.938465790866545
47.728088582329676
32.02474037026023
39.97413202577586
48.498283994000474
57.185844412784206
65.78419209529707
74.11969043278914
82.0646448113098
89.52301763707464
96.42357386160455
102.71595851086333
108.36788282723595
113.362690088682
117.69704128959883
121.37866420639122
124.42419159848077
126.8571388979069
128.70606919954656
130.00297940951378
130.7819244156114
131.07788043207393
130.92583618746997
130.36009191609338
129.41374094644374
128.1183064486871
126.50350588383782
124.59711720390237
122.42492331182511
120.01071427416674
117.37633000615025
114.54172947350246
111.52507585858359
108.3428307195907
105.00985415511803
101.53951274456392
97.94380313920668
94.23350749166431
90.41840874793957
86.50761122124017
82.51003802344634
78.43521693744269
74.29452822656538
70.1031840971512
65.88335763690964
61.66909846862967
57.51396432973414
53.50257140408837
49.76712001735389
46.50818651910862
44.01322074926951
37.081446261147086
45.107753640861795
53.69645277872377
62.453382313607776
71.11642794374268
79.49811703849244
87.45885129005586
94.89416386519312
101.72797449658098
107.9082954518444
113.40386912344509
118.20112970555236
122.30129355938365
125.71756246547463
128.47249096162716
130.59558114228065
132.12115549422728
133.086536621073
133.53054059010864
133.49227223142648
133.01019750862392
132.1214600393181
130.8614051905891
129.26327484920313
127.35803791431229
125.17432487950319
122.73843887011934
120.07441970346945
117.2041416590075
114.14742956070675
110.92218149915853
107.54449019246498
104.0287588603908
100.38781196693861
96.63300686953227
92.77436018820785
88.82071393347368
84.77998323161212
80.65955327522272
76.46693350648812
72.21084130139047
67.90299091165666
63.56103060628303
59.213336836641176
54.906772957595514
50.71901939569243
46.77733776064873
43.284281742907
40.54432396448452
42.38254226751016
50.57311013834976
59.292858173423866
68.1639562571036
76.91817380061912
85.35692105079005
93.3307033423725
100.72837673636803
107.47078609590784
113.50618294624587
118.80628441524546
123.36254964676908
127.18258332819741
130.28671449273418
132.7048381346412
134.47359857664992
135.63396536182782
136.2292203623092
136.30334677728018
135.89978998289405
135.0605472636397
133.8255373004707
132.2321993250677
130.31527441889207
128.1067261025979
125.63576301420389
122.92893233734475
120.01025823220527
116.90140459685595
113.62184598231728
110.18903447717983
106.61855405831996
102.92425757605673
99.11838564121834
95.21167183080965
91.21344574067544
87.13175587309665
82.97355033625644
78.74497840611082
74.45191612527904
70.10088451872492
65.70063742857609
61.264877860786584
56.8168667049156
52.397183847958274
48.07662730263413
43.97694924922797
40.30140664349348
37.370210964908836
47.95767007135904
56.40394161539015
65.32796271308656
74.3647996990691
83.24136285216441
91.74985282860996
99.73285792519897
107.07468519021918
113.69544354781829
119.54613102642566
124.60400269748207
128.86802669373807
132.35447776272918
135.09280001289807
137.1218695951477
138.48674990617752
139.23598336796027
139.41941946568087
139.0865449917759
138.28526082716144
137.06103881991635
135.4563899333534
133.51057815744642
131.2595213578748
128.7358284568371
125.96893083517725
122.98527383308354
119.80854129611267
116.45989212293708
112.9581927638657
109.32023376543698
105.56092202314703
101.69344375102983
97.72939677945146
93.6788953009414
89.55065653148966
85.35208834956124
81.08941204227264
76.76787848863528
72.39217568401779
67.96719141348476
63.49940675515763
58.99938936670806
54.48619261480444
49.99504757107954
45.59067068265967
41.389686478283885
37.59568111677364
34.54341388188966
53.84775040230459
62.64909340011458
71.85850040036566
81.11913509742656
90.15284481143163
98.74394643222438
106.72919780508474
113.99101078666823
120.4518359530635
126.06872794217622
130.8278046932221
134.73867945878467
137.82908503088612
140.13991918296188
141.72088510885197
142.62682379697696
142.91476216697103
142.6416437168175
141.86267091576232
140.63016904258984
138.9928756640906
136.9955640053123
134.67891810616152
132.07958982636737
129.2303803529209
126.1605006028772
122.89587514426185
119.45946275026894
115.87157349994266
112.15016764592612
108.31112558452307
104.36848154554603
100.33461649288472
96.2204087092968
92.03534430758283
87.78759541995124
83.48408250255362
79.13055132817605
74.73171859783008
70.29157918007945
65.81403437377388
61.304115527458364
56.77028040637405
52.2286240777149
47.71049924359096
43.27615876846482
39.038622337121986
35.202662159723694
32.11666326886581
60.10642236256468
69.37429037832966
78.95999384466418
88.50915133803281
97.73737073707035
106.42213926903075
114.39684876563132
121.54547658696723
127.7969105067951
133.11862192389822
137.50986822783761
140.99481682069666
143.61600583832814
145.42847235102667
146.4947529099888
146.8808369109295
146.65305347762126
145.87580531555164
144.61002650986245
142.91222906476932
140.83400737911177
138.42188387233796
135.71739728989576
132.75735423393942
129.57418206048538
126.19633641493165
122.64872901713792
118.9531509528276
115.12867400075947
111.19201784418858
107.1578748328813
103.03918674198763
98.84737020457347
94.59248973107412
90.28338017211075
85.9277251080039
81.53210542927341
77.10204565537444
72.64210824475504
68.15612508889305
63.64772281800007
59.121417239649794
54.5847653552487
50.052452927382745
45.55391016783787
41.147310795516546
36.944701796250996
33.15409978579679
30.13656318508866
66.80280026567944
76.66554950818369
86.73079618157739
96.64028341703744
106.10161170120668
114.8866201577556
122.82860783823382
129.81783310034666
135.79515392650364
140.74421336690156
144.6828773941522
147.6546800781261
149.72090408814594
150.95371652453457
151.430564558192
151.22985676525272
150.42783227791358
149.09645019802252
147.3021054762222
145.10498093088307
142.55886569084217
139.71129849483685
136.60392361479956
133.2729740607777
129.74981949974773
126.06153454762587
122.23145703572682
118.27971609568596
114.22371713853236
110.07857569923158
105.8574952956727
101.57208647309406
97.23262561230908
92.84825345343708
88.42711534095979
83.97644892779357
79.5026320025047
75.01121567643958
70.50699051914498
65.99417258661225
61.4768657168467
56.96008033697655
52.451813770657395
47.96711132555658
43.53579292083902
39.216888432137154
35.12484450907051
31.473536049114223
28.634632925831884
74.02571415154091
84.63450010587106
95.29806431169602
105.64721153505948
115.37953611074582
124.26309003100081
132.13582264151302
138.90092385371324
144.51879843894568
148.9968730670194
152.37857156843907
154.7326299533867
156.14358979692602
156.70393520482935
156.50801430206224
155.64765366129512
154.20923838611876
152.27197476475789
149.90705169792096
147.1774479726524
144.13817695395016
140.83680674835767
137.31413596515773
133.60494014118544
129.73873121284913
125.74049277981938
121.63136844771425
117.42929048178459
113.14954246315838
108.80525355242068
104.40782409938467
99.96728332811189
95.49258023917669
90.99180928930642
86.47237354336063
81.94109085453363
77.40425478555274
72.86767402059411
68.33673634112523
63.816583595417995
59.312556497847794
54.8311985822603
50.38234639539775
45.983270509584784
41.66663214706084
37.495403118826566
33.58979492944436
30.171410317588762
27.61773178172578
81.88990455971413
93.42622423410144
104.82635054352028
115.70219978747157
125.73958557530122
134.70614600898642
142.45171569229365
148.90202190929273
154.0474933829474
157.92940611749174
160.62548404815715
162.23658782319396
162.87549253708795
162.65816364052654
161.69749580326365
160.09920988428343
157.95948458649593
155.3638865642178
152.3872103224408
149.09391227166628
145.53889953806618
141.76850192287495
137.82151028641664
133.73020626129804
129.52133820268273
125.21701894259095
120.83553448230143
116.39206115996254
111.89929359644502
107.36798800756414
102.80742613532755
98.22580475050098
93.63055496149804
89.0285949796774
84.42652022167965
79.83073668138364
75.24754899742331
70.68322630581105
66.14409151405123
61.63672137843154
57.168420688828206
52.74827143345329
48.38930773352317
44.11282099868005
39.95660484649925
35.990252612008454
32.34208824694905
29.241012318187632
27.06165341683934
90.54501186690052
103.23068190338682
115.52991110273763
127.02669408729267
137.39424071679008
146.40600501638846
153.93504233758367
159.9437056403734
164.46701410088988
167.59334200611926
169.44552868007568
170.16449755931214
169.89639956052667
168.783432976806
166.95794349141391
164.53915230566605
161.63181596704624
158.3261976335347
154.69885511672564
150.81388156159318
146.72434794423737
142.47378531735012
138.09760947207607
133.62443533146288
129.07725764436066
124.47449268550379
119.83088612259175
115.15829754833118
110.46637421624366
105.76312651727363
101.05541654093207
96.34936927541327
91.65071408513202
86.96506253280674
82.29812800860282
77.65589396790443
73.04474251240725
68.47156643079366
63.943910634737335
59.470231987315486
55.06044550776969
50.72706793624468
46.48752634968058
42.36865274959915
38.41514650287995
34.70487657372058
31.374633764448305
28.656857350678862
26.911402773650934
100.18875916382038
114.2994788722261
127.69046829111693
139.9075428561663
150.6127533569649
159.5967261685972
166.77374942436253
172.1636554694294
175.86631356682304
178.03443679219941
178.84898475323388
178.49954194526896
177.17035297388975
175.03154555948728
172.23450419529914
168.9102303961905
165.16965246563075
161.10507617276372
156.7922029953218
152.2923406097817
147.65457895402898
142.917808308931
138.11252295403307
133.26239501702065
128.38562649707777
123.49609934735626
118.6043483204856
113.71838192141337
108.84437513327977
103.98725473388558
99.15119469843295
94.34003582167468
89.55764060971141
84.80819203220919
80.0964434116946
75.42792746978625
70.80913698661448
66.24770057245019
61.75259984069678
57.33451783146699
53.0064886154329
48.7851617371075
44.69324729933747
40.764132804541376
37.05031548520198
33.638039402635485
30.67037383366834
28.37641077764169
27.088647139366458
111.08665932291362
126.97088206008061
141.68319223118203
154.71986269644438
165.7380126693954
174.56587969859822
181.18785537095613
185.71225766540405
188.33181466468133
189.28551625163283
188.8273224186456
187.2038506546656
184.6406673598019
181.3354852587407
177.4562152033336
173.14203810452938
168.50610502327285
163.63892369562757
158.61185448002948
153.48039815421146
148.28712673508477
143.06421013955472
137.83554791361124
132.61854315207697
127.425566680635
122.26516106634841
117.14303066998716
112.06285845411466
107.0269841161234
102.03697210303392
97.09409255193461
92.19973334748298
87.35575739805276
82.56481607314419
77.83062789649246
73.15823184927117
68.55422855059213
64.02703298887592
59.58718442530947
55.24780133241459
51.02534655925206
46.94100429895608
43.02320111721171
39.31216649660912
35.86791115519863
32.78333172335416
30.20320979571188
28.344785725307688
27.503258851304512
123.60222172921726
141.70798079389306
158.01537616968454
171.9595354330387
183.2086125972233
191.6650417935026
197.4298979056576
200.746062838941
201.93724411019792
201.35548583021657
199.34324810610275
196.2105216743118
192.22417649708962
187.6057191377367
182.53399346865828
177.1502737064461
171.56412050686976
165.85908524431332
160.09782230309796
154.32645327246632
148.57818077546344
142.87622307219354
137.23616800667986
131.66784802382278
126.1768296472128
120.76559806502638
115.43450398996086
110.18252745965357
105.0079023847201
99.90863654929609
94.88295429515945
89.92968307126729
85.04860023632742
80.24075291835256
75.50876155946361
70.85711762436452
66.29248916534382
61.82405707636688
57.46392451551968
53.227679935497946
49.13526302965172
45.21240126792389
41.49307484697377
38.023738857190956
34.870314604040836
32.12892343324643
29.93999420477657
28.50092853832012
28.064645211580647
138.24466699852005
159.1585020375054
177.3851768394611
192.28967752629424
203.58690675655856
211.31913095993636
215.7796239747373
217.4137751745788
216.72650490556646
214.21306118409348
210.31743143772314
205.41402111938282
199.80508787241197
193.72687461834636
187.3594052310752
180.83693715340536
174.257570649458
167.69142984148812
161.18732175707765
154.7780071630063
148.48429918711395
142.31821531784325
136.2853862232983
130.38689217550663
124.6206648039955
118.98256262380889
113.46720452614474
108.06862607218605
102.78080834666281
97.59811752599975
92.5156844597108
87.52974683623894
82.63797144354443
77.83977036642813
73.13662266648703
68.53241252709611
64.0337969933906
59.65062329615894
55.39643095898451
51.289103556536475
47.35178843076596
43.614291918701696
40.1152922575975
36.90588000274038
34.05504729780154
31.657514557890888
29.843063857138386
28.78356963919427
28.690033087725514
155.7470662488427
180.2515787215556
200.7728169446473
216.60708851119514
227.59239707230677
234.02950191299976
236.5264855735198
235.82934650021048
232.68617481837504
227.76375266260635
221.61178552209816
214.65953543000717
207.22925408263194
199.555577276435
191.80486664232563
184.09195724138578
176.49363622190734
169.05904239826918
161.81748555429564
154.7842311250585
147.96473626945578
141.35773292265958
134.9574648139859
128.75531029177907
122.74096334036535
116.90329991290551
111.2310230385847
105.7131554834002
100.33943082017967
95.1006208232
89.98882779316307
84.99776373253299
80.12303350105687
75.36243569327068
70.71629273126234
66.18782057690814
61.783548978510495
57.51380639709018
53.3932919082474
49.441773224987855
45.68498115096586
42.15582273415925
38.896110779577555
35.959091386995965
33.41308140180083
31.346345688349405
29.872674527252286
29.135769803555817
29.30912367200224
177.19970529740147
206.36023935491673
229.58530410890154
246.13601230238316
256.1350902590896
260.3589112233466
259.92801733873887
256.0238833750511
249.70370409568375
241.8193295988297
233.01020910513256
223.7327259732584
214.30026121810283
204.9205671376397
195.72607694117005
186.79678190294436
178.17682133633787
169.88622824222384
161.92912138433076
154.29936225023653
146.98443345489864
139.9680826446999
133.232116214593
126.75761176841448
120.52573677017537
114.51830404609325
108.71815553611614
103.10943869561868
97.67782146296642
92.41067910629947
87.29727770860924
82.32897325748058
77.49944135832952
72.80494981473595
68.24468420424344
63.82113473035347
59.54055078967703
55.413467819296876
51.455309485170055
47.68706837399927
44.13607268957456
40.836859594630766
37.8322041734457
35.17440277301337
32.92698145470977
31.16707952469856
29.988795375637466
29.507661951902236
29.86594266162592
204.2904160466407
239.58560918253227
265.8911233148398
282.5539455400929
290.33017569568847
290.8722425069246
286.12311814161757
277.86558689821925
267.50843913099
256.0613230772534
244.19963690372
232.3525903600582
220.7793878329161
209.62647098428178
198.96752449565483
188.83039941927674
179.21483082438797
170.10392822577091
161.4715417239583
153.28692962983564
145.51767420560194
138.13146750554986
131.09717413598057
124.38543676106904
117.96899831176107
111.8228551635774
105.92431684499667
100.25302281428647
94.79095074913789
89.52244053585171
84.43425168798557
79.51566789484015
74.75865981550106
70.15811530799226
65.71214426811915
61.42246230604079
57.29485255931897
53.33969672396673
49.572553486331294
46.01474416814819
42.6938832142888
39.64427321325061
36.9070917284498
34.530373476209704
32.56900474316326
31.085370277107955
30.151923431211394
29.857519032031927
30.319044343370635
239.76004881950388
283.2818217431369
312.80212526969365
328.137758960624
331.4398918823134
325.9776744432423
314.9691413086653
300.9375145043721
285.5986432412705
270.0048093622993
254.75713474930726
240.17149986109675
226.39195260566478
213.46261472286935
201.37172407168927
190.07802723139733
179.52632667474398
169.65646274038474
160.40835736072447
151.7247137815372
143.5523354282928
135.84264490613134
128.55175334312565
121.64029095319816
115.0731255510747
108.81904499798364
102.8504490864085
97.1430782778708
91.67579619137246
86.4304368593543
81.39172467911646
76.54727347417852
71.88767023981045
67.40664816005481
63.10135140586936
58.97268978277735
55.02577270027557
51.27039679932481
47.72153727332146
44.39975806208729
41.33141440585317
38.54848938185753
36.08792545061045
33.99045873554945
32.299339979134814
31.06001324152947
30.322785876540888
30.151464064654505
30.640965233838795
288.36597269350443
343.0577265656476
375.0979393780501
385.83962068930236
380.59426288406837
365.573063564874
345.76288959580984
324.3822240313773
303.1700170590333
282.97597382305105
264.1517527584266
246.7873032212574
230.84242283374584
216.21779230097764
202.7923387774737
190.44226894609
179.0502371752528
168.50926774975585
158.72394223637315
149.61021365289514
141.0945821633834
133.1130242325155
125.60987962076419
118.53679833379178
111.85179448338351
105.51842498742064
99.5050965102925
93.7844975404017
88.33315037608523
83.131077969473
78.16158182958819
73.41112869737205
68.86934479396174
64.5291163348491
60.38679261331906
56.442481673934104
52.700416102746956
49.169344808405995
45.86287312397249
42.799628256758794
40.00307904200244
37.50081614665093
35.323159132439464
33.50118490767008
32.06474273090442
31.04174576814119
30.4609982240293
30.362103959721754
30.81741336006072
358.9030844036343
428.93864375410624
460.05919051731246
458.93155810184476
437.9828387924726
408.3127376893629
376.88612829352326
346.7569353924367
319.0811459970511
294.12345722760114
271.7710845944736
251.77161313571895
233.83944370509616
217.7008007377762
203.11047864117157
189.85591368772657
177.75585067080445
166.6569781399506
156.43006342466683
146.9662476752022
138.17375176161715
129.97505599654932
122.30453515459217
115.10649948625871
108.33358525461958
101.9454415611918
95.90766751664327
90.19096216098848
84.77045760145258
79.6252130361512
74.73785340063631
70.09434109111268
65.68387222264704
61.49888950776037
57.53520093899352
53.79218522107773
50.27304881621379
46.98507273960494
43.93974834887512
41.152653975550905
38.64288462677466
36.43185388392951
34.54140541432801
32.99146816215554
31.797959772168348
30.972138038709232
30.523070185305713
30.466328708632748
30.84633985958618
470.4829551604777
559.2315932839152
578.1793753779313
549.1885783433495
500.4913821544862
450.7472975360357
405.51233376284375
366.00265828704715
331.9040768412303
302.48396398808643
276.9792256677327
254.71511751896324
235.12946036542334
217.7648521776614
202.25235756604894
188.29483540758417
175.65245925612356
164.13090204119587
153.57195434147715
143.84616062384382
134.84706050722983
126.48668278442626
118.69201005640316
111.40219475907998
104.56635892872052
98.14185064367297
92.09286146582232
86.38933331618537
81.00610172365981
75.9222365658782
71.12055215238819
66.5872662457856
62.31179238906305
58.28665119722616
54.50748293892805
50.9731339476559
47.68577080655632
44.65094679226905
41.877505260748634
39.37716235432005
37.16358936385233
35.25085836450225
33.65128666474364
32.37305954453554
31.41845351427958
30.78369694006334
30.46097337491604
30.44285822265942
30.736901307247987
662.4791411566146
772.6938986966278
740.1865359702701
647.0868708133131
559.6007666376895
486.79440176317615
427.70511674538835
379.6439642623519
340.09926710754735
307.1098214996658
279.2036224512006
255.28502038333173
234.53426087887766
216.33208015690994
200.205423113147
185.7888365077149
172.79694672023007
161.0046845856381
150.232928068564
140.33795986783844
131.20363708762156
122.73550991868134
114.85635693539413
107.50276203372474
100.62246640947507
94.17230438972044
88.1165850446063
82.42581940030468
77.07572045222703
72.04642314472576
67.32188601892645
62.88944645959877
58.73950779291903
54.86533859574809
51.26296145017885
47.93109832640414
44.871120816072846
42.08692441084872
39.58460918207042
37.37181489199136
35.456551403067216
33.84542834586925
32.54137580652485
31.54129409309918
30.834514469672378
30.40317529180568
30.224633375586613
30.271971455447975
30.508940873456332
1105.4366818686503
1133.6717736477783
905.9885428540467
727.690162429006
601.090990343265
508.63988469182016
439.1642915836419
385.26977572429445
342.3062069647378
307.2399985548626
278.0351176712826
253.28333245214995
231.98478569065412
213.4130061797421
197.02948070856672
182.42801916206568
169.29758211057563
157.39685980694526
146.5365199888873
136.56657460550701
127.36723440220939
118.84218489676769
110.91357236886074
103.51821664121317
96.60471697539498
90.13121727019947
84.06366463068852
78.37444230305125
73.04129092958702
68.04645552690535
63.37601234229441
59.01934146634899
54.96871855731605
51.21900227139677
47.767392270593554
44.613224655514045
41.75775579580828
39.20386112779473
36.955544946903174
35.01712945228379
33.391985446186716
32.08071347528133
31.078818380338525
30.374169767017975
29.944910456584765
29.75889279718737
29.775627966944576
29.94754011449877
30.19808958478186
2190.845250204067
1428.6889781083175
987.7655870638324
757.2978660930821
609.8312528057173
509.407700551144
436.50810865350815
381.1799024318737
337.66963672660614
302.4683325958133
273.3147965596945
248.69105939625985
227.54257298225914
209.11584117152154
192.85962893702992
178.36257837082877
165.31250815441987
153.46910624537188
142.64515392640286
132.6933343100038
123.4967851146844
114.96221616412639
107.01481759804105
99.59444009098718
92.65269278916578
86.15071275342925
80.05743208528824
74.3482182304608
69.00379706863392
64.00939228597193
59.354031351076884
55.029980141528114
51.032276010353186
47.35833327552699
44.007595602958986
40.981205864107125
38.281654813722284
35.91235462347624
33.87706247499283
32.17905632474657
30.81994656558254
29.798003116744972
29.1058950635689
28.727781154177272
28.635760852419004
28.785847854841247
29.113919137590564
29.531514301399202
29.904448100379337

SCALARS STRESS_XX float 1
LOOKUP_TABLE default
158.8602388980345
-2273.0511897301067
0.08290952720333067
-260.0601250540659
158.82510107580669
158.71969149580892
158.54402184645298
158.29811170297762
157.9819886692562
157.59568857615793
157.1392557363128
156.61274325509032
156.0162133974851
155.3497380104368
154.61339900010034
153.80728886331235
152.93151127226037
151.98618171128808
150.97142816431827
149.8873918511383
148.73422801032416
147.51210672606754
146.22121379587688
144.86175163528358
143.4339402150925
141.93801802603522
140.37424306471024
138.74289383385639
137.04427034884145
135.2786951411607
133.44651424848436
131.54809817930447
129.58384283873153
127.55417040036555
125.45953010718968
123.30039898251002
121.07728242986627
118.79071469836197
116.44125918730494
114.02950856128545
111.55608464381581
109.02163805434236
106.42684754978598
103.77241902788482
101.05908414525197
98.28759849834093
95.45873931023704
92.57330256013725
89.63209948599109
86.63595238314585
83.58568961328781
80.48213972820139
77.32612460137402
74.11845144725575
70.8599035921543
67.55122984206264
64.19313227035292
60.78625222113134
57.33115429131691
53.82830801434545
50.27806691904604
46.680644576441935
43.03608717156652
39.3442420430934
35.60472151554717
31.816861200130813
27.97967175247122
24.091782836992003
20.15137774317958
16.15611670899738
12.103046503539915
7.988493169046103
3.8079339719693435
-0.4441565039459061
-4.774492666057542
-9.191205133991515
-13.704120029733113
-18.325105079656772
-23.06850218534742
-27.951672924531586
-32.99569297688696
-38.226244998293645
-43.67477893392945
-49.38003719993096
-55.390084404005115
-61.76504516610704
-68.58085218889751
-75.93446225437337
-83.95124928213619
-92.79570138439195
-102.68726516021667
-113.92445031627227
-126.92266182774496
-142.27573920101946
-160.86064253838236
-184.02405996901342
-213.9424934924485
-254.34413897936065
-312.28653814266033
-402.02643946593383
-560.5533427591272
-873.6292721516547
-1678.2208740842516
-1183.2798123497673
-96.57817383398509
-61.394806340393586
-18.40614466140839
-10.32743445315964
-5.67213385542928
-3.595439368964435
-2.3912952108908314
-1.6742090617215837
-1.2146214750787863
-0.9080332758634029
-0.6957977233302088
-0.544578804035524
-0.4341860105857691
-0.35195246649088574
-0.28964620546567943
-0.2417621906114107
-0.20452462119488146
-0.1752860474741702
-0.15215364583616875
-0.13375049828037788
-0.11905936055887167
-0.10731817586374248
-0.09794880284841057
-0.09050750870749269
-0.0846499883039673
-0.08010623382895155
-0.07666217261697028
-0.07414599838852709
-0.07241776671178357
-0.07136124114930809
-0.07087724109463878
-0.0708779020100323
-0.07128133872148901
-0.07200621212737879
-0.07296563401520029
-0.07405968050703748
-0.07516547144435037
-0.07612321146397338
-0.07671558631684494
-0.07663608099508679
-0.07543836542689064
-0.07245220050269996
-0.06663820392609665
-0.05632789533310412
-0.03876387112582513
-0.009501241273421002
0.03655359847005091
0.07364088961505288
0.25795580687375885
0.7078115561719036
1.26446401299817
1.7628062467519738
2.081424300155838
2.1398965073693708
1.8878412033255554
1.295930757961223
0.34964909489890594
-0.9549455562487106
-2.614134759893194
-4.618593801714333
-6.954880060689411
-9.606541979982495
-12.55496727360083
-15.780047003522077
-19.260705756314394
-22.975331340636075
-26.90212660804204
-31.01939897613942
-35.305798649228585
-39.74051353227077
-44.30342687177074
-48.97524237419988
-53.73758071254968
-58.5730507766196
-63.465298647675034
-68.399037012805
-73.36005753162941
-78.33522849889891
-83.31247999197181
-88.28077854154725
-93.23009321228956
-98.1513548247662
-103.0364098920499
-107.8779706849839
-112.66956268140626
-117.40547049930755
-122.08068326393908
-126.6908402164263
-131.23217723807232
-135.70147484129348
-140.09600806605198
-144.41349861973015
-148.65206950919568
-152.81020233556103
-156.8866973547058
-160.88063634953053
-164.79134831183634
-168.61837789261858
-172.3614565477903
-176.02047628174594
-179.59546587252774
-183.08656944879752
-186.49402727980592
-189.81815863438186
-193.05934656292354
-196.21802445667612
-199.29466424121864
-202.2897660652692
-205.20384935118034
-208.03744507986931
-210.7910891898768
-213.4653169774598
-216.06065839224522
-218.57763413045896
-221.01675243528786
-223.37850652114486
-225.6633725458038
-227.87180806101188
-230.00425087857374
-232.0611182950874
-234.04280662388572
-235.949690988202
-237.7821253344449
-239.54044262880313
-241.22495520454035
-242.83595523110398
-244.3737152797126
-245.8384889629533
-247.23051162881472
-248.55000109212918
-249.79715838850035
-250.9721685380389
-252.07520130773202
-253.1064119629284
-254.0659420000938
-254.95391985379825
-255.77046157209878
-256.51567145563683
-257.189642656285
-257.79245773201706
-258.32418915526773
-258.7848997724483
-259.1746432128498
-259.49346424553556
-259.7413990829487
-259.91847563040403
-260.02471368081257
-255.23905110414216
-245.66488952529238
-236.22385468857914
-226.91024432971
-217.71833602764508
-208.64238881457098
-199.67664490187258
-190.8153314938037
-182.0526626618663
-173.38284125459455
-164.8000608187392
-156.2985075094988
-147.8723619690885
-139.51580115437486
-131.2230000959983
-122.98813357278982
-114.80537768683847
-106.6689113261086
-98.57291750273072
-90.51158455659333
-82.47910721503257
-74.46968750082155
-66.47753548199077
-58.49686985795852
-50.52191837779192
-42.546918087723284
-34.566115406051445
-26.573766024749254
-18.56413463852247
-10.531494502953219
-2.470126824679106
5.625680011862098
13.761631375614527
21.943427471221547
30.176764564100665
38.46733633857353
46.82083537790193
55.24295475368144
63.739389710458056
72.3158394299696
80.97800885799302
89.73161057510268
98.5823666912738
107.5360107428281
116.59828956875226
125.7749651420987
135.0718163310359
144.49464056282395
154.0492553630416
154.01484780441788
144.461689840668
135.04031529076642
125.7449071143511
116.56966842681811
107.50882094941713
98.55660333494572
89.70726939677522
80.95508626796344
72.29433251595002
63.71929623714484
55.22427315440662
46.80356473891668
38.4514763765639
30.162315597481154
21.930390385810405
13.75000758524074
5.6154714144718385
-2.4789178948601287
-10.538865326685613
-18.57008216571034
-26.578286931023328
-34.56920615127329
-42.54857497593454
-50.52213761817749
-58.49564762640805
-66.47486798279877
-74.46557102812181
-82.47353821357476
-90.50455968141267
-98.56443367733394
-106.65896579876369
-114.79396808450399
-122.97525795227519
-131.20865699188488
-139.4999896232315
-147.85508162949534
-156.27975857734756
-164.77984413728393
-173.36115831869972
-182.02951563587297
-190.79072322242283
-199.65057891349957
-208.61486931641815
-217.6893678920842
-226.87983307121948
-236.1920064307243
-245.6316109571801
-255.20434942585013
153.91162891264386
144.36284122849713
134.94581544887768
125.6547359963537
116.48380762136462
107.42725382023485
98.47931512984309
89.63424732682425
80.88631955821273
72.2298124291587
63.65901607209109
55.16822822043413
46.751752308396306
38.40389561702034
30.118967485099766
21.891277602055126
13.715134398308429
5.584843547255901
-2.5052934086392273
-10.560980296606076
-18.587927407434105
-26.591852436324757
-34.57848126383787
-42.553548571475595
-50.52279828759282
-58.491983860683476
-66.46686835834265
-74.45322439131115
-82.45683386329456
-90.4834875483145
-98.53898449863192
-106.62913128732737
-114.75974109092186
-122.9366326185861
-131.16562889564943
-139.45255591049028
-147.80324113514212
-156.22351193139508
-164.71919385538206
-173.2961088752662
-181.96007351809766
-190.71689696336588
-199.5723791024686
-208.53230858479614
-217.6024608727928
-226.78859632998007
-236.09645836740137
-245.53177167552445
-255.10024057011907
153.73961006650984
144.19810541200138
134.78832666132413
125.50446069956749
116.34071502585792
107.29131611774761
98.35050767402187
89.51254876408323
80.77171191106262
72.12228113449487
63.55854997706434
55.07481953868131
46.66539653948438
38.32459143195758
30.04671658085571
21.826084527969076
13.657006357252468
5.533790174379867
-2.5492602868511804
-10.59784692029868
-18.61767835575173
-26.61447091175917
-34.59394938613795
-42.56184767873813
-50.52390924237356
-58.48588735895129
-66.45354523915326
-74.4326559451571
-82.429002137064
-90.44837564486
-98.49657686888513
-106.5794140128944
-114.7027021550503
-122.87226216330367
-131.09391946283029
-139.37350266447143
-147.7168420644489
-156.1297680269937
-164.61810926278378
-173.1876910176997
-181.84433318786748
-190.59384837841856
-199.44203992512126
-208.39469989957811
-217.45760712031924
-226.63652519381105
-235.9372006109657
-245.36536092629007
-254.92671304842008
153.49881031898255
143.96750027662537
134.56786541862027
125.29409612877438
116.14040380407823
107.10101914369416
98.17019031885812
89.34218105229523
80.61126863458543
71.97174190363147
63.4178992119518
54.94404640518571
46.54449483357078
38.213559416581006
29.945556779482537
21.734803478829427
13.575614332332872
5.462300867130502
-2.6108301012637156
-10.649477748430394
-18.659348369401663
-26.646156348114236
-34.615624961149614
-42.573487010514754
-50.525485281497325
-58.477372822680564
-66.4349130465961
-74.40387965053773
-82.390056358256
-90.39923648438037
-98.43722232448984
-106.50982437490727
-114.62286038748704
-122.78215426577397
-130.99353481001654
-139.2628343199275
-147.59588706532037
-155.9985276359872
-164.4765891837062
-173.03590157062473
-181.68228943987157
-190.42157022572968
-199.25955212236903
-208.20203203183922
-217.2547935135921
-226.42360475962658
-235.71421662094164
-245.1323607126493
-254.68374762675904
153.1892565295793
143.67105102131666
134.2844549414973
125.02366326033273
115.88289247181635
106.8563787851945
97.93837620064487
89.12315449832039
80.40499716859237
71.77819930999999
63.23706551994092
54.775907801649566
46.3890435093625
38.07079335196277
29.815479473859597
21.617423630083742
13.470945471007923
5.3703609505439855
-2.690019129986386
-10.715890431576303
-18.712956231516294
-26.686928413974297
-34.64352829055568
-42.58848724580765
-50.52754720380366
-58.46646091302273
-66.41099204816437
-74.36691512844568
-82.3400152532059
-90.33608765663462
-98.36093708455871
-106.42037699729687
-114.52022860375556
-122.6663197330156
-130.86448355076868
-139.12055712929796
-147.44037988093365
-155.82979186614085
-164.29463198891108
-172.84073609350048
-181.47393497813232
-190.2000523428802
-199.0249026905463
-207.95428920115583
-216.99400160233063
-226.14981405963573
-235.42748311276347
-244.83274568514133
-254.3713171962871
152.81098354947807
143.30879031743012
133.93812531436316
124.69318925119639
115.56820498266174
106.55741557869115
97.65508228419479
88.85548239702165
80.15290709247468
71.5416592212723
63.016051106344314
54.570402362257944
46.19903775930428
37.89628515263396
29.656473495211436
21.47393095150718
13.342983127265203
5.257951429022101
-2.7868484345888596
-10.797107799201733
-18.778526229711016
-26.736812536296753
-34.677685615278314
-42.606875109871034
-50.53012188715856
-58.45317832877368
-66.38180843394214
-74.32178773464793
-82.27890302374296
-90.25895189787366
-98.26774211813519
-106.31109079237828
-114.39482338426396
-122.52477255507551
-130.70677684556017
-138.9466792062347
-147.25032538576647
-155.62356218840802
-164.07223561280935
-172.60218888602324
-181.2192604080285
-189.92928162375847
-198.7380748412767
-207.6514510165678
-216.67520752717795
-225.8151259587868
-235.07696993076394
-244.46648298857025
-253.98938659267384
152.3640344591232
142.88075851242962
133.52891365609975
124.30270757814714
115.19637083727517
106.20415479108092
97.32032941781122
88.53918106218799
79.85501013427569
71.26212878878661
62.75485861057984
54.327528330403446
45.974471593135505
37.69002479895035
29.468525036169655
21.304308122685278
13.191706771126317
5.125048891281241
-2.901343958444592
-10.893157960222553
-18.856088257919406
-26.79584000274712
-34.71812921763848
-42.62868347561049
-50.533242388654436
-58.43755790496706
-66.34739441325037
-74.26852865403383
-82.20674943889377
-90.16785717948189
-98.15766322926524
-106.18198904177373
-114.24666515037687
-122.35752997536603
-130.52042846535534
-138.74121058122478
-147.02572963182797
-155.37984047214286
-163.80939757583454
-172.3202529956803
-180.91825422686836
-189.6092419898387
-198.3990479510479
-207.2934924019603
-216.29838191839394
-225.41950702430347
-234.66263988619386
-244.03353206632906
-253.53791236483835
151.84846085802485
142.38700387788055
133.05686432756187
123.85225820650095
114.76742521532924
105.79662651718155
96.93414239879223
88.17426986270164
79.51132018023365
70.93961643324081
62.453491070744754
54.04728350482384
45.71533776820077
37.45200025403913
29.251617556658083
21.108534429968532
13.017091878601821
4.971625395039371
-3.0335366457846114
-11.004074424453483
-18.945677939131656
-26.864048084780094
-34.76489754401405
-42.65395148519973
-50.53694806463334
-58.41963873087327
-66.30778833022379
-74.20717501341713
-82.12358994452367
-90.06283681401933
-98.03073115888763
-106.03309949345487
-114.07577825581019
-122.16461257539419
-130.30545486841413
-138.50416326900068
-146.76659990494971
-155.09862902831924
-163.50611501237626
-171.99492022792933
-180.57090281365498
-189.23991435666838
-198.0077975014064
-206.88038350685972
-215.86348977411993
-224.96291736831918
-234.18444856123872
-243.53384442305185
-253.0168424938057
151.26432320633427
141.827582901104
132.52202917496726
123.34188778735268
114.28140912911331
105.33486579251294
96.4965500484149
87.76077126291628
79.12185328384749
70.57413182577434
62.11195188004884
53.72966517460348
45.421627706111316
37.1821973650825
29.005731672555633
20.88658564504455
12.81910980246118
4.797648332032835
-3.1834625806608035
-11.12989624400566
-19.047336767922193
-26.941480180221433
-34.81803534660395
-42.68272469035629
-50.54128470892856
-58.39946628576905
-66.26303479672582
-74.13777001122179
-82.02946578940717
-89.94392957721732
-97.88698170219615
-105.86445447374561
-113.8821910923277
-121.94604437300639
-130.06187528966603
-138.23555134732476
-146.4729447910015
-154.7799306608626
-163.16238470459768
-171.6261811595743
-180.17719041880497
-188.82127659650274
-197.56429501088544
-206.41208960388948
-215.37049031953975
-224.44531046496047
-233.64234408037532
-242.96736334681762
-252.42611606266297
150.61169121759735
141.2025606196765
131.92446780818494
122.77164988223711
113.7383695975836
104.81891272008244
96.0075852950811
87.29871086598449
78.6866276733011
70.16568586341977
61.73024473418343
53.374670042283284
45.09333139524992
36.88059974864981
28.730845027067286
20.63843388530664
12.597727624252304
4.603080274029102
-3.3511631448756938
-11.27066817345537
-19.161112271409124
-27.02818597383427
-34.87759384267846
-42.71505520954563
-50.5463047074978
-58.37709259056846
-66.21318484063613
-74.06036306211698
-81.92442416584883
-89.81117984414088
-97.72645583981128
-105.67609101278521
-113.66593620848913
-121.70185293314564
-129.78971184191272
-137.9353910467333
-146.1447742518726
-154.42374872618802
-162.77820312250986
-171.21402515598743
-179.73709915477534
-188.35330349828297
-197.0685079600425
-205.88857097441917
-214.8193368485846
-223.8666329435597
-233.03626685067297
-242.33402359235734
-251.76566287893527
149.8906443020103
140.51201099777083
131.26424791269304
122.1416052137887
113.13835983931178
104.24881260961408
95.46728526410124
86.7881174586689
78.20566375586571
69.71429063768366
61.308373568613874
52.982294134269054
44.73043727851726
36.5471886597708
28.426932144803928
20.364047456287707
12.352907988118
4.387878800679633
-3.5366851938213024
-11.426440847441274
-19.28705818704702
-27.124221614063195
-34.943630889302135
-42.751001899969594
-50.55206720716753
-58.352576372982384
-66.15829606716477
-73.97500995425307
-81.80851836260786
-89.66463773747911
-97.54919988089189
-105.46805098171096
-113.42705043992692
-121.43206948989933
-129.48898962794544
-137.60370085061223
-145.78209971094668
-154.03008720109204
-162.35356647081437
-170.75844039298883
-179.25060898869526
-187.8359667263484
-196.52039971125768
-205.30978278422288
-214.2099765501074
-223.2268243599729
-232.36614927298174
-241.63375102713468
-251.03540305099386
149.10127205927662
139.7560173431277
130.54144559370485
121.45182194073595
112.48143948258326
103.62461612741897
94.8756913723168
86.22902305588462
77.67898411765177
69.21995939482122
60.84634248458143
52.55253269758643
44.332932125660555
36.181942844359256
28.09396426849401
20.063390676463463
12.084608917059576
4.1519963101882364
-3.740081248894848
-11.597270974056075
-19.425234655298652
-27.22964990371893
-35.016211171085935
-42.790630541730366
-50.558638295798026
-58.32598324344263
-66.09843283043057
-73.88177301641568
-81.68180792750715
-89.5043592853937
-97.35526561581293
-105.2403812395023
-113.16557504939068
-121.13672907838526
-129.1597368624703
-137.24050160485706
-145.38493414772987
-153.5989507590302
-161.8884707429519
-170.25941388428186
-178.7176977382711
-187.26923477947437
-195.91992942519573
-204.67567495132184
-213.54235032086822
-222.5258169484164
-231.63191542642522
-240.86646224254105
-250.23524652042255
148.24367481989353
138.93467276317787
129.75614575073874
120.70237595529292
111.76767479058805
102.94637945478415
94.23284942542853
85.62146294294291
77.10661351683953
68.68270648609047
60.34415566233227
52.08538008184155
43.90080088941214
35.78483837462221
27.73190917833065
19.736423684778472
11.792783612385223
3.895379813940811
-3.961409704931004
-11.783221542133123
-19.5757084250314
-27.344540502154608
-35.09540639825685
-42.83401403125434
-50.56609119077525
-58.29738587861137
-66.03366641206472
-73.7807212918676
-81.54435883659262
-89.33040658593765
-97.14471047563764
-104.99313378699449
-112.88155587439596
-120.8158706746853
-128.80198500246235
-136.8458166362617
-144.9532922012542
-153.13034485485736
-161.38291178291615
-169.7169315154557
-178.1383410724726
-186.653072952167
-195.26705197616127
-203.9861920084975
-212.81639256802293
-221.7635353566261
-230.83348072897928
-240.03206413285872
-249.3650925528023
147.31796423351153
138.04808065848977
128.9084424805184
119.89335120061892
110.9971388991863
102.21416445232936
93.53880971557489
84.96547571316665
76.48857886823144
68.10254730610899
59.80181726000174
51.580829605115014
43.43402654452002
35.35584846693487
27.340730993928485
19.383102231356126
11.47738023730644
3.6179707165169113
-4.200735050852874
-11.984362040206623
-19.738553068998566
-27.468970135987636
-35.18129551182014
-42.88123258048898
-50.574506432200096
-58.26686420874761
-65.96407520307557
-73.67193071511022
-81.39624366619721
-89.14284797466937
-96.91759769527438
-104.72636592524599
-112.5750434800099
-120.46953734177899
-128.41576888441014
-136.41967187856292
-144.48719028168387
-152.62427581807893
-160.83688535547452
-169.13097808570623
-177.51251251862638
-185.98744330033
-194.56171786891585
-203.2412729633865
-212.03203100428564
-220.9398963676633
-229.97075157747184
-239.1304534452304
-248.42482918985948
146.3242639026708
137.09635525145129
127.99843950573165
119.02484000565512
110.16991206448844
101.42803882752094
92.7936271163432
84.26110329816653
75.8249092166284
67.47949821712051
59.21933129632533
51.03887340236259
42.93258990869576
34.894943281693166
26.92038995888495
19.003377451933858
11.138341685732389
3.319704582642765
-4.458128101455554
-12.200768684577667
-19.91384920639629
-27.603022814970963
-35.273964892086255
-42.93237391791265
-50.583972076581375
-58.23450560460073
-65.88974488465347
-73.55548428735996
-81.237541763794
-88.94175819148441
-96.6739964765965
-104.44014041486808
-112.24609331385862
-120.09777637908645
-128.00112686657556
-135.96209600483036
-143.98664668949192
-152.08075095459662
-160.2503872253639
-168.50153735852933
-176.84018347777155
-185.27230461368333
-193.80387315989492
-202.44085115956406
-211.18918643947742
-220.05480861225436
-229.04362497095295
-238.16151630446132
-247.41433266649102
145.26271005985478
136.07962214764297
127.02625062677325
118.09694343419442
109.28608191697288
100.58807630205766
91.99736117198417
83.50839098771803
75.11563569623007
66.8135764566351
58.59670151504371
50.45950225470159
42.39646944440093
34.40208970465609
26.47084220801485
18.597195626630864
10.775605337458359
3.000510892881282
-4.733666237933982
-12.432524653560943
-20.101684729080173
-27.746790049135953
-35.37350856629822
-42.98753348678385
-50.59458388627974
-58.20040505893889
-65.81076860291245
-73.43147224573795
-81.06833941283102
-88.72721854208743
-96.41398214726489
-104.13452563248657
-111.89476585997596
-119.7006394727716
-127.55810097403116
-135.47312056469576
-143.4516817413828
-151.49977865683104
-159.6234132461125
-167.82859212275076
-176.12132325041898
-184.50761239779408
-192.9934593861758
-201.5848541423935
-210.28777257262158
-219.10817227608413
-228.05198812196875
-237.12512771712403
-246.33346679695387
144.1334522853696
134.9980189269158
125.99200019311947
117.1097716446111
108.34574371836106
99.69435677527873
91.15007617715474
82.70738743576517
74.3607914728617
66.10480002570242
57.93393122869623
49.84270539776945
41.825641040238935
33.8772511091114
25.992039517291605
18.164497923824232
10.389102801215884
2.6603127901902264
-5.027433654367684
-12.679720324506796
-20.302155027466508
-27.90037106271965
-35.480028410500196
-43.04681463541591
-50.606445509207035
-58.164665357072394
-65.72724713189936
-73.29999222054943
-80.88872998602967
-88.49931704887342
-96.13763631040462
-103.80959571995466
-111.52112678764556
-119.27818284357933
-127.08673704397496
-134.95278012463154
-142.88231790194985
-150.88136852206281
-158.9559594592174
-167.112124265452
-175.35589907500034
-183.69331886871632
-192.13041350592073
-200.67320353401504
-209.32769578944522
-218.09987880726376
-226.99571806114557
-236.02115106031752
-245.18208233518465
142.93665426305537
133.85169576069907
124.89582359045748
116.06344425606778
107.34900061697927
98.74696647935279
90.25184124297698
81.85814464857097
73.56041166540189
65.35318755459495
57.231023139132816
49.18847030709732
41.22007777054453
33.3203870982376
25.483929036641157
17.7052201300338
9.978759647277872
2.2990268198346406
-5.339521606994099
-12.942453509775103
-20.51536321170243
-28.063872999927256
-35.59363434011616
-43.110328793558445
-50.619668642564875
-58.12739722999058
-65.63928901843704
-73.16114937426302
-80.69881408090637
-88.25814858521903
-95.84504697952084
-103.46543072119073
-111.12524709076041
-118.83046738843225
-126.58708486831055
-134.40111240913225
-142.2785799198759
-150.22553147875038
-158.24802220432966
-166.35211485842785
-174.54387618158378
-182.82937296368374
-191.21466785459296
-199.70581492246646
-208.3088549708836
-217.02981062995528
-225.87468124119425
-234.8494375612386
-243.96001631524723
141.67249457041453
132.64081605145918
123.73786773905964
114.95809071645614
106.29596389674498
97.74599812139006
89.30273034471726
80.96071795058432
72.7145332423633
64.55875814233532
56.48797913178514
48.496782458252554
40.57974963170603
32.7314532269953
24.946453005724088
17.219292366806744
9.544495131487832
1.9165626653697414
-5.670028662685092
-13.220829687239414
-20.74142032291218
-28.237411116701033
-35.714444482935626
-43.178195628157084
-50.634373173607365
-58.08871948284508
-65.54701070141206
-73.0150565148637
-80.4986996304257
-88.00381498643279
-95.53630869234497
-103.10211670089666
-110.70720321259
-118.35755881147439
-126.05919833006354
-133.81815844033875
-141.64049496719537
-149.5322799203963
-157.4995982411241
-165.548544259901
-173.6852178637325
-181.9157203718293
-190.24615012176235
-198.68259777052668
-207.23114131880737
-215.89784087087884
-224.68873314745557
-233.60982577474397
-242.66709137899355
140.34116749898806
131.36555708962692
122.51829159826359
113.79385066658111
105.18675321411897
96.69155100684647
88.30282234568816
80.01516592295727
71.8231948890313
63.72153116609853
55.7048000404028
47.76762505921546
39.90462325354717
32.11040070279042
24.37954845295466
16.706638795855408
9.086221912926979
1.5128228838721012
-6.01906094249645
-13.514962220336487
-20.98044552875357
-28.421108951997766
-35.84258532742264
-43.25054317088446
-50.650687289390866
-58.048759090526104
-65.45053659720557
-72.8618341753546
-80.28850198074572
-87.73642512967645
-95.21152259639437
-102.71974583855751
-110.26707715014533
-117.85952773964061
-125.50313552969604
-133.20396267321934
-140.9680927798978
-148.8016278464337
-156.71068488357895
-164.7013922334667
-172.77988557156937
-180.9523035890631
-189.22478335379006
-197.60345535063456
-206.0944382061467
-214.70383310649942
-223.4377179232051
-232.30214106725774
-241.30311509902282
138.94288390016075
130.0261107224923
121.2372666711151
112.57087429443301
104.02149681679478
95.5837311380337
87.2522009913263
79.02155030901957
70.88643683998811
62.84152605598682
54.88148537855218
47.00097875218704
39.19466158394111
31.4571760641334
23.783146878053827
16.167177313855625
8.603845767756308
1.0877026440453363
-6.386732355659488
-13.824972562065682
-21.232566296796584
-28.6150984712656
-35.97819183827167
-43.32750790884039
-50.6687475465495
-58.00765125114944
-65.34999914195794
-72.70161065009798
-80.0683439269522
-87.45609497413925
-94.8707964981095
-102.3184164903095
-109.80495653155802
-117.3364498170962
-124.91895889676252
-132.5585731229672
-140.2614057978033
-148.03359100941174
-155.88128014728971
-163.81063808628625
-171.8278390295107
-179.93906200192515
-188.1504859884082
-196.46828471291536
-204.89862105942123
-213.44764113974125
-222.12146801907926
-230.9261951167067
-239.86787930659966
137.4778720508428
128.62268402882594
119.8949775024686
111.28932267253929
102.80033173696525
94.42265128064044
86.15095486666132
77.97993588041496
69.90430067131808
61.918762030165
54.01803303374112
46.19682128170076
38.44982354463761
30.771720836429623
23.157173918476644
15.600819238506874
8.097265302104404
0.6410894713076846
-6.773164818711704
-14.150990436501571
-21.49791853826691
-28.81952017381674
-36.121407530189394
-43.4092348287617
-50.68869889097137
-57.965539386993136
-65.24553878010391
-72.53452197755222
-79.83835569658123
-87.16294755166632
-94.51424486634991
-101.89823321023975
-109.32093465898174
-116.7884057721821
-124.30673528173804
-131.88204148074286
-139.52046930126454
-147.22818706754006
-155.0113829104621
-162.87626082874633
-170.8290363824204
-178.87593200567932
-187.0231719278629
-195.27697669431979
-203.64355728286577
-212.12910881628753
-220.7398038773108
-229.4817854395114
-238.36115943567978
135.94637853253064
127.15549999209287
118.49162216284674
109.94936807029794
101.52340395101612
93.20843099029182
84.99917730952725
76.8903902567194
68.87682904602025
60.95325778478167
53.11443891961937
45.35512712561357
37.67006365608908
30.053971164047034
22.50154900027625
15.007468987782875
7.56637166729135
0.1728630045106343
-7.178488453812957
-14.493153990650296
-21.776646713858764
-29.03452315478289
-36.27238448974224
-43.495877403901765
-50.71069461599523
-57.92257508118236
-65.13730388734012
-72.36071185762805
-79.59867486946712
-86.8571128968855
-94.14198877997565
-101.45930672165068
-108.81511050856321
-116.21548144959591
-123.66653602211908
-131.17442321339252
-138.74532154192497
-146.3854357414822
-154.10099308914326
-161.89823935788087
-169.78343437421427
-177.76284716236503
-185.84275065802427
-194.0294159778145
-202.32910623433747
-210.74806989173206
-219.29253366294574
-227.9686949573191
-236.78271389579356
134.3486691163384
125.62479816401027
117.0274127093136
108.55119423235914
100.19086849663036
91.94119659021865
83.79696627092045
75.75298367051425
67.80406540540547
59.94503113245916
52.17069658115874
44.47586708516371
36.855331628882865
29.30385741771738
21.816184973974188
14.387023754533715
7.01104828112361
-0.3171052304362486
-7.602841759491845
-14.851609908539391
-22.068903892257005
-29.260265111160365
-36.43128333384141
-43.5875975114028
-50.73489624641361
-57.87891793708601
-65.0254506148533
-72.18033149055239
-79.3494462210708
-86.53872790449981
-93.75415580791373
-101.00175382766689
-108.28758867800602
-115.61776779965582
-122.99843697615113
-130.4357776420748
-137.93600386420468
-145.5053589739252
-153.15011182717546
-160.87655266700847
-168.69098856336933
-176.5997384052112
-184.60912742163447
-192.72548121144695
-200.95511926437632
-209.30434796235613
-217.77945305586096
-226.38669161802446
-235.1322834886717
132.68502964546255
124.03083530917813
115.50257561355986
107.09499661289509
98.80288953703248
90.62108108997396
82.54442411292308
74.56778866905995
66.6860535984666
58.89409858235906
51.186796747104225
43.559007829844546
36.005571919128734
28.521303776307455
21.100987736197787
13.739373178972885
6.431170559563397
-0.8289520240413537
-8.046371746208155
-15.226513478388846
-22.374851750850596
-29.496912280241073
-36.59827309209064
-43.684565266529674
-50.76147333403115
-57.834735345767314
-64.9101426400099
-71.99353932254756
-79.09082147494236
-86.20793609995462
-93.35087980871756
-100.52569724926954
-107.73847927110778
-114.99536081550048
-122.3025185166148
-129.6661679940691
-137.09256081375398
-144.58798109022243
-152.15874170136166
-159.8111800842613
-167.55165358013144
-175.38653429632632
-183.3222034547377
-191.3650451983269
-199.52143983131356
-207.79775647390096
-216.20034511911268
-224.7355280874899
-233.4095908855028
130.95576690538905
122.3738860202398
113.91735214601795
105.58098255426839
97.35964036092133
89.24822403399556
81.24165733345306
73.33487974255338
65.52283744026509
57.80047485417223
50.16272682351484
42.60451139253393
35.12072324495471
27.706227781963946
20.35585583804982
13.06439902193912
5.826605663581595
-1.3628226570942035
-8.5092340282226
-15.618028602635679
-22.694660506842553
-29.744639297272403
-36.7735309987056
-43.786958758555045
-50.790603148877764
-57.790202145158815
-64.79155080701585
-71.80050068197039
-78.82295894836564
-85.86488730822998
-92.93230063531274
-100.03126537753786
-107.1678977074004
-114.34836140793537
-121.57886547623514
-128.86566142134276
-136.21504022858562
-143.63332895810908
-151.12688694210235
-158.70210154266195
-166.36538343061378
-174.1231613453183
-181.98187629629868
-189.9479751697534
-198.02790370663644
-206.2280988243847
-214.55498026124843
-223.01494153070786
-231.61434018420596
129.16120947082447
120.65424329164556
112.27199870351019
104.00937139727714
95.86130330519255
87.82277126734898
79.8887762057809
72.05433286782329
64.3144601893419
56.664172317467106
49.098470321455494
41.61233460972892
34.200718060967816
26.85853986761163
19.58068008134186
12.361974842276592
5.197212266738628
-1.918871037230229
-8.991592862052169
-16.02632773928226
-23.028508765553987
-30.003628957624343
-36.957242178045774
-43.894963671368174
-50.8224702484369
-57.745500152883935
-64.66985263930408
-71.60138728777116
-78.54602307343464
-85.50973720368518
-92.49856372883184
-99.51859192531579
-106.57596444365647
-113.67687520648322
-120.82756703530238
-128.03432897858448
-135.3034933079335
-142.641432144009
-150.05455366969204
-157.5492978846785
-165.13213185339202
-172.80954439715376
-180.58804018195443
-188.4741331549757
-196.47433928646683
-204.59516857890017
-212.8431163122844
-221.2246535035119
-229.74621656879157
127.30170851688632
118.87221903861816
110.56678706636052
102.38039450853836
94.30806958600893
86.34487460460628
78.48589431945686
70.7262249550828
63.06096393305893
55.485200346841914
47.99400621112922
40.58242850130287
33.24548198733001
25.97814285579257
18.77534310409295
11.631965682202527
4.542840349792697
-2.4972597895997204
-9.493621120688392
-16.451591761626496
-23.376583271105684
-30.274071867047123
-37.14959920594734
-44.00877276987808
-50.85726590516108
-57.70081755253223
-64.54523170330646
-71.39637661010553
-78.26018377393605
-85.14264672212589
-92.04981958382699
-98.9878154620055
-105.96280459262925
-112.9810122739407
-120.04871654090289
-127.17224555255092
-134.35797465331052
-141.61232306317288
-148.94175014640055
-156.3527512043092
-163.85185273464916
-171.44560709829724
-179.14058653389088
-186.9433764623875
-194.86056802665595
-202.89874981635577
-211.06449873539407
-219.3643699786017
-227.80488609575363
125.37763858051888
117.02814454624021
108.80200456916722
100.69429520891124
92.70013902217256
84.81469138619984
77.03312800772372
69.35063318394735
61.762388868596844
54.26356458243423
46.84930819406402
39.51473758365746
32.25493318981117
25.064931427829208
17.939718957023146
10.874227765109117
3.863331029444778
-3.09816029187251
-10.015500191354539
-16.89400972189583
-23.739078542937108
-30.55616596169086
-37.350801527054045
-44.128585231231305
-50.89518737044779
-57.65634811105442
-64.41787680116539
-71.18565106088106
-77.96561567633174
-84.76378131431821
-91.5862230652977
-98.43907881341553
-105.32854742280847
-112.26088672036985
-119.24241124612553
-126.27948973368675
-133.37854227552117
-140.54603712042484
-147.78848704424448
-155.112445229856
-162.52450058837832
-170.03127245099918
-177.6394045600381
-185.35555828860626
-193.18640502094172
-201.1386176303934
-209.21886099906857
-217.43378153264763
-225.78999563574382
123.38939825636314
115.12237083176367
106.97795416761147
98.95132858495239
91.03771963281244
83.23238390467729
75.53059564474066
67.92763421334962
60.41877246587107
52.999266084079984
45.664343884017
38.40919910955408
31.22898170693854
24.118791562423713
17.07367267316053
10.08860821095514
3.1585164293959336
-3.721752642547207
-10.557419783050108
-17.353778502521912
-24.1161963796792
-30.85011587745479
-37.561054706084164
-44.254605797530274
-50.93643695090732
-57.61229020261572
-64.28798096755304
-70.96939698965011
-77.66249713087853
-84.3733100179784
-91.10793255596093
-97.87252830686299
-104.67332572144886
-111.51661620104227
-118.4087519563406
-125.35614362000386
-132.365257560712
-139.44261283782032
-146.5947777282055
-153.82836575073742
-161.15003110861306
-168.5664634663931
-176.0843819769267
-183.71052847334425
-191.45165974353938
-199.31453880904485
-207.30592513710403
-215.43256372429346
-223.70117300231553
121.3374108093674
113.15526890122864
105.09495438153863
97.15176116321472
89.32102708924387
81.59811868127639
73.97841679406324
66.45730324826673
59.03014849721282
51.69230036625229
44.43907388636784
37.2657422273527
30.167528720087088
23.13959994281329
16.177059833078616
9.274944775181337
2.4282196029890466
-4.368225550092668
-11.119577628387244
-17.831102336812776
-24.508145209688898
-31.15613214585808
-37.78056948850492
-44.38704372419343
-50.98122087012068
-57.568845611592934
-64.1557402432103
-70.74780345782139
-77.3510090167115
-83.97140432321694
-90.6151089102143
-97.28831283981268
-103.99727500131822
-110.74832128137359
-117.54784256843381
-124.40229254216665
-131.31818518773585
-138.30209196510492
-145.36063855451025
-152.5005010918254
-159.7284018012157
-167.05110392798156
-174.4754058717811
-182.00813441962367
-189.65613697959606
-197.4262727202049
-205.32540252686218
-213.36037769645273
-221.53802730351282
119.22212468439406
111.1272298793003
103.15333909232052
95.29587042499307
87.55028399871372
79.91206557117502
72.37671118782869
64.93971294432438
57.59654591702142
50.34265629960613
43.17345076477885
36.08428705170447
29.07046576214684
22.127223331834927
15.249726128911886
8.433065618072757
1.6722545180528963
-5.037776128731121
-11.702179062244905
-18.326192178554706
-24.91513926510736
-31.474430191043062
-38.009560643392504
-44.52611149537083
-51.02974788632916
-57.52621808466323
-64.02135219520017
-70.52106076159566
-77.03133330205227
-83.55823680388428
-90.107914188977
-96.68658274830963
-103.30053252985802
-109.95612465031583
-116.65978948755156
-123.41802469769414
-130.23739298838328
-137.1245195684064
-144.0860891834795
-151.1288426390254
-158.25957270324886
-165.48511927797318
-172.81236372084783
-180.24822220079378
-187.79963796921317
-195.47357243273754
-203.2769949194894
-211.21687103991857
-219.3001495561177
117.04401389085862
109.03866498884679
101.15345716999818
93.3839441365235
85.72571899510704
78.17439667312307
70.7255975136681
63.37493212922814
56.11798757275798
48.95031486341286
41.8674178828234
34.864743637153566
27.93767386019682
21.08151791451597
14.291506931006122
7.562789112647086
0.8904261161187242
-5.73060958485312
-12.30543645760785
-18.839264897593647
-25.33739755361826
-31.80522909967346
-38.248245558273936
-44.67202327467727
-51.08222763342516
-57.48461159896957
-63.88501415085305
-70.28935867117079
-76.70365132812975
-83.1339794848626
-89.58651014733856
-96.06748844946269
-102.58323615773496
-109.14015016215137
-115.74470090458402
-122.40343068119245
-129.1229517412977
-135.90994409204245
-142.77115290620728
-149.71338542000169
-156.74350719860223
-163.8684376399673
-171.09514458230169
-178.4306378775749
-185.88196179316662
-193.45618610601076
-201.16039575913894
-209.00167895932344
-216.98711360704232
114.80357823787902
106.89000535405178
99.09567190284973
91.4162794667377
83.84756560881604
76.38528501645983
69.02519198383872
61.76302431765315
54.594488726713756
47.51524773165763
40.52090810714885
33.60701084539765
26.769022607438764
20.002328608115633
13.302226861870718
6.663923700438779
0.08253045994390273
-6.446938775781922
-12.92956849634912
-19.370542275655403
-25.775142599076435
-32.14875013225915
-38.496842552429136
-44.82499305630104
-51.13886864936987
-57.44422831008406
-63.74692110931029
-70.05288435081444
-76.36814178268357
-82.69880191286792
-89.05105644465961
-95.43117883012971
-101.84552292178293
-108.30052168499725
-114.80268591636562
-121.35860289647329
-127.97493488962056
-134.6584173880151
-141.4158569843348
-148.25412874414735
-155.18017293903523
-162.20099099243475
-169.32364048356126
-176.55522905035983
-183.90290703085344
-191.37385868354335
-198.97529183196144
-206.71442578684585
-214.59847741135292
112.50134339275894
104.6817015980005
96.98036019901174
89.3931818615599
81.91606088491478
74.54490299559126
67.27560665830268
60.104045993721385
53.02605536579112
46.0374156738195
39.13384235750978
32.310975096350404
25.56436915962489
18.889488340083364
12.281699383217795
5.736267806193009
-0.7516450146115742
-7.18698362010932
-13.574799249820462
-19.92024977337379
-26.22859891865349
-32.50521494087199
-38.755568871527146
-44.98523247786423
-51.19987605252373
-57.40526614000791
-63.60726329130563
-69.81181992135753
-76.02497832594736
-82.25286889557933
-88.50170854437494
-94.77779935186274
-101.08752739561484
-107.43736173281873
-113.83385346924098
-120.28363483539898
-126.7934181716941
-133.36999470731217
-140.02023300209487
-146.75107690628045
-153.5695428806041
-160.48271650856714
-167.49774802437
-174.62184667395638
-181.86227372351155
-189.22633392972313
-196.72136528941232
-204.3547268934824
-212.13378472154164
110.13786073270023
102.41422320244973
94.80791152637289
87.3149636402558
79.93144371522864
72.65342051849768
65.47694749024343
58.398044632346725
51.41268227417882
44.51676674953189
37.706127987830186
30.97650899253731
24.323557151193917
17.742817295107564
11.229726403209794
4.779609824422639
-1.6123211238233317
-7.950970335894677
-14.2413570408074
-20.488615035914655
-26.697991200383992
-32.874843454285056
-39.02463832246604
-45.15294825243096
-51.26544882256377
-57.36791596180422
-63.4662232842708
-69.56633962336275
-75.67432682913781
-81.79633787133568
-87.93861526837824
-94.10748984006887
-100.30937975935365
-106.55078985628421
-112.83831110548674
-119.17862020742257
-125.5784791536008
-132.04473464681865
-138.58431722972728
-145.20423995877584
-151.91159644608172
-158.71355807922083
-165.61737021859992
-172.63034716419907
-179.75986567866147
-187.0133568519144
-194.39829609448068
-201.9221910525335
-209.59256724833813
107.71370695640476
100.08805759393334
92.5787265531585
85.1819422754105
77.89395284600192
70.71100283210481
63.62931205901765
56.64505642763239
49.7543508412303
42.95323427435167
36.23765698108359
29.60346980573448
23.04641552658412
16.562122133354706
10.146097912658044
3.7937281930735427
-2.499726417028338
-8.739130479561192
-14.92947305460751
-21.075866100522635
-27.18354214069376
-33.25785138714319
-39.30425850285307
-45.32833917277532
-51.3357766384848
-57.332358333505404
-63.32397273627668
-69.31660653590833
-75.31634218240528
-81.32935586890024
-87.3619159685192
-93.42038192339899
-99.51120355828294
-105.64092076638248
-111.81616349102549
-118.04365190309284
-124.33019665185235
-130.682699045493
-137.1081509975905
-143.61363455735264
-150.20632082471963
-156.8934680367693
-163.68241859935074
-170.58059482786152
-177.59549315425733
-184.73467655360392
-192.00576494363207
-199.41642331501828
-206.9743473592835
105.22948341874384
97.70370891645673
90.29321544737805
82.99443831366746
75.80382451845837
68.717807983142
61.73278695167109
54.84510369310003
48.0510265739742
41.34673453169719
34.72830393948918
28.191697814344415
21.73275728253723
15.347195183249433
9.03059166102238
2.7783915723875623
-3.414096488345413
-9.551699754363156
-15.639379662511411
-21.682229264506244
-27.68546989652035
-33.65444732480689
-39.594627574723695
-45.51159263627303
-51.41103622170065
-57.298759729787186
-63.18066854848531
-69.0627688025314
-74.95116462622437
-80.85205601425506
-86.77173727560493
-92.71659608753058
-98.69311311876396
-104.70786216362607
-110.76751070199438
-116.87882077408355
-123.04865003411744
-129.28395282335913
-135.59178108043247
-141.97928488624353
-148.45371242164634
-155.02240909895218
-161.69281561356075
-168.47246464955353
-175.36897596389784
-182.39004956777526
-189.5434567215276
-196.83702846190624
-204.27864138748905
102.68581514771752
95.26169644660594
87.95179578863018
80.75277288954885
73.66128969464465
66.67398386838063
59.787444749780164
52.998191894681426
46.30265628065629
39.697164203822
33.177923850206376
26.74101447965456
20.382378117871166
14.097813613787164
7.882972885604852
1.7333591504087922
-4.3556730902054275
-10.388916552620708
-16.3713084159153
-22.307926566862825
-28.2039851012372
-34.06482933006298
-39.895930526699374
-45.70288063368592
-51.491387127541294
-57.26726821551301
-63.03644851181648
-68.80495531237169
-74.57891555719195
-80.36455353881922
-86.16818938416279
-91.9962383058587
-97.85521058849608
-103.75171224478689
-109.69244624720147
-115.68421421209236
-121.73391838592849
-127.84856375708324
-134.0352600917032
-140.30122366904232
-146.65377847002586
-153.10035655310838
-159.64849733408818
-166.30584547150292
-173.08014704725974
-179.97924372323283
-187.01106454999007
-194.18361510338784
-201.50496362948797
100.0833494987018
92.76255260211038
85.55489004048681
78.45726477913993
71.4665708154548
64.57966482284468
57.79334057355097
51.10430627328629
44.50916488837315
38.004397492344296
31.586349605439537
25.251220449001483
18.99505498828937
12.813738593502697
6.702994110477832
0.6583811006690048
-5.324703014847975
-11.251020190426573
-17.12548766336698
-22.953172830550844
-28.739287387277106
-34.489181011724604
-40.208334862889615
-45.90235513953659
-51.576966923245315
-57.23800850066144
-62.891426329605025
-68.54327078118784
-74.19969275641986
-79.86694124126707
-85.55136182952734
-91.25939620836061
-96.99758256731346
-102.77255685849916
-108.59105480319539
-114.45991450898383
-120.38607953152199
-126.37660218631169
-132.43864688844536
-138.57949327244896
-144.8065388202199
-151.12730070246172
-157.5494165188555
-164.08064360420678
-170.72885655265617
-177.50204260009122
-184.4082944970467
-191.45580050088518
-198.65283111773817
97.42275439628565
90.20682048942273
83.1029225256445
76.10822693414806
69.21987803148532
62.43496768863311
55.750508129676
49.163408009114534
42.67045185417913
36.268282896367964
29.953389254747123
23.722093374067626
17.57054456527328
11.494714446060053
5.490395035689664
-0.44680077741030466
-6.3214367041055075
-12.138248787090536
-17.902139735953973
-23.618172205332094
-29.291561351269884
-34.92766698823276
-40.53198565030824
-46.11014283574368
-51.66788568516486
-57.211076311412775
-62.74568596391721
-68.27779017357865
-73.81356498610322
-79.35928435319167
-84.92131871247679
-90.50613474909264
-96.12029629440939
-101.77046628115792
-107.46340963904257
-113.20599698100145
-119.00520889758302
-124.8681406457155
-130.80200698812018
-136.81414691106332
-142.9120279212914
-149.1032495975015
-155.39554604840615
-161.79678690817246
-168.31497648135826
-174.95825063407807
-181.73487101629297
-188.6532161930073
-195.72176926012895
94.70471610870749
87.59505092975633
80.59631583936574
73.70596242982224
66.92140484027902
60.23998730026155
53.65895520335981
47.1754298746838
40.78638712517569
34.48863961369739
28.278822966252882
22.15338553304288
16.108581600194455
10.140467815992924
4.244902542220932
-1.5824521987918425
-7.346126540814566
-13.050836733939454
-18.701477638453724
-24.303114142974188
-29.860971889504956
-35.38042767168322
-40.86699984938154
-46.32633909367975
-51.76421974220718
-57.18653200731197
-62.59927523925046
-68.00855240463622
-73.42056589748661
-78.84161475728683
-84.27809332579919
-89.73649133253119
-95.22339535809814
-100.74549158516862
-106.30956970875805
-111.92252784093986
-117.59137820982957
-123.32325341887706
-129.12541299997145
-135.0052499625985
-140.97029701151055
-147.02823207695818
-153.18688277477366
-159.4542293888229
-165.83840594575398
-172.34769893251473
-178.9905431909244
-185.77551451191232
-192.71131844557527
91.92993649401376
84.9277988960788
78.0354866290518
71.25075975217142
64.57132305551487
57.99479131480881
51.51865852817659
45.14027131802315
38.85680659890349
32.66525352815079
26.56239967276567
20.54482124652295
14.608877197721215
8.750706862657237
2.9662308442068137
-2.7488452698278945
-8.399024766894225
-13.9890116881203
-19.523701174311114
-25.008168727218845
-30.447658822404037
-35.84757328911142
-41.21345984426871
-46.55100113282006
-51.86600458648091
-57.16439336947613
-62.452198633490966
-67.73555325648553
-73.02068719176776
-78.3139245059285
-83.62168213714286
-88.95047035954464
-94.30689489524545
-99.697660572908
-105.12957639090772
-110.60956180393352
-116.1446540141872
-121.74201601191555
-127.40894507514433
-133.15288140445745
-138.9814165360012
-144.90230114429377
-150.92345181618492
-157.05295634859846
-163.29907709578933
-169.67025186781865
-176.175091860705
-182.8223760817308
-189.62104172154812
89.09912965046053
82.2056192857302
75.42084065898985
68.74288734069403
62.16977702454399
55.69941430653146
49.329557959717604
43.05779291118094
36.881507030825546
30.797872743461454
24.803833378470863
18.896094078831705
13.071117006532488
7.325120506436563
1.6540818275598035
-3.946257049114088
-9.480380963137009
-14.952991016406587
-20.368992421620135
-25.733481270172923
-31.051730716344352
-36.329177048221105
-41.571406081019695
-46.78414026662601
-51.97322686593158
-57.14462747995013
-62.30440918245691
-67.4587374429202
-72.61387097441005
-77.77615858797341
-82.95203808325951
-88.14803715529628
-93.37077624962525
-98.62697325230228
-103.92344985766184
-109.26713941519017
-114.66509601679121
-120.12450454705525
-125.65269138192501
-131.25713538451294
-136.9454788113128
-142.72553770720864
-148.60531133370432
-154.59299014189128
-160.69696177012295
-166.92581451705453
-173.28833771376497
-179.793518395557
-186.45053365572187
86.21301789624513
79.42906194431927
72.75276706929561
66.18258729228077
59.71687700017706
53.35385103581413
47.091549870451466
40.92781009230937
34.86024033095847
28.88620262188963
23.002799102033716
17.206863819224754
11.494959340551652
5.8633777586614695
0.30814562350772934
-5.174967728350619
-10.59043901374089
-15.942977601390748
-21.23751046447687
-26.479166074170017
-31.67325779929831
-36.8252673439593
-41.94082871215381
-47.02571313836704
-52.08581536737026
-57.127141607573755
-62.155799421261634
-67.17798975375737
-72.20000124306824
-77.22820689258279
-82.26906313282953
-87.32911124425465
-92.41498106182082
-97.5333968335603
-102.69118505925195
-107.89528409165884
-113.1527552405899
-118.47079507953931
-123.85674861519279
-129.31812294109852
-134.8626009584699
-140.4980547090576
-146.23255782705638
-152.0743965797622
-158.03207893000513
-164.11434101813214
-170.33015042807233
-176.68870557170294
-183.19943049988828
83.27232699502447
76.59866584613286
70.03163172646556
63.57006811978098
57.212691560549075
50.958048791089745
44.80447967353203
38.75008612206867
32.79270718673489
26.929900283583116
21.158928432894793
15.476753241405074
9.880033250778544
4.3651271760826
-1.0718985228897275
-6.435258356153918
-11.729433464265206
-16.959154907535083
-22.129385269198043
-27.245299243882222
-32.31226385346467
-37.33581889037357
-42.32165813593376
-47.27561184117012
-52.203630891914514
-57.11177301135374
-62.00619128327682
-66.89312520989165
-71.77889445037746
-76.66989532133613
-81.57260007861005
-86.49355894177522
-91.43940476814238
-96.41686023175198
-101.43274731496909
-106.49399887460832
-111.60767200085616
-116.78096284524342
-122.0212225524875
-127.33597389005602
-132.73292812829402
-138.2200016827143
-143.80533198812049
-149.49729203231632
-155.30450293485885
-161.23584391464024
-167.30045894959926
-173.50775939345158
-179.86742177965803
80.27778053395733
73.71495232438951
67.25776954946619
60.90549644455258
54.65723895700715
48.511898689535485
42.468133372336126
36.52432416676217
30.6785499439935
24.928568521043843
19.27180467947689
13.705344645326798
8.225936576741018
2.8299964927380614
-2.4863810147600307
-7.727408011559261
-12.897585164351957
-18.00168118679384
-23.044710577431506
-28.031910416876592
-32.968716952874026
-37.86074264887088
-42.71375430745867
-47.53365280777047
-52.326454918528675
-57.09827756849916
-61.85532487600535
-66.60387816072196
-71.35028908542373
-76.10097600397924
-80.8624235249479
-85.64118523799331
-90.4438894928265
-95.27724806690566
-100.14806750872738
-105.0632628965233
-110.02987370772652
-115.05508145145437
-120.1462286733945
-125.31083889996137
-130.55663704514464
-135.89156975908062
-141.32382515161572
-146.86185127716465
-152.51437271893963
-158.29040456196986
-164.1992629956631
-170.25057173914388
-176.4542634376983
77.23009334961708
70.77841723062122
64.43147567951434
58.188987485845814
52.05047725383271
46.01522580766755
40.08222802025365
34.250158411524666
28.517344672740432
22.88174908206831
17.340957591511795
11.89217619299723
6.532234018225033
1.2575924970570245
-3.9356402037590517
-9.051690314275639
-14.095096065839567
-19.070682682573384
-23.983535667739503
-28.83897326162647
-33.64251889674135
-38.39987440920966
-43.11689468671599
-47.79956434648827
-52.453976945384184
-57.086317131255235
-61.70284605297039
-66.3098902579588
-70.91383422220723
-75.52111657946617
-80.1382300443776
-84.77172495834124
-89.4282163268898
-94.11439416246964
-98.83703689609972
-103.60302757410945
-108.41937251147567
-113.29322202974781
-118.23189286412051
-123.24289178046044
-128.33393989770005
-133.51299716364215
-138.78828638273052
-144.16831614213731
-149.66190192793596
-155.27818466691866
-161.02664587188065
-166.9171185104891
-172.9597926612872
74.12996388384619
67.78952188602501
61.55299534323104
55.42059419056412
49.39229310481648
43.46777799604355
37.64640096130235
31.92714409695704
26.308592339150046
20.788915274460514
15.365857643814952
10.036738060219607
4.798455282810351
-0.35249875916674733
-5.420020114691896
-10.408369134877441
-15.322143021965928
-20.16624566591628
-24.945855813422796
-29.66639457007029
-34.33349316998525
-38.952961863360606
-43.53076067601356
-48.072972690898865
-52.58578039347971
-57.07544551494719
-61.54829270225563
-66.0106972442623
-70.46907699036821
-74.92988851287966
-79.39962748738463
-83.88483319627045
-88.39209699865819
-92.92807455458518
-97.49950154084154
-102.11321254936831
-106.77616281513095
-111.4954523773881
-116.27835223515274
-121.13233201324398
-126.06508860854144
-131.08457523612495
-136.19903024172586
-141.41700498947995
-146.74739007272808
-152.19943903113813
-157.78278868980348
-163.50747516687488
-169.38394452661308
70.97806533615574
64.74868266832425
58.62251223711445
52.6002948243736
46.68248898988432
40.86921321274677
35.160197706465624
29.55474636190204
24.051709000353956
18.649463847171592
13.345909876546063
8.138468440016556
3.0240933839144897
-2.000711309648606
-6.939867453341346
-11.797693339026893
-16.578870403496687
-21.288407108362804
-25.93160123653127
-30.514001746616266
-35.0413712405572
-39.51964999457687
-43.95492238581697
-48.35338642182245
-52.721326952583965
-57.06509301956042
-61.39107967618164
-65.70571450239869
-70.01544893346346
-74.32675443103446
-78.64612344321267
-82.98007502849059
-87.3351649559771
-91.71800003934159
-96.13525641286365
-100.5937014134225
-105.10021869027747
-109.66183612315892
-114.28575608737084
-118.97938756046098
-123.75037951745318
-128.60665500966843
-133.55644526528548
-138.6083230870843
-143.7712347547333
-149.05452956554058
-154.46798606929102
-160.0218339710446
-165.72677059140386
67.77503546075492
61.656259054631775
55.64013523533589
49.72797881827029
43.920768709289845
38.219085187763966
32.62305828286651
27.132327763411247
21.746014934112207
16.462706105813396
11.280447297998471
6.196749451577074
1.2086031885096526
-3.6874980404751447
-8.495527723262702
-13.219890364509498
-17.865381311798977
-22.437143761190537
-26.940624325634616
-31.38152846669037
-35.76577697891656
-40.099464584827516
-44.388821554303405
-48.640179112090934
-52.85993924678576
-57.054549389450585
-61.230482293375374
-65.39422132125827
-69.55225123390302
-73.71105447577247
-77.87711286738073
-82.05691454158995
-86.2569658988065
-90.48380830328547
-94.74403919656672
-99.04433726318916
-103.3914912453067
-107.79243196458569
-112.25426707051992
-116.78431799141073
-121.3901585168185
-126.07965438679214
-130.8610032030232
-135.74277390925812
-140.73394501299458
-145.8439406375795
-151.08266340410188
-156.46052304670718
-161.98845956440488
64.52146483444955
58.51253991342976
52.605883192112756
46.80343063303664
41.10672090277849
35.51682720418964
30.03430187279674
24.659134332762267
19.390722612125003
14.227858226417133
9.168723871079692
4.2109030322968435
-0.6485996552563614
-5.413328698235604
-10.0873402364373
-14.675158387030569
-19.181727126023148
-23.612359369689592
-27.97268484732064
-32.26859824505829
-36.50620895793221
-40.69179362320251
-44.831752432168756
-48.93257003752581
-53.000781696401106
-57.04294512118645
-61.06561835512616
-65.0753438501226
-69.0786388021568
-73.08199169489802
-77.09186491401357
-81.11470322203294
-85.15694782389296
-89.225055704558
-93.32552387899737
-97.46491815936814
-101.64990601113172
-105.88729303645181
-110.18406258789284
-114.54741797516732
-118.98482668130458
-123.50406595036446
-128.11326904570814
-132.82097140519892
-137.63615583686698
-142.5682958058352
-147.62739576128962
-152.82402734116
-158.1693601741099
61.217883395240236
55.31772780571512
49.51966757303707
43.82631136628788
38.23980032561189
32.76173375198491
27.393109537166104
22.134280013510118
16.984923423845203
11.944030740889938
7.009907125424482
2.1801869214409444
-2.548139240811733
-7.178686916724221
-11.715631752516856
-16.163656778887113
-20.527895070399676
-24.81386970281488
-29.02743283794947
-33.17470561712944
-37.26202036186847
-41.29586637626741
-45.2828404309017
-49.22960279248642
-53.142839455626294
-57.02923103908084
-60.89542863346082
-64.74803673297322
-68.59360325199535
-72.43861651750905
-76.28950903941117
-80.15266779027125
-84.03445067125502
-87.94120879860829
-91.87931421171773
-95.85519257593455
-99.8753604280331
-103.9464664856961
-108.07533651257933
-112.26902119447126
-116.53484643785303
-120.8804654480783
-125.31391187886886
-129.84365326753058
-134.47864387995077
-139.22837598643372
-144.10292847420925
-149.1130115750728
-154.27000634923337
57.86474501956974
52.07192101552158
46.381272605247226
40.79613778156519
35.319306571298846
29.952939774678615
24.698504792493956
19.556729314327036
14.527573058062384
9.61021718215015
4.8030704650945815
0.10379088402741432
-4.490679156503646
-8.984065982185953
-13.380708419856326
-17.68549450181802
-21.903793426602206
-26.041385022000256
-30.10438881217632
-34.09919459468366
-38.032396200843195
-41.91072985927829
-45.74101832088935
-49.5301216462016
-53.28489531220955
-57.01215607289408
-60.718655810048915
-64.41106344168935
-68.09595481452935
-71.77981039405006
-75.46902047808452
-79.16989759441198
-82.88869569593012
-86.63163573416765
-90.40493716919161
-94.21485495678503
-98.06772153873673
-101.96999334488027
-105.9283012932259
-109.94950474440125
-114.04074832588972
-118.20952098859186
-122.4637165911422
-126.81169522558685
-131.26234440035742
-135.8251390828002
-140.51019947430683
-145.32834524660134
-150.29114480921547
54.46240986765459
48.7750929818836
43.190332582815884
37.71225838484452
32.34435988105296
27.089397188338815
21.949331782117188
16.92527799642227
12.017475453498928
7.225281898106721
2.5471852793723846
-2.01916662458803
-6.476921186466558
-10.829962985855786
-15.082845616075396
-19.24071599956127
-23.309233943585443
-27.294489546673024
-31.202920867455056
-35.04123401101516
-38.816327492727034
-42.53522242518785
-46.204999756087254
-49.83274547822943
-53.42550444808722
-56.990243194010034
-60.533821874440164
-64.0629753622392
-67.58430328318484
-71.10426872307801
-74.62920523490435
-78.16533172083406
-81.71877472862276
-85.29559768248672
-88.90183656012292
-92.54354152453638
-96.22682401746994
-99.95790881602188
-103.74319054165353
-107.58929408841976
-111.50313840148668
-115.49200298628435
-119.56359646085662
-123.72612637796492
-127.98836943856956
-132.3597410937647
-136.85036338848545
-141.47112973758
-146.23376514390517
51.011124179028286
45.42706874527297
39.94630589859746
34.5738261085985
29.313873620733254
24.169848304541702
19.14423075077766
14.238531603125669
9.453265238585868
4.787947073744232
0.24111301395412132
-4.189641086222496
-8.507602596120027
-12.716870924068
-16.822275193652153
-20.82928406436455
-24.743910911269396
-28.5726173969544
-32.32221819868134
-35.99978931946258
-39.61258203853114
-43.16794416784309
-46.67324989635924
-50.13583913959262
-53.56296698049134
-56.96176349730173
-60.33920402927558
-63.70208973317956
-67.05703813092717
-70.41048323803233
-73.7686847885903
-77.13774602929723
-80.52363953616845
-83.93224050628574
-87.36936698698153
-90.84082651989132
-94.35246869234135
-97.91024309816007
-101.5202622101277
-105.18886865369885
-108.92270634255033
-112.72879488926363
-116.61460663674924
-120.58814556648613
-124.65802722754762
-128.83355869478174
-133.12481740588345
-137.54272754508372
-142.09913243680836
47.51099714243099
42.02749794943048
36.648445294431184
31.379767084702003
26.2265229353384
21.192795733359972
16.281610496790524
11.49488162888821
6.833388596591612
2.29677904268139
-2.1164025742036627
-6.408663486343283
-10.583491538602066
-14.645268196433305
-18.599169523333668
-22.451059041858183
-26.2073762628324
-29.87502440507764
-33.461260463920695
-36.97359035393658
-40.41967138088806
-43.807223818239706
-47.143952899015765
-50.437482102753314
-53.695298233643925
-56.92470845805855
-60.13280920114941
-63.32646659301895
-66.51230800194062
-69.69672408950072
-72.8858807632974
-76.08574037914538
-79.30209154798176
-82.54058692514899
-85.80678839330227
-89.1062190877901
-92.44442174921902
-95.82702291567611
-99.25980248251017
-102.74876815701072
-106.30023431468439
-109.92090472135763
-113.61795851867707
-117.39913877806094
-121.2728428091543
-125.24821326219433
-129.33522888969821
-133.54479363103516
-137.88882245460832
43.961974392657936
38.575823850820505
33.2957637246373
28.12874489193301
23.08070900670424
18.156468277814703
13.359617438060404
8.6924791180299
4.156082518261726
-0.2498259723687879
-4.52674266830447
-8.677340356148354
-12.705379991572924
-16.615604816628796
-20.413621590746974
-24.10577360711977
-27.699009950910657
-31.2007550846755
-34.618782360636224
-37.96109450146494
-41.23581350019149
-44.45108180054953
-47.61497606015957
-50.735434291557056
-53.82019673494278
-56.87676044970675
-59.91234732140048
-62.93388496461064
-65.94799985465406
-68.96102193345135
-71.97899989790874
-75.00772638223702
-78.05277227835683
-81.11952949109579
-84.21326148792033
-87.33916106836242
-90.50241483904165
-93.70827392988808
-96.96213052082143
-100.26959976180234
-103.636606658952
-107.06947746298022
-110.57503503147659
-114.16069754187046
-117.83457980612357
-121.60559628072883
-125.48356467589474
-129.47930884572605
-133.6047593871064
40.363807598274484
35.071247678229945
29.886995108465896
24.819119547573322
19.874518239034167
15.058782256163509
10.376100887397502
5.829205482313814
1.4193524441696626
-2.8536564713228687
-6.991419725246743
-10.99685168552665
-14.874073474149561
-18.628284482049164
-22.265620234468077
-25.793002187693535
-29.217984703430393
-32.54860393078958
-35.7932326825881
-38.96044467649825
-42.058890771801394
-45.097189111235124
-48.083830408145815
-51.02709902550653
-53.93500999042111
-56.815261682311096
-59.675203624640815
-62.521818593640205
-65.361718123629
-68.2011504253601
-71.04601972849133
-73.9019160982486
-76.7741548471004
-79.66782475248688
-82.58784439078595
-85.53902599658166
-88.52614634659518
-91.55402424301386
-94.62760422600164
-97.75204617524415
-100.93282046239638
-104.17580828732613
-107.48740676910435
-110.8746382663363
-114.34526326946676
-117.9078960392878
-121.57212196055059
-125.34861533708506
-129.24925607484397
36.71601949354238
31.512687548878695
26.42054910021546
21.44890037075105
16.605675575627803
11.897297601323672
7.328574089959761
2.9026403342163025
-1.3790516415907386
-5.516700313709311
-9.5120823175439
-13.368445921060342
-17.09037659292765
-20.683641440709078
-24.15501941099767
-27.512123922394206
-30.763224102699535
-33.917070092651386
-36.98272703186768
-39.969421427558736
-42.88640268428579
-45.74282169420653
-48.54762759034661
-51.30948307608183
-54.0366981767542
-56.737181818190535
-59.418410317808465
-62.08741166725705
-64.75076437691268
-67.41460962583889
-70.0846754989934
-72.76631217957191
-75.46453708300197
-78.18408905582025
-80.92949090524581
-83.70511966363527
-86.51528411691406
-89.36430923085324
-92.25662718851089
-95.19687480100882
-98.18999706961016
-101.24135665688526
-104.35684896636113
-107.54302243267053
-110.80720348643541
-114.15762547891347
-117.60356063069041
-121.15545380572658
-124.82505660608716
33.017863569674034
27.89873097780251
22.894458823808616
18.015691671510904
13.2714910047547
8.669167986491424
4.214170532932565
-0.08997384582440227
-4.241660518448171
-8.241158907963637
-12.090517714193423
-15.793431031462177
-19.35507321396745
-22.781910837540877
-26.081500126940828
-29.262277823822277
-32.33335274494145
-35.30430431629842
-38.184993260786655
-40.98538845276505
-43.715412808204
-46.38481001391094
-49.00303295693212
-51.57915392238955
-54.12179599684916
-56.63908464425929
-59.13861810324964
-61.62745507154861
-64.11211807537484
-66.59861094696359
-69.09244892961235
-71.59870007625923
-74.12203678564282
-76.66679651301311
-79.23705088656666
-81.8366826447912
-84.46946997449811
-87.13917796742567
-89.84965701961895
-92.60494806778682
-95.40939458777052
-98.2677612697864
-101.18535923112896
-104.1681775291251
-107.22302059366643
-110.35765100906927
-113.58093683909922
-116.90300240559539
-120.3353810996703
29.268277466756032
24.22757980479572
19.306320292312723
14.516630006332194
9.868798137774446
5.371084110918803
1.0295949972320224
-3.1517703479787076
-7.171312165695635
-11.02946028315741
-14.728651175065703
-18.273160326363158
-21.668899741332616
-24.923190906921995
-28.044523383330112
-31.042308552970617
-33.92663702548188
-36.70804689696295
-39.3973086189231
-42.00523075814841
-44.542489514955676
-47.01948358432387
-49.446214839531
-51.83219441685795
-54.186373090038
-56.51709433690199
-58.832068200344224
-61.13836390619743
-63.44241919376182
-65.75006441146402
-68.06655960236701
-70.396643026903
-72.74458982073315
-75.11427974551333
-77.50927324457737
-79.9328952515645
-82.38832640914055
-84.8787015298524
-87.40721526677088
-89.97723505438654
-92.59242142743696
-95.2568558252602
-97.97517594034458
-100.75271857149168
-103.5956697932581
-106.51122205372965
-109.50773756171617
-112.59491702124869
-115.78397241501087
25.46582888835986
20.496986096034437
15.653221950634427
10.948311478201557
6.393883532362564
1.9992091489721384
-2.228931212124582
-6.286300244849654
-10.171178881840735
-13.88427010850214
-17.428540598842
-20.80901133532008
-24.03250958652581
-27.107394991408146
-30.043272123105005
-32.850700912044175
-35.54091485728761
-38.12555521551574
-40.61642748830184
-43.02528467036031
-45.36363998578023
-47.64261030561764
-49.87279015860313
-52.064155238304004
-54.22599357402555
-56.36686205083988
-58.49456570664995
-60.61615716489677
-62.73795364191536
-64.86556916025478
-67.00395986889035
-69.15748068770851
-71.32995183121008
-73.52473410460148
-75.74481218793107
-77.9928854183906
-80.27146583865823
-82.58298349363383
-84.92989912485174
-87.31482452835864
-89.74065090612896
-92.21068555172903
-94.72879716731381
-97.29957001050161
-99.92846691591195
-102.6220010267293
-105.38791580594578
-108.23537257470655
-111.17514444504525
21.60865258254471
16.7041772399987
11.93166242589749
7.306707234962446
2.8424051811715865
-1.4508947810812551
-5.565731439311867
-9.497577727533669
-13.244794395138516
-16.808499370414726
-20.192364727539303
-23.402355569717287
-26.446426417704448
-29.334190893744836
-32.07657975131322
-34.685500813529416
-37.17351236980027
-39.55351926594156
-41.83849851482583
-44.04125892595316
-46.174237135864566
-48.24933060554304
-50.27776668388595
-52.27000573066921
-54.23567553333959
-56.183533805646356
-58.12145537657788
-60.05644071426951
-61.99464263037528
-63.94140832770855
-65.9013343456206
-67.87833238794953
-69.87570445849596
-71.8962261568433
-73.94223738624493
-76.01574008357281
-78.1185028909935
-80.25217294498187
-82.41839515749626
-84.61893950467282
-86.8558369197537
-89.13152440832515
-91.44899996536937
-93.81198777491659
-96.2251140143139
-98.69409336598
-101.22592605963133
-103.82910492740685
-106.51383155145383
17.69437657825349
12.845768028760824
8.137454124734921
3.587064917825624
-0.7907017171012167
-4.984350433863362
-8.985741830934842
-12.790128536243444
-16.39607993046289
-19.80530693994443
-23.022402539953436
-26.054516372195728
-28.91098315923844
-31.602924493647418
-34.142842299768276
-36.54422008852636
-38.821145356972224
-40.98796342341132
-43.05896990198841
-45.04814612047944
-46.968939225739305
-48.834086596521935
-50.655482533142845
-52.44408401448008
-54.2098515688717
-55.96172094040686
-57.70760117831855
-59.454394964718695
-61.208037358143
-62.973549607702594
-64.75510523449341
-66.55610614286705
-68.37926708264624
-70.22670731171704
-72.10004879076462
-74.00052066773588
-75.9290701732008
-77.88648034568399
-79.8734952371351
-81.89095341277485
-83.93993065725368
-86.02189283052316
-88.13885978287908
-90.29358113954396
-92.48972460122727
-94.73207717842976
-97.02675948347945
-99.38145284618224
-101.80563859472193
13.720035411832072
8.917656968917791
4.265609753922567
-0.21620668718777836
-4.511333950760094
-8.607061017720987
-12.494586997527993
-16.16904098244703
-19.629367720148167
-22.87809462391371
-25.921000721241445
-28.766711270275984
-31.42624294296742
-33.912523864373156
-36.23991072629763
-38.423722058104005
-40.479802959208705
-42.42413257271469
-44.27248164560423
-46.04012393605582
-47.741602165582705
-49.3905467643389
-50.99954384465486
-52.580047629969314
-54.14233189652526
-55.69547476596482
-57.24737132252466
-58.80476892547411
-60.37332066084044
-61.95765305413932
-63.56144488894518
-65.18751470003185
-66.83791520175248
-68.51403355047105
-70.21669691032916
-71.94628328677175
-73.70283800939568
-75.48619658423661
-77.29611489672047
-79.13240793237415
-80.99509829488609
-82.88457584155597
-84.80176972624125
-86.74833403999544
-88.72684807035492
-90.7410319620064
-92.79597825439359
-94.89839939645553
-97.0568908943972
9.681967492902238
4.914903364893933
0.3102081259953824
-4.109673163709958
-8.326347132750728
-12.32581919514277
-16.098663596210837
-19.640018652669774
-22.949419783335667
-26.030491435859133
-28.890525123388304
-31.539974247834756
-33.99189725915992
-36.26137928779808
-38.36495916859098
-40.320084316445325
-42.14461079303814
-43.856360641593
-45.47274358711324
-47.01044580820546
-48.48518486847213
-49.91152712730079
-51.30276202109071
-52.670826443191366
-54.026271942094255
-55.3782674725672
-56.73463084199309
-58.10188267239028
-59.48531754192889
-60.88908789288237
-62.31629722993108
-63.769100036313034
-65.24880667358579
-66.7559922848391
-68.29060938131131
-69.85210435534131
-71.43953863007484
-73.05171553173938
-74.68731425779303
-76.34503251885559
-78.02373955722632
-79.72264129278432
-81.44145932019157
-83.18062538022437
-84.94149275351201
-86.72656577706769
-88.53974836364307
-90.3866120114364
-92.27468332813406
5.575693000549399
0.8315808124104961
-3.7357653004350078
-8.101034290063671
-12.243703378726497
-16.148431325363802
-19.805232026185994
-23.209433285478056
-26.361438878970873
-29.266322673591546
-31.933290862669963
-34.37505207422158
-36.607135379719566
-38.64719357259886
-40.51432421589847
-42.228434682616104
-43.80967051627313
-45.27791960265944
-46.652398391033515
-47.95132108427842
-49.191648514982916
-50.388910378969825
-51.557092542638024
-52.708580138161196
-53.854146936251425
-55.002981854147464
-56.16274424084243
-57.33964062754846
-58.53851681165209
-59.76296035944185
-61.01540979579728
-62.29726785098051
-63.609017127884
-64.950337424398
-66.32022469194948
-67.71711223620693
-69.13899527687192
-70.58356038899271
-72.04832165640424
-73.53076558667732
-75.02850697119727
-76.53945792780206
-78.0620123388201
-79.59524779488888
-81.13914697537106
-82.69484013880842
-84.26487006292321
-85.85348036406495
-87.46692764285106
1.3957677119819714
-3.3393984347698003
-7.880608865374926
-12.199313290090771
-16.27264362817528
-20.08385890385143
-23.622516043696045
-26.884375439044412
-29.871067263799304
-32.589557849749795
-35.051464047204846
-37.27226721820325
-39.27047768714286
-41.066795914720664
-42.68330943097601
-44.14275580284689
-45.467872684176186
-46.6808471782703
-47.80286896849487
-48.853785322415554
-49.85185130250775
-50.81356529226027
-51.753578114478486
-52.68466334779637
-53.61773667743563
-54.56191299106345
-55.52459122073314
-56.5115584464568
-57.52710636745021
-58.57415480662003
-59.654378371047606
-60.76833370416435
-61.915585914960765
-63.094833752276784
-64.30403391494268
-65.54052556387653
-66.80115664516929
-68.08241405873096
-69.3805600278725
-70.69177725225967
-72.01232556672302
-73.3387128863184
-74.66788319557543
-75.99742423668845
-77.32579736751455
-78.65259179397528
-79.97880503363115
-81.3071510395043
-82.64239690885522
-2.8643931321610117
-7.606495296321962
-12.13413336429366
-16.41508184105008
-20.42388911658277
-24.14237920850765
-27.559809466872828
-30.672699296643692
-33.484367122392165
-36.00422945678123
-38.24692597685668
-40.23133784148163
-41.979563797521664
-43.51591119913337
-44.86594848038875
-46.05565348419197
-47.11067978737821
-48.0557518855349
-48.91419055277488
-49.70756225308723
-50.45544122733964
-51.17526966295371
-51.882299878617985
-52.58960236162829
-53.30812440753397
-54.04678568778588
-54.812599020782486
-55.610806717596134
-56.445024949683685
-57.31739053197184
-58.22870626598341
-59.17858251402221
-60.165573972360335
-61.18731168978617
-62.24063125845476
-63.321698811128925
-64.42613701717163
-65.5491537013112
-66.68567603214719
-67.83049345586505
-68.97841269281132
-70.12442817554138
-71.26391128753706
-72.39282165996373
-73.50794359758176
-74.6071504310587
-75.68969923104113
-76.7565578713619
-77.81076589986232
-7.212728537377247
-11.979800984834439
-16.507938097454854
-20.76072869487073
-24.70987731037567
-28.33576707081697
-31.627588122334
-34.58305611824325
-37.20777409239277
-39.51431178078506
-41.521087865987894
-43.251142820956744
-44.730884277168684
-45.98887514287857
-47.0547193740695
-47.95808360503369
-48.72787667333708
-49.3915948053861
-49.97482868848947
-50.500920163924896
-50.9907507559112
-51.462641355615226
-51.93234161209201
-52.41308840135302
-52.915714634357485
-53.448792179296035
-54.01879545876734
-54.630275078213714
-55.286033473792514
-55.98729693286671
-56.73388039049406
-57.52434313178569
-58.356134950337335
-59.2257334585695
-60.128774155199366
-61.06017556733294
-62.014262335591965
-62.984889530713076
-63.96557180264723
-64.94962118544508
-65.93029752242785
-66.90097554066321
-67.85533259022671
-68.78756096762682
-69.69260855827773
-70.5664512541519
-71.40640022699114
-72.21144666612307
-72.98264603022876
-11.65879293752683
-16.47135117720568
-21.015746037014246
-25.250781681609293
-29.14503850347324
-32.67749933764215
-35.837623586492995
-38.624908188042056
-41.04801192250741
-43.12354527434825
-44.874640529414876
-46.32941658842572
-47.51944229866545
-48.47828407249227
-49.240201581581005
-49.83903251993721
-50.30728629605194
-50.67544870231527
-50.97148595805038
-51.22052718134263
-51.44469896258677
-51.66308363453304
-51.89177327685519
-52.14399367898707
-52.430275722507105
-52.75865537571946
-53.134887303719246
-53.56266070685511
-54.043809242201554
-54.57850967703588
-55.16546625393612
-55.80207963839598
-56.484600820398995
-57.208271509720376
-57.96745346162491
-58.755749851176134
-59.566122329044454
-60.391007778702495
-61.22243908292735
-62.05217441593532
-62.87183971603025
-63.67308906466067
-64.44778769634306
-65.18822228124029
-65.88734294700838
-66.53904122816465
-67.13846774289371
-67.68239289865608
-68.1696133276859
-16.214077819649667
-21.095512572818677
-25.673813171774807
-29.902295259285605
-33.746120201580105
-37.182982790921194
-40.20309279670791
-42.8085112690564
-45.01195160976805
-46.83518704693081
-48.30721882814149
-49.46235470094663
-50.33832877714825
-50.97456652393221
-51.410667360370226
-51.68514646918642
-51.83445013305648
-51.89223706201961
-51.888902505889966
-51.85131223643169
-51.80270892919984
-51.76275296141322
-51.74766199287089
-51.77041783315643
-51.84101412972272
-51.96672366795727
-52.15236909829742
-52.400585421097794
-52.712066433409646
-53.08579054089037
-53.51922389708626
-54.00850082369068
-54.54858297882824
-55.133399868342806
-55.75597412439675
-56.40853558128166
-57.08262862206949
-57.76921759916799
-58.45879538016841
-59.14150025863422
-59.807246606117026
-60.44587472584194
-61.04732539020181
-61.60184448779826
-62.100223052599176
-62.53407767919648
-62.896175931006056
-63.18081081806115
-63.38422776670289
-20.892410926719265
-25.869461981198867
-30.50143148347973
-34.73531876381399
-38.53256729267613
-41.86980474938144
-44.738673798770826
-47.144848033882724
-49.10639186426267
-50.65166143092466
-51.81695474492924
-52.644106386812545
-53.17819145284849
-53.4654624558407
-53.551598784059095
-53.48030693075266
-53.292274957306766
-53.0244585151152
-52.70965853741257
-52.37634155925351
-52.048650997191416
-51.74655984926545
-51.48612046405892
-51.279773837916586
-51.136688232738706
-51.063104003150364
-51.06266791796234
-51.13674572686496
-51.28470619676318
-51.50417336954527
-51.79124648338565
-52.14068898951369
-52.54608952723001
-52.999998724016606
-53.49404638005772
-54.019044072129574
-54.56507854505337
-55.121601504225595
-55.677521616886175
-56.22130469363063
-56.74108816115182
-57.224816046492094
-57.66040075523938
-58.03591791629407
-58.3398404545909
-58.56131781050233
-58.690505826740306
-58.718952258360105
-58.64004213550717
-25.710455877694873
-30.813784612886202
-35.521550831263156
-39.77346421902948
-43.52696663136287
-46.758002807085944
-49.460612072312955
-51.645486938663026
-53.33772875405245
-54.57407582131145
-55.39988548235526
-55.86612483591382
-56.02657524482416
-55.93539503604218
-55.645123135897165
-55.20515156502192
-54.66065136206051
-54.05190630632454
-53.4139912025647
-52.77672448886887
-52.16482589897259
-51.598216175722584
-51.092405047964206
-50.658924017512014
-50.3057706732601
-50.037840463533755
-49.857329713751696
-49.764100054033676
-49.755999382310954
-49.82913819730315
-49.97812280310513
-50.196248730637926
-50.475658943194816
-50.80747216923232
-51.181887179238096
-51.58826910809746
-52.01522410458297
-52.45066872435271
-52.881900610310964
-53.29567714307061
-53.67830889656109
-54.015774887229924
-54.29386673360314
-54.49836890984508
-54.61528223820104
-54.631097574623055
-54.533126259121595
-54.30989330202536
-53.95159845874917
-30.68834293840986
-35.95322720302543
-40.76155277915113
-45.044597108313965
-48.755564697790746
-51.87034539164723
-54.38673299175274
-56.32232944990359
-57.71146995173755
-58.60155543786381
-59.0491736992748
-59.116339839296586
-58.86710840587864
-58.36472029096116
-57.66936219527363
-56.8365450312927
-55.916055041490765
-54.951398347645686
-53.97964387833952
-53.031567341197594
-52.13200589013795
-51.30034552127651
-50.55107791792267
-49.89437824880992
-49.33666892393241
-48.881145814983235
-48.52825272006269
-48.27609697377518
-48.1208043271226
-48.05681487495922
-48.07712423177625
-48.173475662049235
-48.33650972758853
-48.55587843953149
-48.82033106629065
-49.11777877762913
-49.435345289738706
-49.759410676583514
-50.07565556473082
-50.369113047650785
-50.62423583699287
-50.824986392981266
-50.954958006871266
-50.99753499466977
-50.93610024022243
-50.754298228324544
-50.43636136997789
-49.96750679389863
-49.33440984516884
-35.85047272769165
-41.317654000945424
-46.25421979120753
-50.58167896341418
-54.24886578501376
-57.232606795946
-59.53636244761329
-61.187191840932
-62.23153187907269
-62.7303355889401
-62.75408578266693
-62.37811091331821
-61.6785073179277
-60.72884234859497
-59.59769646432016
-58.34701135922114
-57.03114999799192
-55.69654141174445
-54.381773082550865
-53.11800011069043
-51.92955669639126
-50.83467646255171
-49.84624993116073
-48.97256758783529
-48.21801413153164
-47.58369325941728
-47.067972773576074
-46.666947311162524
-46.37482111520049
-46.184216517601584
-46.08641569041397
-46.07154415124915
-46.12870481652088
-46.24607133597455
-46.41094920109675
-46.609812830413944
-46.82832658582365
-47.051357521652335
-47.26298764195149
-47.446533550963515
-47.584581616176564
-47.65904709538655
-47.65126606087866
-47.54212931804503
-47.31226777686017
-46.94229879342868
-46.413142754378015
-45.70641854420619
-44.804925469947264
-41.226550306287365
-46.9432710219713
-52.038957193917334
-56.423796949278454
-60.04231456687822
-62.873807018704106
-64.93009704278657
-66.25114367825825
-66.89923458062505
-66.95253065574366
-66.4986610202927
-65.62891312865746
-64.4333734944366
-62.997188030528335
-61.397954940698696
-59.70415086702397
-57.97442437583946
-56.25756363879177
-54.592947252041576
-53.01130784257957
-51.53566818012227
-50.1823420403635
-48.96192258381524
-47.88020712435683
-46.93902797943328
-46.13697471133977
-45.470004113405324
-44.93194161408353
-44.51488223729177
-44.209501654293064
-44.00528884449159
-43.89071196262822
-43.85332857138972
-43.879850717145715
-43.956174592446956
-44.06738386739535
-44.19773526147918
-44.330634612545346
-44.44861160023606
-44.533301398692686
-44.56544185147314
-44.52489524578716
-44.39070435664253
-44.141193050974465
-43.75412227504374
-43.20691255743891
-42.47694409270078
-41.54194488443672
-40.380476224525175
-46.85292959661392
-52.87420853685938
-58.16334416273089
-62.61742248512985
-66.17705884466667
-68.82636483538734
-70.58933387871392
-71.52349039452801
-71.711877283558
-71.25447473843471
-70.2599904122551
-68.83870419481204
-67.09676168313537
-65.13204637051425
-63.03155654828586
-60.87008124410677
-58.70990538024183
-56.601263125448455
-54.58328239763084
-52.68520633601453
-50.927726712407704
-49.32431137478385
-47.88244835351252
-46.60476144855653
-45.489975992604855
-44.533730065189076
-43.729237126210066
-43.06781228602187
-42.539277516657776
-42.13226208235305
-41.834414130784495
-41.63253832513717
-41.51267301875976
-41.460119050557665
-41.459430942035304
-41.494380208328394
-41.547899711236326
-41.602017507737855
-41.637788488433536
-41.635232249453175
-41.57328607830638
-41.42978262167632
-41.181462680618544
-40.804034550490734
-40.27229224992497
-39.56030567953368
-38.64169599455631
-37.49000903603214
-36.0791983547849
-52.77438087745701
-59.16458698314993
-64.68511546598495
-69.2179473845933
-72.70077211106512
-75.12607661415946
-76.53542209201126
-77.01023749022433
-76.66073490487139
-75.61449962629291
-74.00601050794637
-71.96792301697899
-69.62451138024534
-67.08729947330747
-64.45265330378386
-61.800966002188346
-59.19702053924973
-56.691137070835765
-54.320771868087135
-52.1123098175193
-50.08286659292004
-48.24198090932056
-46.59312817495629
-45.13502419122292
-43.862712989732984
-42.76844884132531
-41.84239137182859
-41.07313671868556
-40.448108475681835
-39.95383108162716
-39.57610621945307
-39.30011031332011
-39.11042873043649
-38.9910400425897
-38.92526180590639
-38.89566783545199
-38.88398590315831
-38.87098417152504
-38.83635447929294
-38.75860080293077
-38.61494180862212
-38.38123735228029
-38.03195002503894
-37.5401542812524
-36.87760716496573
-36.01489592987959
-34.921678611737065
-33.567033500369384
-31.919932134632862
-59.04644266145169
-65.88124254984194
-71.67471004656626
-76.29154975540041
-79.66848480842799
-81.81177464679789
-82.7882253862219
-82.7118028096144
-81.72825984378329
-79.99998275542248
-77.69270909284181
-74.96508230759508
-71.96136097174302
-68.80710546254421
-65.60736083319141
-62.4467257262473
-59.390698874973594
-56.487775377780814
-53.771880211609044
-51.26484523870596
-48.978740368173874
-46.91795203253931
-45.08096194680643
-43.46181905366143
-42.05132183061958
-40.83794100914237
-39.80851790875795
-38.948773891382096
-38.24366397607268
-37.677603845823405
-37.23459524237553
-36.89827063444636
-36.65187436415854
-36.47819437093332
-36.35945611039763
-36.277188423184754
-36.21206983452063
-36.14376304330724
-36.050745156030885
-35.910141512788314
-35.697571725474596
-35.38701778832944
-34.9507257972254
-34.359154847723
-33.580988908461585
-32.58322959764312
-31.331389395096608
-29.78980535262398
-27.9220922445203
-65.73859242268479
-73.1073637213595
-79.2185684731748
-83.91743802013899
-87.14331620264994
-88.9244226483127
-89.36377388312872
-88.61964313101721
-86.88420282069663
-84.36346535588201
-81.26064359780315
-77.76394981942481
-74.03891211291128
-70.22464800863585
-66.43321241909658
-62.75106969446746
-59.24183701513689
-55.94962340360222
-52.902482629697964
-50.1156720714921
-47.59454692328872
-45.337017522942006
-43.33556183787721
-41.57882289063726
-40.05283978084564
-38.74196744737175
-37.62953933368348
-36.69832212820778
-35.93080501865025
-35.30935881412259
-34.81629363419305
-34.433838026992404
-34.1440575056058
-33.92872659184118
-33.76916546860814
-33.646050178403044
-33.539203874876165
-33.42737585948726
-33.28801495970097
-33.09704420015775
-32.828644682722654
-32.45505814516572
-31.946419830088047
-31.27063604169251
-30.393323967358377
-29.277834680625432
-27.885383163730246
-26.175310884607363
-24.105505981749005
-72.93858293954389
-80.94740180141989
-87.42342168483107
-92.19049948177226
-95.19689485113614
-96.50524869655277
-96.27051560186018
-94.7113228803014
-92.08028314004981
-88.63761930039014
-84.63070407625618
-80.28037859114964
-75.7735931195681
-71.26114719926187
-66.85904145898019
-62.65203747166999
-58.69828992168395
-55.03423782952651
-51.679238729088496
-48.6396651671716
-45.91234956611013
-43.48736977338427
-41.35022765550656
-39.48350108532521
-37.86805737600527
-36.483912292136104
-35.310809075066075
-34.328580122667574
-33.51734217710579
-32.85756518731784
-32.330045883689074
-31.91580962617181
-31.595958171364867
-31.351476474119014
-31.16300829923771
-31.010608084711713
-30.873475012318526
-30.72967448334542
-30.55585208636478
-30.326945646803477
-30.015902082961027
-29.59340762966573
-29.027642631549718
-28.284075639720236
-27.32531594337437
-26.111048659477525
-24.598081424412797
-22.74053544375778
-20.490214632361038
-80.75846696490083
-89.53378708902665
-96.421889898176
-101.22431829107289
-103.90906719245183
-104.59225807121467
-103.50342560367989
-100.9433680523995
-97.24295262389208
-92.72885185082913
-87.69913539106415
-82.40896782886377
-77.06489878305781
-71.82544058939723
-66.80558522485096
-62.08329920584197
-57.70657897660118
-53.70017218202575
-50.071487512013974
-46.815507674633736
-43.918701279712344
-41.36202729753667
-39.12316762227794
-37.17813116266586
-35.50236247982967
-34.07146942947632
-32.861663543234876
-31.84998720724003
-31.01438452434322
-30.33365853002402
-29.78734608973335
-29.355533013963765
-29.01862528714372
-28.757087426852273
-28.551155527716904
-28.38053021815224
-28.224053346953184
-28.059371558421937
-27.86258990458665
-27.60791924021981
-27.26732238762841
-26.810166073086073
-26.202888648194676
-25.408697891255706
-24.38731893850164
-23.094819533876098
-21.483547637814763
-19.50222349386904
-17.096232152532842
-89.34311487446979
-99.03624033596384
-106.37979966152683
-111.15438204716162
-113.36615273028065
-113.21404664497476
-111.03485834795623
-107.24101707741649
-102.26373697609068
-96.50942272735819
-90.33200901512984
-84.01994324645018
-77.79437694454376
-71.81459578601056
-66.18720645174442
-60.97652161822087
-56.21453257420283
-51.90962614330138
-48.05373326961128
-44.627916539424575
-41.60656793467817
-38.96045096109103
-36.658825866503676
-34.670872213780456
-32.9665875290173
-31.517304016375434
-30.295932200045932
-29.277012612512998
-28.43663449212759
-27.75226333310699
-27.202506231621577
-26.766834457133317
-26.42527580606263
-26.1580844534677
-25.945392727704565
-25.76684712825777
-25.601229717884344
-25.426065552485255
-25.217216937198337
-24.94846595846692
-24.59108797894813
-24.113420775510395
-23.48043711545132
-22.653333351536062
-21.58915368681143
-20.240479479700717
-18.555224918180492
-16.476592803783188
-13.943253553567402
-98.88249308825718
-109.6748684834195
-117.50571042548472
-122.14097484238226
-123.6563865213908
-122.37914877131081
-118.80049562497017
-113.48372652277679
-106.98666984174645
-99.80818509097155
-92.35966737649412
-84.95697764578256
-77.826103448535
-71.11620306388727
-64.91523511252308
-59.265147762454035
-54.17507112605513
-49.63196366115033
-45.6087510843774
-42.070279702485195
-38.97749989188627
-36.29028671456011
-33.969249773677795
-31.976815801272217
-30.277801530992612
-28.839637998104013
-27.632362247625764
-26.62845779755648
-25.802599433779825
-25.131339170053604
-24.59275682607509
-24.16608928762883
-23.83134604852378
-23.568914296135414
-23.35915401119389
-23.181981894328825
-23.016442114125482
-22.84026168515947
-22.629388580916675
-22.357511377449345
-21.99556031471963
-21.511191336366245
-20.868257407084922
-20.026276098900034
-18.939910347548768
-17.558491683305178
-15.825632576737478
-13.67899517223211
-11.05030278713737
-109.62975275686958
-121.73885786301244
-130.06316044940837
-134.37056652761532
-134.86006910121947
-132.0580490453513
-126.67802364723505
-119.48510012408617
-111.19259865283607
-102.40058431523875
-93.57224302240033
-85.03716850685117
-77.00973636201054
-69.61319547416875
-62.90351051442886
-56.88993430669778
-51.551297557471486
-46.848134166189524
-42.73126724820486
-39.14761751508708
-36.043946758925664
-33.36912771247842
-31.075397299317526
-29.1189301140205
-27.459971748060372
-26.062697480498358
-24.894907570315123
-23.92763172936411
-23.134688413720657
-22.492226127420977
-21.978261508771755
-21.572220740467078
-21.254485488968434
-21.005941231110533
-20.807523852577646
-20.639759393751735
-20.482291498595725
-20.313391296461454
-20.109444957148526
-19.84441486846672
-19.489271203968485
-19.01139165137466
-18.37392872984539
-17.535147621413472
-16.447744914041248
-15.05817296602805
-13.306018192415324
-11.123514154774583
-8.435306093625513
-121.92853914145331
-135.6135571543186
-144.38592876848844
-148.05305294037578
-147.02991163329602
-142.15325642506644
-134.45532126243887
-124.96601745961135
-114.58091201939905
-103.99956660602552
-93.718287647941
-84.05506551389753
-75.18762929212363
-67.19219670014719
-60.076698310038225
-53.80649792387857
-48.32292809029262
-43.5559032853379
-39.43205710625635
-35.87968953833773
-32.83154047613155
-30.226138262053304
-28.008249395705356
-26.128786025800544
-24.544405525000577
-23.216951399342445
-22.112827236536518
-21.20235730462459
-20.45916268168741
-19.859566041834277
-19.382028389272374
-19.006615048458727
-18.714484709209817
-18.48739340003209
-18.307204359853277
-18.155394555825076
-18.01254884591536
-17.857833367859758
-17.668440509886466
-17.418998592286478
-17.080939909604023
-16.62182084065093
-16.00458748848593
-15.18678093256614
-14.119680655133216
-12.747398290288857
-11.005962951425953
-8.822487875318355
-6.114571137356136
-136.25537656059242
-151.8202645168127
-160.89571967270305
-163.40912950701886
-160.15340131455952
-152.45026951912513
-141.7842581100669
-129.52068659872268
-116.7510117754127
-104.25085219022515
-92.5099091823768
-81.79343583530496
-72.20779692567032
-63.75639035718507
-56.381782437654095
-49.994888056945086
-44.49386770185579
-39.77560303506064
-35.74214956011231
-32.303955758753894
-29.381094199757126
-26.903330939340023
-24.809561015948407
-23.046935547855337
-21.569873574680624
-20.33906753157459
-19.320538922188277
-18.484769065686017
-17.80591114368741
-17.261079198976944
-16.829704055824042
-16.492943339123084
-16.23313163388687
-16.033256613184946
-15.876447258063282
-15.745460888143963
-15.622156528085213
-15.486943113341736
-15.31819211492547
-15.091605129073406
-14.779527387653104
-14.350197302767453
-13.766919415652819
-12.98714381865816
-11.961432388419334
-10.63229901570812
-8.932940675635875
-6.785942371109467
-4.1021439881046975
-153.28757091545512
-171.07530941365707
-180.1189215813078
-180.63558712547675
-174.08252244985715
-162.53890559684277
-148.11664547795507
-132.57829150211114
-117.18941574238681
-102.73890131047946
-89.63952444557755
-78.04413030488064
-67.94451930681934
-59.24355679124125
-51.802678180333686
-45.47077299721477
-40.10038238117552
-35.55584841788056
-31.716644091501923
-28.477980944640073
-25.749990361892912
-23.45624610645156
-21.532063115517527
-19.922805314091327
-18.582315966215376
-17.471516029296694
-16.557178686300432
-15.810868980055428
-15.208028512015549
-14.727181858625837
-14.349240981065336
-14.05688489854705
-13.833993399822372
-13.665115139801504
-13.534951921618681
-13.427842270940214
-13.327228637190084
-13.215093815040639
-13.071353536045764
-12.87319351469631
-12.594339999184573
-12.20425181599188
-11.667216976047484
-10.94132618576601
-9.977280100104629
-8.716976135199094
-7.091836818108151
-5.020918696533009
-2.409003960596257
-174.01586932464556
-194.37801835909983
-202.69134506624033
-199.82252715848392
-188.40524924345902
-171.69147616525083
-152.62306061617846
-133.3700080661152
-115.27473490649466
-99.01379774282809
-84.81488012459495
-72.64240800618656
-62.32763767397337
-53.64900064005452
-46.37707603596532
-40.2971742781054
-35.21885875244915
-30.978364080900725
-27.437460451800455
-24.4807661256419
-22.01257909929753
-19.953763125881288
-18.238926700061167
-16.81397613497976
-15.634044814766241
-14.661764597703037
-13.865831910414808
-13.219819006298495
-12.701183995633524
-12.290438323890257
-11.970435721926293
-11.725751497967678
-11.542125078696994
-11.405941878567866
-11.303732963708503
-11.221672746917537
-11.145056336131445
-11.057739443100438
-10.941525225969315
-10.775484229505178
-10.535195346965512
-10.191895945927772
-9.711524377432305
-9.05362203388543
-8.170029297008398
-7.0032642900894215
-5.484445540724326
-3.530676945528495
-1.042038940113707
-199.93963659114397
-223.13942819861376
-229.31841593321855
-220.76773759373694
-202.21667157122533
-178.68689858174622
-154.10901878515284
-130.92596004994658
-110.32225991227601
-92.6530811147962
-77.8189777695499
-65.51641961007539
-55.37961124319087
-47.051393592622745
-40.21337975095356
-34.59485824315753
-29.97163778731145
-26.160783102955726
-23.014201686754284
-20.41243682110487
-18.259201403789053
-16.47678982111958
-15.002327461085741
-13.784749651084894
-12.782386166452488
-11.96103461429269
-11.292421470517436
-10.752966541392855
-10.322782210650722
-9.984851982385976
-9.72434337412948
-9.528018355466655
-9.383710592085345
-9.279843090642391
-9.204962782014308
-9.147270461576216
-9.094125685675705
-9.031507134912193
-8.943410128086878
-8.811164978332059
-8.612663030108978
-8.321480631788152
-7.905890930964484
-7.327738729524382
-6.541106455566086
-5.490603395417194
-4.108985515677519
-2.313766642999989
-0.0027193076363087876
-233.41796632278408
-259.3568151633373
-260.60076282187293
-242.57398736750451
-213.73237310946413
-181.59276209586562
-150.979120551817
-124.15155631480235
-101.7002177949744
-83.37239108927072
-68.59748858122644
-56.74900746462182
-47.255787380606904
-39.6370963161105
-33.50410147748481
-28.54866412894777
-24.529003183987147
-21.256120471592915
-18.582284316312368
-16.391754974230157
-14.593514197715837
-13.11564470610578
-11.901012852369744
-10.903957840569507
-10.087748824502997
-9.422623828690755
-8.88426777450898
-8.452620889400013
-8.110934690534247
-7.845012112472891
-7.642582608550778
-7.4927733610450105
-7.385644988791784
-7.311765026520677
-7.261795488376133
-7.22607244262797
-7.194156121736619
-7.15433016115714
-7.093028802465938
-6.994172347606553
-6.838395161292491
-6.60215813621929
-6.25674711824633
-5.767159667197961
-5.090842348471563
-4.176100364650148
-2.9597151642082613
-1.3629751306830498
0.7146441365099978
-278.34715083309686
-305.7893013437846
-296.4720780140682
-262.8146633589753
-219.70107102380535
-177.60875302237855
-141.36997629936656
-112.06461965442674
-89.04830230724116
-71.18796252621163
-57.36506109068916
-46.640893237117524
-38.27833981093733
-31.715793085910278
-26.53076386869226
-22.406535799718963
-19.105304651142518
-16.447711564141624
-14.297645854202983
-12.551087735663351
-11.127944890519306
-9.966072376636191
-9.016874274150403
-8.242049681100124
-7.611167943785217
-7.099846634806239
-6.688369161275447
-6.360623893368298
-6.103278562204456
-5.905126165080081
-5.756554411711312
-5.649101714294906
-5.575070153613532
-5.52717062081305
-5.498178036118503
-5.480575601300535
-5.466166798323138
-5.445632707840375
-5.408010856187708
-5.340071463731679
-5.225569958719923
-5.044364639775733
-4.7714096712123
-4.375664942321609
-3.8189780652390444
-3.0548805401984267
-2.0267914269856506
-0.6642240007493068
1.1252104169475672
-341.44022254662724
-365.8290598396979
-334.60017305019176
-275.9029310096122
-214.80051443066245
-163.28519170445998
-123.69105798809711
-94.26320296797093
-72.59724136240521
-56.60414548232451
-44.70298647548023
-35.75398967162294
-28.949494604379282
-23.71842643151205
-19.654971163384566
-16.468255686193366
-13.947629751478015
-11.938853285364775
-10.327728758086797
-9.028778374848407
-7.977342662151871
-7.124011698466318
-6.43065886366678
-5.867585201988466
-5.411440543578604
-5.043692739045957
-4.749486795874008
-4.5167831714201965
-4.33569666570443
-4.197979281804179
-4.096605357511298
-4.025427359528961
-3.9788773638316846
-3.9516933167610926
-3.9386512366369795
-3.9342849052565256
-3.932573512296736
-3.926575340170093
-3.9079822915851192
-3.866566852969351
-3.7894923824356037
-3.660464849787539
-3.458730131757994
-3.1579828803283263
-2.725361522514127
-2.120792047595791
-1.296588991424449
-0.19561652690744546
1.2566609048727915
-435.09314461292666
-441.7504064610518
-365.9496984205459
-270.75097071686434
-191.84001231292314
-135.97249845158115
-97.72313739108574
-71.59132742720053
-53.50099779311598
-40.7532909023444
-31.59951435643752
-24.905880012811224
-19.92802107761524
-16.169135803868805
-13.291686565798907
-11.06223452071722
-9.316553875576352
-7.937233340285344
-6.839056865594694
-5.959302547896893
-5.251200050765377
-4.679448842131826
-4.2171019589788
-3.843368034879817
-3.5420394238288253
-3.30035266151856
-3.1081508252290186
-2.9572586299218244
-2.8410083110179976
-2.7538724357678737
-2.691171847806749
-2.648834930652942
-2.623189497185999
-2.6107716228288567
-2.6081370680066143
-2.6116607780999925
-2.617308336150908
-2.620360098204714
-2.6150640035789494
-2.5941869907080166
-2.5484289716859108
-2.4656620287501623
-2.3299736196144942
-2.1205576123311807
-1.8106782946697728
-1.3673260317458222
-0.7526718110256092
0.07290994430305586
1.1530997437140038
-580.530267647598
-525.053495937837
-365.41977527848184
-229.5143724109377
-146.63065245635136
-96.65320372217793
-66.06955549150972
-46.69148280724205
-33.9830404414678
-25.375405331673626
-19.376314793277235
-15.08924736578482
-11.958147738150355
-9.627649600215673
-7.864382798125899
-6.511275817483018
-5.460239843731166
-4.635390360736972
-3.982480058808129
-3.4620887402312466
-3.0451407719411367
-2.7098966634592845
-2.4398973880243116
-2.2225360201370687
-2.0480494706561014
-1.9087958682493742
-1.7987287708356705
-1.7130084911850743
-1.6477096448360378
-1.5995963359159893
-1.5659444791200796
-1.544396022378785
-1.5328331461392155
-1.5292623807098655
-1.5316992681128934
-1.538043777533534
-1.5459350769406361
-1.5525712175296311
-1.5544743978643112
-1.54717526770948
-1.5247800515227339
-1.4793736438308902
-1.4002078846915142
-1.2726543556397383
-1.0770531436810917
-0.78811642071354
-0.37706185519734614
0.17863038437408596
0.8795243490617524
-815.0737744494394
-559.679731295433
-276.93245059509775
-148.93744358849068
-85.73467090918248
-53.07412014344877
-34.79584879604455
-23.900700089420642
-17.0462798744891
-12.540418952867935
-9.468632379993824
-7.309988093810034
-5.7538007480607405
-4.607399692584117
-3.7471992189448162
-3.091566378052848
-2.5851741558953716
-2.1896629994059804
-1.8778952241117874
-1.630322906100794
-1.4326353534923584
-1.274201567817812
-1.1470182555438342
-1.044986150804485
-0.9634036178667156
-0.8986064992172151
-0.8477078566424732
-0.808406773019108
-0.7788453001622768
-0.757499052310159
-0.7430911146311763
-0.7345216230831157
-0.7308070335594996
-0.7310239964336755
-0.7342530108975089
-0.7395166618099585
-0.7457061340889828
-0.7514876067575949
-0.75517660281306
-0.754562686901814
-0.7466580086339758
-0.7273299441657191
-0.6907608699374923
-0.6286663142522668
-0.5292459343852447
-0.37616373814056914
-0.1493468530366826
0.16420950353202413
0.5255347484133885
-1071.9792094099282
-324.8149932770242
-131.29883171847206
-59.52904800219391
-31.696687213247067
-18.68800759770383
-11.908092547374608
-8.026970839521383
-5.651811170167512
-4.119705611795606
-3.0894842497309263
-2.3729002494989437
-1.8603558872041788
-1.4850998145350367
-1.204913735579698
-0.9922197926114631
-0.8284940860990133
-0.7009874839387713
-0.6007352355962787
-0.5213127074302069
-0.4580369414647727
-0.4074421676380222
-0.36692791880768283
-0.3345183552570834
-0.3086946940118924
-0.28827655922152307
-0.27233658222934665
-0.26013789053310354
-0.25108749482562764
-0.24470074917103357
-0.2405734587256818
-0.23835910444273978
-0.23774920043250614
-0.23845508369312274
-0.24018949459277072
-0.2426461328360947
-0.24547491123458576
-0.2482497525071623
-0.25042424367879024
-0.25126784417170933
-0.24977085955392297
-0.24449868519164042
-0.23336274444781502
-0.21325498135400567
-0.1794715556366917
-0.12490051963955384
-0.039583588663135494
0.08456479155141983
0.20745139265718038

SCALARS STRESS_YY float 1
LOOKUP_TABLE default
-0.014856558209054072
-2866.47040888069
-29.917083073492236
-29.9850355451661
-0.014855735981218032
-0.01485326313389379
-0.014849121183910796
-0.014843279348315974
-0.01483569454337541
-0.014826311391491487
-0.014815062291514636
-0.014801867434286464
-0.01478663487491616
-0.014769260682282237
-0.014749628981533647
-0.014727612147250824
-0.014703071046618277
-0.014675855280945171
-0.014645803527606915
-0.014612743975405351
-0.014576494851755939
-0.014536864976680164
-0.01449365453299123
-0.01444665597149708
-0.014395655023591303
-0.014340431887557514
-0.014280762679089065
-0.014216421036021387
-0.014147179904629326
-0.014072813738437162
-0.013993100873690878
-0.013907826237584686
-0.013816784467906018
-0.013719783302775568
-0.013616647433639884
-0.013507222816787845
-0.01339138147939778
-0.013269026767030567
-0.013140099165156016
-0.013004582809202248
-0.012862512608808885
-0.012713982051984374
-0.012559151833229976
-0.012398259302830894
-0.01223162882436668
-0.012059683224798334
-0.01188295628937297
-0.011702106574542626
-0.011517932665185526
-0.011331389943741499
-0.011143609256198062
-0.01095591770730131
-0.010769861903767719
-0.010587234098990095
-0.010410101769423363
-0.010240841355656727
-0.01008217686124624
-0.009937224439710235
-0.00980954438354864
-0.009703202117739451
-0.009622840245953057
-0.009573764368308701
-0.009562046183265949
-0.009594648137984052
-0.009679575113299421
-0.00982606046179324
-0.010044795590899547
-0.010348214901732433
-0.010750851922378235
-0.011269786948654215
-0.011925213085489439
-0.012741156644223262
-0.013746399663388031
-0.014975669140826708
-0.016471180778351024
-0.01828465779588484
-0.020479992095744137
-0.023136782096687458
-0.026355079928950698
-0.030261825938453057
-0.03501966668294454
-0.04083918571696632
-0.04799609365173918
-0.05685574228439094
-0.06790864833284793
-0.08182289277630161
-0.09952295340411865
-0.1223109315104356
-0.1520576879658595
-0.19151240836276884
-0.244821849871812
-0.3184243731103642
-0.4227071446616577
-0.5749516779353883
-0.8064626240998614
-1.1716390027316734
-1.8071945399229534
-2.8805132664252326
-5.733546175667307
-9.471307424640067
-46.833452667586954
-51.32841613763067
-1443.2393099770695
-2266.191535597946
-1398.4300088910022
-982.6018377513003
-746.4899976193141
-600.6320499590722
-501.48505030537507
-429.8283210845111
-375.50161342623085
-332.79288117153635
-298.226445834681
-269.5756963598825
-245.350041913059
-224.51642408707085
-206.33797506972826
-190.27639008753246
-175.93045119437122
-162.99602250169465
-151.239261207465
-140.47822717871557
-130.56997914469068
-121.40134389896693
-112.88219830414656
-104.94050399592163
-97.5185859896915
-90.57030788479501
-84.05890227462467
-77.95528570418269
-72.23673550583419
-66.88583882773216
-61.889647047070824
-57.23898467506309
-52.927872839446906
-48.95303476852223
-45.313455187705834
-42.0099675869666
-39.04484301246693
-36.42135113193325
-34.1432581646837
-32.21421561048523
-30.63697640010418
-29.412347472004903
-28.537743719856703
-28.005137588613433
-27.798085520273936
-27.88733757998932
-28.224308921107777
-28.73162662217137
-29.291480762788826
-29.741995106201003
-29.92646345052476
-29.96399811537065
-30.010851367596658
-30.041031363419144
-30.059395972655217
-30.07022411746712
-30.07616800698441
-30.07883511253659
-30.079234615386156
-30.078027548260806
-30.07566481700562
-30.07246583503254
-30.068664837920593
-30.064439025830772
-30.059926113993022
-30.055235525730332
-30.050455675517604
-30.0456588025346
-30.040904249125077
-30.03624074396453
-30.03170804583454
-30.027338176222365
-30.02315638820308
-30.019181965945116
-30.015428914534226
-30.01190657709973
-30.0086202010121
-30.00557146534016
-30.00275897537469
-30.000178726400705
-29.997824536735287
-29.99568844916694
-29.993761099678984
-29.992032052405538
-29.990490100437878
-29.989123532463072
-29.987920365821946
-29.986868547232923
-29.98595612279393
-29.985171379154064
-29.984502958147814
-29.98393994739086
-29.983471949265684
-29.98308913069127
-29.98278225634428
-29.98254270759352
-29.98236248916265
-29.98223422587335
-29.98215115115795
-29.982107088966394
-29.98209643063879
-29.98211410795926
-29.982155563610924
-29.982216719848193
-29.98229394620633
-29.982384027042286
-29.98248412927061
-29.98259177086484
-29.98270479036132
-29.982821317566547
-29.98293974584471
-29.983058705968023
-29.983177041539314
-29.983293786144166
-29.983408142239686
-29.983519461631822
-29.983627227627217
-29.98373103867764
-29.983830593509616
-29.983925677691126
-29.984016151481526
-29.984101938960226
-29.984183018210313
-29.984259412534485
-29.984331182718027
-29.98439842021134
-29.984461241021066
-29.984519780309213
-29.98457418773558
-29.984624623350804
-29.984671254066175
-29.9847142505751
-29.984753784602777
-29.984790026751988
-29.984823144536485
-29.984853300573107
-29.984880651319514
-29.984905345921707
-29.984927525164377
-29.984947320655422
-29.984964854173874
-29.984980237122944
-29.984993570095114
-29.985004942528263
-29.98501443235733
-29.985022105864687
-29.985028017496468
-29.98503220968428
-29.98503471281841
-29.94974366537469
-29.845168858176528
-29.674038723467344
-29.439213747845855
-29.143567780824267
-28.7899869068122
-28.38136822989588
-27.920618592431214
-27.41065324718433
-26.854394502205825
-26.254770355715674
-25.614713137390215
-24.937158171358845
-24.225042474663837
-23.48130350415846
-22.708877963282738
-21.91070067926092
-21.08970356034377
-20.248814641174697
-19.390957224000033
-18.519049122033792
-17.636002010488248
-16.744720890246377
-15.84810366765696
-14.949040853520518
-14.05041538370352
-13.155102562423446
-12.265970128614608
-11.38587844566863
-10.517680812945157
-9.664223896686732
-8.828348278084947
-8.012889114489589
-7.220676908621458
-6.45453838021994
-5.7172974332085555
-5.011776210518416
-4.340796227480908
-3.7071795738021702
-3.1137501728052452
-2.563335085309392
-2.058765844894811
-1.602879809749684
-1.1985215151359903
-0.8485440096156012
-0.5558101572084411
-0.32319388627944434
-0.1535813654888507
-0.049872086198647025
-0.04986933042338748
-0.1535729049640029
-0.32317617244253505
-0.5557799159706729
-0.848498279673505
-1.198457679234906
-1.602795619123242
-2.0586594371732465
-2.5632049962660632
-3.113595342241041
-3.706999345969602
-4.340590346449109
-5.011544810911035
-5.717041026609753
-6.4542578377635085
-7.220373440092686
-8.01256424436464
-8.828003818882799
-9.663861919940402
-10.517303618196836
-11.385488527798955
-12.265570143839946
-13.154695293220055
-14.05000370292479
-14.948627687983299
-15.847691961558798
-16.744313568498857
-17.63560194221981
-18.518659084632482
-19.390579867765112
-20.248452454879622
-21.08935883797966
-21.910375488084778
-22.708574113569707
-23.481022520880387
-24.22478557133067
-24.936926226371817
-25.614506673245657
-26.25458952139656
-26.854239059118523
-27.41052255903066
-27.9205116194322
-28.381283527781413
-28.78992263098003
-29.1435216961599
-29.439183244600336
-29.674020839576105
-29.84516030846896
-29.949740878076238
-0.04986104290405535
-0.15354746280622678
-0.32312290715676184
-0.5556889860748218
-0.8483607855165118
-1.1982657566067054
-1.6025425123735264
-2.0583395527686354
-2.562813937771912
-3.1131299277331976
-3.70645760910988
-4.339971522349144
-5.010849308035685
-5.7162703858475155
-6.453414679924512
-7.2194614030517315
-8.011587910979689
-8.826968636837416
-9.662774114540499
-10.516170099226104
-11.384316791329663
-12.264368170147174
-13.15347144146717
-14.048766603369378
-14.947386132792147
-15.846454794910485
-16.743089576512375
-17.63439974350969
-18.51748702228906
-19.38944590330493
-20.247364064893638
-21.088322914225223
-21.909398241678385
-22.707660984088918
-23.48017809127162
-24.224013489337395
-24.936229133454727
-25.61388614206529
-26.254046002760518
-26.85377183959563
-27.410129730374006
-27.920190061007375
-28.381028903254446
-28.789729400594002
-29.143383145930553
-29.43909153359508
-29.67396706669104
-29.845134599838865
-29.949732496287645
-0.04984716306930359
-0.1535048573362996
-0.3230337192484125
-0.5555367492724912
-0.8481306146609722
-1.197944503270799
-1.6021188861039857
-2.0578042096576077
-2.5621595379841517
-3.1123511637736687
-3.7055512068221352
-4.3389362165927
-5.009685795002047
-5.714981254136708
-6.452004322324352
-7.217935911082882
-8.00995495413575
-8.825237328346844
-9.660954865545895
-10.514274463091787
-11.38235729960891
-12.262358161964345
-13.151424887672924
-14.046697926732097
-14.945310025817657
-15.844386036355267
-16.741042847773574
-17.632389446176067
-18.515527097839115
-19.387549656214535
-20.245543990221428
-21.0865905308455
-21.907763932424718
-22.706133843989935
-23.47876578530007
-24.222722121065054
-24.935063126194226
-25.612848134075428
-26.25313675825633
-26.85299017742726
-27.40947247232801
-27.919652001740094
-28.380602803951682
-28.789406008606917
-29.14315124247174
-29.4389380116721
-29.673877041564342
-29.845091553912717
-29.949718460357552
-0.04982759002417403
-0.15344478594264999
-0.3229079905704815
-0.5553221761364178
-0.8478062480282169
-1.1974918486767336
-1.601522072075877
-2.057050110181562
-2.561237851458338
-3.1112544510011775
-3.704274890711682
-4.337478546424768
-5.0080477780270165
-5.7131665574779955
-6.450019147989166
-7.215788846845384
-8.007656803126107
-8.822800919917297
-9.658394850015487
-10.51160709274695
-11.379600198259833
-12.259530085274395
-13.148545476264253
-14.043787454042834
-14.942389142518284
-15.84147551300536
-16.738163317469674
-17.629561148767678
-18.51276962723395
-19.384881712348395
-20.24298313729473
-21.0841529634592
-21.90546425123464
-22.70398484271149
-23.476778250793092
-24.22090464860712
-24.933421952157257
-25.61138698801834
-26.25185673712837
-26.851889644336232
-27.408546982571334
-27.91889425908453
-28.380002650050308
-28.78895044860907
-29.142824509899054
-29.438721675752063
-29.67375015997652
-29.8450308739148
-29.9496986710111
-0.04980218260788227
-0.1533668253412106
-0.322744856726052
-0.5550438275711738
-0.8473855626494871
-1.1969049000288994
-1.6007483435393972
-2.0560726498502575
-2.5600433708922132
-3.1098333712628747
-3.7026213391271936
-4.335590307696821
-5.005926203490565
-5.710816436208608
-6.447448543441766
-7.213008902732206
-8.004681521962862
-8.81964691777523
-9.655081090728522
-10.50815460460067
-11.376031776233933
-12.255869981654065
-13.144819082108773
-14.040020974032053
-14.938609265543995
-15.83770908066015
-16.73443699259071
-17.62590108597104
-18.509201147529506
-19.381428983711054
-20.239668863200095
-21.080998081479088
-21.902487643786873
-22.701203062122985
-23.474205261117145
-24.218551586740134
-24.931296910953957
-25.609494824304022
-26.25019890774133
-26.850464073580426
-27.407347964508897
-27.91791239846075
-28.379224845644988
-28.78835992297782
-29.14240088963868
-29.43844112623207
-29.673585578538102
-29.84495214547493
-29.949672989615976
-0.04977075949394205
-0.15327043201176593
-0.32254320816309345
-0.554699857048174
-0.8468658356066214
-1.1961799485340006
-1.5997929244363842
-2.054865930102613
-2.5585690440546927
-3.1080797093539942
-3.70058118420416
-4.333261007668522
-5.003309496843261
-5.707918290218448
-6.444278950486943
-7.20958163923426
-8.001013874224057
-8.815759378988737
-9.650997033192601
-10.503899930909707
-11.371634553197435
-12.251360060025
-13.140227705684563
-14.035380380943895
-14.933952284363768
-15.833068724301704
-16.729846052293915
-17.621391727871945
-18.504804514160327
-19.377174802821447
-20.235585066240155
-21.07711043412383
-21.898819391158458
-22.697774591242478
-23.471033783558454
-24.21565084454306
-24.928676908974104
-25.60716159270824
-26.248154298311096
-26.848705593995025
-27.40586865494433
-27.9167007549767
-28.378264795152816
-28.787630854751917
-29.14187774843863
-29.43809457194076
-29.673382217392103
-29.844854837795587
-29.94964123849578
-0.04973309935302339
-0.15315494279077235
-0.3223016917234549
-0.554288013703605
-0.84624374938773
-1.195312477818952
-1.5986500017503662
-2.0534227754428134
-2.556806296508177
-3.1059834820507177
-3.6981430479270383
-4.33047790867746
-5.000183614348071
-5.704456839133886
-6.440493934991874
-7.20548956239228
-7.996635409007881
-8.811119005641935
-9.646122647703077
-10.498822429190746
-11.366387395257052
-12.245978817876969
-13.13474959902275
-14.029843804017982
-14.928396327114427
-15.827532691045436
-16.72436898075535
-17.616011911383524
-18.499559029709822
-19.372099047677192
-20.23071230592472
-21.072471364357426
-21.894441716812548
-22.69368262544006
-23.467248070089013
-24.212187807277285
-24.925548532077684
-25.60437513581043
-26.245712051152676
-26.846604675357394
-27.404100861007613
-27.91525246254253
-28.3771169254125
-28.786758903558308
-29.141251889132533
-29.437679836811856
-29.673138763846524
-29.844738305220442
-29.94960320139741
-0.04968894104383281
-0.15301957566983404
-0.32201871268356186
-0.5538056464347356
-0.8455153989352961
-1.1942971749164837
-1.597312741483707
-2.051734755512533
-2.554745060781607
-3.1035329753057885
-3.695293588222744
-4.327226083837974
-4.996532109013334
-5.7004141989266195
-6.4360742743254855
-7.200712222116085
-7.991524570029425
-8.805703264345404
-9.640434558678674
-10.49289802059524
-11.360265661608855
-12.23970119498342
-13.12835942516096
-14.02338577141738
-14.921915927489723
-15.821075658492294
-16.717980735388686
-17.609737006766828
-18.493440607107438
-19.366178300100657
-20.225027955035337
-21.067059153318294
-21.889333922304267
-22.688907592379845
-23.462829772687773
-24.208145440541546
-24.92189613813369
-25.601121269817117
-26.24285949192924
-26.844150186309164
-27.402035007367637
-27.913559491203166
-28.37577471407161
-28.78573898614465
-29.14051956458478
-29.437194368535998
-29.67285367707553
-29.844601789354677
-29.949558624161153
-0.04963798392224916
-0.15286343088565957
-0.3216924373973544
-0.5532497091116806
-0.844676300605709
-1.1931279442085554
-1.595773308848182
-2.049792212786145
-2.552373812800959
-3.100714790617568
-3.6920175562943163
-4.323488486263932
-4.992336212354302
-5.69576997667908
-6.430998065499463
-7.195226333705628
-7.985656830305675
-8.799486533658145
-9.633906204103397
-10.486099360413826
-11.353241385085378
-12.232498762689826
-13.12102845454238
-14.015977412067862
-14.914482230236851
-15.813668942015672
-16.71065295399882
-17.602539122693752
-18.486421970660608
-19.359386040820883
-20.218506387053683
-21.06084919853737
-21.883472554752668
-22.68342730751826
-23.457758085885597
-24.20350441907989
-24.91770197170476
-25.597383884874063
-26.239582215645413
-26.84132946649364
-27.399660195143454
-27.911612693746562
-28.3742307251086
-28.784565302193343
-29.139676495284625
-29.436635249560105
-29.672525194155646
-29.844444421713987
-29.94950721546975
-0.04957988824036441
-0.1526854923079899
-0.32132079669501046
-0.552616767175806
-0.8437214033777156
-1.1917979247882418
-1.5940228932739906
-2.047584296692131
-2.549679616657282
-3.097513901835325
-3.6882978666672157
-4.319246033405278
-4.987574933882585
-5.690501385801177
-6.4252408564251
-7.189005925208341
-7.979004855354157
-8.792440282581133
-9.626508028514337
-10.478396044521864
-11.345283490493935
-12.224339952565048
-13.112724802327746
-14.00758669955571
-14.906063239497588
-15.805280745234517
-16.702354205045616
-17.594387354024548
-18.47847289907819
-19.351692885474648
-20.211119203020772
-21.053814229716515
-21.876831609776048
-22.677217162715912
-23.452009919811903
-24.19824328332741
-24.91294630348299
-25.593145067167267
-26.235864191536404
-26.83812841464772
-27.396964274010465
-27.909401862928604
-28.37247665251645
-28.7832313661239
-29.138717891101514
-29.435999210756417
-29.67215133763625
-29.844265227078186
-29.949448647878906
-0.049514275609571
-0.1524846292192379
-0.3209014901684544
-0.551903005946933
-0.8426451027728561
-1.190299511706991
-1.5920517388732662
-2.0450990051537
-2.546648178926321
-3.0939137238456453
-3.684115681697987
-4.31447770855509
-4.9822251806124225
-5.68458338424927
-6.418775803169471
-7.18202251377719
-7.9715386983449
-8.784533283871506
-9.618207713490111
-10.469754855657332
-11.336358055140938
-12.215190329253305
-13.103413711353904
-13.998178742874451
-14.89662411481584
-15.795876458652737
-16.693050286161164
-17.585248077382232
-18.469560515413846
-19.343066866352522
-20.202835502489293
-21.045924566518693
-21.86938277410728
-22.670250351889834
-23.44556010742777
-24.192338627127388
-24.907607597670882
-25.588385245679746
-26.231687889344425
-26.83453159485272
-27.393933929359317
-27.906915800809223
-28.37050337339904
-28.78173004587736
-29.13763847793714
-29.435282648196882
-29.671729924825037
-29.844063127726514
-29.94938255913823
-0.04944072964153001
-0.15225959856337212
-0.32043199154153257
-0.5511042408233724
-0.8414412578514305
-1.1886243818413718
-1.5898491813007816
-2.042323234604778
-2.543263913873375
-3.089896194777019
-3.6794505124424983
-4.309160681855111
-4.976261899250842
-5.677988838683607
-6.411573856525177
-7.1742453146507525
-7.963226031151412
-8.775731866366936
-9.608970450056352
-10.460140054408882
-11.32642861648915
-12.205012912620058
-13.093057886250849
-13.987716129699342
-14.886127520590325
-15.785419012179362
-16.682704576612096
-17.57508530028974
-18.45964962958644
-19.33347376525669
-20.193622203825036
-21.037148423579882
-21.861095712862614
-22.6624981383977
-23.438381650299178
-24.18576532052333
-24.901662711014453
-25.583083366990934
-26.22703442985825
-26.830522363518078
-27.390554786648824
-27.90414240190175
-28.368301011912195
-28.78005360979804
-29.136432530000118
-29.434481643572717
-29.67125857915043
-29.84383694855471
-29.949308553757135
-0.04935879679203303
-0.15200904778149749
-0.3199095552584428
-0.550215929714847
-0.8401032118114724
-1.186763525145933
-1.587403692098368
-2.039242839756797
-2.5395100209826955
-3.0854418735772917
-3.6742803381899662
-4.303270453358949
-4.9696582440682295
-5.67068871798506
-6.403603981651233
-7.1656414868884415
-7.9540324157419935
-8.766000211154992
-9.598759258273201
-10.449513720447392
-11.315456532869296
-12.193768555303716
-13.081617884847455
-13.976159328473965
-14.874534035418733
-15.773869288110674
-16.671278450148414
-17.563861070212063
-18.44870313992297
-19.322877503861378
-20.183444420025914
-21.027452268615253
-21.851938407047278
-22.653930169461514
-23.430446007848943
-24.17849677230862
-24.895087127563905
-25.57721710173974
-26.221883763150032
-26.82608301986958
-27.386811535337287
-27.901068752264926
-28.36585901555926
-28.778193782721843
-29.13509390859324
-29.433591988818304
-29.670734743967323
-29.843585423341743
-29.949226204929904
-0.04926798737970195
-0.15173151830264686
-0.3193312245397202
-0.5492331881364283
-0.8386238168108431
-1.1847072819773032
-1.5847029313849337
-2.0358427045428265
-2.5353685767873078
-3.0805300551490786
-3.6685817471420386
-4.296781021057483
-4.962385773720471
-5.662652319888082
-6.394833414940672
-7.156176420529042
-7.943921621068851
-8.755300697125993
-9.58753535992431
-10.437836150257997
-11.303401403639585
-12.181416382262977
-13.069052573824798
-13.963467156457522
-14.86180262858123
-15.761186601894678
-16.65873175573741
-17.551535950913262
-18.43668250094113
-19.311240598723032
-20.172265896918685
-21.016801240194916
-21.841877547585845
-22.644514843540936
-23.421723435666433
-24.170505237468433
-24.887855233918124
-25.57076308700655
-26.216214878126436
-26.821194983242776
-27.382688075207547
-27.897681246700856
-28.36316624565691
-28.77614181270387
-29.13361610843917
-29.43260921567672
-29.670155699199313
-29.843307202323565
-29.949135056862527
-0.0491677768367591
-0.1514254498163936
-0.3186938411880522
-0.5481508073636316
-0.8369954635948513
-1.1824453874382748
-1.5817338101987168
-2.0321068257262267
-2.530820642860271
-3.075138905411136
-3.662330100974522
-4.289665077098397
-4.954414680749751
-5.653847534862468
-6.385227962859711
-7.145814070370896
-7.932855991140478
-8.743594302041494
-9.575258610745966
-10.425066318129476
-11.29022155597696
-12.167914299955202
-13.055319656472268
-13.949597321845218
-14.847891211862635
-15.747329258876505
-16.64502337437777
-17.538069574394505
-18.423548265415043
-19.298524688729596
-20.160049521462355
-21.005159632641764
-21.830878992969783
-22.634219737384573
-23.412183379224178
-24.161762175251543
-24.8799406401995
-25.563697209390686
-26.21000604754441
-26.815839000818073
-27.378167688140856
-27.89396572663196
-28.360211084143025
-28.773888549957526
-29.131992312609505
-29.431528630881665
-29.669518581177087
-29.843000861342713
-29.949034627667533
-0.049057607273045534
-0.15108918541104366
-0.3179940572431601
-0.5469632760506649
-0.8352101166458255
-1.179967023777822
-1.5784825639638136
-2.028018410954866
-2.525846391921567
-3.0692456188341124
-3.6554997265463447
-4.281894235956016
-4.945714058046988
-5.64424115206784
-6.374752348047121
-7.134517342087227
-7.920796870385191
-8.730841065789889
-9.561887999442263
-10.411162408070874
-11.27587460643681
-12.153219583746385
-13.040376281290007
-13.9345070486766
-14.832757275687358
-15.732255196207994
-16.630111861175223
-17.523421277421132
-18.409260709721817
-19.28469114384108
-20.14675790870048
-20.99249145625472
-21.818908298371262
-22.62301210019382
-23.401794929790142
-24.152238664307074
-24.8713165525843
-25.555994934006254
-26.20323511331179
-26.809995389816166
-27.373233238769807
-27.88990764154135
-28.35698155881456
-28.77142453973356
-29.130215457453094
-29.430345357869868
-29.66882040628391
-29.84266491275759
-29.948924412831765
-0.04893688930442863
-0.1507209776901739
-0.31722834897908925
-0.5456648058753757
-0.8332593555772796
-1.1772608818843082
-1.5749348383136095
-2.0235599931755877
-2.520425254744226
-3.0628266013564724
-3.6480641380937087
-4.273439298550107
-4.936252206855546
-5.633799212613453
-6.363370608411319
-7.122248537052118
-7.907705093382744
-8.71700062337047
-9.547382221467618
-10.396082425339046
-11.260318106293385
-12.137289552471865
-13.024179740895365
-13.918153794498512
-14.816358619648454
-15.71592272004245
-16.613956182767307
-17.507550832738243
-18.393780552506477
-19.269701764923653
-20.132354076736952
-20.978761081949887
-21.80593132490219
-22.61085942303614
-23.390527350209528
-24.141905881954806
-24.86195620395702
-25.547631685220875
-26.195879817109763
-26.80364431866476
-27.36786740782464
-27.88549223706567
-28.35346548964155
-28.768740131198243
-29.128278308812433
-29.429054385873314
-29.668058098958575
-29.842297818326116
-29.948803889205706
-0.04880500423560008
-0.150318996150002
-0.31639303349466985
-0.5442493617592365
-0.8311344237306386
-1.1743152331200601
-1.5710757890456906
-2.0187135634776388
-2.514536090376308
-3.0558576819459526
-3.639996293678606
-4.26427055657642
-4.925996991250545
-5.622487415710796
-6.351046555637355
-7.108969863030604
-7.893541546703103
-8.702032815922745
-9.531700336490083
-10.379784896772735
-11.243510280354668
-12.120082340587096
-13.006688271819614
-13.900496071627778
-14.79865418841677
-15.698291349048116
-16.596516561215306
-17.490419286071017
-18.377069777490885
-19.253519585265472
-20.11680222021367
-20.963933980353097
-21.79191493855454
-22.59773009253702
-23.37835067913053
-24.130735655429465
-24.85183334971304
-25.538583285561558
-26.187918181969415
-26.79676613205818
-27.362052962404828
-27.880704773341563
-28.34965065907702
-28.765825604256705
-29.12617355102895
-29.427650627476744
-29.66722852452137
-29.841898004504785
-29.94867251980748
-0.048661306786106806
-0.14988133591638508
-0.31548428801707473
-0.5427106970829243
-0.8288262848369445
-1.1711180128510215
-1.5668901980333585
-2.013460724661437
-2.5081573824002454
-3.04831435625222
-3.6312688901374024
-4.2543581419810375
-4.914916244732744
-5.610271584028676
-6.337744300076053
-7.0946440184004995
-7.878267811183999
-8.6858983888527
-9.514802519251882
-10.362229670199197
-11.225410870002046
-12.101557779205166
-12.987861966881473
-13.881494383744155
-14.779605025020157
-15.679322776417486
-16.57775543661318
-17.471989910996022
-18.35909257235346
-19.236109785479183
-20.100068593609777
-20.947977566269724
-21.77682780926254
-22.583594138776434
-23.365236422777585
-24.11870109358945
-24.840922836530073
-25.528826459889295
-26.179328951266
-26.789341725378698
-27.355773067786885
-27.875530777327334
-28.345525009091325
-28.7626713166948
-29.123893890630026
-29.4261289858877
-29.66632852766363
-29.84146388040927
-29.94852975964642
-0.04850512824957676
-0.14940602796945868
-0.3144981726927014
-0.5410423948234673
-0.8263256886108898
-1.1676569169507136
-1.5623626068858307
-2.0077828680560934
-2.5012674645216917
-3.040172066096776
-3.621854700965142
-4.2436724269452935
-4.902978235072176
-5.597118195199924
-6.323428849691922
-7.079234858257221
-7.861846893818189
-8.66855978699658
-9.496650914375866
-10.343378824288106
-11.205982092399404
-12.081678398035328
-12.967663812661456
-13.86111229086721
-14.75917535477469
-15.658981963776688
-16.55763856167735
-17.45222929489769
-18.339816396803638
-19.21744073461256
-20.082122516709035
-20.930862160425352
-21.760641321471013
-22.56842408806802
-23.351158344318875
-24.105777308434185
-24.829201252681102
-25.518339412382964
-26.170092091739598
-26.781352974404385
-27.349011645838804
-27.869956333307467
-28.34107686850175
-28.75926787445328
-29.12143217649736
-29.424484432982005
-29.665354977352578
-29.840993858784877
-29.94837506236616
-0.04833578010057593
-0.1488910510291781
-0.31343065704088957
-0.5392379152133504
-0.8236232466016915
-1.1639195129599091
-1.5574774704727377
-2.0016613762724385
-2.4938447788854985
-3.0314065189977963
-3.611726962113168
-4.232184480077069
-4.890152193981237
-5.58299498699194
-6.308066791522476
-7.062708151755645
-7.844244059374749
-8.649982057670508
-9.47721060673036
-10.32319770095354
-11.185189728598873
-12.060410561806595
-12.946060865968173
-13.83931761687343
-14.737333814186822
-15.637238381371523
-16.536136242804833
-17.431108570401815
-18.31921319397793
-19.19748517131432
-20.06293751573046
-20.912562081416247
-21.743330608557304
-22.55219593233403
-23.336093361852257
-24.091942236518783
-24.81664766903269
-25.507102484702813
-26.160189367896347
-26.77278322665694
-27.341753785501744
-27.863968416175272
-28.336295214351637
-28.7556063276905
-29.118781538496098
-29.42271209969156
-29.66430481892973
-29.84048638042646
-29.94820788797299
-0.04815255823923792
-0.14833434535135837
-0.31227765037271205
-0.5372906505271775
-0.8207095193995304
-1.159893367637153
-1.5522193327094085
-1.9950778548244736
-2.4858681707108534
-3.0219940522923485
-3.6008598111344607
-4.219866585127732
-4.876408918821044
-5.567871644226486
-6.291627064734262
-7.045032440794877
-7.825427772793665
-8.630133873483706
-9.456450720019685
-10.301656073750495
-11.163004354582515
-12.037725755694154
-12.92302558432664
-13.816083814877786
-14.71405484036426
-15.614067410175563
-16.513224743293115
-17.408604807890956
-18.297260760495227
-19.176221540029413
-20.042492614682985
-20.893056881886253
-21.724875724378492
-22.53489022770676
-23.320022566788463
-24.07717757116872
-24.803244480750227
-25.495098904441676
-26.149604996031986
-26.76361786143791
-27.333986211232347
-27.857555272457823
-28.33116997119135
-28.751678395642656
-29.115935546930384
-29.42080738019466
-29.663175134212207
-29.83993994246742
-29.94802771199089
-0.04795474796672927
-0.14773382862605366
-0.31103503686852996
-0.5351939880121819
-0.8175751162755667
-1.155566192491392
-1.5465730270043672
-1.9880143959480732
-2.4773172234144596
-3.0119120467848184
-3.58922878550732
-4.206692829093019
-4.861721454309557
-5.551720576470007
-6.274081835229763
-7.0261800109445085
-7.805370764230902
-8.60898868777216
-9.43434565735193
-10.278729466840323
-11.139402730523969
-12.013602035539108
-12.8985373266916
-13.791391507058744
-14.689320237860985
-15.589451923027443
-16.48888786567886
-17.384702585890352
-18.273944291765908
-19.153635498390287
-20.0207737925914
-20.872332744013082
-21.705262966414523
-22.516493335862027
-23.302932375252837
-24.061469817338743
-24.788978360521476
-25.48231563346762
-26.13832638627787
-26.753844926124906
-27.325697815962478
-27.85070685435379
-28.325692352595375
-28.747476723776956
-29.112888395193977
-29.41876605143701
-29.66196321070621
-29.839353131001264
-29.947834035917346
-0.04774162968103646
-0.14708741427046235
-0.30969871570701457
-0.5329413816913728
-0.814210808846477
-1.150926009487021
-1.5405239039350613
-1.9804538779682472
-2.4681726385703184
-3.0011393952117515
-3.5768113865651925
-4.192639767221781
-4.846065862827025
-5.534517796268709
-6.2554074827040544
-7.006127986580161
-7.784051229806031
-8.586526036671884
-9.410876498692492
-10.254400640252715
-11.114369364734236
-11.98802565999217
-12.872584042075037
-13.765230217005676
-14.66312094116249
-15.563384063075713
-16.46311873152822
-17.35939575745246
-18.24925812036109
-19.129721613231908
-19.99777562341121
-20.850384050492405
-21.684486365950896
-22.4969988226978
-23.284815826177933
-24.044811481591914
-24.7738413347806
-25.46874432657739
-26.126344981930515
-26.743455856719137
-27.316880265435017
-27.843415312563458
-28.319855249486448
-28.742995176743115
-29.10963510820845
-29.41658440988071
-29.6606666210079
-29.838724658592504
-29.947626399279407
-0.047512485352134703
-0.14639303233656698
-0.30826464680484733
-0.5305264340628195
-0.8106076602375296
-1.1459613390585641
-1.5340580892998998
-1.972380304046168
-2.4584166653157
-2.9896570313222277
-3.563587715937164
-4.177687173053637
-4.829422092613945
-5.51624390835909
-6.235585711956732
-6.9848595633163
-7.76145418224584
-8.562733003141233
-9.38603257146702
-10.228661258570067
-11.087898270171825
-11.960992923072807
-12.845164165111822
-13.737600314015532
-14.635458992467857
-15.5358672392298
-16.43592177833218
-17.332689432007562
-18.223207666500763
-19.10448526382945
-19.973503116755474
-20.8272151483194
-21.66254936164969
-22.476409029954937
-23.265674040614357
-24.027202410696585
-24.757831995203404
-25.454382411506533
-26.1136572060324
-26.732446291249186
-27.307528681181275
-27.835675554106032
-28.313653670335775
-28.73822917087501
-29.106171779507633
-29.414259427360918
-29.65928331339233
-29.83805340720089
-29.94740439351505
-0.04726660592653431
-0.1456486532026151
-0.30672890280145815
-0.527942988798177
-0.8067571711916717
-1.1406614125220758
-1.5271627755307327
-1.9637791844952774
-2.4480335845602896
-2.9774485259659853
-3.54954119207905
-4.16181888228648
-4.811774954089586
-5.496885221553788
-6.2146048013185196
-6.962365391828618
-7.7375729667407755
-8.537605859358266
-9.359813211931751
-10.201513761584376
-11.05999493293384
-11.932512207322507
-12.816288739119052
-13.708515190167379
-14.606349755948735
-15.506918359866972
-16.407314994510998
-17.30460219348278
-18.19581162114725
-19.077944772266534
-19.9479737785591
-20.80284232374492
-21.63946667409795
-22.454736836127722
-23.245517857652953
-24.008651293197552
-24.74095685849973
-25.43923430213553
-26.10026552559755
-26.720816985190766
-27.297642410070427
-27.827485871604456
-28.30708523851009
-28.733176050465133
-29.10249583993027
-29.4117889280621
-29.65781171494295
-29.837338477101646
-29.947167677776843
-0.047003299710898006
-0.144852314442792
-0.30508772779689686
-0.5251852353515343
-0.8026514449520921
-1.1350164116202999
-1.519826549787851
-1.9546379668830278
-2.4370102535997935
-2.9645007571267348
-3.5346593551746075
-4.145023740234551
-4.793115215440537
-5.476434995832233
-6.192461002183224
-6.938645128454088
-7.712410958794072
-8.511151905524182
-9.332229736373709
-10.172973457065261
-11.0306785136552
-11.902606279038109
-12.785983788821133
-13.678003692801632
-14.575824391101431
-15.476570327432274
-16.37733241515268
-17.275168576920837
-18.167104383425297
-19.050133782059415
-19.921219912013132
-20.777296007878178
-21.615266399850192
-22.432007624245763
-23.22436966331725
-23.989177338806545
-24.723231888265843
-25.423312757318783
-26.086179644553592
-26.708574838606804
-27.287225888723228
-27.818848650992813
-28.300150752241013
-28.727835512122503
-29.098606361196975
-29.409171788759785
-29.6562508484621
-29.83657924252253
-29.946915996989937
-0.04672190189363512
-0.14400215118593174
-0.3033376035002835
-0.5222478267292381
-0.7982833727712606
-1.1290177378027861
-1.5120397626580306
-1.9449465189925554
-2.425336717121212
-2.950804661345054
-3.5189347694291797
-4.1272966633829515
-4.773440829556369
-5.454894838211533
-6.169160104905297
-6.913709169402385
-7.685983462291849
-8.483391524683984
-9.303307642836888
-10.143070857246148
-10.99998430434179
-11.871314848932975
-12.754292966554681
-13.646112836464262
-14.543932609423798
-15.444874818141471
-16.34602690249813
-17.244441827232826
-18.137138775407998
-19.021103907279535
-19.893291180370042
-20.750623233605964
-21.58999234440901
-22.408261474904283
-23.202265429474487
-23.96881215150304
-24.704684193353096
-25.406640398276075
-26.071417836953348
-26.69573404513627
-27.276289611383895
-27.80977116477434
-28.292854813217794
-28.72221008178305
-29.094504397643654
-29.4064081646492
-29.654600464536166
-29.83577541458002
-29.9466492023129
-0.046421785261166804
-0.14309643023754326
-0.3014753236265211
-0.5191260117851169
-0.7936468420411043
-1.1226583140659647
-1.503794941319054
-1.934697669919835
-2.413006891395651
-2.9363560747059214
-3.5023660325487667
-4.108639826542488
-4.752758305505489
-5.432276262518304
-6.144719187789622
-6.887580586822926
-7.658319827521979
-8.454360474593972
-9.273089065861058
-10.11185428265544
-10.967966465078067
-11.838697423338322
-12.721280497506584
-13.612910820151148
-14.51074574045213
-15.411905372605474
-16.313473236506546
-17.21249696500213
-18.10598905863737
-18.990927675891374
-19.864257454254616
-20.722890365382877
-21.56370661462526
-22.38355560347311
-23.179256980506562
-23.94760181290336
-24.685353917797933
-25.38925139811865
-26.056008432460978
-26.682317373262116
-27.26485121033052
-27.80026645854526
-28.285206529910766
-28.716305649150925
-29.090193369683064
-29.403499743203206
-29.65286119030945
-29.834927112272517
-29.94636727419243
-0.04610237210758683
-0.14213358825460531
-0.2994980772397984
-0.515815783305241
-0.7887369691861359
-1.1159329227394128
-1.495087251627881
-1.9238878149308603
-2.4000193290162324
-2.9211566724690563
-3.4849589030501376
-4.089063988177074
-4.7310842391729295
-5.40860242942261
-6.119168567316249
-6.860297286709755
-7.629465810797438
-8.424112439747871
-9.241635508537497
-10.079392758768227
-10.934701067019798
-11.804836472877948
-12.687034451391261
-13.578490377539815
-14.476360134743036
-15.377760824823165
-16.27977154259971
-17.179434185712374
-18.073754277910624
-18.959701791965603
-19.834211967068875
-20.694186124225325
-21.53649249172382
-22.357967061587445
-23.15541450630277
-23.925609192687734
-24.66529633769649
-25.371193357440944
-26.039991466589257
-26.66835759079812
-27.252936658150997
-27.790354338601503
-28.27722030196466
-28.710132064521126
-29.08567949268079
-29.400450028506537
-29.651034696348837
-29.83403494231858
-29.946070348385078
-0.04576314763625078
-0.14111227446737473
-0.2974035418509242
-0.5123140434212345
-0.7835503597556137
-1.1088385826099492
-1.4859150139367774
-1.9125175905116638
-2.3863780721017784
-2.9052150172282323
-3.4667275574741203
-4.06858996786605
-4.708447018942529
-5.383910084637299
-6.092553969531229
-6.831914410380192
-7.599486199147712
-8.392721868708577
-9.209030878286065
-10.045779232882824
-10.900289470014366
-11.769840947713416
-12.651670369999035
-13.542972489664901
-14.440900933137291
-15.342569098560404
-16.24505108515031
-17.145382620259678
-18.04056195920854
-18.92755074227099
-19.803274802906632
-20.66462493125817
-21.508457606747115
-22.33159572327395
-23.130829340552367
-23.902916503559506
-24.644584180800255
-25.35252938025802
-26.023420508380593
-26.65389904370764
-27.240581601378782
-27.780062468478828
-28.268916692188796
-28.703703803111967
-29.080972254989206
-29.397264658708984
-29.649123883278698
-29.833100088597348
-29.945758745213848
-0.045403674954856754
-0.14003139836919765
-0.2951899871518755
-0.5086187879623356
-0.7780853983713554
-1.101374969180581
-1.4762802778761595
-1.900592626581946
-2.3720936028225736
-2.888547726350442
-3.447695990500289
-4.047250291228966
-4.684888723899815
-5.3582517150731
-6.064938944545815
-6.8025070034651405
-7.56846772580075
-8.360287123999381
-9.175384855165692
-10.011134141154848
-10.864862065450701
-11.733850170498174
-12.61533528203097
-13.506510491522604
-14.404526233477993
-15.306491401621209
-16.209474456389753
-17.110504485574108
-18.006572189639122
-18.894630774111075
-19.77159674241548
-20.634350593613455
-21.479737440723355
-22.304567576365578
-23.10561702341124
-23.879628118388187
-24.623310185013544
-25.33334036467015
-26.006364678150007
-26.638999400332466
-27.227832835149705
-27.769427582608564
-28.26032339268108
-28.697040702043616
-29.07608494902319
-29.39395175924443
-29.647133089828507
-29.83212441195475
-29.945433002187695
-0.045023611652991846
-0.13889018262764452
-0.2928563904020578
-0.5047293115183216
-0.7723425712589433
-1.0935448823508391
-1.4661894620235607
-1.888124383530486
-2.357183901157031
-2.871180770928099
-3.427899572260894
-4.025091019075491
-4.660467234027715
-5.331697944747823
-6.0364075482413
-6.772172978726537
-7.5365223047017516
-8.326933974421964
-9.140836623826338
-9.975609358049184
-10.828582417478158
-11.697038140537536
-12.578212138827341
-13.46929460593967
-14.36743168773959
-15.269726850371493
-16.17324219206693
-17.074999655422644
-17.971982108047705
-18.861134271691984
-19.73936349243351
-20.60354035689203
-21.450499172225136
-22.27703834023257
-23.07992066769844
-23.855873666958644
-24.60158991160743
-25.313727522454926
-25.988910868018472
-26.623731572183885
-27.21474992838465
-27.758496825110978
-28.251476291694175
-28.690168775143555
-29.07103525919318
-29.390522334396614
-29.645068323766914
-29.831110561261088
-29.94509391039308
-0.044622728178470794
-0.13768822181630824
-0.2904025645787023
-0.5006464352330973
-0.7663248245595513
-1.085354766116156
-1.4556540648724159
-1.8751310827020475
-2.3416756207557334
-2.853150919681987
-3.40738677910047
-4.002173779676875
-4.635258573854854
-5.304340194565738
-6.007067317742301
-6.741036401483997
-7.5037906149334415
-8.292819462460113
-9.105559003157286
-9.939392563189209
-10.791651838203226
-11.659618285138473
-12.540524706926357
-13.43155694024469
-14.32985556427764
-15.232517558210208
-16.13659784645529
-17.03911068257878
-17.937030835952243
-18.82729455881003
-19.706800325349512
-20.572409348539065
-21.4209458947879
-22.249197430506392
-23.053914647733322
-23.83181142958489
-24.57956482848547
-25.29381514146678
-25.971166177623388
-26.608185822022737
-27.20140700865604
-27.747329221453597
-28.24242064765415
-28.683121110632847
-29.065845910527194
-29.386990699921462
-29.642937517500535
-29.830062096562322
-29.944742554931732
-0.044200928237660975
-0.13642554753616842
-0.28782930036800636
-0.4963727594001206
-0.7600379619428583
-1.0768152854901727
-1.4446914543850564
-1.8616387399442385
-2.325605395045881
-2.834507342677194
-3.3862211157275617
-3.9785780251337655
-4.609359513474001
-5.276293632821218
-5.977052570196607
-6.709251129616121
-7.47044606910086
-8.258136182551393
-9.069763010804282
-9.902712063756331
-10.754314435440396
-11.621848696708895
-12.502542955636278
-13.393576983277601
-14.292084311731115
-15.19515422309103
-16.09983356018497
-17.003128304184855
-17.9020048787944
-18.79339115599235
-19.674177154312922
-20.541215436061847
-21.391321226170284
-22.221272290868672
-23.027808629027696
-23.8076320441395
-24.557405678512062
-25.27375360409739
-25.953260576514595
-26.5924720693643
-27.187894715592886
-27.73599729035006
-28.233212376318924
-28.675938856471184
-29.060545381521646
-29.38337495929666
-29.640750809916167
-29.828983624990144
-29.944380359566516
-0.04375827134614596
-0.13510270040372951
-0.28513852330942235
-0.4919129432993259
-0.7534910854677088
-1.0679419665268854
-1.4333257442423113
-1.8476823129733448
-2.309021287373862
-2.8153133918718125
-3.3644832489032193
-3.9544035353215516
-4.582890453839983
-5.247700446338344
-5.946528057720267
-6.677004843608298
-7.436699203229706
-8.223117009528533
-9.03370290308457
-9.865842113753356
-10.716862674693452
-11.584037897071154
-12.464588980405349
-13.355687642357374
-14.254458662838278
-15.157982250741473
-16.063296155575937
-16.9673974627772
-17.86724402757764
-18.75975551979789
-19.641814069855577
-20.510264523500773
-21.361914330633986
-22.193533110955425
-23.00185195580581
-23.783562541697542
-24.535316146516138
-25.253722673791618
-25.935349803821953
-26.57672240265903
-27.174322330787838
-27.72458880275783
-28.223919456678153
-28.668672297847273
-29.055168684702114
-29.379697525922893
-29.638520855864897
-29.827880950288353
-29.94400913599334
-0.04329499766367029
-0.13372080953329046
-0.28233346763997424
-0.4872740150410273
-0.7466970840968257
-1.0587559060343317
-1.4215887659907018
-1.8333069747325874
-2.291984400679593
-2.795648577573493
-3.3422733754953238
-3.929773196008283
-4.55599862641887
-5.218733465845629
-5.915693015198115
-6.644523505993404
-7.402802529859711
-8.188040320606515
-8.997681734894027
-9.82910877521315
-10.679643500360962
-11.546551173453164
-12.427043505376588
-13.3182818621543
-14.217380318076598
-15.121408451214426
-16.027393794706427
-16.932323875558414
-17.83314779092359
-18.72677729162164
-19.610087362399696
-20.479916308056726
-21.333065373845166
-22.166297947873552
-22.976338411895842
-23.759870724349845
-24.513536836657114
-25.233935059986376
-25.917618514384458
-26.56109380606386
-27.160820090944974
-27.71320869371087
-28.214623460543514
-28.661382030733257
-29.04975821789194
-29.375985693413533
-29.636263164705618
-29.82676123673292
-29.943631137929344
-0.042811555340339424
-0.13228168028440912
-0.2794188684568457
-0.4824657144263913
-0.7396731748270424
-1.0492845584999717
-1.4095211476212572
-1.8185695266555069
-2.274570664471712
-2.775610762573963
-3.3197138508050585
-3.9048360811666467
-4.5288616412810825
-5.1896001834267045
-5.884785642129202
-6.612076294241193
-7.369055900689383
-8.153235758901273
-8.962057488412851
-9.792896370461653
-10.643065064888082
-11.509817533859046
-12.390353011260963
-13.281819869432988
-14.181319250646595
-15.085908347456476
-15.992603235693016
-16.898381184213413
-17.800182386622588
-18.69491108201061
-19.57943605371492
-20.45059051699094
-21.305171427840037
-22.139938266277866
-22.951611367812426
-23.73686989628296
-24.492349569818064
-25.214640269764907
-25.90028367838879
-26.545771106928278
-27.147541689558526
-27.701981131387313
-28.20542120947684
-28.654140234596817
-29.044364688570013
-29.372272255786932
-29.633996469115438
-29.82563318799589
-29.943249120191066
-0.042308630712883044
-0.13078789110246447
-0.27640117398108455
-0.47750087238004646
-0.7324415023278412
-1.0395626087940357
-1.3971735106169367
-1.8035399679585948
-2.2568728193800487
-2.755318598831387
-3.2969521067701706
-3.87977087373312
-4.501691422448826
-5.160547204875371
-5.85408806492931
-6.579981056569825
-7.335812430442323
-8.119090591653084
-8.927249824520977
-9.757654579213675
-10.607604118766616
-11.474337333055697
-12.35503753750606
-13.246837089755225
-14.146821675565594
-15.052034135081144
-15.959477722735336
-16.86611871701345
-17.76888832045524
-18.664683814455763
-19.55036895784734
-20.422773642179344
-21.278692840436793
-22.11488490888431
-22.92806932379016
-23.71492395607679
-24.472082007512668
-25.196128751441563
-25.883598238787854
-26.530970147643153
-27.134666970379115
-27.691051746377273
-28.19642656154108
-28.647032046338765
-29.039048113082586
-29.368596178938343
-29.631743125021295
-29.824507241374732
-29.94286640300799
-0.041787181491137915
-0.12924290026678875
-0.27328878019715575
-0.47239583104997696
-0.7250298036897531
-1.0296329406575309
-1.3846077993880694
-1.7883032393632492
-2.239002622712392
-2.7349142353597857
-3.274163894117628
-3.854789664194832
-4.474738574684712
-5.131865185730493
-5.823931832349894
-6.548610346362234
-7.303485039889393
-8.086056722324269
-8.893747516487771
-9.72390623948547
-10.57381411876251
-11.440690624138991
-12.321699210564368
-13.213952784377863
-14.114518726961283
-15.020423332881641
-15.9286555447892
-16.836169893380493
-17.739888577948882
-18.63670264989467
-19.523472288639812
-20.397026185837234
-21.25416007953718
-22.091634505200247
-22.906171854243414
-23.69445285392364
-24.45311260463353
-25.17873633158694
-25.867855027593706
-26.51694118257119
-27.122404813168018
-27.680590021662788
-28.18777232858166
-28.640157036248603
-29.033878891485372
-29.365003323999986
-29.629529543142247
-29.82339577779417
-29.942486941668673
-0.04124847326664316
-0.12765116374718577
-0.27009229038988725
-0.467170909195298
-0.7174721459674487
-1.0195477126514039
-1.3718987593634315
-1.7729611626328277
-2.2210933023582484
-2.7145663307394874
-3.251556887832312
-3.830142172245175
-4.448297232578835
-5.103894306696342
-5.794704003815125
-6.518398098169476
-7.272553683138849
-8.054658422758427
-8.862116631874894
-9.69225591692385
-10.542334116681152
-11.409546294761473
-12.29103155316749
-13.183879457422298
-14.085135888478717
-14.991808163508237
-15.900869296431843
-16.809261298767453
-17.71389745159951
-18.611663509460506
-19.499417826705404
-20.373990426147436
-21.232181057551887
-22.07075632067145
-22.88644595362134
-23.675938412086445
-24.435875888377982
-25.16284894238504
-25.85339093774621
-26.50397249695749
-27.11099620905405
-27.670791841157214
-28.179612322517936
-28.633630785046087
-29.02893895755018
-29.36154722249122
-29.627386652289243
-29.822313347737357
-29.942115401593405
-0.040694119793879935
-0.12601826535241578
-0.26682480237147566
-0.4618509184212547
-0.7098097457361776
-1.0093695551424684
-1.3591355827900689
-1.757634601262561
-2.203302290759439
-2.6944734089206266
-3.2293747016614365
-3.806120443962887
-4.422710450565064
-5.077030352496836
-5.766853899215954
-6.489847017046333
-7.2435733328214615
-8.025500859586671
-8.833009536034126
-9.66339931371745
-10.513898496436722
-11.381672051304106
-12.263829632629722
-13.15743308519167
-14.059503221939377
-14.967025702605437
-15.876955872531315
-16.786222454743367
-17.691730021836708
-18.590360207855085
-19.47897165294472
-20.35439870516678
-21.21344893437388
-22.052899541805072
-22.869492777070988
-23.659930500560346
-24.420868054509818
-25.148907630163738
-25.84059134173304
-26.49239423986652
-27.100717518758792
-27.661882191365354
-28.172123526422276
-28.627586558932983
-29.024323001928266
-29.358289902205634
-29.625350393915404
-29.821276912840222
-29.941757238780525
-0.04012612736391574
-0.1243510606173448
-0.2635022269867422
-0.4564657369269618
-0.7020918814253552
-0.9991729043983941
-1.3464237446685168
-1.7424658719770454
-2.1858142763797983
-2.6748676037580195
-3.207901365156379
-3.7830640856408833
-4.398376201916514
-5.051731468209141
-5.740900588756855
-6.4635367630392295
-7.217182806644336
-7.999279498190558
-8.807174798849863
-9.638133595627005
-10.48934763329153
-11.357945318916276
-12.241001109175874
-13.135544221019595
-14.03856643949935
-14.947028833212372
-15.857867225100582
-16.767996304598068
-17.67431230447627
-18.573694203083676
-19.46300344828912
-20.33908223351012
-21.198750389282004
-22.038800984522677
-22.855994760860955
-23.647053551691855
-24.408652864370993
-25.137413828909082
-25.829894741873016
-26.48258245757617
-27.09188390185787
-27.654118006335384
-28.165508382678972
-28.622177077129614
-29.020139764757513
-29.355302761451807
-29.623462246661678
-29.82030610270541
-29.94141878550267
-0.039546943859335215
-0.12265783632243377
-0.26014364206215834
-0.4510509484700682
-0.6943769111861569
-0.9890454930339194
-1.3338870554867874
-1.7276214420092448
-2.168844617034017
-2.6560188460103276
-3.187466326103221
-3.7613661058075074
-4.375754066009687
-5.028525678737102
-5.717441213420985
-6.440133024546692
-7.194114530184409
-7.976790478363528
-8.785468096105738
-9.617368723864145
-10.469639555743488
-11.339365130314
-12.223578248349213
-13.119270030075395
-14.023398863730657
-14.932898039626956
-15.844681906339613
-16.755650428821944
-17.662692070233106
-18.56268496007317
-19.45249635013799
-20.32898039666212
-21.18897434211177
-22.029293202570027
-22.84672309742008
-23.63801338763485
-24.39986781662039
-25.128934874002734
-25.82179762926658
-26.47496330682504
-27.084852899414138
-27.647791141282614
-28.159997186688894
-28.617576363159316
-29.01651339164254
-29.35266748784527
-29.621769778785048
-29.819423486022366
-29.941107340953202
-0.03895951301111644
-0.12094848757741428
-0.2567716866723746
-0.4456485558681944
-0.6867334116653501
-0.9790900197651835
-1.321669962727701
-1.7132949541494948
-2.1526431675047375
-2.6382395562169
-3.1684500524730437
-3.7414794495213135
-4.355372696634732
-5.008019271290179
-5.697160241125727
-6.42039758840999
-7.175205344304364
-7.958942068211128
-8.768864207811315
-9.602139887794628
-10.45586269781009
-11.327065081216332
-12.212730964334778
-13.10980730909107
-14.015214318209997
-14.925854070965238
-15.838617416138717
-16.75038899730571
-17.658050332548367
-18.558480915209223
-19.448557344679834
-20.32515053567075
-21.185121091457546
-22.025312960425822
-22.842545527549206
-23.633604322820275
-24.395230556757944
-25.124109720997208
-25.81685951912985
-26.47001741906433
-27.080028145032102
-27.643231454276652
-28.155850569739957
-28.6139816675066
-29.01358484424218
-29.350477016053546
-29.620327225293348
-29.818654854457698
-29.940831266446267
-0.03836733460409736
-0.1192347151183295
-0.2534130017719525
-0.4403077804452318
-0.6792414562836226
-0.9694260259032887
-1.3099401392916068
-1.699710629750998
-2.1374985842024796
-2.6218899189728555
-3.151290321834973
-3.7239243241788715
-4.3378381803967585
-4.990906157670301
-5.680839780488647
-6.405199531218541
-7.161408481335361
-7.946767317176512
-8.758470228407816
-9.593621144968061
-10.449249837546914
-11.322327435670989
-12.20978096359266
-13.108506545779873
-14.01538098839358
-14.92727149922484
-15.84104336448916
-16.753565455308205
-17.661713488590273
-18.5623710160132
-19.452428160333056
-20.328778160094544
-21.188311822655038
-22.0279100203165
-22.844434397797045
-23.634716489541983
-24.39554547418666
-25.12365482209644
-25.815708119107345
-26.468284377223867
-27.077863171130975
-27.6408099682185
-28.153362048908868
-28.611615444943734
-29.01151335356368
-29.348836516746545
-29.619196085430822
-29.818029517372754
-29.94060008450754
-0.037774531646316056
-0.11753024602658346
-0.2500987244293702
-0.4350859610010982
-0.6719940553858059
-0.9601920120541925
-1.2988914049012856
-1.6871271098559362
-2.1237431822515
-2.607383828940316
-3.1364893028826586
-3.7092964344932087
-4.323843413799766
-4.9779783532272806
-5.6693710943737585
-6.395527675950264
-7.15380685256963
-7.941438045778349
-8.755540118234409
-9.593140386526501
-10.45119332606535
-11.32659847002209
-12.216217060499126
-13.116887071550769
-14.025436288076598
-14.938693189284471
-15.853495449173185
-16.76669592776227
-17.675166083929327
-18.57579679421756
-19.465496610543596
-20.341187533818687
-21.19979842052678
-22.038256174974926
-22.853474913721968
-23.64234331820564
-24.40171042089416
-25.12837009869545
-25.819044574316706
-26.470367255059937
-27.078865267528982
-27.64094207737415
-28.152860615318183
-28.610727364680425
-29.010477900441565
-29.347864406500733
-29.618445734607675
-29.81758060468667
-29.94042458100337
-0.03718592544738186
-0.11585108146001044
-0.2468650446340268
-0.43004956908112923
-0.6650987854757933
-0.9515478354756337
-1.288747036475303
-1.6758418072361319
-2.111758435339185
-2.5951956167877634
-3.1246215540724984
-3.698276266629441
-4.314178651213796
-4.970137733674772
-5.663767479619738
-6.392504481324683
-7.153627811329884
-7.944280328947703
-8.761490741846554
-9.602195759070458
-10.463261720729792
-11.341505149478062
-12.233711737831571
-13.136653358523887
-14.047102760544846
-14.961845688636725
-15.877690236302087
-16.791473311055668
-17.70006415374161
-18.600364911246494
-19.48930831371061
-20.363852553128694
-21.220973500769194
-22.05765443693469
-22.87087349917995
-23.657589084316353
-24.414723467839607
-25.139144931645994
-25.827648717918876
-26.47693715586836
-27.083599337812142
-27.64409075323085
-28.154713324564067
-28.61159632562742
-29.010678703286505
-29.347693365633635
-29.618154043160324
-29.817345374144608
-29.9403169091471
-0.03660711995370569
-0.11421577615776801
-0.24375383563325137
-0.425275361106042
-0.6586796410017133
-0.9436774372607815
-1.2797635351458667
-1.6661958576023013
-2.1019812278741887
-2.585867685408157
-3.1163430892116635
-3.6916395883880955
-4.309743404387068
-4.9684092599939795
-5.665178707981969
-6.397401558711544
-7.16225958099197
-7.9567916520595
-8.777919557547149
-9.622473688617813
-10.487217946190418
-11.36887323640789
-12.264139025196675
-13.169712507469566
-14.08230503475393
-14.998655531808378
-15.915540715081947
-16.829782002316456
-17.738249071862338
-18.637860091826415
-19.52557869361629
-20.398407811278403
-21.25338054848342
-22.08754827036736
-22.89796614806939
-23.68167641174778
-24.435689594095216
-25.156964071803728
-25.842384238691064
-26.488737672315473
-27.092691686254806
-27.650769693511485
-28.159327844320178
-28.614532442389834
-29.012338688285535
-29.34847134760674
-29.61840799249045
-29.81736551859778
-29.940290693904338
-0.03604459709908969
-0.11264575558394885
-0.24081337109248047
-0.42085169223636854
-0.6528791495085344
-0.9367919599024446
-1.2722349329640061
-1.658579777331699
-2.0949109919782765
-2.580019213733581
-3.1124016901451617
-3.6902693651061145
-4.311559908520348
-4.973955896480435
-5.6749072574016886
-6.411657043660741
-7.181269566849146
-7.980659944487154
-8.80662414354905
-9.65586866792054
-10.525039116887832
-11.410746934063738
-12.309593767511954
-13.218192966643949
-14.133187845018583
-15.051266438035253
-15.969172577814103
-16.88371319252417
-17.791761812803408
-18.69025833343436
-19.57620513462768
-20.446659714369858
-21.298724022786587
-22.129530722578796
-22.936226627508823
-23.715953595923903
-24.465827179672818
-25.182913351395488
-25.864203657640207
-26.506589172094678
-27.10683365335793
-27.661546346047196
-28.167154904170417
-28.619878960009817
-29.01570491191382
-29.35036255980995
-29.619304276643497
-29.817687467696953
-29.94036113513839
-0.03550582522066836
-0.11116567771193786
-0.23809914578436064
-0.41688002320418693
-0.6478608005569484
-0.9311333293040667
-1.266497740569553
-1.6534399585763992
-2.091117890388363
-2.5783561185137875
-3.113648683734969
-3.695169331155083
-4.320788411574178
-4.988095488812144
-5.694426603547119
-6.436895087397781
-7.212424805171966
-8.01778472493153
-8.849623769642495
-9.704504985715253
-10.578938165160487
-11.46941017267858
-12.372412352175841
-13.28446451168325
-14.202135107061817
-15.122057359978173
-16.040941150811683
-16.95558062090248
-17.862857500283937
-18.759740245770832
-19.643279131241066
-20.51059747831864
-21.35887925246162
-22.185353279324133
-22.987274359465232
-23.761901580600217
-24.506474145440464
-25.218185051754833
-25.89415298331517
-26.53139279455167
-27.12678500136515
-27.67704472550683
-28.178690581955507
-28.62801404684214
-29.02104989909749
-29.353548391449255
-29.620949875108163
-29.81836267706738
-29.940545107080013
-0.03499938304724104
-0.10980384834692458
-0.23567482055008426
-0.41347665861171734
-0.6438118505605517
-0.9269783922799975
-1.2629366599942609
-1.651286161811492
-2.09125224203106
-2.5816825055799604
-3.1210524456267636
-3.7074795051398812
-4.338744593530375
-5.012319919124044
-5.725401889849125
-6.474947778526501
-7.257714842592779
-8.070300626327565
-8.909183249723558
-9.770760594909278
-10.65138742929458
-11.547409646727424
-12.455194957102853
-13.371159502852233
-14.291790022621756
-15.21366131463204
-16.133448870479562
-17.047936652783598
-17.95402007773295
-18.84870433463287
-19.729098231079547
-20.592403796322248
-21.43590190767635
-22.256934229540732
-23.052881771662808
-23.82114038825739
-24.559093552616567
-25.264082755161567
-25.933375890709964
-26.564134021787567
-27.153376932887497
-27.697947925683753
-28.194478348484182
-28.639352405651387
-29.028672853569464
-29.358228259623207
-29.62346257989681
-29.819447896877193
-29.940861251484375
-0.03453510245079894
-0.10859270119737108
-0.2336133171665873
-0.4107747641053119
-0.640946580324266
-0.9246437223575028
-1.261991216371722
-1.6527002026166187
-2.096055430266132
-2.590913892117165
-3.1357139488780206
-3.7284939959159087
-4.366919482852359
-5.04831691525734
-5.769713351767388
-6.52787985786015
-7.319377385226531
-8.140603606483069
-8.987839339649472
-9.857293335716378
-10.745144364715696
-11.647579711409778
-12.560829371713234
-13.481195416880047
-14.405076157990045
-15.328984894166119
-16.249563160076413
-17.163588500370274
-18.06797689073362
-18.95977999760191
-19.836177522899405
-20.694464919218547
-21.532036786961264
-22.346366281429148
-23.134980867562373
-23.89543476595801
-24.62527843960236
-25.322025477283994
-25.98311724122982
-26.605885664071607
-27.18751460545102
-27.725000213272395
-28.215110779005478
-28.6543466326744
-29.038900689695485
-29.36462033963838
-29.62697145670442
-29.821005410133704
-29.94133006145318
-0.03412423407956666
-0.10756935647485566
-0.2319980951497973
-0.4089267220430779
-0.6395101011968567
-0.9244912335497988
-1.2641634975862595
-1.6583460746762915
-2.1063725883821354
-2.607092543366996
-3.1588847434937315
-3.759681518890881
-4.407002311207705
-5.0979949634810815
-5.829482939174134
-6.598016651173663
-7.399927110219765
-8.231380193508853
-9.088429976363168
-9.967069749528056
-10.86327954897312
-11.77306924157762
-12.692516427013016
-13.6177986247198
-14.5452194072755
-15.47122831275643
-16.392434515317436
-17.30561435429238
-18.207712917172127
-19.095839943408272
-19.967260365657637
-20.81937983660172
-21.649725606525553
-22.45592312244007
-23.23566871895936
-23.986698766122018
-24.706755635259974
-25.393550842185753
-26.04472573089256
-26.657810073382866
-27.230178982870097
-27.759008571053833
-28.241230825590577
-28.673488243225364
-29.052088826712286
-29.372962140036176
-29.63161721677674
-29.823103229394874
-29.94197395205825
-0.0337796409134441
-0.10677627527860256
-0.23092465061552847
-0.4081068998959787
-0.6397828290318062
-0.9269347755643436
-1.2700272361385094
-1.6689818073325091
-2.123167424242939
-2.6314053441013963
-3.191987836588077
-3.802709129669668
-4.460906836104151
-5.1635118604196775
-5.907104661459151
-6.687975716736709
-7.502188093438807
-8.345640163144857
-9.214126688039808
-10.103396738125598
-11.009207155298647
-11.927370546347593
-12.853797047814023
-13.78452935210662
-14.715770706927529
-15.643905793297026
-16.565514548854306
-17.477379131714287
-18.37648431649083
-19.26001168182342
-20.12532799057775
-20.969968184511536
-21.79161341957513
-22.588064559782275
-23.357211533107574
-24.096998934658597
-24.80538824569424
-25.480317024664497
-26.119655421326303
-26.72116037073798
-27.28242784087128
-27.800843539111035
-28.27353252898307
-28.697308270648826
-29.06862167759921
-29.383510876942864
-29.63755247263958
-29.82581523892486
-29.942817313572977
-0.033516026070527616
-0.10626203175205307
-0.23050228765833092
-0.4085149241947712
-0.6420857747116866
-0.9324479266078118
-1.2802385246771997
-1.6854734271718854
-2.147539629632117
-2.6652047199495623
-3.2366420458965104
-3.859469789228576
-4.530801768290825
-5.247307543272033
-6.005279275590782
-6.8007027885001206
-7.629330376471238
-8.486753098047156
-9.368470540155108
-10.269956339644134
-11.186718068516088
-12.114350415198253
-13.04858090770763
-13.985307714088634
-14.920629311624145
-15.85086603301103
-16.77257367293133
-17.682549472505826
-18.57783089366835
-19.45568765547968
-20.313607534224367
-21.149276434588067
-21.960553226439607
-22.745439816193535
-23.5020468895104
-24.228555727308446
-24.923176465638104
-25.584103144310863
-26.209465873257606
-26.797280443329484
-27.345395719392116
-27.85143918226375
-28.312761032388575
-28.72637733307576
-29.088912756149043
-29.396543596591698
-29.64494184723121
-29.82922126755551
-29.943886542440243
-0.03335020293221902
-0.10608223067996159
-0.2308562257731177
-0.41037957700276806
-0.6467868381378952
-0.9415732539946062
-1.295548527703322
-1.708811481863704
-2.180745424873183
-2.7100332413317383
-3.2946905258929187
-3.9321145058025233
-4.6191460708433905
-5.352141961009825
-6.127054049661984
-6.939512692895833
-7.784911274554643
-8.658489336484568
-9.555412017552754
-10.470843905870442
-11.400015808876699
-12.3382833432165
-13.281176621925532
-14.224440654809353
-15.16406637020596
-16.09631240710464
-17.017718013965947
-17.92510752636776
-18.81558698434674
-19.686533497250572
-20.53557797622267
-21.36058183966669
-22.15960826178548
-22.930888487063815
-23.672783679420178
-24.383742719731977
-25.06225631646594
-25.706807752863195
-26.31582056540711
-26.887603436420143
-27.42029258820521
-27.911791991009196
-28.3597117432114
-28.761305049872927
-29.11340431656621
-29.412356988531318
-29.653961902265557
-29.833407075601425
-29.945210044405243
-0.033301417814690204
-0.10630060527890839
-0.23213012346301776
-0.41396346232035297
-0.6543083406069501
-0.9549333814533636
-1.3168186425004147
-1.740130696264798
-2.2242219201598177
-2.7676526890573503
-3.368234322061987
-4.023089958711232
-4.728730054026783
-5.481138896963045
-6.275868466573627
-7.108136028655417
-7.972922114318234
-8.865065878714063
-9.779355276026067
-10.710609971623631
-11.653755410120123
-12.603886941136661
-13.556323351482517
-14.50664954603745
-15.450748450281544
-16.384822471180406
-17.305405049431336
-18.209362968601127
-19.09389016330559
-19.956493795910283
-20.794973359246264
-21.60739352101656
-22.392051362637055
-23.147438590063004
-23.87219921389372
-24.565083117494535
-25.224895861207443
-25.85044501189767
-26.44048324381366
-26.993648433210723
-27.508400966529305
-27.982958502291552
-28.415228472167538
-28.802738677099168
-29.142566430772817
-29.431266825875266
-29.66480084793382
-29.838464237445624
-29.94681820380744
-0.03339173809064944
-0.10699033948211234
-0.2344891197904193
-0.41956862878792167
-0.6651360919400542
-0.9732442894226947
-1.3450386772922691
-1.7807334721588628
-2.2796161393417718
-2.8400785427822446
-3.4596720018785874
-4.1351827049065495
-4.862723379713959
-5.6378368288952165
-6.455606887059625
-7.310772526561373
-8.197841186281153
-9.111197881593128
-10.045207225132375
-10.994306102464858
-11.953085363388524
-12.916359474691681
-13.879223608904095
-14.83709809752716
-15.785760547343527
-16.721366202345017
-17.640457333120317
-18.539962558232414
-19.417187057631708
-20.269794637405532
-21.09578256073832
-21.893449982911314
-22.661360730781254
-23.39830105792415
-24.10323289512077
-24.775243009910113
-25.41348839328485
-26.01713811231061
-26.5853118084207
-27.11701498431411
-27.61107121143074
-28.066051405719207
-28.480200363127864
-28.85136081923146
-29.176895400002927
-29.453606963233714
-29.67765799262525
-29.844489899725367
-29.94874331226064
-0.03364652234105758
-0.10823567133228718
-0.23812352328605968
-0.4275433855301982
-0.6798303679884119
-0.9973313865442403
-1.3813487606001393
-1.8321181216094957
-2.3488197589426756
-2.92962108120663
-3.571746649795348
-4.271571308347583
-5.0247313181915
-5.826248121408462
-6.670659370801268
-7.552152149582744
-8.464693800342435
-9.40215643297639
-10.358431922829826
-11.327534986429917
-12.303692682555196
-13.281419391299123
-14.255576945045561
-15.221420103506464
-16.17462797344037
-17.111322271963076
-18.028073526458975
-18.921896406464253
-19.790235406374418
-20.630942058133975
-21.442244765613857
-22.22271223131736
-22.97121130560025
-23.686859939164624
-24.368975771245005
-25.017020747898155
-25.630542041740192
-26.209109441889453
-26.7522493062733
-27.25937511777004
-27.729714665285925
-28.16223388166219
-28.55555741220325
-28.907886063295578
-29.216911389317143
-29.479727817688318
-29.69274288825266
-29.851586393419943
-29.9510194495617
-0.034094993688075004
-0.11013384963803752
-0.24325331355383661
-0.43829061323084195
-0.6990392760728669
-1.028149034295377
-1.4270658826729459
-1.8960129514056185
-2.4340108761541557
-3.0389345674573747
-3.7076018093131586
-4.435888025465559
-5.2188608767696225
-6.050928092613973
-6.925992061700777
-7.837605153684445
-8.779120440250178
-9.743833352088089
-10.725110765824049
-11.716504991053657
-12.711851060765373
-13.705346572501599
-14.691614050716915
-15.665746385640311
-16.623336345836496
-17.560491464574408
-18.47383577714601
-19.360499953608226
-20.218101348875344
-21.044715399857516
-21.83883965611132
-22.599351555028036
-23.325460859916113
-24.01665748219893
-24.67265521896503
-25.29333176220058
-25.87866518258172
-26.428666963620962
-26.943311565395287
-27.422462432495273
-27.865794330454143
-28.272711900316043
-28.64226436158543
-28.973056371966894
-29.26315516693094
-29.50999425367297
-29.710274123869752
-29.85986067674579
-29.953682309164595
-0.034770943492553386
-0.11279753666471515
-0.25013366783761004
-0.452277957097579
-0.7235151180600078
-1.0668043924305266
-1.4837162101521446
-1.9744176062495002
-2.537704450072342
-3.1710763501024024
-3.8708483220012004
-4.632292038401566
-5.449798752120113
-6.31705578810446
-7.227228780342641
-8.173142504203135
-9.147454121112762
-10.142813803324279
-11.152008937645913
-12.168089328865968
-13.18447196229629
-14.195024887252265
-15.19413061644018
-16.17673008532385
-17.138348680897618
-18.07510614236928
-18.983712278017503
-19.861450456400778
-20.706150743107433
-21.516154392439404
-22.29027119027262
-23.02773090189364
-23.728129823958774
-24.391373187633256
-25.017613922649947
-25.607188076379558
-26.1605469958614
-26.678186227520314
-27.16057097214451
-27.608057853738856
-28.020812720577496
-28.398724196914316
-28.741312743423386
-29.04763506495701
-29.316183825192326
-29.54478278929362
-29.730477718535766
-29.869423584956373
-29.956768960151468
-0.035713600510766774
-0.11635777672083769
-0.2590617860810118
-0.4700503991783368
-0.7541345333103155
-1.1145866938700926
-1.553074624781348
-2.0696534497684302
-2.6628134803737327
-3.3295781594338694
-4.0656444688925
-4.8655566662447
-5.7229034574489575
-6.630528635917466
-7.5807457344453635
-8.565548228352602
-9.576808154436733
-10.606457528229507
-11.646648517241278
-12.689889849230212
-13.729158314689027
-14.757985401519083
-15.770520047071809
-16.761569197304176
-17.72661833462675
-18.66183439737689
-19.564053595434633
-20.430756562666527
-21.260033112584455
-22.050538611826084
-22.80144368631489
-23.512378651731854
-24.18337373308833
-24.814795824112732
-25.407282246708387
-25.961671712033453
-26.478932463909146
-26.960087405050096
-27.406135869421114
-27.817971610299253
-28.196296524592928
-28.541529628960927
-28.85371084241477
-29.13239921344578
-29.376565357208335
-29.584478039944493
-29.753585063363893
-29.880388862620524
-29.960317537593895
-0.036968711041613034
-0.12096768599327223
-0.2703853689259492
-0.4922458534255001
-0.7919234297576181
-1.1730033719930737
-1.637213338508686
-2.1844252406752798
-2.8127235226058898
-3.5185324442480863
-4.296792385991009
-5.141173520612733
-6.044314453146424
-6.998073551725941
-7.993781555318507
-9.022485474393102
-10.075175606390825
-11.14298947864649
-12.217388537366535
-13.290305283607793
-14.354260215599528
-15.402449307547403
-16.428803811507525
-17.428024911548103
-18.395596210561827
-19.327777227798343
-20.221581073745465
-21.074739295533877
-21.88565659652938
-22.65335776841993
-23.377428768218387
-24.057953454501817
-24.69544708805818
-25.290787318759072
-25.84514303338392
-26.3599011352907
-26.83659107074337
-27.27680671015873
-27.682125036047115
-28.05402098231692
-28.39377771273033
-28.70239161719791
-28.980471343867023
-29.228130271753415
-29.444871962959184
-29.629468315084914
-29.77983036269015
-29.89287195391384
-29.96436685313422
-0.03858988955682241
-0.1268070663032448
-0.2845132105743193
-0.5196146198627138
-0.8380880092999472
-1.2438248754964818
-1.738561960591765
-2.3218969791840185
-2.9913838236328463
-3.742697308896946
-4.569854430112105
-5.465477226045989
-6.4210816776856285
-7.427377517844358
-8.474565190210482
-9.552618229910058
-10.65154177949153
-11.761600551712306
-12.873512090283032
-13.978603491928734
-15.068931725300274
-16.137369252041847
-17.17765780501863
-18.184433927784614
-19.153230269057367
-20.08045671550165
-20.963365298125378
-21.800002485110607
-22.589152035028373
-23.33027107850323
-24.023421563608316
-24.669198672645578
-25.268657317129648
-25.82323735965106
-26.334687805535324
-26.804989857902104
-27.236278440061234
-27.630761557953356
-27.99063670167164
-28.318003367103433
-28.614770715279985
-28.882559375413827
-29.12259643785689
-29.33560277408062
-29.521671962010533
-29.680140286563546
-29.80944752596541
-29.90698852740363
-29.968955917936604
-0.04064031767314524
-0.13408820876707783
-0.3019285119048831
-0.5530437914474041
-0.8940535893719256
-1.3291405501737055
-1.8599820777167029
-2.4857856003275893
-3.203419238870347
-4.007624514964588
-4.891294047620969
-5.845795121904063
-6.861319546964501
-7.927241173094167
-9.032464517336168
-10.1657508067638
-11.316011029329038
-12.472558954184336
-13.625320276688136
-14.764996858893909
-15.883187351368779
-16.972467242850435
-18.026432593776942
-19.03971241349199
-20.00795491025657
-20.9277927640843
-21.79679223176429
-22.61339037353606
-23.376824062950867
-24.087053764768136
-24.74468438513552
-25.350884847107903
-25.907307444416634
-26.416007490984992
-26.87936331924567
-27.29999628836437
-27.68069014340174
-28.02430881468917
-28.33371155936994
-28.611664221147606
-28.860745316838674
-29.08324564579391
-29.28106016060454
-29.455570932952572
-29.607520196737525
-29.736872651806856
-29.84266646512241
-29.922852713393855
-29.974123370703975
-0.04319489443143815
-0.14306323860822762
-0.3232057125388717
-0.5935880527220432
-0.9615134512129354
-1.431428689488933
-2.0048603106918073
-2.6804772360514235
-3.454268223525583
-4.319816158546065
-5.268646788601429
-6.290627327946878
-7.3743902760868965
-8.50775951884447
-9.678158882721483
-10.872987298072793
-12.079949108928998
-13.287332418186221
-14.484232341243795
-15.660719431407514
-16.80795621185637
-17.918266669871354
-18.985164776760648
-20.003348677277156
-20.968667258221604
-21.87806547818343
-22.729514236609653
-23.521929784983108
-24.255086821355118
-24.929528530102807
-25.546475979887944
-26.10773850695231
-26.61562600729058
-27.072863449519666
-27.482507401477886
-27.847863934644472
-28.172406926534336
-28.459695515047866
-28.71328926296019
-28.936659461347357
-29.133094931941436
-29.30560067713983
-29.456787771721284
-29.588752990409752
-29.70294682097377
-29.800028722794977
-29.879708756892594
-29.940575034128678
-29.979906804192915
-0.046342974837006015
-0.15403346840579218
-0.3490319027821797
-0.6425087764191206
-1.0424906567962444
-1.5536448214122056
-2.177225006947915
-2.9111721371008548
-3.75035365085126
-4.686917090259453
-5.710728462925859
-6.80986372007356
-7.971122284908811
-9.180534455388619
-10.423839053858092
-11.686913207088072
-12.956141959291646
-14.218720995671516
-15.462890678648634
-16.678103622557742
-17.855131046236647
-18.986115155955886
-20.0645759165149
-21.08538091125642
-22.044686740145437
-22.939859725943027
-23.769382745501037
-24.53275390495671
-25.230381634392113
-25.8634796642586
-26.433964311244104
-26.944355574610405
-27.397682738538446
-27.797394494263422
-28.14727303200961
-28.451351097018467
-28.71383064604144
-28.939001468636732
-29.131157940669702
-29.294511949592867
-29.43309996430447
-29.55068221427356
-29.65063199143166
-29.735813192807484
-29.808444383998214
-29.86994788232725
-29.920782636053573
-29.960260010711398
-29.986341984965737
-0.05019188006760493
-0.16736138600424472
-0.38023423539838447
-0.7013239614588922
-1.139416741200288
-1.699333598364462
-2.3818933211515385
-3.184066147413178
-4.099295103180189
-5.117951995803746
-6.227889112350027
-7.415045755687275
-8.664070476364655
-9.958924482216979
-11.283438292190828
-12.621801271165232
-13.958971359734342
-15.280999398063242
-16.575268456480813
-17.830653271600102
-19.03760817983398
-20.18819392113054
-21.27605453406679
-22.296355507125824
-23.245693630515262
-24.121987833645903
-24.924358889038
-25.65300436803592
-26.30907376010913
-26.89454729304714
-27.41212076064705
-27.8650975984145
-28.2572885501948
-28.59291853066857
-28.87653969555672
-29.11294926465824
-29.307110284452094
-29.46407325087699
-29.588896323768957
-29.68656174383596
-29.761886002128758
-29.819421308122656
-29.863345954650313
-29.897341285480746
-29.924453138291888
-29.946935861790898
-29.96607729361041
-29.982003434629803
-29.993461962457566
-0.054871427154035424
-0.18348612316648333
-0.417815253015573
-0.7718724322918248
-1.2552325059524005
-1.8727714180985517
-2.624657571783709
-3.5065790060544035
-4.510173741424145
-5.623618407271195
-6.832323543205876
-8.11968273538105
-9.467826307533104
-10.858337471799581
-12.272898281307596
-13.69384305613841
-15.104607010054586
-16.490066718006926
-17.836776294008477
-19.13310846777319
-20.369313180011755
-21.537508060378133
-22.63161551401334
-23.647260465018775
-24.58164142127805
-25.43338572891163
-26.20239791320352
-26.88970803323895
-27.497325129244878
-28.028099187808035
-28.485593624345512
-28.873969090059514
-29.197878441420205
-29.462371939812392
-29.67281115012659
-29.834789550820425
-29.9540575277791
-30.03644917829117
-30.087808180356696
-30.113909875988526
-30.120376665001125
-30.112583806361663
-30.095552777903567
-30.073829452965228
-30.051344520913588
-30.031253809370902
-30.015756462912364
-30.005889296221667
-30.001296065049594
-0.06053981590003285
-0.20294355842344902
-0.46299873790540724
-0.8563969355224348
-1.3935179563722728
-2.079149307926426
-2.9125226424262114
-3.8876429163219868
-4.99386406340054
-6.216649903379752
-7.538451703986144
-8.93963400309132
-10.399386762394183
-11.89657286553118
-13.410473384262216
-14.921407033271233
-16.411213291866613
-17.863599737259005
-19.26436264489331
-20.601495729415596
-21.865205209187828
-23.047850564447387
-24.14382990826853
-25.14942729519964
-26.06263700239421
-26.882977202373603
-27.61130278429934
-28.2496245640652
-28.800939869109783
-29.269077548870264
-29.658558859032734
-29.97447437967437
-30.22237612148669
-30.40818320707426
-30.538098942513596
-30.618536676871827
-30.656051548382486
-30.657275006946968
-30.628848861218938
-30.57735551212636
-30.509240993312016
-30.43072744252599
-30.347711678667302
-30.265646662201902
-30.189402780724908
-30.123106132661746
-30.069951286090422
-30.031986367518773
-30.009868782681476
-0.0673913377950075
-0.2263926413830919
-0.5172896642421325
-0.9576524737357068
-1.558660952785989
-2.3248089128639227
-3.254010106640943
-4.338069043821611
-5.563451043245509
-6.912267542933129
-8.363385277735956
-9.893570758366698
-11.478592490723573
-13.094219789470657
-14.717075950565475
-16.325322367934056
-17.899166952008333
-19.421203714855615
-20.876600116109408
-22.253154776619052
-23.54125091624085
-24.733731024484754
-25.825716559356742
-26.81439357928658
-27.6987817258613
-28.47950033885604
-29.158542011050542
-29.739060770811832
-30.225179411907583
-30.62181829801546
-30.934546232492387
-31.169452651844722
-31.333039411648837
-31.432129718782498
-31.473791262359818
-31.46527025218957
-31.413932842570023
-31.327210266567036
-31.212543906082217
-31.07732646165512
-30.92883535551811
-30.774154503412106
-30.620080630596025
-30.473010396663575
-30.338804744550437
-30.222627113339097
-30.128752461588036
-30.060344441265855
-30.019198537050585
-0.07566655299258973
-0.2546501450045131
-0.58255321821077
-1.079048628035479
-1.756077691110968
-2.6175490162130073
-3.6595500968584265
-4.871015262012088
-6.234756606790586
-7.7287423528125725
-9.327500554604415
-11.003533519700063
-12.728646330918423
-14.475117203047567
-16.216663868208762
-17.92918525919581
-19.59127900340104
-21.184551343115025
-22.693746750122045
-24.106730135874024
-25.41435605604631
-26.61025774038628
-27.690585205458262
-28.65371705235444
-29.49996553708891
-30.231289640998302
-30.851026483489946
-31.363647675729048
-31.774544161857506
-32.08984070724455
-32.316239398413444
-32.46089022181515
-32.53128588876419
-32.53517747597107
-32.48050707314468
-32.375353400842556
-32.227886229187675
-32.046325351815234
-31.838899821921267
-31.61380312458558
-31.379139936309194
-31.142860114546096
-30.912675577360112
-30.695955793887205
-30.499597730211192
-30.329866300768646
-30.192201679118362
-30.09099023085607
-30.02929634177525
-0.08566584331598803
-0.28873694663335314
-0.6611198453189391
-1.224838069971554
-1.9925031509471975
-2.967026436457406
-4.141989280728966
-5.502586069887352
-7.027006530507149
-8.688097675786368
-10.455141980505111
-12.295603684587459
-14.176723893336423
-16.066880896060198
-17.93666884710661
-19.75968097705712
-21.513009904997997
-23.177496186811425
-24.73776711532276
-26.182112061443668
-27.502239848156226
-28.692959414786806
-29.751818833217584
-30.678730767334045
-31.475605578820847
-32.146007021300505
-32.694840119928
-33.12807650327796
-33.4525191079788
-33.67560570727878
-33.80524897993293
-33.849709683365
-33.81749878144727
-33.71730397622109
-33.55793590042122
-33.348289161016694
-33.097313421809886
-32.81398973239557
-32.507307324557054
-32.186236092807725
-31.859689952134353
-31.536476233515728
-31.225226254113295
-30.934302210348555
-30.671675617881267
-30.444772691684925
-30.260282348416297
-30.123922936430212
-30.04016435515553
-0.09776763268609101
-0.3299402467995267
-0.7559261897593523
-1.400368452486886
-2.2763768363825827
-3.3852841905726723
-4.717253465137435
-6.252605864461835
-7.963678145209755
-9.816987592973543
-11.77548567964221
-13.800709770177303
-15.854687358835864
-17.901499359108637
-19.9084594369587
-21.84690921365518
-23.69266112636722
-25.42614106737932
-27.03229269674554
-28.500306664392227
-29.82323338129705
-30.997529824373316
-32.022581115688034
-32.90022773369341
-33.6343201344732
-34.2303147960936
-34.694919437042714
-35.03579037184974
-35.26128149604493
-35.38024201944103
-35.40185855899935
-35.335536340133665
-35.190813846821314
-34.977305149297216
-34.70466419976455
-34.38256552944229
-34.02069593933864
-33.628751908298575
-33.21643752154637
-32.79345774189092
-32.369501808355125
-31.954211469539477
-31.55712866816635
-31.187617226004885
-30.854753075312008
-30.567177689213146
-30.332909618989696
-30.159109478039685
-30.051794326985604
-0.11245313541176971
-0.3798980742167233
-0.8707060785628356
-1.612422172368169
-2.618359527758445
-3.887452680054101
-5.40521748032206
-7.145620611683673
-9.073581277962283
-11.147796644132967
-13.323597480868163
-15.55559021263576
-17.799911356160678
-20.015995401848024
-22.16782569405219
-24.224692289304794
-26.16151798899217
-27.958834170053233
-29.602494379484767
-31.083209674270638
-32.3959792143523
-33.539475960620834
-34.515432990525454
-35.3280625728361
-35.9835286615462
-36.4894842394967
-36.85467795166336
-37.08862948121397
-37.20136979963763
-37.203240401271515
-37.10474457214657
-36.916443349090905
-36.64888885913154
-36.31258800764425
-35.917989869538346
-35.47549053526606
-34.99544950954285
-34.48821201482419
-33.964131695487666
-33.43358825035709
-32.906994449285065
-32.39478683955352
-31.907394255045013
-31.45517805384474
-31.048337886137418
-30.696776797497897
-30.409919664300674
-30.19647938522957
-30.064165937341745
-0.13034034946895412
-0.44071534200062956
-1.0102521192324763
-1.8696793218934578
-3.0320319568649343
-4.492688114992074
-6.23085476782111
-8.21220169697038
-10.392240362204785
-12.720016703111783
-15.141724968516808
-17.603934041025628
-20.05622447426794
-22.45314160418871
-24.75546157421692
-26.930834229043192
-28.953907583994983
-30.80605579255976
-32.47483166288569
-33.95325199282722
-35.2390049093159
-36.33364738073806
-37.24184107763787
-37.970657474156866
-38.52896921452975
-38.92693435219214
-39.17557275047129
-39.286429176585344
-39.271314846724806
-39.14211785109665
-38.910672545887806
-38.588678278768185
-38.18765843850571
-37.71895158746155
-37.19372720962403
-36.6230192953743
-36.017771533192295
-35.38888825796745
-34.74728550504993
-34.103936544830276
-33.46990613977563
-32.856367507558176
-32.274595634121184
-31.73593022000068
-31.25170123996896
-30.83310993801912
-30.491058158514402
-30.235919309931642
-30.07724501794211
-0.152231322792304
-0.5151251756417317
-1.180778221338569
-2.1833554090341964
-3.5348487873580785
-5.225439106562809
-7.2257668871151655
-9.490651021234186
-11.963665284084248
-14.581968807940552
-17.28086665846094
-19.997716600312533
-22.674959707638195
-25.262203416805832
-27.717405012389023
-30.007282643713317
-32.1071209320159
-34.000146353252696
-35.676633677853
-37.13287838738378
-38.37013893051794
-39.393622325361704
-40.21156011648229
-40.83440043694461
-41.2741260801126
-41.543697514190974
-41.656612809678606
-41.62657255598069
-41.46723615133014
-41.19205563202008
-40.81417389328359
-40.34637532416959
-39.801078234682116
-39.19035979813612
-38.5260054404109
-37.81957560708051
-37.08248359301249
-36.32607861369043
-35.56172853471393
-34.80089666981846
-34.0552068318271
-33.33649041132537
-32.65680871635995
-32.028443206064736
-31.463845689229174
-30.97554015559465
-30.575967797465616
-30.277267090905806
-30.090981633983183
-0.17917876124065168
-0.6067161536967882
-1.3904283782610438
-2.568090202268774
-4.149454906590772
-6.117171355041147
-8.430232359301417
-11.02924035328341
-13.842622822059418
-16.792949958938948
-19.80266135825281
-22.798736930512316
-25.716088989722437
-28.4996613947561
-31.105372284340937
-33.50012345163498
-35.66112978077345
-37.5748114776691
-39.23545642386808
-40.643813857357046
-41.80573379260387
-42.73092517527556
-43.43187249159173
-43.922925921751414
-44.21956332096129
-44.337811900549696
-44.29381190382583
-44.10350239648696
-43.78240933981901
-43.34551748237915
-42.807209642098215
-42.18125921308797
-41.480863935108694
-40.7187109411086
-39.90706475879627
-39.057871246719714
-38.18287138533041
-37.29371942855005
-36.4021001681705
-35.51983999501306
-34.65900608498742
-33.83198743106532
-33.051550637465745
-32.33086247036795
-31.68347023676278
-31.123230296403904
-30.66417459444661
-30.320305236174804
-30.105307983456484
-0.21258128305215696
-0.7202570470141074
-1.6500006159742124
-3.04320237790556
-4.905521973335292
-7.208737754356947
-9.89596966640126
-12.889163052991238
-16.097549350320048
-19.425894940629085
-22.781633116829973
-26.08034182361583
-29.24938659905994
-32.22983014740207
-34.976890245988194
-37.459309499571134
-39.65800521523614
-41.56432305856814
-43.17814968688301
-44.50606636733387
-45.559659529553954
-46.35405093378692
-46.90667096049523
-47.23627219440072
-47.362164573244044
-47.303645232848744
-47.07959338959881
-46.70820120228099
-46.20681408452715
-45.59185737502884
-44.878829947126384
-44.08234884486784
-43.2162321450004
-42.29360985931439
-41.327054778387115
-40.328726727732366
-39.310524790584324
-38.284242685598954
-37.2617227072722
-36.25500347261301
-35.27645619616277
-34.33890336687145
-33.4557125692267
-32.64085685486003
-31.90893165867254
-31.275116961613563
-30.755072497506635
-30.364753595017255
-30.12013603890901
-0.2543218618820662
-0.8621682946709557
-1.9739926682445592
-3.6344848700545986
-5.842341310462255
-8.55366634151883
-11.68988743479573
-15.148435092362064
-18.814277108803978
-22.570646010576787
-26.30780495238692
-29.929281754292823
-33.355517392832844
-36.52524160027434
-39.395084790466676
-41.93798715609313
-44.14091792694867
-46.002317277102094
-47.52955736439553
-48.73661135761264
-49.64203193328801
-50.26727683674071
-50.635376827857684
-50.7699164908304
-50.6942863071512
-50.43116087879276
-50.00215991661656
-49.42765316070991
-48.72667614288177
-47.91692961663222
-47.01484098361093
-46.035670847062725
-44.99365181628308
-43.90214987087931
-42.77384102464566
-41.62089778317462
-40.45518104450986
-39.28843371748988
-38.132472481112345
-36.99937381584909
-35.90164972387167
-34.8524074322724
-33.86548586169947
-32.95555979773103
-32.13820064786062
-31.42988063296927
-30.84790560301761
-30.410260848656197
-30.135354807452035
-0.3069726669611006
-1.0412185378916492
-2.382137274983979
-4.3768120718660155
-7.012530651017531
-10.222765515586534
-13.899204645702596
-17.90705644385629
-22.10077561293764
-26.33790894225202
-30.48964600727385
-34.447574784224145
-38.12686997382912
-41.46658871151811
-44.4279240175108
-46.99124001291951
-49.15257016642958
-50.92007407558382
-52.310768986477306
-53.347705091621364
-54.05764654286773
-54.46925041137483
-54.61169608234033
-54.51369934404177
-54.20284122811815
-53.705145673884346
-53.044848235127176
-52.244307676042375
-51.32402184237521
-50.3027178146044
-49.197493697519576
-48.02399539924869
-46.79661647899266
-45.52871273887936
-44.23282586336496
-42.92091222281815
-41.604574085748446
-40.295291028820486
-39.00464936513902
-37.74456696634566
-36.527509938504316
-35.36669620721108
-34.276279147331074
-33.27150195948684
-32.368810633287744
-31.585910283190557
-30.941746843549602
-30.456394237684616
-30.15082701121858
-0.3741042030998818
-1.2695735774790213
-2.901697060457618
-5.317986630707305
-8.48740331105246
-12.310636246679659
-16.638475960655583
-21.293831628998277
-26.093124333921146
-30.863924020355544
-35.45722261219323
-39.75413996251626
-43.667841023386046
-47.14192736574648
-50.14663924494417
-52.67401811331974
-54.73288089231036
-56.344151763020506
-57.53684207008561
-58.34478378373963
-58.80410354825914
-58.95135905264962
-58.82223150762744
-58.450663581443735
-57.86834080572893
-57.10442913050246
-56.18549761301985
-55.13557073798965
-53.97626843206537
-52.727003069276144
-51.40521170722542
-50.026608689782826
-48.60544891635449
-47.154795825530734
-45.68679075147117
-44.2129220163024
-42.7442930997397
-41.29188960939567
-39.86684464483472
-38.48070154099201
-37.14567187863049
-35.874884998615585
-34.68262295316234
-33.58453177438922
-32.59779612098131
-31.741259959020333
-31.03547145483746
-30.50262663366398
-30.166384880533723
-0.46076224700539115
-1.5644099644187088
-3.5709627062331784
-6.524513183886968
-10.36485270607287
-14.944966331205064
-20.059263009737894
-25.475338849505505
-30.962906105179368
-36.315762198677625
-41.365253367196985
-45.98577915646102
-50.09411253580235
-53.6447050638625
-56.62295870768773
-59.03797072129757
-60.915725688428694
-62.29325218936063
-63.21393026786504
-63.72392781314812
-63.869633477094524
-63.69591019991978
-63.24499038720474
-62.5558519293704
-61.663941008031614
-60.60113565668581
-59.39586958385429
-58.07335729428067
-56.655878780825496
-55.16309535568678
-53.61237814455272
-52.019138026590085
-50.397150956810854
-48.75887614967272
-47.1157669245886
-45.47857541313584
-43.85765302011692
-42.26324866661512
-40.70580651397876
-39.19626410682782
-37.74635064837473
-36.36888332021962
-35.07805698382206
-33.88971899744794
-32.821616031664355
-31.893593668530517
-31.127722701234607
-30.548319604436077
-30.181824586499527
-0.5742220087589844
-1.9504563954849807
-4.444701418156763
-8.090425284174344
-12.781095284235903
-18.29990730208779
-24.363456946746943
-30.667598960554862
-36.926089257886105
-42.89691274455198
-48.395475614194154
-53.296807099819205
-57.53023748342687
-61.07002732268505
-63.924697318741224
-66.12686313688204
-67.72453383056286
-68.7742163186551
-69.33578848589077
-69.46891006857715
-69.23067161517491
-68.6741848427009
-67.84785551682782
-66.79512962902251
-65.55455265849464
-64.16002437556062
-62.64116616407732
-61.023744431487806
-59.33011342529839
-57.5796550209065
-55.78920305836544
-53.973446663215256
-52.145311545339936
-50.316321177691805
-48.496941486864706
-46.69691357466815
-44.92557926443228
-43.19220408057759
-41.50630171672568
-39.877963161182244
-38.31819238878967
-36.839248745394954
-35.45499354231089
-34.181234470537376
-33.03605567537967
-32.04011329421765
-31.216866149075788
-30.592700444009424
-30.19689858986697
-0.7252141646812085
-2.464103189043266
-5.602846537813573
-10.151049026380552
-15.928411183325974
-22.615459185056167
-29.821562761495663
-37.15095059314932
-44.25314701132008
-50.85236504523924
-56.757250997987214
-61.85622369021248
-66.10455959158456
-69.50840170826109
-72.10917355913142
-73.97025571703217
-75.16658486325163
-75.77711041489412
-75.87969183003823
-75.5479093710348
-74.84928266660542
-73.84447073820961
-72.5871212197535
-71.12412391270686
-69.49609622078451
-67.73798396287447
-65.87970228609318
-63.94677068271482
-61.96091628577007
-59.94063312399851
-57.90169379765152
-55.85761555007192
-53.820086009952696
-51.79935570160897
-49.80460526488527
-47.84429551938676
-45.92650825947325
-44.05928510836317
-42.250970972748846
-40.51056766540067
-38.848102081495206
-37.275011781863014
-35.80454858107314
-34.45219704470655
-33.23609859482622
-32.177462027101406
-31.30092705870753
-30.634830122890854
-30.2113047988477
-0.9299816481632757
-3.1602466704760346
-7.164723567586506
-12.904920267420668
-20.082320944889545
-28.22567159755054
-36.79751721428176
-45.288310422469266
-53.279455015085645
-60.47155745855134
-66.68459259490265
-71.84077295110882
-75.94016234046228
-79.03605579298977
-81.2139135194262
-82.57519094751096
-83.22595104550916
-83.26947490213601
-82.80190857855625
-81.91005717725788
-80.67060634101304
-79.15023393281079
-77.40623381041902
-75.48739838737109
-73.43499821644602
-71.28376088071288
-69.06279461064017
-66.79643010816798
-64.5049716813958
-62.2053594131758
-59.91175014312296
-57.63602820886429
-55.388258284312926
-53.177092989170895
-51.01014767144396
-48.894354146145524
-46.83630435399736
-44.84259396353251
-42.9201749306119
-41.076725001992855
-39.32104114220668
-37.6634628255582
-36.11632974807813
-34.69447590299641
-33.41575643240178
-32.30159276927297
-31.37750297720337
-30.673557579480878
-30.22467082846419
-1.213855949631652
-4.1240756698290735
-9.313022175078554
-16.649468126397217
-25.643745421900796
-35.5996198116472
-45.78157295330635
-55.54601740576308
-64.41358048726005
-72.08616676013804
-78.42671790833607
-83.42156923779328
-87.14024662847206
-89.70089177107303
-91.24422104850484
-91.91582014437833
-91.85522883028379
-91.1899855283337
-90.03301309768553
-88.4820976388615
-86.62057599057687
-84.51864369009705
-82.2349133020211
-79.8180036897252
-77.30803994218473
-74.73800620070264
-72.13493141198798
-69.52090971559063
-66.91396873803521
-64.32880449787845
-61.77740350057515
-59.269572535643654
-56.813395664471905
-54.41563647436928
-52.08210217855933
-49.817984700790106
-47.628192534105935
-45.51768589864947
-43.49182653679493
-41.55675242178841
-39.71978684573598
-37.9898909562508
-36.37816880364507
-34.89843362183082
-33.56784122429223
-32.4075868579693
-31.44364001110102
-30.707453423483873
-30.236530698508464
-1.6177404728404703
-5.49215298818754
-12.33550399424238
-21.840451644534838
-33.20505236499915
-45.40030618981757
-57.43177866024518
-68.51408268094056
-78.1384030696343
-86.05751817928041
-92.22784021630909
-96.74133631986706
-99.76624555614517
-101.50335870528957
-102.15753861860958
-101.92126055612002
-100.96651743282635
-99.44202626840686
-97.4735092394291
-95.16556985572848
-92.60424745217696
-89.85971880639183
-86.98886353896542
-84.03756112434954
-81.04267490970136
-78.03372619323049
-75.03428501962294
-72.06311406625144
-69.13510410091456
-66.26203775345515
-63.453214942332075
-60.715969446139425
-58.05610244061927
-55.478255619736
-52.98624386949835
-50.58336533047266
-48.272704965974214
-46.05744631990345
-43.94120489483094
-41.928395502101736
-40.024645225517745
-38.23726376477051
-36.575784495556704
-35.05259271244313
-33.683660351820016
-32.48940317311198
-31.49565608621561
-30.734712489249244
-30.246289751586172
-2.210437544226574
-7.491807014498146
-16.700150381838544
-29.193250768820715
-43.653888487774324
-58.566940791806026
-72.62100375828098
-84.91753550979702
-94.99537115859079
-102.74533252904249
-108.29047690807306
-111.8790658871757
-113.80740645683538
-114.37219780627949
-113.84520653308647
-112.46255163747153
-110.42254274857865
-107.88798421125105
-104.99044056888062
-101.83504892621238
-98.5051485547323
-95.06640054875572
-91.57029251955231
-88.05703714687226
-84.55792525766567
-81.09721224488585
-77.69361760835334
-74.36151050428214
-71.11184445972619
-67.95289441457908
-64.890840200819
-61.93023292409233
-59.07437456513223
-56.32563637075178
-53.68573807302663
-51.15600743559855
-48.73763782763086
-46.431960205980275
-44.24074479612098
-42.16654675662151
-40.21310932289758
-38.385838050981825
-36.692362328341936
-35.143207247310286
-33.75261068471886
-32.53953141565727
-31.52888726420634
-30.75300903365683
-30.253170986388763
-3.1135443197364925
-10.518477302893658
-23.195970925325085
-39.85892974936769
-58.335140667375484
-76.42225357961527
-92.47687077396043
-105.60037606936164
-115.5350804641511
-122.44608480165613
-126.7159218111669
-128.79976938312294
-129.14196048998156
-128.13637637423253
-126.11332974165146
-123.3403774619177
-120.02935780149161
-116.34540742092635
-112.41585313265847
-108.33807911488425
-104.18609920719626
-100.01586369035563
-95.8694532217906
-91.77834697377597
-87.7659452843393
-83.84950413187661
-80.04161170296406
-76.35131176269853
-72.78495657296679
-69.34685420899204
-66.03976105084465
-62.86525946453563
-59.82405268305894
-56.91620314163626
-54.14133657010908
-51.49883161146293
-48.98801325598228
-46.60836758310679
-44.35979478574834
-42.24291682732073
-40.25945517200252
-38.412693362391806
-36.70804091808596
-35.15372370600889
-33.761647582279444
-32.54851744845585
-31.537323717986958
-30.759279679339258
-30.256131616824305
-4.554959916858088
-15.297110792431305
-33.207260753977664
-55.73529726792617
-79.29420971114996
-100.79062801739943
-118.37883010458897
-131.44614175744795
-140.20843614031745
-145.28753896016667
-147.4174555427856
-147.29005294440148
-145.4928537896935
-142.4967128480792
-138.66595076332922
-134.27614924217556
-129.53257976870108
-124.5864368565201
-119.54808972003273
-114.49745708953874
-109.49193088179207
-104.57233577886687
-99.76736797329801
-95.09687984540545
-90.57429944557316
-86.20840602169159
-82.00462828713555
-77.96598988632942
-74.09379460907905
-70.38812021036196
-66.84817234259613
-63.47253759844874
-60.2593658410873
-57.206506008740675
-54.31161579093512
-51.572263510491396
-48.98603981493913
-46.55069698495903
-44.264334316163186
-42.125648474240684
-40.13426721813073
-38.291183065406166
-36.59930176238919
-35.06412496087247
-33.69461170122131
-32.50432759941416
-31.51309177197369
-30.749396333504077
-30.25373114470551
-6.997063331032127
-23.240000640461567
-49.27439813619529
-80.01091807740389
-109.61047183773778
-134.05906877641218
-151.83127676101827
-163.1734637648615
-169.16789596169852
-171.07073243770742
-170.00911398567763
-166.8865906482397
-162.3855455531524
-157.00354797698017
-151.0953487786583
-144.90986518082548
-138.61947296761184
-132.34201332015536
-126.15685570588221
-120.11643012128482
-114.25442678998914
-108.59159217164961
-103.13980980259959
-97.90496405060145
-92.88894229018616
-88.09102744976272
-83.5088589312923
-79.13908759986037
-74.97781375891854
-71.02087127239214
-67.26400306095877
-63.7029608425716
-60.33355366120273
-57.15166440934253
-54.1532505086262
-51.33434371877958
-48.69106438793882
-46.2196670540401
-43.91663675387018
-41.77885796170143
-39.8038794745127
-37.99029693000804
-36.33826857110964
-34.85017246242137
-33.531422572983324
-32.39153526901451
-31.44573501276937
-30.717674628478246
-30.243919442787693
-11.46082017404871
-37.323112116025754
-76.2559615376205
-118.09896656813851
-153.70508279538993
-178.99298293451585
-194.046989641494
-200.93160644702462
-201.96120911711037
-199.06946895989097
-193.68787025916149
-186.81437447719904
-179.12094824892677
-171.04961428704974
-162.88546882855894
-154.8084977181304
-146.92911757411204
-139.3121317798995
-131.9927308345624
-124.98712611279376
-118.29959378282587
-111.92712522895825
-105.86248239974478
-100.09618918267881
-94.61781202079933
-89.41676502326014
-84.48279659857958
-79.80626267676202
-75.37825699037946
-71.19064581880424
-67.2360392490159
-63.507720887054305
-59.99955146521988
-56.705857924849965
-53.62131771375142
-50.74084790815651
-48.05951023292922
-45.57244609340421
-43.27486028090949
-41.16207767812745
-39.22970282584022
-37.4739146987065
-35.89192312773227
-34.48259273637929
-33.247209453235726
-32.190378074335335
-31.32127789778056
-30.65615218903892
-30.223693163401435
-20.591368783876266
-64.28477923340003
-123.92683690645461
-178.84595631460482
-217.21575139443112
-237.7831397200643
-245.04069220802205
-243.66153709051258
-237.15406643559203
-227.835434706811
-217.14912416663083
-205.96250692835386
-194.7811207813727
-183.88857886697176
-173.4343778475369
-163.48802974592093
-154.07217508915102
-145.18275694163174
-136.8012648220484
-128.90211836858728
-121.45706758957698
-114.43775924919689
-107.81717609019995
-101.57038510783374
-95.67486502268636
-90.11058052950187
-84.85990716422161
-79.9074708120493
-75.2399408987338
-70.8458006090479
-66.71510764534779
-62.83925297633958
-59.21072145672912
-55.82285638154273
-52.669629597395456
-49.745419622372225
-47.04480244864261
-44.56236363679529
-42.292546418001656
-40.229559220948886
-38.36737719562186
-36.69988391634327
-35.22120485262506
-33.92626747843127
-32.81155703057583
-31.875913391362474
-31.121206363523
-30.55361418275189
-30.18854789653996
-41.76760859297367
-121.55037231593246
-211.37922907286503
-275.5656992187641
-304.39180939983436
-309.75428042845726
-302.180229089322
-288.36212291586844
-272.02049220124064
-255.10773877548377
-238.59573062546966
-222.93123149616338
-208.28528178101297
-194.6877373204669
-182.09937011648492
-170.4503016433779
-159.6602474335872
-149.64890685498972
-140.34100984083088
-131.66848166453482
-123.57107670144845
-115.99622513001725
-108.89850145988673
-102.23893737380723
-95.98429715206117
-90.10637560876694
-84.58134594305005
-79.38916697797339
-74.5130495973761
-69.9389771977022
-65.65527259843017
-61.652202941292785
-57.921614018658744
-54.45658589505646
-51.25110253633443
-48.299729539918104
-45.59729627275789
-43.138582333652494
-40.91801417770164
-38.92938732312538
-37.16564452113718
-35.6187619802709
-34.279822476347256
-33.13937281461508
-32.18812840857454
-31.41788829756387
-30.8220221311502
-30.394662798780743
-30.131702092075397
-104.54541139362813
-252.18588997282424
-377.3758031663663
-416.7695460578078
-411.4059068308252
-387.7932684189798
-358.7724960684388
-329.6881610967986
-302.5540495964883
-277.95690759187096
-255.90182061922428
-236.176209402623
-218.50536669394296
-202.61662652117712
-188.26352017423346
-175.23254371047975
-163.34264973617042
-152.44199207884498
-142.40392525412736
-133.12310522669944
-124.51201033225543
-116.49796466603387
-109.02064544603954
-102.03001802073453
-95.48463285331981
-89.3502216350726
-83.5985369801693
-78.20638842505775
-73.15483519038335
-68.4285028051008
-64.01499611919658
-59.904385509737345
-56.08874635426062
-52.56173427316267
-49.31818041581763
-46.353692413763184
-43.66424787863612
-41.24576901718695
-39.09367000298522
-37.202374842791244
-35.56481552059283
-34.17194305763205
-33.01232484766776
-32.071966218368935
-31.33456891707429
-30.782416261125647
-30.397527345562377
-30.160607667290257
-30.04369917134926
-302.02514793623953
-602.9593070618964
-635.064694124958
-583.3750802617432
-517.0908033758353
-456.0660542935856
-404.05245685036215
-360.5271488438789
-324.06070270084604
-293.2556819368901
-266.9549963938345
-244.2487291001678
-224.43255079674452
-206.96228848319802
-191.41579993330058
-177.46346879370572
-164.84603373128024
-153.3580802318627
-142.8357469148157
-133.1475271953194
-124.18733869267066
-115.86925887586598
-108.12349187917185
-100.89325130753244
-94.13232951788953
-87.80318500705935
-81.8754232805465
-76.32457798756404
-71.13112174203238
-66.27965238720778
-61.75821222699475
-57.55770613372049
-53.671390271515
-50.09440700338425
-46.82334374716896
-43.855794350784635
-41.18990113737977
-38.8238542982272
-36.75532310307959
-34.98079121129475
-33.49476803647491
-32.28885394018178
-31.350658688583714
-30.662630744715283
-30.20098829020344
-29.93519568823377
-29.828674523297508
-29.840308540549252
-29.917142909844287
-1358.9393371056556
-1130.4583744324266
-883.0804603588822
-707.2945694470922
-583.0974427005231
-493.353433631346
-426.06353901059015
-373.932938411757
-332.3748778873346
-298.43042885534214
-270.1221346334436
-246.0878258102032
-225.36326860452093
-207.2497040570704
-191.23036401129062
-176.9163257600128
-164.01044834331123
-152.28277616599658
-141.55340188513645
-131.6802953304468
-122.55050862222949
-114.0737207050524
-106.17743108617393
-98.80333449363272
-91.90455310432895
-85.44349935657628
-79.3902074707832
-73.72101641630243
-68.41751798833265
-63.46570526695172
-58.85527186059848
-54.57902284272029
-50.632365374684554
-47.01285142173726
-43.719747131963715
-40.75360351109244
-38.11580088608419
-35.80803493530092
-33.83170407518749
-32.18714563614146
-30.872649986953018
-29.883155737748652
-29.208494214512164
-28.83101082346158
-28.72236524061711
-28.839376922445002
-29.119163655717664
-29.474878086963418
-29.792859532762424

SCALARS STRESS_XY float 1
LOOKUP_TABLE default
0.017752134926525626
1794.3853744730754
-0.09220403110703285
0.01788199852885346
0.035503288568370546
0.0710026446256261
0.10649410634090328
0.14197365327342357
0.17743717705822293
0.21288045222554655
0.2482991069840883
0.2836885941926758
0.31904416244809086
0.35436082733230156
0.38963334298016217
0.42485617399442244
0.46002346783897313
0.4951290277612733
0.5301662865189591
0.5651282809752747
0.6000076278312041
0.6347965008016228
0.6694866093242151
0.7040691792476197
0.738534935852686
0.7728740895431967
0.8070763246848405
0.8411307920569724
0.8750261055318065
0.9087503434658455
0.9422910555480224
0.9756352758922968
1.0087695429575765
1.0416799273116923
1.0743520683098438
1.1067712203958293
1.1389223102816364
1.1707900063639536
1.2023588014277515
1.2336131101724357
1.2645373830549937
1.2951162381127266
1.3253346126072962
1.355177936289639
1.3846323287141682
1.4136848226538103
1.4423236163833986
1.4705383578251854
1.498320463512448
1.525663476374015
1.5525634663310361
1.5790194784872615
1.6050340346987708
1.630613694823484
1.6557696855142314
1.680518605619954
1.704883219311134
1.7288933503019939
1.7525868931418738
1.7760109617405866
1.7992231994432735
1.8222932808926346
1.8453046435336715
1.8683564957923977
1.8915661611180146
1.9150718324911553
1.9390358318582748
1.963648494873409
1.989132834419389
2.0157501803985607
2.0438070506439683
2.0736635838546285
2.105743966960093
2.140549425460062
2.178674530013143
2.220827824778536
2.2678581315333615
2.320788369481456
2.3808594166404835
2.4495875185063785
2.528840167786216
2.620937461542383
2.728789047630592
2.8560814820948313
3.007538094229673
3.1892849217538863
3.409374751096105
3.6785517962627536
4.01139128362478
4.4280386796674165
4.956936978412113
5.639238595524269
6.536204192469919
7.742150883664481
9.408286057807597
11.789438865966673
15.343400317394812
20.96496355780478
30.6470605800887
49.58216980905173
96.70108047359952
245.9312140903114
1077.5790177419751
1152.319071381979
363.36353336764495
165.12127423697933
92.07518282283311
59.14666365184665
41.35383493479747
30.636938243345774
23.679339981179307
18.913328194607516
15.51177496045896
13.003364912392893
11.103167925779932
9.630632892905215
8.466852402122582
7.530940444676693
6.766334434957221
6.132523912768498
5.599880626322275
5.146328804912306
4.755143588691485
4.413461210523341
4.111249795817245
3.840585124561122
3.5951325013042137
3.369770571393112
3.1603146230519767
2.9633107916402457
2.7758816416435534
2.595609638145951
2.4204491290263297
2.2486603289749034
2.0787608697744617
1.9094920563612563
1.7397982601244473
1.5688190635307606
1.3958950113745672
1.2205893216464572
1.0427299403591452
0.8624793294751
0.6804441065084914
0.49784446239417945
0.3167767172261034
0.14062638015825835
-0.025266534793128306
-0.1725053339653171
-0.2877700069547102
-0.34977674817902576
-0.3260263145485477
-0.1900328673886025
-0.18998485734474538
-0.3253392657860932
-0.34692705490408693
-0.2806714044827038
-0.15909870380813462
-0.00398931983938261
0.17052641458525408
0.35504916993177826
0.5431307360498715
0.7302320164242124
0.9130982607563036
1.0893718413308315
1.257344125666681
1.415791271247488
1.5638620136217798
1.7009984121044006
1.8268779126899157
1.9413694649150806
2.044499091511562
2.136421966738493
2.2173991088944067
2.2877774654892225
2.347972604408966
2.398453504776168
2.4397291204194724
2.472336501548008
2.4968303287611975
2.513773753181815
2.523730457280626
2.527257860335581
2.524901395071433
2.5171897808245878
2.50463121627062
2.487710412281298
2.466886383634564
2.4425909179673138
2.4152276412805893
2.385171601076766
2.3527692920188494
2.318339053150013
2.2821717704911206
2.2445318249042208
2.205658230595219
2.1657659156684863
2.1250471021676773
2.0836727487468245
2.0417940242958332
1.9995437861867367
1.9570380413960387
1.914377372710356
1.8716483162582802
1.828924679703192
1.7862687935980908
1.7437326902446895
1.7013592071402437
1.659183013720935
1.6172315609383627
1.5755259551476772
1.534081758268505
1.4929097168563548
1.4520164233730006
1.4114049133535338
1.3710752021760033
1.3310247654759202
1.2912489671892737
1.251741439191834
1.212494416445537
1.1734990313386935
1.1347455709714116
1.096223700644586
1.0579226568064344
1.0198314126256443
0.9819388187773318
0.9442337221496198
0.9067050650044495
0.8693419665318619
0.8321337889029716
0.795070189814011
0.758141162981897
0.7213370680994371
0.6846486517484238
0.6480670602687278
0.6115838457973257
0.5751909665109797
0.538880781550801
0.5026460418700321
0.4664798774087793
0.43037578097806617
0.39432758973627424
0.3583294645072215
0.3223758672471999
0.28646153709483596
0.25058146521084323
0.21473086860871488
0.17890516335927167
0.14309993703266233
0.10731092073279491
0.07153396083540474
0.03576499031252742
0.03523291721203639
0.06922319695581991
0.10178676190121747
0.13291666833781976
0.16260651066643977
0.190850470488135
0.21764335486472075
0.24298062439116092
0.26685841158984547
0.2892735301531969
0.31022347573415654
0.329706418876182
0.3477211906398764
0.36426726153102784
0.37934471439071693
0.39295421172024747
0.4050969580084308
0.41577465762765586
0.4249894687599985
0.43274395387488407
0.4390410271664179
0.44388389943629025
0.4472760208741965
0.4492210221170461
0.4497226540224681
0.4487847265537721
0.44641104720694336
0.44260535941189
0.43737128124539315
0.4307122449383778
0.42263143769134737
0.4131317441387192
0.4022156909479651
0.3898853941287551
0.3761425094925421
0.36098818678190786
0.34442302804541697
0.3264470507729167
0.3070596564103061
0.2862596047561128
0.2640449948638315
0.2404132530624708
0.21536112854999098
0.18888469721809492
0.16097937420085273
0.1316399356286819
0.10086055012234327
0.06863482041041813
0.03495583543181901
0.06990974328164049
0.1372658781349497
0.2017156288296988
0.26327283845730876
0.32195031894610704
0.3777597469518982
0.43071158077283506
0.4808149975465859
0.5280778498752172
0.5725066409163905
0.614106516943042
0.652881276314003
0.688833393689553
0.7219640584162846
0.7522732259056873
0.7797596808294847
0.804421111021045
0.8262541909149423
0.8452546734482232
0.8614174893310532
0.8747368526185183
0.8852063716120446
0.8928191640632974
0.8975679757432606
0.8994453015378059
0.8984435080982098
0.8945549571895819
0.8877721289735512
0.8780877443257205
0.8654948853993117
0.8499871136349355
0.8315585843295807
0.8102041569888576
0.78591950056491
0.7587011926610521
0.7285468118249905
0.6954550219319837
0.6594256476677731
0.6204597400523755
0.5785596309055606
0.5337289751438846
0.48597277971834146
0.43529741800581234
0.38171062845488535
0.3252214962540282
0.2658404167843428
0.2035790397262272
0.1384501926744792
0.07046778315746235
0.13981176224894587
0.2745166792302278
0.4034093352147266
0.5265175002077616
0.6438668675093424
0.7554808459631371
0.8613803943463486
0.9615838963896443
1.0561070747029153
1.1449629417100857
1.2281617855422478
1.3057111887458341
1.3776160775554303
1.4438787994649454
1.504499226770063
1.5594748837551529
1.6088010952485075
1.6524711542590778
1.690476506476096
1.7228069494718437
1.7494508445113888
1.7703953389470564
1.7856265971882794
1.7951300384223492
1.7988905792928267
1.7968928796763517
1.789121589885942
1.7755615976754395
1.7561982733488155
1.7310177113487164
1.7000069667161677
1.663154284741847
1.6204493221501761
1.5718833580810463
1.5174494930942828
1.457142834337863
1.3909606649529767
1.3189025957052003
1.2409706967406722
1.1571696073006859
1.0675066210862463
0.9719917449627555
0.8706377286136497
0.7634600626825105
0.650476942951664
0.5317091981414375
0.40718017896080705
0.27691560608426646
0.1409433749272341
0.20969827677340108
0.4117372211504062
0.605059049646856
0.7897056265930094
0.9657156652514511
1.1331244173688784
1.2919634261546733
1.4422603403912224
1.5840387870607493
1.7173182995940481
1.8421142986591508
1.9584381222143157
2.0662971014346834
2.165694679099759
2.2566305669108258
2.3391009382389036
2.413098652875063
2.4786135103406854
2.5356325284067176
2.584140243576996
2.6241190303843718
2.6555494365031294
2.678410530686401
2.6926802606747726
2.698335818450159
2.695354010162485
2.6837116281374827
2.6633858225048552
2.634354470002224
2.5965965375124553
2.550092437901004
2.4948243756875943
2.4307766800668373
2.3579361226888493
2.276292217552582
2.185837500250653
2.086567783652707
1.9784823870472237
1.8615843355727328
1.7358805266553943
1.6013818600642344
1.458103328046554
1.306064061919224
1.1452873314485665
0.975800493323316
0.7976348850147416
0.6108256604182629
0.41541156380619915
0.2114346388034364
0.279561395151816
0.5489121117000169
0.8066424087479418
1.0528084954658583
1.2874623122098399
1.5106511187954648
1.7224171677794495
1.9227974595938442
2.111823575983543
2.2895215878264574
2.4559120331511037
2.6110099609527007
2.754825036242911
2.8873617016856263
3.0086193911081893
3.1185927901985604
3.2172721397613695
3.304643576899492
3.3806895096776195
3.4453890209415032
3.498718297046282
3.5406510774527096
3.5711591212952714
3.5902126871612383
3.597781022464824
3.593832858942556
3.5783369108676855
3.5512623726907626
3.5125794128759713
3.4622596607203198
3.4002766829504765
3.3266064468388774
3.241227766529548
3.144122729184061
3.0352770974241436
2.914680684407747
2.7823276976957008
2.6382170479135243
2.4823526180111015
2.314743488711448
2.1354041156415007
1.9443544533885835
1.7416200216147384
1.5272319083183687
1.3012267052288469
1.0636463703452002
0.8145380127288719
0.5539535948418814
0.2819495479411003
0.3493930584008854
0.6860256438920882
1.0081366089374144
1.3157968404228633
1.609071780508076
1.8880209155973418
2.1526973722527463
2.4031476159693925
2.6394112482730128
2.8615208971721797
3.0695021955840094
3.263373842166256
3.44314773877616
3.6088291986537016
3.760417219407453
3.8979048148365982
4.021279399753858
4.130523222043118
4.225613836321929
4.306524613767514
4.373225282829804
4.425682495745653
4.463860416007503
4.487721322121115
4.497226223134577
4.492335481623787
4.473009439953017
4.439209045723071
4.390896472417083
4.328035731270453
4.250593270414388
4.158538557298441
4.051844640260218
3.9304886850991814
3.794452482277561
3.643722920152006
3.478292419534417
3.298159324565682
3.103328244657338
2.893810342017329
2.669623559046511
2.430792779660261
2.177349918422499
1.9093339312210817
1.626790741151106
1.329773073293178
1.018340192121109
0.6925575355073987
0.3524962395857631
0.4191849847484115
0.8230616916195912
1.2095182608130166
1.5786406711426686
1.9305082075780362
2.2651928534808246
2.5827588121296925
2.8832621524942823
3.1667505736533816
3.4332632817434092
3.6828309728301196
3.915475914902501
4.131212121921325
4.330045612712103
4.511974747514417
4.676990634963099
4.825077602380904
4.956213722439182
5.070371389381165
5.167517938233055
5.247616300659063
5.31062569141394
5.356502319571757
5.385200118851792
5.396671491785038
5.390868062587582
5.367741433722623
5.327243941349357
5.269329404933608
5.193953866343561
5.1010763137468516
4.990659385592127
4.862670049845592
4.717080253515846
4.553867537282029
4.373015609820587
4.174514876175384
3.9583629141847183
3.7245648926942043
3.4731339249632236
3.2040913503650272
2.9174669372110604
2.6132989992663123
2.291634418333773
1.9525285651995246
1.596045111170828
1.2222557225302413
0.8312396304391436
0.42308306919766325
0.4889286142603826
0.9600036058749695
1.410763244612092
1.8413090954228268
2.2517346917447476
2.642124834172307
3.0125550413138673
3.363091146721032
3.693789035124855
4.004694510626252
4.29584328897165
4.567261105755075
4.818963932141435
5.050958289550373
5.263241654760946
5.4558029469154325
5.628623087994241
5.781675628585905
5.9149274309511615
6.028339401675925
6.1218672665309
6.195462380404026
6.24907256555702
6.282642971746019
6.296116951976636
6.289436948002873
6.262545379855703
6.215385533859154
6.147902443736903
6.060043759454559
5.951760598450195
5.823008373850419
5.67374759415744
5.5039446287042
5.31357243291798
5.1026112271756645
4.871049122695354
4.618882687516191
4.346117445290162
4.052768299159584
3.738859872628898
3.4044267590238415
3.0495136707117196
2.674175479083408
2.278477136132251
1.8624934683196135
1.4263088335485594
0.9700166322410801
0.4937186638730966
0.5586150538287833
1.0968341117544023
1.611846567090872
2.1037701434338674
2.5727130908912788
3.018773395084642
3.442038161820899
3.8425831701900157
4.220472586032396
4.575758827071437
4.9084825704954556
5.218672893386751
5.506347536163284
5.771513279071376
6.014166421771648
6.234293356099892
6.431871222260908
6.60686863900841
6.759246498578223
6.888958817523309
6.995953634982612
7.08017395026058
7.141558692008573
7.18004371167198
7.195562794208302
7.188048679400135
7.157434087358581
7.103652742013756
7.026640386552794
6.926335784859739
6.802681702988663
6.655625864631832
6.485121874415682
6.291130102684573
6.07361852506823
5.832563509812208
5.567950545488262
5.279774901170763
4.96804221080998
4.632768972972952
4.273982956612391
3.891723503186017
3.4860417149272953
3.057000518753466
2.6046745951122103
2.12915016088256
1.6305245954530583
1.1089058993297216
0.5644119749777534
0.6282350225069886
1.233535206422647
1.812742220164143
2.3659905946850137
2.8934038249607443
3.39509349400664
3.8711585967478968
4.321685055214148
4.746745415624428
5.146398717186466
5.520690521896328
5.869653094239502
6.193305719439901
6.491655148760998
6.764696160417344
7.012412224761498
7.234776262612728
7.431751485932138
7.603292310388462
7.7493453297924155
7.869850342830766
7.964741422977488
8.033948022957595
8.07739610557065
8.095009293108767
8.086710027989879
8.05242073755927
7.992064996258078
7.905568678530554
7.792861095959134
7.653876112152225
7.488553228783903
7.296838636034083
7.078686220454454
6.834058522897115
6.5629276387832
6.2652760524642375
5.941097396884222
5.590397129260068
5.213193112825694
4.809516094125667
4.379410064794607
3.9229324962044756
3.4401544349495907
2.9311604467812855
2.3960483964068517
1.8349290505088476
1.2479254914851652
0.6351723297981102
0.6977787973488657
1.3700880583778305
2.013423041879119
2.6279358085183246
3.213765683261486
3.7710382999688257
4.299864870837142
4.8003416706561115
5.272549724926186
5.716554690128167
6.13240691379768
6.520141661637363
6.879779498701537
7.211326811564858
7.514776458430303
7.790108534345462
8.03729123894947
8.256281834566536
8.447027682929017
8.609467349291732
8.743531763293413
8.849145426449127
8.926227656687104
8.974693860986436
8.99445682761422
8.985428029888858
8.947518933864275
8.880642302582409
8.7847134897993
8.659651716173668
8.505381320953182
8.321832982134113
8.108944897842536
7.866663921367183
7.594946641916101
7.293760402704117
6.963084247330144
6.602909784818768
6.213241963028722
5.794099739378153
5.345516637142772
4.867541174879627
4.360237155901952
3.823683804123908
3.2579757321308054
2.6632227270644666
2.039549339752056
1.3870942625507876
0.706009481759208
0.7672361599627668
1.5064729083750001
2.2138605802669487
2.8895695589173704
3.5337556376663906
4.146558991683727
4.728103400352777
5.278495708681986
5.797825515107481
6.286165072206536
6.743569386242128
7.170076501029342
7.565707951345429
7.930469371097926
8.264351241574262
8.56732976528031
8.839367851308419
9.080416198620558
9.290414464201875
9.469292503645917
9.616971672376085
9.733366176445598
9.81838446243692
9.871930636705876
9.89390590481684
9.884210022518316
9.842742750102595
9.769405302331194
9.66410178645313
9.526740620927267
9.357235927487475
9.155508889148473
8.921489066497461
8.655115664256362
8.356338739668285
8.025120343683346
7.661435585229615
7.265273608093138
6.836638469154295
6.375549905881871
5.8820439800355295
5.356173583762077
4.798008793459866
4.2076370559906024
3.5851631912847095
2.930709194920299
2.244413823987617
1.526431949518235
0.7769336590606387
0.8365963439118815
1.6426689723872436
2.414024960717993
3.150853874565818
3.8533286629980665
4.521604565106331
5.155818293939113
5.756087484398508
6.322510390618236
6.855165817430473
7.354113269879482
7.819393304383405
8.251028064908457
8.649021987491425
9.013362656639607
9.344021797433594
9.640956387691899
9.904109875083444
10.133413484754273
10.328787603810532
10.490143229757974
10.617383470835813
10.710405086922279
10.769100060523574
10.793357188065388
10.78306368230162
10.738106777250685
10.65837532750967
10.543761394135158
10.394161809417025
10.209479712951802
9.989626051330928
9.734521033474135
9.444095533265681
9.118292430624699
8.7570678814348
8.360392505995561
7.9282524847816855
7.460650549326922
6.957606855010282
6.419159721518556
5.845366225721012
5.2363026306401395
4.59206463340434
3.9127674142183504
3.19854546773799
2.4495521979271317
1.6659592572526873
0.8479556112363411
0.9058479832455404
1.7786543471458887
2.613884757733536
3.4117488853298843
4.172437565977623
4.896121651856747
5.582951166704382
6.233054750929982
6.8465393798437395
7.423490337532461
7.963971428275168
8.468025406977562
8.935674609926792
9.366921767246556
9.761750978659318
10.120128834602683
10.442005665348342
10.727316901442618
10.975984529669287
11.18791862956226
11.363018976437177
11.501176697962109
11.602275972110746
11.666195755255387
11.692811530125635
11.681997064015459
11.633626168275416
11.547574450707762
11.423721052848082
11.261950364304504
11.062153706438846
10.82423097757991
10.548092251580579
10.233659321170693
9.880867176954087
9.489665412017196
9.060019541268701
8.591912223617594
8.085344373942794
7.540336150570788
6.956927802776431
6.3351803615815205
5.675176155900024
4.977019134977262
4.2408349770417475
3.466770963318802
2.654995595923098
1.8056979378211235
0.9190866531435351
0.9749790623110159
1.914405918719662
2.8134068718301712
3.6722126762586162
4.491032824283786
5.2700543504355375
6.009440969820311
6.709332532673939
7.369844776296099
7.991069354574396
8.573074124701282
9.115903670318637
9.619580040125673
10.084103681186924
10.509454546536386
10.895593357189663
11.242462999406206
11.549990038919674
11.818086334872245
12.046650737141917
12.235570851940064
12.38472486172434
12.493983386488585
12.563211374584752
12.592270012282592
12.58101864213014
12.52931668095373
12.437025528932871
12.304010461682951
12.130142497548025
11.91530023238094
11.659371633979923
11.362255787998745
11.023864586720283
10.644124351302723
10.222977377183726
9.760383391370564
9.256320909081355
8.710788475846606
8.123805779839556
7.495414617677086
6.8256796954711
6.114689245480271
5.362555437267435
4.569414561094563
3.73542696019185
2.86077668766922
1.945670863390697
0.9903387059288563
1.0439768673226921
2.0498992749482223
3.012556412784239
3.932201150714765
4.8090624377199145
5.643344072579623
6.435223838198243
7.1848529795071014
7.892356003635037
8.557830780032806
9.181348917570832
9.762956395393676
10.302674424191062
10.800500514754047
11.256409731222783
11.670356107091173
12.04227420292629
12.372080785795527
12.659676611590335
12.90494829263017
13.107770234315065
13.268006625891754
13.385513471628506
13.460140650082907
13.491733990261821
13.480137354430383
13.425194718372023
13.326752240541968
13.184660312143379
12.998775580494282
12.768962938104517
12.49509746984869
12.177066350204573
11.814770682001015
11.408127267244563
10.957070299612656
10.46155296698916
9.921548950984173
9.33705380885574
8.708086221621672
8.034689090399109
7.3169304612239605
6.554904256914493
5.748730792817481
4.898557051747
4.004556692097459
3.0669297619700244
2.0859020913739936
1.0617243341929803
1.1128279399134728
2.1851086223710006
3.2112965903921795
4.191667904356063
5.126471793690315
6.0159294074613765
6.860232959561801
7.65954524576516
8.41399950854224
9.123699624523471
9.788720588921475
10.409109270900226
10.98488541391988
11.516042855492156
12.002550941316134
12.444356109677818
12.84138362307757
13.193539425223033
13.500712103018625
13.762774934592596
13.979588005943224
14.151000380373713
14.276852306382834
14.35697745115574
14.391205148134517
14.379362648428867
14.321277366859903
14.216779114255667
14.065702308317187
13.867888155737287
13.623186798421557
13.331459416554704
12.992580280806
12.60643874538111
12.17294117268263
11.69201277916881
11.1635993905937
10.587669093197007
9.964213765669736
9.29325047475848
8.57482271533103
7.809001473689477
6.995886090836076
6.135604900333627
5.228315613540085
4.27420542336766
3.273490796161205
2.2264169201804886
1.1332567786552834
1.1815180332452733
2.3200067087398404
3.4095886140894827
4.450564111545993
5.443203549036804
6.387746006323933
7.284398468013099
8.133335397624958
8.934698685532865
9.688597942596408
10.395111110761796
11.054285361641588
11.666138254224311
12.230659123422734
12.747810671874289
13.217530738526627
13.639734218790803
14.014315112534625
14.341148677865565
14.620093670322596
14.850994648969554
15.033684332642459
15.16798599139512
15.253715859939192
15.290685561364661
15.278704530956201
15.217582431114236
15.107131549369026
14.947169172281342
14.737519928485181
14.478018094328087
14.16850985541381
13.808855516975905
13.398931655234126
12.938633200857776
12.427875444342636
11.866595951504788
11.254756375429775
10.592344149159429
9.879374041204452
9.11588955354674
8.301964139410883
7.437702215627052
6.523239941943744
5.558745737432686
4.544420501992567
3.480497509062605
2.3672419342701443
1.2049499836734954
1.250032071112185
2.454564751965914
3.6073916031442357
4.708838426858839
5.759197531487338
6.758726491217861
7.707647366086613
8.606146353204227
9.454373838590953
10.25244481804942
11.000439654982786
11.698405142946921
12.346355840970151
12.944275650313907
13.492119602376157
13.98981582870656
14.437267685601118
14.834356007574506
15.180941465894788
15.476867010366199
15.72196037471841
15.916036628022301
16.058900756610097
16.15035026302468
16.19017777029546
16.178173621526156
16.114128466219572
15.997835825933095
15.829094632759055
15.607711734710453
15.333504362299964
15.006302550474322
14.625951509700087
14.192313939062927
13.705272273107662
13.164730852673603
12.570618008135746
11.92288804132844
11.221523090065727
10.466534856664078
9.657966179060637
8.79589242030098
7.880422649267871
6.911700582724852
5.889905255942086
4.815251386562635
3.6879893941808266
2.5084050360971566
1.2768186182356802
1.318354110476748
2.588752376584194
3.8046625089139354
4.966436903561006
6.074390663321785
7.128800391282651
8.129903479578335
9.077897860412085
9.972942185058859
10.815156395519617
11.60462265301544
12.341386587554874
13.025458833198433
13.656816814444346
14.235406750444415
14.761145845255841
15.233924634160907
15.653609458195234
16.02004504125517
16.333057146517827
16.59245529136367
16.79803550245585
16.94958309500605
17.04687546253881
17.08968486563333
17.077781210046606
17.01093480623302
16.888919103732984
16.7115133948737
16.478505482933613
16.18969431024359
15.844892541530779
15.443929097416179
14.986651631954446
14.472928946854312
13.902653333305157
13.27574283023802
12.59214338550801
11.851830903716209
11.05481316147503
10.201131567739136
9.29086274352672
8.324119891998718
7.301053926492328
6.221854320781392
5.086749642765988
3.8960077299896545
2.649935462856153
1.3488780894754655
1.386467308302128
2.7225375594027423
4.001356051531282
5.2233029320407605
6.388716910782463
7.497894110719987
8.551087449910717
9.548506517851177
10.490317907672104
11.37664596478028
12.207573912111371
12.983145312262987
13.703365827367627
14.368205238651258
14.977599689078266
15.531454114338608
16.02964482958429
16.472022241746288
16.85841365993533
17.18862617913325
17.462449615239663
17.679659472385026
17.840019926180823
17.943286809214058
17.98921058758598
17.977539319525146
17.908021588964584
17.780409408671023
17.594461088652707
17.349944066398724
17.046637695888695
16.684335992216134
16.262850328137564
15.782012077808329
15.241675201582595
14.641718763759215
13.982049372824918
13.262603531081101
12.483349877421619
11.644291303632786
10.745466920977629
9.786953849987869
8.768868802539966
7.691369421260397
6.554655337415445
5.358968904817843
4.104595563711126
2.791863785627889
1.4211445475875204
1.4543538932329403
2.855886585434617
4.197424673123887
5.4793772015249775
6.702107263489999
7.8659309333065845
8.97111676948651
10.017885844962764
11.006412261618474
11.936824105161797
12.809204796043657
13.623594792425543
14.379993601900079
15.078362060072402
15.718624835843976
16.30067312541987
16.82436749964629
17.28954087208507
17.69600155830801
18.043536400073503
18.33191393134991
18.560887566417723
18.730198793461923
18.839580360128494
18.8887594403799
18.87746077455349
18.80540977669743
18.67233560515341
18.47797419376652
18.22207124204053
17.904385163025978
17.524689987651563
17.08277822364584
16.57846366607356
16.01158415486098
15.382004272579188
14.689617973088657
13.934351128568732
13.116163978994368
12.23505346420516
11.29105541465266
10.284246572438569
9.21474640974175
8.082718707196817
6.888372850153836
5.631964796326714
4.313797664197245
2.9342218878285014
1.4936348803360577
1.5219951430017535
2.9887640159527553
4.39281850999908
5.734597687936717
7.0144897475989225
8.232831068402339
9.389905865939639
10.485946407987658
11.521133743837359
12.495598897937157
13.409424478600066
14.262646653055107
15.055257441029315
15.787207280716277
16.458407823145308
17.06873491345759
17.618031720635933
18.106111980539158
18.532763320608307
18.897750638292194
19.200819509107426
19.441699603941
19.620108098876777
19.73575306442595
19.78833682423428
19.77755927629246
19.703121172269064
19.564727352723885
19.36208993754655
19.094931472121033
18.762988030317757
18.366012275281225
17.903776478433393
17.376075495887733
16.782729699614144
16.123587858362512
15.398529960306707
14.60746996601347
13.750358476304527
12.827185295218747
11.837981863605783
10.78282353378706
9.661831650584645
8.475175398589222
7.223073370294404
5.905794804497564
4.523660439349654
3.0770429198773517
1.5663666957339877
1.5893713684407818
3.1211326704832696
4.587485386771413
5.988899672107363
7.325789477838278
8.598511744339167
9.807366242151755
10.95259600959577
12.034388333118809
13.052876215824732
14.008140279574434
14.900211046672718
15.729071548343963
16.494660209254256
17.196873959837
17.83557153114089
18.410576890479692
18.92168277993425
19.368654323883685
19.751232675991098
20.069138680462608
20.3220765266892
20.50973738063797
20.631802980386617
20.687949186935235
20.67784948483181
20.601178430055114
20.457615045107264
20.246846163113155
19.968569724071056
19.622498027064147
19.20836094223014
18.725909085626267
18.1749169588201
17.55518605303095
16.86654791494283
16.10886716799244
15.282044479140177
14.38601945655607
13.4207734587951
12.386332290653066
11.282768755114276
10.110205024938033
8.868814791166422
7.558825139724892
6.180518101165589
4.734231812731498
3.2203612263112484
1.6393582909479967
1.6564619051204281
3.252953624772539
4.781370835446626
6.2422157924061095
7.635928753568283
8.962887355276397
10.223406678910845
11.41773994998729
12.54607980985625
13.608560099328416
14.605258093592504
15.53619712866009
16.401349561131
17.20064000543518
17.933948795638127
18.601115622426597
19.201943299987676
19.736201621885765
20.203631269766518
20.603947743653453
20.936845287606815
21.20200078946649
21.399077638280925
21.52772952762853
21.587604197316807
21.578347109846057
21.499605061367443
21.35102972970449
21.132281164205956
20.843031223700535
20.482966969629942
20.051794021498043
19.54923988108759
18.975057230444364
18.32902720636038
17.61096265122112
16.820711336292582
15.958159149237318
15.02323323265648
14.015905054827854
12.936193387801966
11.784167161503907
10.559948155668824
9.26371348436793
7.895697820820404
6.456195302983659
4.945561053552652
3.364212241387968
1.7126286052775015
1.7232451137483613
3.384186227052701
4.9744181430488466
6.494476136523463
7.944827204856464
9.325869668970148
10.63793350891547
11.881281368991562
13.056110165664562
14.162553230864392
15.200682923407086
16.17051364234368
17.072005178066046
17.905066339713954
18.669558800847454
19.365301109573302
19.992072813934357
20.549618658480625
21.03765281342053
21.4558631033912
21.80391520862012
22.081456816965378
22.28812171085481
22.423533778439243
22.487310943162974
22.479069010351303
22.398425433370317
22.245003005060614
22.018433482659688
21.71836115623647
21.344446371598842
20.896369018750185
20.373831996233577
19.776564660139318
19.10432626409939
18.356909393322322
17.534143391570883
16.635897775252666
15.662085623108279
14.612666923719752
13.487651856312423
12.287103972918894
11.011143242253407
9.659948907602843
8.23376210284541
6.732888162476194
5.1576985534064255
3.5086323485618736
1.7861971549644693
1.7896983904866453
3.514788135030705
5.1665684314818705
6.7456083775022275
8.252401994981238
9.687368103009604
11.050850971022104
12.34312167957751
13.564380114452332
14.714757519050602
15.794319530644255
16.803069627209144
17.74095291394494
18.607860181875637
19.40363217498166
20.12806400706565
20.78090967496815
21.361886620675712
21.870680301118842
22.306948730927413
22.67032696999123
22.960431534219317
23.1768647142161
23.319218792576244
23.38708015612067
23.380033304472413
23.29766476073729
23.139566893747183
22.90534166420977
22.594604309135494
22.206986980042686
21.742142350663542
21.199747209076754
20.57950604743441
19.88115465987346
19.10446375554416
18.24924258908156
17.31534260553004
16.302661090489845
15.211144809243075
14.04079361097178
12.791663965896177
11.463872394415413
10.05759873823981
8.573089214061143
7.010659180856282
5.370695542572157
3.653658698775101
1.860083947123285
1.85579818857644
3.6447153763684472
5.357760773907016
6.9955379598076854
8.558568086610714
10.047290078135815
11.462061654439688
12.803161103481624
14.070789716848365
15.26507480623728
16.386073218030134
17.43377526494991
18.408108996532924
19.308944733979686
20.13609979970852
20.889343377390112
21.568401444548698
22.172961726615963
22.702678628477422
23.157178106993136
23.53606245549754
23.838914978721608
24.06530454383799
24.21479000017558
24.286924466441455
24.281259490170754
24.19734908901374
24.034753687697034
23.793043967854963
23.471804650166725
23.070638229603155
22.58916868483888
22.02704518214232
21.383945792136952
20.659581234919013
19.853698665053674
18.966085502923374
17.996573312923836
16.94504172210907
15.811422365100483
14.595702832478633
13.297930590640288
11.918216831230435
10.456740197909514
8.913750327587081
7.289571132400106
5.584603737865163
3.799328981983795
1.9343093698577105
1.9215200528265834
3.7739224357690766
5.547932352284036
7.244188341606383
8.863238579462417
10.40554145825704
11.871467044275432
13.261299321745724
14.57523913183727
15.81340771411177
16.975850758707573
18.062542879555885
19.07339242221198
20.00824652437081
20.8668963525309
21.649082444714846
22.354500096404998
22.982804734581578
23.533617233017452
24.006529130494382
24.401107722200962
24.716901003062645
24.953442449961333
25.110255637654564
25.186858690359088
25.182768577562666
25.09750526825529
24.930595762514557
24.6815780232233
24.35000483326894
23.93544760516114
23.43750017033868
22.85578257463392
22.18994490437481
21.439671164343963
20.604683224460192
19.68474484655631
18.67966579599588
17.589306035207738
16.41357998758083
15.15246085060731
13.805984926813675
12.374255930000905
10.857449212627703
9.255815848108597
7.56968648946253
5.799474913314037
3.9456811458642083
2.008894055555812
1.9868386684424069
3.902362371920737
5.737018661121253
7.491481300145757
9.166325128100938
10.762027087334529
12.278968180147782
13.717436253673066
15.077629510692695
16.359660643618813
17.563561489886794
18.68928810943562
19.736726188747753
20.705696681157818
21.595961599463234
22.407229884224556
23.139163279465386
23.791382156437322
24.36347123554019
24.8549851662193
25.265453934457376
25.594388077187563
25.841283692275482
26.00562724158396
26.08690015283358
26.084583233359318
25.99816091527154
25.827125356944865
25.570980430008717
25.229245624014787
24.801459902763174
24.287185546725215
23.686012015151217
22.99755985926916
22.221484714462726
21.357481394585278
20.40528810546248
19.36469078731045
18.23552758745977
17.017693455115076
15.711144839292546
14.315904459627017
12.83206610734355
11.259799420633248
9.599354565097066
7.851066735888709
6.015360383980355
4.092753054814634
2.0838587136408018
2.0517279260113073
4.029986967888322
5.924953763040298
7.7373373079115755
9.467738449660366
11.116651435047784
12.68446644158995
14.171472979373549
15.577864049818249
16.903740947180204
18.149118589847205
19.313931271329118
20.398038725352293
21.401232405449072
22.32324188680891
23.163741306633426
23.922355768782175
24.598667648777948
25.19222274602447
25.702536241245465
26.129098428273032
26.47138020035835
26.72883828182506
26.90092020586292
26.987069048591014
26.986727937817886
26.899344362196835
26.724374312592698
26.461286292195915
26.10956523543981
25.66871637774393
25.13826911866862
24.517780920252562
23.80684127990633
23.005075813428096
22.112150478465697
21.12777596214093
20.051712248486712
18.883773372101523
17.623832353892006
16.271826303029375
14.827761656515605
13.291719513973325
11.663861010745546
9.94443265711786
8.133771555647485
6.232310392415737
4.240582081895585
2.1592239288894355
2.1161610047741295
4.156746919111673
6.111670602311236
7.981675987770708
9.767388931713569
11.469319363529106
13.087864474749992
14.623312822496317
16.07584922080359
17.44556029290699
18.732440559002946
19.936398937341316
21.05726554183554
22.094798666264523
23.048691853586227
23.91858095876854
24.704051124453837
25.404643600529937
26.019862351093973
26.54918040497146
26.992045918671813
27.34788793317073
27.6161218179915
27.796154407389537
27.88738884391952
27.88922915406858
27.801084588831362
27.62237376890434
27.35252867955193
26.99099856414606
26.537253767585433
25.990789581506668
25.35113014234165
24.617832430644683
23.79049041602034
22.868739386274513
21.852260492115104
20.740785529971475
19.53410197532535
18.232058267371436
16.83456933291371
15.341622323316912
13.753282523129371
12.069699372792194
10.291112530748418
8.417857882575888
6.4503733864224255
4.389204625682554
2.2350099212537966
2.1801104759788945
4.282592063132172
6.297101382953612
8.22441665624763
10.065187352033904
11.819937029299997
13.489067276603265
15.072862611327324
16.571496197721565
17.985036242445872
19.313452928113204
20.556625749286788
21.714351121468958
22.786350141630475
23.772276388653676
24.6717236633464
25.48423358024803
26.209302936991453
26.84639080110516
27.394925268631845
27.854309863442598
28.22392956030657
28.503156428472227
28.691354905325525
28.787886721458193
28.79211550911623
28.703411135133873
28.52115380710239
28.244738007562685
27.873576315341378
27.407103175712887
26.844778681858674
26.186092429188157
25.430567501254494
24.577764641514527
23.62728665899791
22.578783107940403
21.4319552719502
20.186561472126993
18.84242270583269
17.399428608714214
15.857543717069964
14.216813990875899
12.477373539854247
10.639451475936195
8.703378795698645
6.669595175772784
4.538655543314919
2.3112362624991456
2.243548428749965
4.407471655921048
6.481178018852284
8.465478964964717
10.361045722916803
12.168412935813823
13.887983454742422
15.520034138722686
17.064722504175293
18.522094066545836
19.892090218810463
21.174556496248016
22.369251083871863
23.475853432202513
24.493972858412587
25.423157022860742
26.262900185489414
27.012651162071226
27.67182091645163
28.239789741470574
28.715913997737665
29.09953239554047
29.38997182062635
29.58655271910626
29.688594069915542
29.695417985219258
29.606353989349802
29.420743035378322
29.137941325217593
28.75732400384957
28.278288801204074
27.700259696120803
27.02269067575488
26.245069660813698
25.3669226621067
24.387818227115154
23.30737222664571
22.125253021272187
20.84118703506951
19.454964750370763
17.966447121851072
16.375572391220345
14.68236326537991
12.886934401161216
10.989500118733606
8.990382243655334
6.890017954622331
4.6889674902926926
2.387921544613356
2.306446621088687
4.531334699996571
6.663832663847638
8.704783651221677
10.65487827400188
12.514659153365132
14.284526682270354
15.964745842948876
17.55545390444305
19.056668824724063
20.468298184358783
21.790148484122078
23.02193464707354
24.163289576392305
25.213773633339855
26.172883914692736
27.040063225661466
27.814708662019505
28.49617973372454
29.08380598118029
29.576894053952394
29.974734240127443
30.276606451930107
30.481785689488852
30.589547019552914
30.599170119246388
30.509943446340348
30.32116810698986
30.032161499354743
29.642260816766893
29.150826497288637
28.557245707508756
27.860935947263748
27.061348858702438
26.15797431777984
25.15034487893399
24.038040634288862
22.82069453746926
21.49799822890239
20.069708384519014
18.53565359292447
16.89574174762116
15.149967920737375
13.298422662921512
11.341300651027703
9.278909580719853
7.11167917545571
4.840170156911329
2.465082994758832
2.3687766584870995
4.654130329865456
6.844998330598016
8.942253409826925
10.94660258915217
12.85859272529319
14.678617369763192
16.406924734182013
18.043626565918967
19.588707738159222
21.04203636130513
22.40337422891473
23.67238742085251
24.848656898770585
25.93168894417497
26.920925306630195
27.815752948767866
28.61551329518132
29.319510913471124
29.927021577224057
30.437299681975986
30.84958500595788
31.16310882715798
31.377099426487703
31.490787023556308
31.50340820635694
31.414209928807143
31.222453160595187
30.927416281930288
30.528398321591414
30.02472214008715
29.415737660772024
28.700825250522993
27.879399348005162
26.950912431664122
25.91485941166944
24.770782519855366
23.518276759476873
22.15699596237513
20.68665948488531
19.10705955559659
17.418069268039805
15.619651189462342
13.711866533026752
11.694884815510292
9.56899389560544
7.334610259451903
4.99228939059618
2.542736030977691
2.4305102032519907
4.775808261096476
7.024609607982816
9.177813899549927
11.236140914297494
13.20013728096039
15.070184578358695
16.846508593985824
18.529189522944804
20.118172888121745
21.61328096582919
23.014224508397184
24.320614566208146
25.53197422618397
26.647750101140446
27.66732342449848
28.590020626845927
29.415123294257672
30.14187743256426
30.769501986284986
31.297196585166763
31.72414851470507
32.04953892925676
32.27254834691789
32.392361483919245
32.40817150278596
32.31918376251128
32.12461917044843
31.823717244607813
31.41573900127995
30.899969786557786
30.275722171412326
29.542339028452698
28.69919690464052
27.745709797801105
26.681333436119065
25.505570148841922
24.217974403215905
22.818159067339085
21.30580244110056
19.68065607775936
17.942553397021786
16.091419066747644
14.127279104584126
12.050271623227673
9.86065811340566
7.558835127325278
5.145346192603078
2.6208937524629903
2.4916192176966048
4.896319309733929
7.20260348757051
9.411394898797612
11.523421655169786
13.53922487857994
15.459168200813123
17.28344847801612
19.01210747524498
20.645044275573305
22.18202817221408
23.622711810514318
24.966644359487447
26.213284509445316
27.3620131125127
28.412145305972615
29.362941983819777
30.213620508803665
30.96336458506114
31.61133323942583
32.156668887024274
32.59850448331176
32.935969789666444
33.16819680275546
33.29432441856973
33.313502420233704
33.224894894163434
33.0276831916624
32.72106856270612
32.30427459536864
31.776549598204014
31.137169063889143
30.385438350655853
29.52069571368703
28.54231581169816
27.44971380449214
26.242350145417102
24.919736158508492
23.481440473592077
21.927096373864007
20.25641008937704
18.469170046579737
16.565257058486157
14.544655412145897
12.407464780096998
10.1539128502135
7.78436853400858
5.299355577160918
2.699566358094846
2.552076244707605
5.0156159894430505
7.378920310921721
9.642931626926135
11.80838108592235
13.87579810341769
15.845521440385372
17.717711555689796
19.492363957973836
21.169323281469826
22.74829781466782
24.228874220687747
25.610532203249047
26.892658891644402
28.074562741775516
29.15548677710693
30.134621022757074
31.011114016967387
31.78408331601287
32.45262494061394
33.015821743191765
33.47275070525247
33.82248920230226
34.064120299505234
34.19673716425621
34.21944670192215
34.13137253789337
33.931657482729555
33.61946562750255
33.19398422353096
32.6544255046278
32.00002861080566
31.230061770328398
30.34382489199774
29.340652711962015
28.21991862914234
26.981039350545053
25.623480452596766
24.146762946912077
22.55047091896393
20.834260285575624
18.99786869225349
17.04112654405172
14.963969133640353
12.766449797848036
10.448753998962022
8.011214189638997
5.454325280358062
2.7787604863516786
2.611854729567684
5.133653194647221
7.553504850783857
9.872366249260676
12.090965291838474
14.20981244967492
16.229213620700357
18.149284324301323
19.96996492452075
21.69103657177817
23.312137558364846
24.83277979459534
26.252365130167057
27.570201268069976
28.78551704593358
29.897476890861906
30.90519428777239
31.80774413699053
32.60417391341779
33.29351357607351
33.87478421235567
34.34700543523805
34.70920158315103
34.96040680102378
35.099669106443464
35.126053566947476
35.038644732761995
34.83654848400007
34.51889346229109
34.084832264165584
33.53354257740248
32.86422844205744
32.07612181535636
31.16848461402709
30.1406113992047
28.991832857979816
27.72152022188477
26.329090746424363
24.81401435689516
23.17582154453553
21.414112573145456
19.52856802983709
17.518960724496658
15.385168910490288
13.12719076437444
10.745160024648829
8.239362648987939
5.610254305791985
2.858478469593121
2.670929387136085
5.250388978671961
7.726307540577457
10.099649586003116
12.371132372350162
14.541239018064886
16.610233363930938
18.578176239742916
20.444942788167744
22.210240496137104
23.87362759041924
25.434531467756297
26.892266850626335
28.246053386526054
29.49503244081456
30.63828286947551
31.67483559747543
32.60368686970295
33.423810083461824
34.13416615313903
34.73371239807617
35.22140998285864
35.59622997463303
35.85715811395018
36.003198423764445
36.03337580529944
35.94673778924806
35.74235562645406
35.41932491362805
34.97676595712427
34.41382408151497
33.72967008975468
32.923501078417374
31.99454180520424
30.942046796581224
29.765303371248113
28.46363574047319
27.036410329023333
25.483042440451033
23.80300436809585
21.995835027952104
20.06115116160465
17.99866012670318
15.808174258421577
13.489626748363303
11.043088946909283
8.468788951203763
5.767131293705255
2.9387174954767095
2.7292766192173152
5.3657854369104605
7.897285868217386
10.32474304763892
12.648854933564886
14.870067564805337
16.9885921791411
19.004423810924774
20.917360974029496
22.727026034808883
24.432885887246364
26.034272558802535
27.530403399882324
28.92040054144758
30.20330934296912
31.378115595277166
32.443761288619825
33.399158803940594
34.24320343363009
34.97478418569666
35.59279287113456
36.09613151729184
36.4837181896994
36.75449134013675
36.907412829610536
36.94146980107774
36.85567559785874
36.64906994020885
36.32071858426021
35.86971269486753
35.295168167141185
34.59622513087817
33.77204786787577
32.821825364858
31.744772714337174
30.54013356255187
29.20718378788716
27.74523657473867
26.153649026836455
24.431830440439928
22.579252331471324
20.595460281367284
18.48008763415112
16.23287104145422
13.853667813101948
11.34247498779013
8.699449991469056
5.924932700093133
3.0194686681458056
2.786874987030526
5.479809706183435
8.066405952433321
10.547620822328582
12.924122903294773
15.196309942337727
17.36432850789
19.428095210950296
21.387319039085988
23.24152435512461
24.99007412134288
26.632192929513035
28.166989446193806
29.59347791994448
30.91059844143944
32.117235697070775
33.2122360098871
34.194422516886334
35.06260838731393
35.81560804110265
36.45224637854718
36.97136608089216
37.37183308571111
37.65254037994961
37.81241028733435
37.85039545500025
37.76547876655729
37.556672425975734
37.22301646843989
36.7635769612346
36.177444160238004
35.463730886006154
34.621571378138455
33.65012087806698
32.54855617879438
31.31607736588716
29.951910957011492
28.45531462781901
26.825583690126077
25.062059463638455
23.164139655123854
21.131290828552835
18.963063016112653
16.659106482655943
14.219190615140612
11.643224863141224
8.931281606606579
6.08362077244699
3.1007159618160904
2.843705744660261
5.5924350929011135
8.233644321872935
10.76827234398216
13.196946705981283
15.520003977628669
17.737512280694325
19.849295465294098
21.85495842572764
23.75391304616808
25.545404277659216
27.22853587131701
28.80229532721326
30.26557766273762
31.61720765647759
32.855960281873244
33.98057910702693
34.98979250108374
35.88232755168073
36.656921660253545
37.31233184099826
37.84734180392674
38.26076695161089
38.5514574622088
38.71829966811551
38.76021596956832
38.67616354600186
38.465132145452884
38.1261412436845
37.658236870838536
37.060488404836704
36.331985627704
35.47183633431759
34.479164773007
33.353111184415596
32.09283268952434
30.697505759494078
29.16633047953771
27.49853679620633
25.69339291196591
23.75021596278139
21.668385083187097
19.447356928678513
17.08668368669063
14.586033564778518
11.945213697053886
9.164195357300704
6.243141309140906
3.182435059492326
2.8997534399584612
5.703642344203498
8.398989920155088
10.986705073934928
13.467360840330944
15.841217840326543
18.108250045230456
20.268172285211136
22.320468922670717
24.26442310917059
26.099146058402766
27.82360579608463
29.436654889090427
30.937056708931117
32.32350984656669
33.59467036400745
34.74917164085516
35.78564164833276
36.70271755723195
37.49905765749359
38.17335063409923
38.72432230526985
39.150739983539665
39.45141466745764
39.62520131121039
39.67099745120575
39.587740492858195
39.37440397814882
39.029993165102425
38.55354025513514
37.94409960401053
37.20074324724621
36.322557062273134
35.30863787778465
34.158091826055305
32.87003421697966
31.443591193160643
29.877903403990295
28.172131913022547
26.32546652675355
24.33713670438411
22.206425176264293
19.93268436342778
17.515355651381626
14.953991527273413
12.248280540368686
9.398074990794559
6.40342119023386
3.2645920699847686
2.955006589953481
5.813421078168567
8.56244636332173
11.202947633727879
13.73542790843393
16.16005496052725
18.476690735944047
20.684922624169204
22.784095917109067
24.773346791175044
26.651635164741318
28.417776817736932
30.070474210128953
31.608345499177094
33.02995132883253
34.33381904548601
35.5184640794798
36.582408318375
37.52419538325694
38.34240280095675
39.03565114096246
39.602610254520314
40.04200281381388
40.352605400500366
40.533247435150884
40.58280827231374
40.50021281037427
40.28442598188079
39.934446499184816
39.4493002330932
38.82803359966141
38.069707323034706
37.17339093129729
36.13815832821683
34.9630847672177
33.64724553527883
32.18971663373617
30.58957772068233
28.84591755547433
26.957842159297673
24.92448587703159
22.745025493699348
20.41869752342227
17.944818749150258
15.322810046745136
12.55222347667139
9.632772569634186
6.564365668495778
3.3471421167534334
3.0094584392820565
5.9217713915632135
8.72403447986311
11.417053332047427
14.001243152556622
16.47665956488225
18.84303216507317
21.099800046632954
23.246148533971738
25.28104636121502
27.20328255486204
29.011502321097566
30.70424129919545
32.27995761826786
33.737061282179226
35.07394050320542
36.288984705025854
37.380604016609624
38.34724517713634
39.18740386541837
39.8996335532942
40.48255105925948
40.934839045145274
41.25524575431301
41.44258233452261
41.495718122674205
41.41357429265
41.195116282391695
40.83934542331616
40.34529019515265
39.71199752361307
38.93852452805272
38.02393111233002
36.96727377538481
35.767600999168245
34.42395055118243
32.9353490169936
31.300813854864625
29.519358240115714
27.589998940409476
25.51176743465967
23.283724456786906
20.90497811068213
18.374705663363272
15.692179078593774
12.856794302494626
9.86810425454848
6.72585541105276
3.4300277928531693
3.063107810933669
6.028705666365555
8.883795168545234
11.629104136134956
14.26493956521103
16.791222911027912
19.207528327620484
21.513123011853132
23.707008772031806
25.787963942213217
27.75458479101348
29.605325625996997
31.33853686845658
32.95250046488656
34.445462106151766
35.815659839001405
37.061348772437064
38.18082169919886
39.172425566701634
40.03457383855928
40.765754885035406
41.36453662641943
41.829567726278526
42.15957569123942
42.35336228066106
42.409796663695914
42.32780678385572
42.106369403610124
41.74449930506394
41.24123811892998
40.59564324428659
39.80677730738664
38.8736985901976
37.79545283942112
36.57106684532756
35.199544157371214
33.6798632803183
32.0109786708546
30.191824830036644
28.2213237610123
26.098396033814552
23.821975668696222
21.39102901578903
18.80457777065004
16.061726221392743
13.161692772604562
10.103845732805675
6.887743284438486
3.513177477566396
3.1159600603313877
6.134250599930719
9.041792615030646
11.839215146026051
14.526693648426429
17.10399031304661
19.57049762767774
21.92528419143604
24.167141763055163
26.294632527769277
28.306135602945226
30.199891867497648
31.974046290267708
33.6266870433393
35.15588081201276
36.55970384829001
37.83626845386337
38.983744716288925
40.00037745393179
40.88449844751597
41.634534145784805
42.249009127992174
42.72654568537578
43.065859947150706
43.2657550245556
43.32511167966363
43.24287704565502
43.018051933766515
42.64967726088503
42.13682012283422
41.4785600233973
40.673975749904784
39.72213336421001
38.6220757540762
37.37281416563017
35.973322113019734
34.42253203687285
32.71933505905684
30.86258415700047
28.85110105591625
26.683687111187233
24.35913842480636
21.876265408198783
19.23391696757103
16.43100944597521
13.466560407066591
10.33972728770997
7.049850878478438
3.5965035115588257
3.1680281456418236
6.238449487651196
9.198117915151428
12.047539640219433
14.786731911575206
17.41526906655355
19.93233215131578
22.336760958699095
24.627107299705504
26.80168833168633
28.8586388120707
30.795961227517207
32.611572859168824
34.30334897918752
35.86916152527182
37.306912761171944
38.61456359558198
39.79015639303812
40.831832263141024
41.737842954143915
42.506557600426625
43.136464678705686
43.62616961362815
43.97438853993239
44.179938776397904
44.24172659759756
44.15873290527796
43.92999740399257
43.55460187802824
43.03165315091907
42.36026628723474
41.539548570934905
40.56858476708212
39.446424145509646
38.172069717143664
36.744470106865634
35.16251446119974
33.42503076482347
31.530787916533924
29.478501892148905
27.266846298136397
24.894467594311855
22.360005235510812
19.662116949239458
16.799509327361168
13.770973863273039
10.575428510098625
7.211964768034581
3.6799002289514524
3.2193338291658193
6.341364792210039
9.35289316156155
12.254274773888046
15.045338213325573
17.72543740150651
20.293508132836877
22.74812721038794
25.087572800967774
27.30988464060495
29.412922781136448
31.394423670011548
33.252052492305246
34.98345086801419
36.586279180618135
38.05825300592669
39.397173304953306
40.60095023345571
41.66762059756354
42.595359144427995
43.38248401543316
44.02745680536111
44.52887776268692
44.88547673474414
45.09610050805166
45.15969722058
45.07529853218477
44.8420002344443
44.458941965031705
43.925286667293825
43.24020040577078
42.40283311542665
41.41230082830259
40.2676698878315
38.96794362932704
37.512051975925715
35.89884437258212
34.12708645676657
32.19546084270595
30.102572375396672
27.84695819032528
25.427102893470163
22.841459152108836
20.08847395866843
17.166620795380947
14.074437884920549
10.810572659592886
7.373832516595803
3.7632418477070773
3.2699090278031457
6.443081040225955
9.506276061372635
12.459668025823463
15.302862072235257
18.03495461347938
20.65459778735486
23.16006670971172
25.54932791202865
27.820107366238652
29.969956577178788
31.996315350707405
33.8965700150181
35.668106073695995
37.30835449061364
38.81483103817545
40.18516837149991
41.417140712640744
42.50868123355288
43.457892408234876
44.26304975954341
44.92259955262114
45.43515108387331
45.79946428332282
46.014433391051035
46.0790674881811
45.992468663124754
45.75380857832608
45.36230417552568
44.81719322213647
44.11771036098636
43.263064283508136
42.25241660468224
41.08486297846134
39.75941695636796
38.274997060179906
36.63041751224703
34.82438304386344
32.8554881826054
30.72222140254106
28.42297450553382
25.956057585847773
23.319719912206686
20.51217703926358
17.531644432045827
14.376377850206138
11.044720691210365
7.535158430725262
3.8463802219113052
3.3197973337130167
6.543708094510229
9.658465165051322
12.66402450903921
15.559728095176679
18.34437255335567
21.016282714257414
23.573388172015687
26.01330096773573
28.33339252400534
30.53086806181816
32.60283689305878
34.5463771923329
36.358594098735246
38.03667026739336
39.57790826874519
40.979764508053734
42.23987459749258
43.356070349792475
44.32638876905081
45.149073586848225
45.822570028478275
46.34551359492143
46.716713713107715
46.93513314318339
46.9998640411571
46.91010156295428
46.665115866582966
46.264223327632784
45.70675773411903
44.99204217371098
44.119362273095646
43.08794139835304
41.896918378746456
40.545328275556784
39.03208668330141
37.35597802300265
35.51564826554499
33.50960250699697
31.336207805596786
28.993701680395986
26.480206662501764
23.79375127943379
20.932297838887422
17.89377735776104
14.676131953282564
11.277364972440479
7.695599081194098
3.9291424629917078
3.3690557308899827
6.6433848605311265
9.80970580385046
12.867715283464507
15.816446702139004
18.654348689778516
21.37936911443237
23.989042354677267
26.48057758835457
28.85094590158553
31.09696415461836
33.2153737463407
35.20291268221515
37.05637965450414
38.772689171561794
40.34891710784826
41.78233637290986
43.07044270252873
44.210970848493815
45.20190167755473
46.041460880913704
46.72811014155258
47.26053170898366
47.63760739263121
47.85839301058874
47.92208932571655
47.828010471748954
47.57555082477285
47.164151215922395
46.59326531486576
45.86232694535588
44.97071902772058
43.917744781746
42.702601769097086
41.324359308672015
39.781939761649134
38.07410415549559
36.199442597122335
34.15636991368166
31.943126953625438
29.55778797861022
26.998274576599513
24.262376525541875
21.34778003286282
18.252103765734343
14.972943067878058
11.507922727519448
7.854758614713017
4.011328441444034
3.4177565386578195
6.742283497847188
9.960296853180207
13.071186837436885
16.07362636193458
18.965661001213277
21.744805111236982
24.408141461862392
26.95242172397559
29.374165223754773
31.669753550780502
33.835518868110995
35.86782410166493
37.76313356212066
39.518072952856734
41.129478121427354
42.59443230083325
43.91029194462416
45.0747015748977
46.085598326290174
46.941207078142
47.64002722048548
48.18081219970588
48.562543041490414
48.784397058346364
48.845712924171295
48.74595324677554
48.4846656988382
48.061443685766314
47.475887441796615
46.727566359037944
45.815983272402406
44.74054134989527
43.50051417482465
42.0950195555753
40.522997559949005
38.7831932446008
36.87414453476926
34.79417570379553
32.541396904021305
30.11371020824621
27.50882263161233
24.724266614495374
21.757428455169904
18.60558518329357
15.265950358432718
11.735729258704428
8.012183889196764
4.092708184973787
3.4659896195771767
6.840614222356281
10.110598464401882
13.274971940402224
16.331987598901783
19.279225007533135
22.113700522249264
24.83198123246499
27.43029951949042
29.90466516997174
32.25097221530956
34.465098002038836
36.54299241173061
38.48075561468257
40.27470323154568
41.92141826503175
43.41778962694478
44.76103750511349
45.948726176914526
46.97876517222197
47.84939991516826
48.559193131814006
49.10699840394556
49.49192728489197
49.713311380166004
49.770660743892954
49.66361986145341
49.39192238908758
48.95534571145235
48.35366626580921
47.586616473145234
46.653844017094904
45.55487412447693
44.28907542915103
42.85562994481405
41.253507632421524
39.481446023559386
37.53793535095399
35.42120963955438
33.12924422365928
30.65976017503672
28.010236150901104
25.177928195551342
22.159898052532405
18.95305056162954
15.554180723415442
11.960031009622687
8.167359476296488
4.173019194752097
3.5138648982977534
6.938630805050565
10.261040939688211
13.479702113703429
16.592379086095697
19.596113315245265
22.487349499033368
25.26206615132002
27.91590643996783
30.444305660704615
32.84261202322379
35.106197854003035
37.230558841281855
39.21139952629169
41.04470384547107
42.72679011861999
44.25435042958472
45.62447483688778
46.83466126633142
47.8828122671691
48.76722005524303
49.486541423349586
50.03976417806265
50.42616677332849
50.64527276647345
50.69680163464748
50.58061737188204
50.296676150811344
49.84497418944311
49.22549682098517
48.438169631057974
47.482812406954395
46.35909654178765
45.06650645459303
43.60430552652129
41.97150701314119
40.166850372143784
38.18878344273853
36.03545092532126
33.70468963450921
31.194031032519767
28.50071158962003
25.62169156034232
22.553682804939317
19.293186321064113
15.836540177220728
12.179978552959561
8.319702586845754
4.251963707586574
3.5615152481163466
7.036636896871876
10.412134964204133
13.686122021749574
16.85579621002501
19.917578130710478
22.867256538049546
25.700138310042632
28.4111981773071
30.995223898377763
33.44695296898426
35.76119750294813
37.932954580532424
39.95750008074555
41.83046475184174
43.54789198876259
45.10627744307334
46.50259116411408
47.73428344242206
48.79927588942338
49.69593954012443
50.42306191388
50.979805023187794
51.365656295938315
51.58037428880544
51.62393093508587
51.496451905214464
51.19815647703629
50.729298128297806
50.09010688601016
49.28073430459972
48.30120180253982
47.15135296944637
45.830810364169764
44.33893725961735
42.674804751145686
40.837164630379846
38.824428432843646
36.6346530926781
34.2655336776502
31.714403728736777
28.978243787193417
26.0536987540309
22.93710478834258
19.624526507703912
16.111805301726008
12.39461960456055
8.468557989030309
4.329205939417942
3.609099815654549
7.134993340019264
10.564483459966235
13.895106155360878
17.12340257864176
20.245077295027436
23.25516647165589
26.148210548787517
28.91842595576101
31.559870730560743
34.06659942891439
36.43280341771894
38.65293348145555
40.721802569710576
42.63466742153307
44.387288667635104
45.97596979270904
47.397576007286006
48.64953461294083
49.72981883871549
50.63691738300254
51.36979202378074
51.92782567725129
52.31076321029918
52.518647166805096
52.55175037318839
52.41050716436331
52.095444735071126
51.6071158881529
50.94603423241788
50.11261268707149
49.1071059829198
47.929557716332184
46.57975241143002
45.0571729788943
43.36096392416824
41.48990065128281
39.44236522759242
37.21632901534996
34.80934263453017
32.21853379297699
29.440613600676485
26.471892070299795
23.30830359172041
19.945443249602327
16.378614925765923
12.602892187447813
8.61319300403697
4.404369353253002
3.6568078714496517
7.234126664986491
10.718795388941501
14.107678266465424
17.39655505253009
20.580304517381645
23.653099178292074
26.608604638265682
29.4401769701791
32.141051998412486
34.70452102775984
37.12408848538006
39.393608000574545
41.507394572199125
43.46031159147677
45.247832535858684
46.866078077299136
48.31183012124603
49.582524891635686
50.67622759695084
51.59159146058623
52.32780399186654
52.88452333524377
53.261807391356975
53.46003818247141
53.47984366335419
53.322018881161725
52.98744808530044
52.47702909746837
51.79160098612138
50.931875857482424
49.8983753824066
48.69137252792363
47.31083885411616
45.756397669827855
44.02728331163706
42.122306815670434
40.03982828696171
37.77773633133078
35.33343499532408
32.703838755737074
29.88537620661836
26.874003203831034
23.6652263404695
20.254137735723933
16.635462220770652
12.803618093141829
8.752792680768732
4.477034003492355
3.7048632958076713
7.334539021732507
10.875901913140034
14.32503412373999
17.676833015243503
20.92522463735006
24.063389911752438
27.083995417340134
29.97942082989393
32.741975644582446
35.364098734829966
37.838535487802226
40.158488605161835
42.317740067531425
44.310743139393296
46.13268455944037
47.779518160164706
49.24797205048723
50.53553215797525
51.64040536237095
52.56146567438432
53.29818694886323
53.85056550226847
54.21903576692158
54.40438179484349
54.407647055811076
54.2300445870723
53.87286917042919
53.337412855281826
52.624884827424154
51.73633635193037
50.67259129920108
49.434182597604675
48.02129484297156
46.433713231507994
44.67077896406005
42.73135129086909
40.61377642149199
38.315863608658475
35.83486882178054
33.16748654999754
30.309850410647805
27.25754338178302
24.005618621706223
20.548631979469377
16.88068743325752
12.995496813520075
8.886455269711165
4.546734018572084
3.7535298373841988
7.436819856564867
11.036775421546137
14.548568298722326
17.966072770343494
21.282114939068613
24.488736348564863
27.57746199164033
30.53956304699328
33.36630548280028
36.049176894764535
38.58008548766916
40.95152683050855
43.1567157848294
45.18968270597374
47.04533455030398
48.719482817691684
50.20884127487163
51.51099712594518
52.624359728953145
53.54809112764949
54.28202261402667
54.82656130533578
55.18259035723369
55.351365988539634
55.334414004540804
55.13342801016264
54.750171029715304
54.18638181729399
53.44368676527419
52.523518005866954
51.42703805579553
50.15507117625432
48.70804150627339
47.08591797219567
45.28816597292697
43.31370588326417
41.16087849865719
38.827417657582814
36.310430415661365
33.6063853023306
30.71110936064916
27.619794847870654
24.32701665367905
20.826761669333425
17.112471509432694
13.177100143801145
9.013188135143121
4.612955293804369
3.8031173175966577
7.54165972662793
11.202552063733082
14.779905869643128
18.266408169226914
21.65361378087257
24.93225369893785
28.092547330673135
31.12450680548644
34.0182226775623
36.76412197995198
39.35319159584857
41.77716211427044
44.02864956182954
46.101254499323076
47.98961982198551
49.68945012324365
51.19749662916998
52.51151247525701
53.63018349877899
54.553039800626465
55.28035314627987
55.8130248890533
56.15246857278986
56.30049076465596
56.259173032171944
56.03075735374527
55.61753667021479
55.02175176819378
54.245495247930755
53.29062297510751
52.158673148448955
50.85079292985074
49.36767247474456
47.70948615983072
45.87584082463931
43.86573091367125
41.67750051846194
39.30881246607427
36.756624774419606
34.017174988636555
31.08597312050427
27.95780412816305
24.626741091372384
21.086170452857257
17.32883090371592
13.346867686226386
9.13190426545175
4.675133477201916
3.8539890001684274
7.649866747845933
11.374558597497693
15.020940157733826
18.58031884893304
22.04277810709309
25.397539533120764
28.63332788398325
31.738724482431735
34.70249614737395
37.51388893226248
40.162878580673784
42.64037243056431
44.938360298135194
47.05001445765268
48.96974105899737
50.69318709642283
52.21720831702194
53.53980423867402
54.66002677434942
55.57786889760207
56.29413941282525
56.81032929818883
57.12847435084373
57.25101805643018
57.18067778905109
56.92031667137959
56.472822721670056
55.84099630680056
55.02744641973111
54.03449590871097
52.86409550132428
51.5177462816266
49.996430183117354
48.300548043216
46.429864814649505
44.38346163471483
42.159694604490646
39.75616031744835
37.16966839218097
34.39622149971956
31.431003625804593
28.26837756604035
24.90189291210697
21.324306044934744
17.52761390072512
13.503103513894146
9.241419562527739
4.732652342390796
3.906570404868325
7.7623863063344825
11.554344573532777
15.273877902567566
18.91068780983074
22.453151791301423
25.888750356378317
29.2044951821615
32.38734066898575
35.42456328755923
38.304096032722036
41.014808732125985
43.546728583802505
45.891198822346766
48.040976596930896
49.99027380955017
51.734746704796315
53.27144138801908
54.59870320107878
55.71605807263374
56.624073681255354
57.32420763655966
57.81864900937151
58.11015853176092
58.20191173171567
58.097348237209914
57.800029533566324
57.31350662161188
56.641198321830174
55.786280408926075
54.75158533954465
53.53951204467833
52.151945084910096
50.590182396048945
48.85487086986173
46.945949104788355
44.86259681112834
42.60319055228135
40.16526573779542
37.545485046059355
34.73961373695618
31.74250261092491
28.548079674476668
25.14935187828901
21.538418597337113
17.70649881835797
13.64397428414883
9.340451112297322
4.7848426539898075
3.961359921845128
7.880324837413038
11.743721159415815
15.541293659080093
19.260870511639034
22.888847244309396
26.410692440965413
29.811451809047064
33.07622876374299
36.19062260476553
39.14110928638516
41.915354289853674
44.50245177370981
46.893088619297906
49.07963590041175
51.05617347780082
52.81845574219935
54.363827986390405
55.691103536271825
56.80041172533021
57.69302619999896
58.371182050314104
58.83788902050139
59.096746700400594
59.151766240059224
59.00720184878585
58.66739419340507
58.13662683195807
57.41899602349856
56.51829364210333
55.43790248349903
54.18070296945848
52.74899010842154
51.144399539923754
49.36784155518034
47.41944212844754
45.29849019735163
43.00339068153315
40.53162301657098
37.879705294550725
35.043164436259154
32.01651316622892
28.793234915004938
25.36577812797859
21.725561812238027
17.86299449755199
13.76750912061031
9.427616659219932
4.830981641584706
4.018941684958816
8.004978704958594
11.944808270327705
15.826195687383088
19.63477824349396
23.35464333546112
26.968930016755788
30.46042464243814
33.8121235867149
37.007740057501934
40.03213731710868
42.871676554927916
45.51447367364761
47.95056484469222
50.17198547873268
52.17277099912611
53.948890395434766
55.498124988479944
56.81990527077801
57.915118272738304
58.78589685249082
59.435400827120894
59.86759814996449
60.08705255736193
60.09872238772467
59.907773707131746
59.51940951628036
58.93871569129732
58.17052343110869
57.219287336015796
56.088977804294956
54.782986179429344
53.30404098103809
51.65413357987069
49.834451805729856
47.84532018481016
45.68614577117528
43.35536885080255
40.85041814404113
38.16767050404734
35.302415497533524
32.24882565380261
28.999933573627434
25.547617496295814
21.882597326735425
17.9944435208243
13.871601611518647
9.501435527788203
4.870293209429709
4.080001296044285
8.137869513600723
12.160092151697276
16.132106242419308
20.036979268989686
23.8561034597899
27.56991466386415
31.158598879930903
34.60275289157829
37.88397108972177
40.98533770203241
43.89181148804602
46.59049772362679
49.070809336545715
51.324524891766444
53.34575548608867
55.130835415092
56.678152800229945
57.98793640754208
59.06201391890703
59.90355522529953
60.516812182717324
60.90686395446471
61.07937475913643
61.04036869914975
60.79602445618418
60.352491059045846
59.7157246723155
58.89134541059602
57.88451252647941
56.69981591370681
55.341181670431766
53.81178944134298
52.113999365374816
50.249286666564224
48.21818221330182
46.020217715102305
43.653874610386254
41.11653611185806
38.404442309116064
35.51264867503562
32.434988778032626
29.164042462532958
25.6911112208645
22.006202937344963
18.098028635509642
13.95401429800216
9.560331252010393
4.901949018318654
4.14534516956169
8.28078758424466
12.392496190667092
16.46316000547607
20.472822215304703
24.399718586756403
28.221140678156402
31.914277112790614
35.45699113313933
38.828500501950174
42.00993549286575
44.98476109146234
47.73905955896845
50.26167834698257
52.54425541272171
54.581138979107735
56.36922168480146
57.90771005857995
59.19784965441403
60.242624394564565
61.046446096265186
61.61484717807699
61.95418646761412
62.07137510061402
61.97362687383754
61.668235184044576
61.162376889102454
60.46294206038892
59.57638762458399
58.50861226839065
57.26484964495932
55.84957681931324
54.26643496967513
52.51815957683998
50.60651764754362
48.53224990083821
46.29501627681699
43.89334358912606
41.324574625808395
38.58481850003195
35.66890255887151
32.570326671001595
29.281221230379742
25.792310729690325
22.09288527103663
18.170782888112626
14.012386049186418
9.602636189747814
4.925070584190005
4.215924504093376
8.43584585439163
12.645468572938215
16.82422550113493
20.94858743843879
24.99308141320551
28.93133234033201
32.73706860307932
36.385039363506856
39.85180238308213
43.11635430093091
46.1605890908381
48.96958338052593
51.53171837104871
53.83865654888611
55.88519695973602
57.6690355918747
59.19045774765108
60.45198767685625
61.45801778182022
62.214435940565295
62.72826541780032
63.00732782729918
63.059935944203346
62.89462000776983
62.51988858071924
61.9440230490296
61.17490341759786
60.21986211561908
59.085561991323104
57.77789446704045
56.301893866263185
54.66166414834375
52.86031463903245
50.89990178370974
48.7813744436215
46.50452078160043
44.067915328579446
41.46886537744916
38.70335641212819
35.76599684551404
32.64996290936436
29.34694511153298
25.84709824957166
22.13899754160299
18.209604001487556
14.044242739952558
9.626598411604775
4.938732544888163
4.2928652060113155
8.60554717869433
12.923091526042528
17.22105580733154
21.471673754440275
25.64509940061314
29.710670468647933
33.63811497456591
37.3986356560771
40.965822254630694
44.31635966059674
47.430518251389884
50.29242949159381
52.89016361820567
55.215636207627234
57.26437640729727
59.035191891626894
60.5297647814743
61.7522096367491
62.708620015899136
63.40662474695286
63.85496959018662
64.06313484691194
64.04099497514461
63.79852256209571
63.34553611521144
62.69148902834435
61.845295669349895
60.81518970710608
59.60860943112847
58.23210480364153
56.69126122384927
54.99063539672748
53.133699220689095
51.12278819376239
48.959051454919376
46.642401205657755
44.17145988630156
41.54350410758039
38.75440496078478
35.798564951531446
32.66885242562556
29.356534982731933
25.851214004452206
22.140763055595123
18.21127354634984
14.047011661465138
9.630391163200022
4.941967250675378
4.377505523897906
8.792868974112944
13.230218408668932
17.660476825307605
22.050830113603105
26.36625661649667
30.571067441406697
34.63035975386352
38.511300935511734
42.184183245794024
45.623213277112825
48.80702490390198
51.71892600335224
54.346906198538974
56.68344438400884
58.72516081400444
60.472359681620844
61.92850541155172
63.09967051240732
63.993985940642666
64.62111750948623
64.99178469487512
65.11733176145624
65.00935574442278
64.67939158273211
64.13865157781012
63.39781423494019
62.46685627339407
61.35492099262923
60.07021608924752
58.619934286450814
57.01019064285701
55.24597105669549
53.33108720521666
51.26813391049568
49.058445672455115
46.70204984259924
44.19761462278096
41.542390764155265
38.73214651854083
35.76109606529462
32.62182230898018
29.305195622081882
25.800290794859844
22.094305149473765
18.172481471928716
14.018040103805653
9.61212520487355
4.933770836217045
4.47144374572305
9.001370480158048
13.572646973136777
18.15062401687531
22.696444696051774
27.16893706878242
31.5265021155709
35.72887058433903
39.73862542308618
43.52241734337875
47.051834979383315
50.303923669360465
53.26137460356918
55.91242677277718
58.25053699318731
60.27387862495499
61.98472862404883
63.38879690390344
64.49454337230767
65.31251803518275
65.85474949778306
66.13419794944753
66.16428083451486
65.95847312876853
65.52997946876187
64.89147218055237
64.05488730119019
63.03126972670901
61.8306584052219
60.46200280135187
58.933102505145136
57.250562701496335
55.41975915053116
53.444807284179646
51.32853095535942
49.072427261175235
46.67662469339503
44.13983265179561
41.45928109950523
38.63064985826408
35.64798775022147
32.503622505138324
29.188063077325964
25.689896760398916
21.995684249000274
18.08985656757364
13.954618554117422
9.569864334482391
4.913110931888065
4.576599132284459
9.235329737605987
13.957339968879825
18.70124210467639
23.420907779495817
28.067825812411094
32.59342882618306
36.95122443425104
41.098600914813716
44.99822126786262
48.61896639719271
51.936431603421184
54.93301596975189
57.597668983910445
59.92537229912196
61.916437946224
63.57569966287562
64.91166384930602
65.93567349508561
66.66112437420028
67.10275946063399
67.27605588715288
67.19670936242505
66.8802138890205
66.3415297314201
65.5948295581544
64.65331115045832
63.5290646549427
62.23298272098596
60.77470272323998
59.16257140679481
57.403623547215965
55.50356748175783
53.466771575072016
51.29624679815356
48.993621612547074
46.559106268268685
43.99144445924169
41.28785105646173
38.44393538037096
35.45361020383992
32.30898741654006
29.000262045691123
25.515587125982776
21.84094274282883
17.96000342873991
13.854008954309062
9.501644397646837
4.878936170170451
4.695290409187022
9.499919948548518
14.392708194758086
19.324067144786277
24.239069924893542
29.080408764107126
33.79127800432664
38.3179676151771
42.612003496947324
46.631733884727666
50.3433260688944
53.72119554185801
56.74793446186131
59.41383512944232
61.71611710853489
63.657965998479796
65.24748121526281
66.49661333991965
67.42015215882151
68.03480722351563
68.35840547352964
68.40921622747359
68.20540300481308
67.76459405950337
67.10355876371905
66.23797451925216
65.1822681207846
63.94951592505853
62.55138835551766
60.99812585341821
59.29853512734131
57.45999628725501
55.48847307568654
53.3885198751786
51.1632804611899
48.8144745904793
46.3423694893726
43.74573416566768
41.021775248027964
38.166053793673214
35.17238323322684
32.03270937021297
28.736974144789105
25.272965720142903
21.626158357351546
17.77954649925605
13.713478460941909
9.405496087070704
4.830187639939845
4.830337765248
9.8014384947982
14.888976628916168
20.033317168316678
25.168824034007862
30.22759819551555
35.14306994664547
39.85316367450492
44.30282957364159
48.44582760330979
52.245739133454606
55.67625863476202
58.720873598801255
61.37207287194149
63.63023332022686
65.50232667351868
67.0005683001707
68.14110328378823
68.9427973295198
69.42617418226558
69.61251945781211
69.52315394064692
69.17886748188712
68.59949708188607
67.803628740363
66.80840131400075
65.6293911149088
64.28055762332245
62.77423293993771
61.12114008201434
59.330427675830215
57.40971086167261
55.36511022781346
53.2012823021848
50.92143656558768
48.52733514094858
46.01927230423293
43.396031804542744
40.65482072545167
37.79117931669792
34.79886692106709
31.669724855659386
28.393517911545523
24.957757030926594
21.347506711531793
17.545181761535396
13.53033915158802
9.27947183232779
4.765812439428009
4.985196633582474
10.147607055880535
15.458662084593465
20.846327045552812
26.23184933373351
31.534518666630802
36.67616787230361
41.5850427613554
46.198784418951014
50.466398924918835
54.34921491962061
57.82093098324235
60.8669228118209
63.48301290927188
65.67390741184477
67.45148377925517
68.83307857283364
69.83988470616268
70.49552876696812
70.82486535207681
70.8529988185035
70.60452381145488
70.1029637130224
69.37037954504325
68.42711946898939
67.29167954344963
65.98064871990137
64.50871432478823
62.888707878790186
61.13167464034897
59.2469534918021
57.242256595817665
55.1237406024937
52.89606310189355
50.56241954251378
48.12455703826502
45.58276243672748
42.935822791382606
40.180957039273025
37.31371829793902
34.32786682037902
31.21521433623658
27.96544130435371
24.56588953532064
21.001333724490543
17.253736653673837
13.301994132420903
9.121677087909818
4.68477947959897
5.1641349110218915
10.547968741053936
16.11720204248355
21.78437652113693
27.454568277392426
33.03149814973416
38.42320139899732
43.5467650342659
48.331815538823335
52.722631623698405
56.67893110774817
60.17551369900542
63.20102124003351
65.75610503864618
67.85127601300985
69.50467144643761
70.73991626753254
71.58419859454713
72.06662682480945
72.21689316859317
72.06423759894214
71.63668605786783
70.9605256455998
70.05997523501387
68.95701037247277
67.6713046415692
66.22025448293286
64.61905979331745
62.880837830427055
61.01675265678767
59.0361463913778
56.946661856752215
54.75434884695946
52.46374827671657
50.07795000418659
47.59862125220231
45.02600338719796
42.358875445495535
39.594483309003536
36.72843390623563
33.75455432153112
30.664716300843892
27.448627403391345
24.09359100691019
20.584238553722717
16.90223881762747
13.02599053118191
8.930306348862912
4.586097698640067
5.372470247380159
11.014419113082395
16.883790553887494
22.87377923249373
28.86938502093453
34.75532172807495
40.42319637211658
45.777306550502814
50.73867078088429
55.24718762493034
59.26206157476961
62.76080398821145
65.73720495522586
68.19868468517865
70.16339014126933
71.65732738167824
72.71173347301452
73.36080958230644
73.63986827596763
73.58389695587
73.2265055502209
72.59920752853323
71.73097554521526
70.64801302868449
69.37368780611376
67.92858106385519
66.3306129603869
64.59521399508287
62.73551821043735
60.762560206565965
58.68546272214489
56.51160525522459
54.24676699341599
51.89523935261306
49.45990484439719
46.94227995133839
44.34252031750434
41.659386973415245
38.89017261165434
36.03058720265103
33.074602573418595
30.01425604468001
26.839413907486673
23.53749648075258
20.09316776881834
16.487994339435275
12.700079921836181
8.703684270611966
4.46883687078797
5.616891476566589
11.561924302893251
17.78250096688452
24.14732753583662
30.51629829792445
36.75082086163283
42.72295027778447
48.32246615921073
53.461439890608844
58.0762519601798
62.127353587054685
65.59727903228902
68.4874990804285
70.81468381095111
72.60684977709994
73.89974042029556
74.73365935178423
75.15086384135921
75.19353995163013
74.90232280577666
74.31529214219631
73.46735903400531
72.38995854415602
71.11096999922037
69.65479752990248
68.04255579147997
66.29231762618161
64.41939093081805
62.4366007570455
60.35455964871301
58.18191455213005
55.92556255165148
53.59083044210804
51.18161499928255
48.700481970903994
46.14872247232353
43.526365790360956
40.8321477064916
38.063433457686
35.2160944583296
32.284338002491786
29.26048944501743
26.13472691579284
22.89476954382436
19.525521530496327
16.008676250254318
12.322286841867976
8.440312359163482
4.332151238176114
5.905899575512071
12.209504098923016
18.84381074710699
25.646226997580417
32.44501452546855
39.07288968540376
45.378691550244945
51.235971527839425
56.54800253575497
61.24931401229283
65.30431471424588
68.70381624369124
71.46032525357232
73.60288000770167
75.17203094537108
76.21536326698475
76.7837739613888
76.92856878458393
76.69934324821298
76.14255201353693
75.30064437908376
74.21163972310016
72.90902680845679
71.42188782554062
69.77516716565374
67.99002327270978
66.08421799560801
64.07251107432964
61.96703772349267
59.777655012734456
57.51224829548058
55.17699274034491
52.776567473472625
50.3143212897726
47.79238961757503
45.21176264867621
42.57230444909097
39.872722583070725
37.11048742640471
34.2817000129575
31.380907046834466
28.40086172437448
25.332229361014402
22.163237635035074
18.879272666998233
15.462424241315722
11.890986257300664
8.138921852387284
4.175306275958536
6.25042105735222
12.9815958708805
20.10669730891419
27.422711305587107
34.7177317937814
41.78903990651499
48.4580505993445
54.580623485957645
60.052246929332
64.808500062803
68.82180563821633
72.09575475805205
74.65825821341913
76.55455776130194
77.8408225567681
78.57874779662494
78.83131727159505
78.65970995023234
78.1212212971238
77.26801901578852
76.1465427866053
74.79737216854103
73.25541360451663
71.55028789382094
69.70682849850698
67.74562610066722
65.68357505243185
63.53439285464023
61.309095137457824
59.01641654413115
56.66317318508599
54.25456559653385
51.794422953091654
49.28539007904387
46.729058905903784
44.126045679074245
41.47601460254404
38.7776478599648
36.02856116494911
33.22516326027293
30.36245719438703
27.433780860626978
24.43048432753129
21.341542091369977
18.153099742334376
14.84795683950272
11.404991140757497
7.798533664399191
3.997709037252714
6.664674382744387
13.90997470034095
21.621556022199034
29.543611934996164
37.41282542117851
44.9826237378767
52.04234004463412
58.4293465533373
64.03382736412661
68.79717132831641
72.70574603240405
75.78203664696537
78.07492552363705
79.65044112658524
80.58379543983723
80.95307895149928
80.83464992995052
80.30004867070437
79.41416756755865
78.23438339749457
76.81037924829357
75.18442668218445
73.3919483003991
71.46222773644969
69.41917393030101
67.28207802833184
65.06632480525623
62.78403727346121
60.44464451326344
58.05537003585701
55.62164229463458
53.14743117651892
50.63551510442324
48.08768325587733
45.50487669922891
42.88727120894766
40.23430330878065
37.54463981613452
34.816089900112495
32.04545748154886
29.228330764793863
26.358804895195394
23.429133335409574
20.429303773713954
17.346535518718323
14.164697734220674
10.863651803876571
7.418526659189248
3.7989427433197993
7.167414658792445
15.036500239300938
23.45431967629198
32.09528043256166
40.62974394474996
48.75686035118023
56.22907197730233
62.865886412989866
68.55707525093082
73.25735315514406
76.9755212847703
79.76108813054225
81.69080837476702
82.85675629212736
83.35675008017937
83.28732142747342
82.73902554600636
81.79368600293135
80.52311137843974
78.98885033783911
77.24262300247291
75.32714945970487
73.2771739081139
71.12054768416432
68.8792843863178
66.57053662872669
64.20746898202277
61.80001798897285
59.35554011941905
56.87935405848569
54.37518625840713
51.84552928461678
49.291921890408
46.71515846210367
44.11543381572237
41.49242750401329
38.84532993422694
36.17281077291643
33.472928361521
30.742977207406728
27.97926907827741
25.17684187956585
22.329089480497096
19.427305245719868
16.4601326524647
13.412918590028301
10.266969332189902
6.998716118633161
3.5788066247504697
7.783755795007595
16.417116290764092
25.692361546099427
35.190444317261985
44.4955206335647
53.23977371638976
61.13449465471696
67.98467301869569
73.68843558258058
78.22534795794382
81.63852572206969
84.01501964679758
85.4676833451086
86.12031109884465
86.09664580574847
85.5130606435645
84.4743006708722
83.07153672384038
81.38202279621672
79.46976903309867
77.38678555261548
75.17458472414697
72.86573750211505
70.48536037485968
68.05246635960381
65.58115113822328
63.08160885886898
60.560985579277975
58.024085104223225
55.47394448169242
52.91229634362369
50.33993372279684
47.756990662022844
45.16314929385539
42.557781364066365
39.940029537645906
37.30883132488663
34.662886112642866
32.00056356687455
29.31974955398705
26.61762367728473
23.890360542579895
21.13274505040939
18.33769064071474
15.495649043173245
12.593901578920006
9.615726495786097
6.539445166340911
3.3373625415296497
8.547894788696915
18.12778925061858
28.453090858988062
38.977848447723424
49.173409654090015
58.59004090536698
66.89564242382097
73.88898675120944
79.49142577193265
83.7245909130933
86.68210096417309
88.50166127032692
89.34147192493964
89.36256097555852
88.71702082080206
87.5412273087424
85.95280367070812
84.0501331340937
81.9134352631422
79.60667648204227
77.17981845806653
74.67109324598715
72.10912832379495
69.51483517168214
66.90303214359034
64.28380578790802
61.66363235813469
59.04628882083645
56.43358424039529
53.825940649743664
51.22284907231166
48.62322224300402
46.025661348680195
43.42865006183391
40.8306854014162
38.23035155447525
35.62633971228644
33.01741416507321
30.402322287478917
27.779643536921828
25.14757006371059
22.503608888189973
19.844192810291755
17.1641844778448
14.456255970713693
11.710126076849782
8.911640964572642
6.041693231395839
3.07499070240724
9.507282349092863
20.273518260627874
31.896684296764953
43.655929282440866
54.874230062934465
65.00345913633583
73.67083757591436
80.68592275868541
86.01755250629802
89.75442955292827
92.06195793346255
93.14395405113943
93.21338281435553
92.47280276685235
91.1031921582649
89.25905409062358
87.06770977461377
84.63106939428818
82.02864412823479
79.32098908281611
76.5530949378832
73.7574743256362
70.9568354429058
68.16632232935676
65.39534812543914
62.649069266040414
59.92955528077915
57.236707398824024
54.56897366866259
51.92390124858686
49.29855924450964
46.689858634732275
44.0947896978601
41.51059200446449
38.93486739067443
36.36564230221307
33.80138236707776
31.24095890915141
28.68356423042564
26.128569714984145
23.575317939431592
21.02283675150153
18.469459445695428
15.912330661395385
13.346772943327004
10.765485530056289
8.157547681978945
5.507207570081407
2.7924580026329857
10.72918102494812
23.002339107515905
36.24528667430261
49.49232831551406
61.87093635443766
72.7190563901081
81.63654019371268
88.4755936853887
93.2908243550414
96.27308179929236
97.686089758874
97.8163777656727
96.93951384739461
95.30094602089106
93.10779982442611
90.52782872837892
87.69242190200302
84.70149384840532
81.628892888734
78.52756767882309
75.43412966893686
72.37269017111859
69.35798279927148
66.39784552945636
63.49515987132405
60.64934611257388
57.85750454659632
55.11527946292935
52.417508908573915
49.758710467079744
47.13344219523995
44.53656851319594
41.963453113759485
39.410094589219135
36.87321519841646
34.35030876622208
31.83964991422566
29.340263496894355
26.851850111256308
24.374660684840148
21.909310158571074
19.45651673724092
17.01674847538971
14.589752501511919
12.17393388549987
9.765542395306513
7.357620009784107
4.938666679684109
2.4910043185832076
12.311297152504952
26.527681726709766
41.812512806482474
56.85177835061119
70.51644793292803
82.02236056006845
90.97652870684243
97.33034499963047
101.28246532079442
103.17268540865985
103.39336561536336
102.32856283399448
100.31962566611945
97.65080428858248
94.54764189925447
91.18227097362572
87.68161713107267
84.1361397343322
80.607889435739
77.1373799228468
73.74917182458002
70.45626449530502
67.26347058366053
64.16996414220797
61.17117868609121
58.26020555571425
55.42881471906414
52.6681941685425
49.96948195686011
47.32414691398805
44.724259799704825
42.162685454810656
39.63321777168609
37.130672425833474
34.65094680382673
32.191052041685005
29.749118262028013
27.324370766733228
24.917071962512413
22.52842102992497
20.160400540601476
17.815555842850564
15.49668805834539
13.206433475013494
10.946689580436685
8.71783115172521
6.517642906002529
4.339888517649757
2.1724548769716447
14.399632137770226
31.165152360995744
49.04962386474095
66.235642582286
81.26315231186935
93.24012860157451
101.85598917651443
107.25729987137845
109.87135122207633
110.2444397893375
108.92677154395108
106.40723332579441
103.08671896969639
99.27555400959149
95.20321759484457
91.03263323192562
86.87474777340043
82.80142115544476
78.8559777691723
75.06144079786904
71.42675415757614
67.95137537265217
64.62860542304969
61.447967244333526
58.396882375353144
55.46183808636856
52.62918963594682
49.885704590568146
47.21892725423379
44.61741956200994
42.070918677825105
39.57043960654827
37.10834224985105
34.67837561782725
32.27570667800948
29.89693708048705
27.540107393554813
25.204685304822736
22.891531390944614
20.602833507413443
18.34199850889164
16.113487440625125
13.922576272471995
11.775016081141542
9.676550514458253
7.632221242789637
5.645356000595807
3.7161023093000196
1.839371102899651
17.219702432524713
37.39510380889711
58.619032605117184
78.33645234008742
94.67801471915885
106.71420901937461
114.3673246144366
118.13440230372734
118.78521496617286
117.13310056130396
113.9031658994973
109.67942625930479
104.900406766272
99.87788253496456
94.82287128530699
89.87082505265707
85.10281870402399
80.56206534949882
76.26619734519596
72.21611099873496
68.40218717799365
64.80858241367297
61.41613707853888
58.204310871214304
55.15244454814046
52.24056155264644
49.44986018742286
46.76300150849039
44.16426579257745
41.639627659371044
39.17678396046334
36.76515733059314
34.39589033835765
32.061839388314596
29.757573130070266
27.479376561369143
25.22525888913931
22.994960318379597
20.78995023201852
18.613406844965674
16.47016661053222
14.366630476420006
12.310612589986437
10.31111191557509
8.377971362703832
6.5213524234693026
4.750889725741823
3.07431105687687
1.495259038560362
21.133801233975163
45.97314251828172
71.51266687825729
94.10772423164471
111.43574166858465
122.72903622360288
128.42564833359376
129.6074050523984
127.5195274638885
123.2838542673314
117.78513308700406
111.66269526030976
105.34876998104004
99.11820093719429
93.13373330110211
87.4818543356778
82.19910956601707
77.2905513607863
72.74226472696623
68.52966146964182
64.62284884390472
60.99002124602292
57.59953937411993
54.421151758656116
51.42666535286465
48.59026966489019
45.88864957169614
43.30097542930371
40.80882812278539
38.39609620030857
36.04886871442392
33.75533846855036
31.50572441291819
29.292217834815858
27.108953961436992
24.952008084075537
22.819412931006582
20.711191533076963
18.62939721438172
16.578149875245124
14.563656089715051
12.594200697807697
10.680100055516622
8.833609624215907
7.068771693710181
5.401152228975311
3.8473224577306895
2.4237833004692413
1.1448649635717363
26.752272535791537
58.133221584622866
89.24234797336291
114.83519373613228
132.24432222212468
141.3428917740147
143.58106763413923
140.9370698668023
135.2387151138875
127.89281062556057
119.86648769145961
111.77146693146994
103.96495359661648
96.63471788623625
89.86149089393055
83.66148509512215
78.01407588720096
72.87923520978072
68.20819583180291
63.94977081236072
60.05394312595883
56.47377243980574
53.16628585213509
50.09277177087229
47.21873750957849
44.51369073752588
41.95084186325028
39.50678515992406
37.161192204309174
34.896536414659394
32.69785858691682
30.552578083378663
28.450351272690114
26.38297700250526
24.344347655112227
22.33044321702512
20.339364419844742
18.371399112949454
16.42911350257129
14.517456975071664
12.643866836330831
10.818359480436712
9.053600436061755
7.36495977606721
5.770575370964521
4.2914351255884
2.9513874604017873
1.7767271646571867
0.7946045240764072
35.16445227634356
75.97796813505877
114.13447620656436
142.14593397452776
157.59252040059548
162.03346727272037
158.71167126466855
150.8021826021335
140.6841121498771
129.8861989722226
119.29043068610014
109.35163609248369
100.26518980312471
92.07850300432277
84.7600332279843
78.24006158987426
72.43388381689242
67.25445340709783
62.6188656844589
58.451331399235556
54.68420580681956
51.25798467352181
48.120789708656105
45.22763739229111
42.53965217084338
40.02330841044302
37.649742043459185
35.39414874556725
33.23527262482373
31.154983018563588
29.137934274482596
27.171302688712082
25.24459510487644
23.349524440812225
21.479948199579624
19.63186651979409
17.803476223518757
15.995276310150253
14.210218130621403
12.453889980909498
10.734721707215142
9.064192489114935
7.457030044211777
5.931412430832497
4.5092342785671145
3.2165590093617906
2.0843464659179656
1.1492140751779483
0.45319770071694804
48.46413439507657
103.25128713696273
149.7247556462991
177.73540946872367
187.06913608992923
183.0334239847243
171.59414223576766
157.11710402289475
142.14794764677958
127.97035288171668
115.1246827191265
103.75523864010037
93.81270110304709
85.16417421696619
77.64990972635134
71.11087642167857
65.40093728736792
60.391167111666384
55.970333565325014
52.04364756371986
48.53085916173251
45.364229185605744
42.48662103288874
39.84981038384484
37.41303770338129
35.14179436267998
33.0068192495347
30.98327889501345
29.050105155494542
27.18946761369102
25.38636171069502
23.628297518062404
21.90507769501395
20.208656413034575
18.533073787434212
16.87446253124399
15.231124956513025
13.603678767738248
11.995268826079522
10.411838605084736
8.862449059074478
7.359625174391379
5.919707160040795
4.563200476456533
3.315192011993647
2.2060717166995385
1.273002160231478
0.5624197897076593
0.13261991621234295
71.03369075825923
146.91793442244176
200.96558730680033
222.12227374822334
217.80467960626265
200.2768624988431
178.51609311205712
157.0189216565624
137.6137143357703
120.80314599604023
106.51392507854581
94.45999606669275
84.30558566627084
75.7321281816568
68.46136052667792
62.25943715150454
56.9335230800873
52.32598440042109
48.30835160317924
44.77588879554146
41.64300755135643
38.839515918471264
36.30760219717343
33.99943135135218
31.875238483226553
29.90182016585348
28.05134252676953
26.300401611306505
24.629285724970515
23.02140110627784
21.462831723258617
19.942011627548652
18.449494535011183
16.97781046600464
15.52140362260123
14.076649349353042
12.641951018617753
11.217919784984604
9.807640818798534
8.417027828229495
7.055261832504836
5.73529858041797
4.474412411913253
3.294734436839053
2.223786164965939
1.2952350334103386
0.5507087045621615
0.044188885804049824
-0.15047838771985653
113.278834509891
219.9316918760288
272.62291613563724
270.71815487298113
241.43400271942366
206.5250881979771
174.38533503557073
147.28248757715977
125.16943764031657
107.3171137157043
92.90792771678032
81.22217655589289
71.67619184323141
63.81187780422817
57.27406113634189
51.7880186436328
47.140681341913236
43.16590775459383
39.733267759286456
36.739599586260525
34.1026751474924
31.75644126104074
29.647431439344885
27.732046897148834
25.974485142668012
24.345153798261585
22.819450795968024
21.37682387640285
20.000045586525605
18.67465712278245
17.38854716308904
16.131641558825347
14.89568735536507
13.6741207682668
12.462013973269087
11.256100239800846
10.054881275982263
8.858824692038272
7.670662931683971
6.495806948610091
5.342886245048941
4.224417630268858
3.157581812403696
2.1650442403385193
1.2757113681274674
0.5253913563107401
-0.04196109553230144
-0.36933617431163357
-0.3727549773005599
201.41040954748814
344.25869757489113
359.06047367148767
303.0292068305797
242.14402873341075
192.18168837582328
154.04508800990362
125.37193310575344
103.71209239874668
87.15600550524562
74.32163892411904
64.2278457796038
56.17735997619569
49.670117473353564
44.34300769156294
39.92878524548132
36.228074133735966
33.09016004402355
30.399672839473222
28.067241416723682
26.022853934304706
24.21108182272038
22.58760354644924
21.11664610234604
19.76908263299153
18.52100501466618
17.352644713986685
16.24755249316948
15.191973439221561
14.174372064042835
13.185075368724451
12.216011472472294
11.260528840516296
10.313287140516596
9.370215940327665
8.42854233216398
7.486893550043657
6.545486086565212
5.606418920813622
4.6740950903714475
3.755801882883034
2.8624819547428757
2.009716855545275
1.218900735616957
0.5184690442448006
-0.055154699657225664
-0.45724625692940163
-0.633065667340692
-0.5018783360236327
417.2299467820403
526.6070387008633
395.9318626379087
279.8098639633702
201.4038380360647
149.76409116493102
115.0538359037512
90.97474766608944
73.74951193557024
61.08132633267134
51.535436435402175
44.187280778781016
38.423238971389125
33.824886689926736
30.0998668252179
27.039390747345152
24.49139286788942
22.343141216972015
20.509711238701218
18.926183937879934
17.542263085737638
16.31849624355967
15.22357943278389
14.23240695972897
13.324642126939068
12.483657795899202
11.695743595890159
10.949508377197521
10.23542803812484
9.545503716684054
8.87300583249414
8.212287100925447
7.558653441248732
6.908286390517529
6.258214774738732
5.606337462293731
4.951503512159392
4.293661472088648
3.6340966345290813
2.97578449914314
2.323901271041469
1.6865479693367218
1.0757605037388462
0.5088798642496566
0.010296256398054746
-0.3866845040434222
-0.638894835249475
-0.6955619546180996
-0.4968353004538999
862.5659096425317
496.96777082078916
276.45213455195267
170.31435999419034
113.81308439133664
81.15022207211246
60.752197231447994
47.24296513244063
37.87169771349114
31.126542922912417
26.12276911374187
22.315863634783796
19.356319496461335
17.011744749328134
15.122898521969567
13.577792590448269
12.295861819121663
11.21797426100849
10.299947173869379
9.508232870352701
8.81698421683165
8.206018777289529
7.659381165117379
7.164311563021152
6.7104950853021155
6.289508661550801
5.894409131380118
5.5194239590669305
5.159717832811433
4.8112165133946
4.470474968603532
4.134580931870389
3.80108813382129
3.467975986926016
3.1336347822193513
2.796877783149614
2.4569843054749416
2.113781382002546
1.7677765502601939
1.420361634170036
1.0741186450042142
0.7332764757593389
0.4043942144907221
0.09738633642354226
-0.17295120587803586
-0.38477726498937065
-0.5067146752261066
-0.49792822521405045
-0.3226128010340719

SCALARS STRAIN_EQV float 1
LOOKUP_TABLE default
0.0009074977181752242
0.040343767340068906
0.00017130129971354546
0.0013440724738094303
0.0009072973377949547
0.0009066962195652197
0.0009056944323842895
0.0009042920916330047
0.0009024893600001937
0.0009002864486375825
0.0008976836186438451
0.0008946811828764968
0.000891279508090827
0.0008874790174037989
0.000883280193079914
0.0008786835796367465
0.0008736897872649104
0.0008682994955571996
0.0008625134575400373
0.0008563325039986872
0.0008497575480853337
0.0008427895901962513
0.0008354297231041384
0.0008276791373261302
0.0008195391267054084
0.0008110110941814926
0.0008020965577196633
0.000792797156365126
0.0007831146563826794
0.0007730509574386956
0.0007626080987745158
0.0007517882653157444
0.0007405937936552369
0.0007290271778404168
0.0007170910748895453
0.0007047883099538517
0.0006921218810365688
0.0006790949631724197
0.0006657109119659369
0.0006519732663825952
0.0006378857506828001
0.000623452275388817
0.0006086769371778046
0.0005935640176016393
0.0005781179805502857
0.0005623434684013264
0.0005462452968381241
0.0005298284483809621
0.0005130980647669906
0.000496059438449099
0.000478718003682509
0.00046107932795863516
0.00044314910497602646
0.0004249331509792959
0.0004064374072611363
0.00038766795309206215
0.00036863103561639884
0.0003493331268351745
0.0003297810235532735
0.0003099820156357786
0.0002899441639004687
0.0002696767567723315
0.00024919106483655703
0.00022850160594379396
0.0002076283163279621
0.00018660039921110838
0.00016546344245807715
0.00014429330926254204
0.00012322511012197637
0.00010251857688379403
8.271809179494064e-05
6.505851450631364e-05
5.228007132148033e-05
4.8586716783516526e-05
5.6024655244879206e-05
7.205231998390745e-05
9.290393858335771e-05
0.00011642299325883323
0.0001416962356862004
0.0001683688661493189
0.00019633608490650823
0.00022562405993535646
0.0002563446090093965
0.0002886804722061428
0.00032288573825272574
0.00035929618607380876
0.0003983486348157003
0.0004406109106289349
0.0004868263482034338
0.0005379798360172355
0.0005953974058511659
0.0006609002492893009
0.0007370504565854762
0.0008275597722584521
0.0009379964769714665
0.0010771143600814064
0.0012593497908683822
0.0015110652332377197
0.0018815562314099276
0.002502838818582034
0.0036783894476505917
0.007221912027459013
0.025166000206827157
0.027375635459658418
0.01102492764725615
0.006461856879049897
0.0046439511561836054
0.003623599864625805
0.0029795449205574772
0.0025292361172847624
0.0021959109608986637
0.0019379256703320152
0.0017314760960549223
0.0015617764637414436
0.0014191913968310892
0.0012971701282558173
0.0011911107178376014
0.001097691112846993
0.0010144587330168662
0.0009395686022396395
0.0008716108712334158
0.0008094940159512009
0.0007523638152266051
0.0006995459469937066
0.0006505045508887412
0.0006048118140881203
0.0005621253122862993
0.0005221708997193859
0.0004847296309721897
0.0004496276534697788
0.00041672831751521735
0.0003859259624303051
0.00035714098528999937
0.0003303159033809079
0.00030541219540458305
0.0002824077563210681
0.00026129482829373457
0.00024207827210897355
0.0002247740111908808
0.0002094074014221292
0.00019601114287876243
0.0001846221549570568
0.0001752766138687229
0.0001680021701447601
0.00016280630775301446
0.00015965988875631175
0.00015847497304647594
0.00015907567457085846
0.0001611600814765114
0.00016425173887936738
0.00016764736263505948
0.00017030939725909248
0.00017225282054749786
0.00017473277824261557
0.0001777289016967471
0.00018028695476764633
0.00018188946661301084
0.00018220815692945335
0.00018104288080175805
0.00017829212943997044
0.00017393631135190966
0.00016802903107162635
0.0001606955119157887
0.00015213899933021638
0.000142657306300176
0.00013267260249395706
0.00012277634395120265
0.00011378228020727919
0.00010675291966911563
0.00010291787784713421
0.00010339952950793384
0.00010882164739424698
0.00011909623720500569
0.00013357970329707627
0.000151421874905128
0.00017182917486742758
0.0001941628486476346
0.0002179376564050928
0.0002427889812721954
0.0002684395267463522
0.00029467385057845724
0.0003213206273914988
0.00034824066227870604
0.00037531880683940825
0.0004024584386547015
0.0004295776127413248
0.0004566063092992076
0.0004834844089117759
0.0005101601582403424
0.0005365889727768632
0.0005627324762649447
0.0005885577103319453
0.0006140364697816043
0.0006391447332788218
0.0006638621685572665
0.0006881716975204839
0.000712059110784251
0.0007355127240264989
0.0007585230704261194
0.0007810826247828869
0.0008031855558183262
0.0008248275037914558
0.0008460053810119071
0.0008667171931596896
0.0008869618795626243
0.0009067391707680402
0.0009260494618930893
0.0009448937003601435
0.0009632732867300257
0.000981189987437709
0.0009986458583215833
0.0010156431779166307
0.0010321843895547324
0.001048272051388066
0.0010639087935185132
0.0010790972814788105
0.0010938401853731981
0.0011081401540432839
0.00112199979367877
0.001135421650344744
0.0011484081959457072
0.0011609618171911306
0.0011730848071699349
0.0011847793591806487
0.00119604756249944
0.0012068913998019705
0.0012173127459854647
0.0012273133681650387
0.0012368949266445676
0.0012460589766846776
0.0012548069709119062
0.0012631402622318949
0.001271060107126183
0.0012785676692283216
0.001285664023087995
0.0012923501580436123
0.0012986269821361068
0.0013044953260051765
0.0013099559467172146
0.0013150095314830405
0.0013196567012289887
0.0013238980139911153
0.0013277339681065361
0.0013311650051809644
0.001334191512814859
0.0013368138270732494
0.0013390322346881372
0.0013408469749832716
0.0013422582415140488
0.0013432661834167435
0.0013438709064619552
0.0013167633921667005
0.0012626937142769874
0.0012096976961428264
0.0011577286677547781
0.0011067398727297752
0.0010566844881797458
0.0010075156463111102
0.0009591864578192912
0.0009116500372919273
0.0008648595310411898
0.0008187681480847568
0.0007733291954282508
0.0007284961194520092
0.0006842225562050029
0.0006404623949846614
0.000597169862143233
0.0005542996363502395
0.0005118070139733348
0.00046964815661992593
0.000427780478025573
0.00038616327716055505
0.000344758828533781
0.0003035343746933856
0.0002624660391186575
0.0002215472411727035
0.00018080909829305738
0.00014037888442532841
0.00010069500777756453
6.367654265165265e-05
4.0244745784738235e-05
4.774682336918741e-05
8.046038307930401e-05
0.00012025088127022709
0.0001619598728741589
0.0002046443917820642
0.0002480548562355497
0.00029211884575761657
0.00033682565680736513
0.00038219072550612287
0.000428242155739133
0.00047501484025411526
0.0005225476159126449
0.0005708817752960323
0.0006200602394952666
0.0006701270761589912
0.0007211272081267538
0.0007731062321098027
0.0008261103032381975
0.0008801860601141693
0.0008799912106086963
0.0008259279443610607
0.0007729393406737137
0.0007209790316525477
0.0006700012096873875
0.0006199607308744561
0.0005708132723895216
0.0005225155771566259
0.0004750258438817923
0.00042830436817820994
0.0003823146374240941
0.00033702529202747915
0.00029241385726938145
0.000248474414206094
0.0002052350443697322
0.00016280331960854673
0.00012151031864490131
8.251717797025154e-05
5.12984511108016e-05
4.43330864487435e-05
6.66413964407146e-05
0.00010262026321075308
0.0001417760494393223
0.0001818985736771051
0.00022243278012757447
0.00026320362271925463
0.0003041574560012661
0.00034528897575297166
0.00038661524044219576
0.000428164840910793
0.00046997283008049504
0.0005120781293789698
0.0005545221052925941
0.0005973477414438856
0.0006405991325361567
0.0006843211610676965
0.0007285592821808181
0.0007733593747298168
0.0008187676341012434
0.0008648304920290637
0.0009115945542562264
0.0009591065502461127
0.0010074132912094161
0.001056561634018698
0.0011065984494302563
0.001157570593597288
0.0012095248822445162
0.0012625080671401167
0.0013165668146921774
0.0008794066874308635
0.0008253809010684568
0.0007724387141551965
0.000720534570959208
0.0006696237056682079
0.0006196623305847413
0.0005706079180673701
0.0005224196330085516
0.00047505901450972746
0.0004284910856627779
0.0003826862323494494
0.0003376235396438579
0.0002932970771046744
0.00024972864940181266
0.0002069962301939093
0.00016530571716815058
0.0001252042994177355
8.83593473658587e-05
6.065852143447225e-05
5.4966275292034315e-05
7.477159704922064e-05
0.00010817471288529356
0.000145883218197446
0.00018512720774714066
0.00022506797937693352
0.00026540386457093827
0.0003060190137260435
0.000346874552434327
0.0003879680095433536
0.00042931593033513076
0.0004709455918101724
0.0005128907138335951
0.0005551890857078118
0.0005978811781717739
0.0006410092926001157
0.0006846170175070594
0.0007287488681213566
0.0007734500388527156
0.0008187662274744744
0.0008647435060622028
0.0009114282231311525
0.0009588669270471754
0.001007106304255909
0.0010561931280729082
0.0011061742152017654
0.0011570963880924328
0.001209006441892496
0.0012619511151859353
0.0013159770640252025
0.0008784325667641708
0.0008244692735650249
0.0007716044961602439
0.0007197940325380151
0.00066899485065142
0.0006191654157142658
0.0005702661757790598
0.0005222602997850137
0.00047511483086320116
0.0004288025479951435
0.0003833050891459793
0.0003386184384405564
0.0002947631216160799
0.0002518044914929655
0.00020989664506142902
0.000169387926234328
0.00013110735430163668
9.722879791480032e-05
7.35208594096849e-05
6.927384519423707e-05
8.651897663672305e-05
0.00011680869150144634
0.0001524717339709543
0.00019038273742784793
0.00022939115219215424
0.000269030297886354
0.0003090964671985525
0.0003495011912061083
0.000390212333870321
0.00043122780387616795
0.00047256269291713854
0.0005142424948573232
0.0005562993040361081
0.0005987695710445544
0.0006416927181202517
0.0006851102512311853
0.0007290651705847641
0.0007736015665804815
0.0008187643344304983
0.0008645989667084176
0.0009111513982791166
0.000958467887205821
0.0010065949208865033
0.001055579140261925
0.001105467277268896
0.0011563061022570663
0.0012081423791333776
0.0012610228267193953
0.0013149940853093487
0.0008770689761404873
0.0008231932294861302
0.0007704369268222632
0.0007187577615543561
0.0006681151234328626
0.0006184706159783103
0.0005697888187977219
0.0005220384378669394
0.00047519408911985084
0.00042923915252059895
0.0003841705103776764
0.0003400067621502469
0.00029680321472325664
0.00025468094371794816
0.00021388726596408898
0.00017493189794818705
0.00013891642498838525
0.00010832950403137459
8.833641450318516e-05
8.541927439564194e-05
0.00010057721749453267
0.00012787179052141495
0.00016122665311250366
0.00019749895143571298
0.00023530734575490775
0.0002740254727091913
0.0003133537066239067
0.0003531456803767251
0.0003933331586591297
0.0004338907382122177
0.00047481797413086304
0.0005161297271891116
0.0005578506564327695
0.0006000119253402589
0.0006426491497050369
0.0006858010722614603
0.0007295086785811928
0.0007738145896440964
0.0008187626328575818
0.0008643975311088945
0.0009107646716906944
0.0009579099304322434
0.0010058795347659096
0.0010547199548122572
0.0011044778150557787
0.00115519982150132
0.0012069327007733811
0.0012597231487022635
0.001313617786697073
0.0008753160952790673
0.000821553004840463
0.0007689363439909389
0.0007174262433739323
0.0006669851968806407
0.0006175788155771018
0.0005691769315045718
0.0005217552514719013
0.0004752979003642269
0.00042980145066679994
0.0003852815288577107
0.00034178408095247425
0.00029940546666104215
0.00025833015818771925
0.00021890538686500382
0.00018179635916731022
0.0001483139414238795
0.00012102816260479852
0.00010428488625902218
0.00010252677536795127
0.00011610707039939696
0.0001407777536858206
0.00017180828256031864
0.00020627903113338875
0.00024269801785043368
0.00028031529804013386
0.00031874315778885405
0.00035777698345983595
0.0003973101383587798
0.0004372914882653941
0.00047770299458125426
0.0005185472544294396
0.0005598402363309076
0.0006016068638427664
0.0006438782291278808
0.0006866897756718602
0.0007300800770386259
0.0007740899933412757
0.0008187620735576625
0.0008641401217597464
0.0009102688750596466
0.000957193759270916
0.0010049606996997006
0.0010536159718051497
0.0011032060812677024
0.0011537776662079407
0.0012053774164762726
0.0012580520064367536
0.0013118480387214985
0.0008731741572614024
0.000819548905332833
0.0007671031849044688
0.0007158001057123893
0.0006656059405070047
0.0006164911558065554
0.0005684319111840373
0.0005214122883208301
0.00047542768702762614
0.00043049014315447347
0.00038663691655258273
0.00034394484348536597
0.0003025552341000182
0.0002627187551020113
0.00022487914513907907
0.00018983164001078727
0.00015900838332993337
0.00013487178724103994
0.00012092779507628525
0.00012018039028869565
0.000132599542051938
0.00015506242387413574
0.00018389601414904892
0.00021651716717247373
0.0002514313036856125
0.0002878140356663751
0.00032520828361720677
0.00036335751936941946
0.00040211829805236477
0.00044141362751822644
0.00048120720340753614
0.0005214885921221066
0.0005622643719174827
0.0006035526418158005
0.0006453795041213876
0.0006877767425785136
0.0007307802470710875
0.0007744289173660691
0.0008187638819666538
0.0008638279289844154
0.0009096650826780834
0.0009563202820523384
0.0010038391323201994
0.001052267709356245
0.0011016524034195322
0.0011520397925561159
0.0012034765389103965
0.0012560093031298253
0.0013096846734214896
0.0008706434500420143
0.0008171813080699107
0.0007649379883532955
0.0007138801214218434
0.0006639784238012107
0.0006152090384322092
0.0005675554703261959
0.0005210114391845369
0.0004755851783175458
0.0004313060739337915
0.00038823519559330236
0.0003464824757072668
0.00030623553651464974
0.0002678092482943949
0.00023173187344163035
0.00019889104776102862
0.0001707514051263183
0.0001495461455524317
0.000138018674883422
0.00013816779557317832
0.0001497426970076576
0.00017037935638752912
0.00019721031349137413
0.00022801463530101214
0.00026137118135594533
0.00029642925672069827
0.0003326862422897189
0.00036984458800236666
0.0004077287952785692
0.0004462379499862955
0.00048531814640561863
0.0005249460293115474
0.0005651186724761313
0.0006058471656692048
0.0006471524343611185
0.0006890624413334186
0.0007316102662583483
0.0007748327568110668
0.0008187695603108175
0.0008634624140746671
0.0009089546151416681
0.0009552906166891918
0.001002515715554181
0.0010506758064405773
0.0010998171858255712
0.0011499863936032942
0.0012012300839556768
0.0012535949193454323
0.0013071274832242648
0.0008677243182951702
0.0008144506636527601
0.0007624413973455798
0.0007116672119317211
0.0006621039203437572
0.0006137341298401025
0.0005665496394332566
0.0005205549372927487
0.00047577240464396516
0.00043225022291827224
0.00039007465110236453
0.0003493894924411922
0.00031042750244043437
0.00027356145165251174
0.00023938581851368237
0.00020883811264371262
0.00018333999973016503
0.0001648333436417018
0.00015541159115973314
0.00015637181246906095
0.00016733999988356922
0.00018647570659638765
0.00021151864915517122
0.0002405895341579827
0.0002723845883693388
0.00030606624088078203
0.0003411104541722153
0.00037719182868449047
0.0004141097324837369
0.0004517429124252095
0.0004900216988392185
0.0005289107450998299
0.0005683980823404826
0.000608488014906668
0.0006491963985093702
0.0006905474288641957
0.0007325714088874959
0.0007753031632929413
0.0008187808901564002
0.0008630453130704693
0.0009081390438505909
0.0009541060953170441
0.0010009915028833748
0.0010488410263793204
0.0010977009120687435
0.0011476177006415115
0.0011986380709838275
0.0012508087123537697
0.001304176219591473
0.0008644171655978791
0.0008113574986611884
0.0007596141622875902
0.0007091624513654968
0.0006599839127271412
0.0006120683659817284
0.000565416770326225
0.0005200453575853272
0.0004759916910537803
0.00043332369760351315
0.0003921533455151915
0.0003526576172406475
0.00031511082078342756
0.00027993376903827924
0.00024776500950322736
0.000219550276968104
0.00019661173408115596
0.0001805805994997585
0.00017301586008867484
0.00017472318239930212
0.00018526365924049045
0.00020316765049787635
0.00022663268824075426
0.0002540812524311946
0.00028434625553974615
0.00031663152296595775
0.0003504128942503279
0.0003853506153711059
0.00042122697347854893
0.00045790509535715093
0.0004953023151037884
0.0005333729364171895
0.0005720969410467619
0.0006114724668789297
0.0006515107021624021
0.0006922323520871025
0.0007336651460937387
0.0007758420461386991
0.0008187999352981192
0.000862578641139694
0.0009072201962864544
0.0009527682697781363
0.0009992677234097434
0.0010467642610080537
0.0010953041479716246
0.0011449339848490082
0.0011957005232285736
0.0012476505153902967
0.001300830591437055
0.0008607224569485371
0.0008079024185354646
0.0007564571446955359
0.0007063670713608768
0.00065762009831432
0.0006102139581334104
0.0005641595399470331
0.0005194856157832929
0.00047624564969052645
0.0004345277236750372
0.00039446913406231056
0.00035627790630671203
0.000320264175941937
0.0002868843049802635
0.00025679725600928063
0.00023092005103603284
0.0002104378704868214
0.00019667910500608142
0.00019077263860546023
0.0001931785429676857
0.00020342794871665092
0.00022032079523731678
0.00024240198716443066
0.00026835133179837676
0.0002971415009561302
0.0003280354981362353
0.0003605260017667123
0.0003942713169895288
0.00042904492436582196
0.0004646996631464236
0.0005011432861045438
0.0005383219531125544
0.0005762090481778507
0.0006147975238164671
0.0006540945865226588
0.0006941179493072728
0.0007348931458261744
0.0007764515735576682
0.000818829044919309
0.0008620646975094914
0.0009062001620401765
0.0009512789179446535
0.0009973457877387585
0.0010444465355501603
0.0010926275450963844
0.0011419355592626607
0.0011924174682665161
0.0012441201368388532
0.0012970902633260965
0.0008566407216207613
0.000804086110862484
0.0007529713214583147
0.0007032824666261309
0.000655014395872235
0.000608173399494531
0.000562780954651749
0.0005188789672570338
0.0004765371713038577
0.00043586363472632774
0.0003970196810850594
0.00036024087252900093
0.0003258656503330671
0.0002943717666305524
0.00026641537939958064
0.00024285461100429645
0.0002247166196299939
0.00021305002909002163
0.0002086422568038373
0.00021170940290064403
0.00022177364842166408
0.00023783587062492018
0.0002587070398092851
0.00028328223575021394
0.00031066744172714297
0.00034019414471243934
0.00037138416714993804
0.0004039043781925058
0.0004375272487923061
0.00047210080621575446
0.0005075269959062656
0.0005437464365571105
0.0005807277313572574
0.0006184599415833508
0.0006569472375991868
0.0006962050515081124
0.0007362572725518077
0.0007771341737110417
0.0008188708569448514
0.0008615060708909231
0.0009050812995588143
0.0009496400508753604
0.0009952272946944633
0.0010418890142210688
0.0010896718448039433
0.0011386227811005277
0.0011887889386331348
0.0012402173593566673
0.0012929548534669536
0.0008521725563520397
0.000799909349074633
0.0007491577896745379
0.0006999102012707932
0.0006521689531243877
0.0006059494726544586
0.0005612843549909316
0.0005182290056674521
0.0004768694158413634
0.00043733286122476036
0.00039980247687755214
0.0003645366062474617
0.00033189308315039774
0.0003023561542665634
0.00027655783511597494
0.0002552745735786019
0.000239367343826978
0.00022963525589629548
0.00022659705472059886
0.00023029626106634387
0.00024025873250697145
0.000255638629472925
0.0002754529529577313
0.00029877511584654464
0.00032483310834971696
0.00035303000542210206
0.00038292480841687395
0.0004142012005648786
0.00044663749744861165
0.000480082152077785
0.0005144351702939145
0.000549634458199002
0.0005856459158696285
0.000622456259571786
0.0006600677957191794
0.0006984945834157416
0.0007377595865946152
0.0007778925355728238
0.0008189283014904544
0.000860905645323947
0.0009038662435698551
0.0009478539207948154
0.000992914038879398
0.0010390930065919523
0.0010864378829077736
0.0011349960544686998
0.001184814972602627
0.001235941938963282
0.001288423931511429
0.0008473186288657032
0.0007953729965711534
0.0007450177720915356
0.0006962520159567911
0.0006490861552743734
0.000603545257962822
0.0005596734209752025
0.0005175396613589035
0.0004772458021669673
0.00043893691888118643
0.0004028148547837995
0.00036915488997034786
0.00033832437913761625
0.0003107992560755099
0.0002871688897566599
0.0002681124295806283
0.00025432587030330063
0.00024639120579819933
0.00024461716320439074
0.00024892529239577095
0.00025885263847727957
0.0002736727973809283
0.00029256416075047157
0.0003147472583294702
0.0003395588755639403
0.0003664725960376451
0.00039508908237367857
0.000425114824253657
0.00045633964119244614
0.0004886171356793743
0.0005218491112046694
0.0005559736548757182
0.0005909561944496579
0.000626782831150601
0.0006634553651198586
0.0007009875642113232
0.0007394023429939501
0.0007787296094623257
0.0008190046042967535
0.000860266606357663
0.0009025579131324811
0.0009459230298788354
0.0009904080190922388
0.0010360599747442556
0.0010829265949613286
0.0011310558334912538
0.0011804956151642402
0.0012312936041177247
0.001283497016180607
0.0008420796817242674
0.0007904780112727094
0.0007405526231787188
0.0006923098359234467
0.0006457686345601104
0.0006009641428415865
0.000557952177822959
0.0005168151994853782
0.00047766999696482163
0.00044067739659555495
0.0004060540083242861
0.00037408530497472263
0.0003451377654088967
0.0003196649734834375
0.00029819849677908744
0.0002813109208190274
0.000269540815608743
0.0002632846622297123
0.00026268792553490295
0.0002675863904246158
0.0002775326427795394
0.0002918951497013402
0.0003099801945245198
0.0003311295889669095
0.0003547755208003036
0.00038045840377155625
0.00040782229223502065
0.00043660042406799853
0.00046659850516884635
0.0004976793232429867
0.0005297499124275373
0.0005627513581523869
0.000596650895890114
0.0006314358540881982
0.0006671090233767944
0.0007036851077499703
0.0007411879897502806
0.0007796486071097043
0.0008191032900188188
0.0008595924474630363
0.0009011595202516841
0.0009438501398234297
0.0009877114476136112
0.0010327915412474166
0.001079139022222099
0.0011268026259069208
0.001175830919233136
0.0012262720548135374
0.001278173572737673
0.0008364565365119025
0.0007852254506226457
0.0007357638358739034
0.0006880857799493004
0.0006422192809090573
0.0005982098320856961
0.000556125002190371
0.0005160602178532753
0.0004781459029011662
0.0004425559441714609
0.00040951700818466473
0.0003793173283992795
0.0003523119976538761
0.0003289195074798201
0.00030960198496082097
0.0002948215109360607
0.0002849707464434978
0.00028028991319009334
0.00028079826902596846
0.00028627196368824
0.0002962815082617169
0.0003102720523312835
0.00032765237332199636
0.0003478644165246968
0.00037042312341716916
0.00039493061346182
0.0004210740570086203
0.0004486156425589806
0.0004773801074351653
0.0005072426870520869
0.0005381186533805055
0.0005699547154534857
0.0006027221512517224
0.0006364114003856011
0.0006710278304129405
0.0007065884221287592
0.000743119165308768
0.0007806530010967469
0.0008192281852206541
0.0008588869765564568
0.000899674578976865
0.0009416382821638741
0.000984826760365348
0.0010292894979932468
0.0010750763183399006
0.001122236997182029
0.001170820947139641
0.001220876961725464
0.0012724530103322344
0.0008304500983429422
0.0007796164770497455
0.0007306530490466391
0.0006835821703236537
0.0006384412537753309
0.0005952863592058945
0.0005541966288886723
0.0005152796444752334
0.00047867764613665476
0.00044457426000901447
0.00041320081895975343
0.00038484042007240043
0.0003598265194010255
0.00033853143621334305
0.00032133964388627825
0.0003086030183435272
0.00030058200117634855
0.00029738676428804145
0.00029893964621778416
0.000304976169752972
0.00031508592000901233
0.00032877700829335834
0.00034554124376517384
0.0003649034796925993
0.00038644993948814
0.0004098386695314347
0.00043479830372507246
0.00046112078641159375
0.0004886519098157748
0.0005172818313003514
0.000546936569081374
0.0005775708012702525
0.0006091619566119917
0.0006417054449796609
0.0006752108368249917
0.000709698808433678
0.0007451986951158473
0.0007817465234952593
0.0008193834209014449
0.0008581543224917551
0.0008981069148898084
0.0009392907693010242
0.0009817566279468055
0.001025555815921384
0.0010707397568195797
0.001117359575193647
0.0011654657724450037
0.0012151079654469992
0.0012663346792465239
0.0008240613606919603
0.0007736523639104688
0.0007252220557319848
0.0006788015439124914
0.000634437995249849
0.0005921980988721156
0.0005521721580924708
0.0005144787348341589
0.0004792695633016996
0.0004467340790031151
0.0004171023156085305
0.0003906440988710341
0.0003676615794648894
0.0003484717113637705
0.0003333762651355372
0.00032262043205490983
0.0003163470211666334
0.00031455913739235634
0.00031710532862392547
0.0003236944132690968
0.00033393542228148066
0.0003473888987686719
0.00036361460856358744
0.0003822063006662168
0.0004028113301795057
0.0004251377529015603
0.00044895313514788966
0.0004740789129049707
0.0005003829912152705
0.0005277721711647442
0.0005561851955720432
0.000585586717221913
0.0006159622314532161
0.0006473138928091812
0.0006796570912554753
0.0007130176584770334
0.0007474295870625446
0.0007829331635030602
0.000819573434358017
0.0008573989413550439
0.000896460674866743
0.0009368112061769622
0.000978503967540923
0.0010215926556669272
0.0010661307393124916
0.0011121710555440367
0.0011597654821400103
0.0012089646758649732
0.0012598178680787977
0.0008172914105403111
0.0007673345019322133
0.000719472812196541
0.0006737466644190218
0.0006302132445527244
0.0005889497805287267
0.0005500570630513501
0.0005136630688686749
0.00047992618807127284
0.00044903716089686425
0.0004212182996438401
0.0003967180088647682
0.0003757983134225165
0.0003587135967791275
0.00034568067783538863
0.0003368439061728392
0.00033224307098584434
0.00033179406849659745
0.00033528992512300143
0.00034242300883558814
0.00035282168159706683
0.0003660907076593468
0.0003818460088914748
0.00039973881941964196
0.0004194687836531967
0.00044078822770115346
0.00046350061569871943
0.0004874558314052868
0.0005125441547182096
0.0005386900686730438
0.0005658464909883037
0.0005939896802009554
0.0006231148719534963
0.0006532326037709931
0.0006843656465318768
0.0007165464513224879
0.0007498150256116621
0.0007842171638543975
0.0008198029701585466
0.000856625622367096
0.000894740336973853
0.0009342035025240402
0.0009750719556754863
0.0010174023791632253
0.0010612508047954388
0.00110667220757262
0.0011537201792886245
0.0012024466717218088
0.0012529018009040595
0.0008101414338342134
0.0007606644061820416
0.0007134074479072021
0.0006684205359512443
0.0006257710540282214
0.0005855465032593211
0.0005478571983215507
0.0005128385477063852
0.00048065223750099004
0.00045148527935626523
0.0004255455151430902
0.00040305197585899314
0.00038421879513427464
0.0003692325685378683
0.0003582253025340463
0.00035124791699758844
0.0003482512539988562
0.00034908098180620804
0.00035348904736499443
0.0003611589499615432
0.000371737966855883
0.00038486858629719397
0.0004002135536096739
0.0004174722717286608
0.00043638904637307685
0.00045675509361488645
0.000478406508666917
0.0005012200418456767
0.0005251079798603548
0.0005500129297934708
0.0005759029331894648
0.0006027670982290636
0.0006306117985994575
0.0006594574151287563
0.0006893355642896079
0.0007202867483791892
0.0007523583643852002
0.0007856030157570237
0.0008200770799746603
0.0008558394931696912
0.0008929507203308383
0.000931471885594059
0.0009714640418150032
0.0010129875622261711
0.0010561016396948427
0.0011008638811366156
0.0011473299861858059
0.0011955535004250545
0.0012455856344599071
0.0008026127212464093
0.0007536437235909973
0.0007070282764906006
0.000662826418031867
0.0006211158067814197
0.0005819937519891068
0.000545578808539932
0.0005120113901860045
0.00048145259831498246
0.0004540802120517912
0.00043008066472548283
0.0004096360552178893
0.00039290606411711184
0.0003800061915045975
0.0003709857370739947
0.0003658105623952616
0.0003643557522537378
0.0003664111578274965
0.0003716990738098328
0.0003798997482901135
0.0003906787769625497
0.0004037111601623273
0.00041869901271359995
0.0004353822724716974
0.00045354336543013525
0.00047300746570979165
0.0004936399892317856
0.0005153426286394257
0.0005380488308054398
0.0005617192675789896
0.0005863375953814026
0.000611906633981466
0.0006384449976845619
0.0006659841609761865
0.0006945659177897315
0.0007242401868267734
0.0007550631169646244
0.0007870954520812248
0.0008204011209887657
0.0008550460242396653
0.0008910969947457346
0.0009286209132483188
0.0009676839627409883
0.0010083510081408359
0.0010506850890187084
0.0010947470142402425
0.0011405950481076321
0.0011882846781718576
0.0012378684554137762
0.000794706674232919
0.0007462742410685351
0.0007003378077819612
0.0006569678422063468
0.0006162522361197962
0.0005782974151277707
0.0005432285377721619
0.0005111881292305234
0.0004823323133685549
0.00045682373205489595
0.00043482042569925627
0.0004164605720276309
0.0004018441341245524
0.00039101398385209035
0.0003839403812193716
0.0003805129826972042
0.0003805432372122289
0.00038377733976136674
0.00038991698151810694
0.0003986433206124784
0.00040963957068786816
0.00042260900982499017
0.00043728711217065814
0.0004534480686426703
0.0004709068356992586
0.0004895180937369001
0.000509173350755774
0.0005297971249579038
0.0005513428300872379
0.000573788736249926
0.0005971342015016255
0.0006213962562027889
0.0006466065563856414
0.0006728086883909263
0.0007000557926367675
0.000728408471118647
0.000757932945638835
0.0007886994384994802
0.0008207807525568914
0.0008542510321329064
0.0008891846898859873
0.0009256554872597827
0.0009637357576605171
0.0010034957622648496
0.0010450031685586862
0.0010883226415961543
0.0011335155377400808
0.001180639690464823
0.00122974927777551
0.000786424811376825
0.0007385578942503209
0.0006933387610809406
0.0006508486304268572
0.0006111854469796224
0.0005744638037658583
0.0005408134394766954
0.0005103756081547855
0.00048329656853782736
0.0004597176008730473
0.0004397614666295558
0.0004235161547668044
0.00041101798770745897
0.0004022372780301644
0.0003970701023341439
0.0003953388839490968
0.00039680241123948076
0.0004011734399827812
0.000408140225566525
0.0004173879092446034
0.0004286165687549892
0.00044155427882471867
0.00045596498271075045
0.0004716519311410767
0.0004884578419000851
0.0005062629262676965
0.0005249817162181682
0.0005445593590623051
0.0005649678062916758
0.0005862021408945232
0.0006082771633106587
0.0006312242794313488
0.0006550886912167441
0.0006799268699469058
0.0007058042850968019
0.0007327933622909246
0.000760971647808325
0.0007904201622452412
0.0008212219307726711
0.0008534606812235439
0.0008872197037139907
0.0009225808666470283
0.0009596237839615912
0.000998425127651463
0.0010390580782231708
0.0010815919042101085
0.0011260916603827835
0.0011726179931058275
0.001221227040528635
0.0007777687750092006
0.0007304967769309479
0.0006860340797556
0.000644472915423377
0.0006059209395454194
0.0005704996725522488
0.0005383409871389595
0.0005095809770222526
0.00048435068032969073
0.00046276356347181363
0.00044490046462850345
0.0004307937637098822
0.0004204135609147927
0.0004136590842763468
0.00041035794168020883
0.0004102741466610122
0.00041312364982513147
0.0004185943200498414
0.0004263666527197241
0.00043613202631915794
0.00044760660791098763
0.0004605403751677982
0.00047472172684628173
0.0004899786593414141
0.0005061775843198267
0.0005232207207533569
0.0005410427624177501
0.0005596072915602482
0.0005789032227220424
0.0005989414270996594
0.0006197516011893168
0.0006413793925896929
0.0006638837697504631
0.000687334612282475
0.0007118104977107075
0.0007373966647877019
0.0007641831397334076
0.0007922630181316864
0.0008217309005410249
0.0008526814835575415
0.000885208309867961
0.0009194026808209715
0.0009553527335077546
0.0009931426816827196
0.0010328522165622732
0.0010745560600862766
0.0011183236600328726
0.0011642190137654282
0.0012123006055660653
0.0007687403380966977
0.0007220931512439432
0.0006784269473590582
0.0006378451633047395
0.0006004646352998451
0.0005664122423951657
0.0005358190856373831
0.000508811689186542
0.00048550008453498907
0.00046596334564695974
0.0004502341237039387
0.00043828471529193955
0.0004300177216761711
0.00042526396090846353
0.0004237888593480307
0.0004253065057175661
0.000429498722016931
0.0004360356255820859
0.0004445944403366082
0.0004548744156907406
0.000466607033105747
0.0004795617427135173
0.0004935480772102552
0.0005084151770522558
0.0005240496770195173
0.0005403726979895736
0.0005573364614520249
0.0005749208501051331
0.0005931300928113683
0.000611989654359905
0.0006315433505954291
0.0006518506770771301
0.000672984325562803
0.0006950278604433105
0.0007180735318877279
0.0007422202104922591
0.0007675714372886403
0.0007942335914388974
0.0008223141847271499
0.0008519202963895401
0.0008831571636183925
0.000916126942279215
0.0009509276493291073
0.0009876522936833588
0.001026388196539144
0.0010672164961543738
0.001110211826465374
0.0011554421542381863
0.00120296875602755
0.0007593414113851707
0.0007133494586653539
0.0006705208054559105
0.0006309701986737012
0.0005948229057735695
0.0005622092251494382
0.0005332560834290668
0.0005080754981965696
0.00048675032629009774
0.00046931865413162683
0.0004557591945414265
0.0004459807036463767
0.00043981824484609
0.00043703789424118233
0.00043734951504317116
0.00044042528947973146
0.0004459205721321127
0.0004534936627558646
0.0004628220543447358
0.00047361402820477285
0.0004856156181467961
0.0004986136853890314
0.0005124361258901625
0.0005269502024898845
0.0005420598081251256
0.0005577022379991326
0.0005738448417485226
0.0005904817661475845
0.0006076308868738714
0.000625330956602429
0.0006436389560189413
0.0006626276150389728
0.0006823830664094354
0.0007030025977384159
0.0007245924771595522
0.0007472658396368826
0.0007711406333629008
0.0007963376372480025
0.0008229785699070864
0.0008511843169229991
0.0008810733059751148
0.0009127600585323288
0.000946353942530553
0.0009819581434663983
0.0010196688625970461
0.00105957474152594
0.0011017565034378194
0.001146286793507022
0.0011932301951494352
0.0007495740507898044
0.0007042683319333493
0.0006623193733913039
0.0006238532325855687
0.0005890026042989418
0.0005578988504651615
0.0005306607856533207
0.0005073804552808781
0.00048810705195660806
0.00047283117984796297
0.0004614724961282559
0.0004538738204847314
0.000449803786384502
0.00044896818994078955
0.0004510280816553343
0.00045562120822734744
0.00046238314998005547
0.0004709653069234849
0.00048104822202831075
0.0004923500074358489
0.000504630508057994
0.000517692231850374
0.00053137910936522
0.0005455739782648871
0.0005601954529012509
0.0005751946136300814
0.0005905517693905093
0.0006062734168537947
0.000622389433764174
0.000638950492654327
0.0006560256541146188
0.0006737000884864178
0.0006920728756700227
0.0007112548408593296
0.0007313663967647479
0.0007525353782438468
0.0007748948715222701
0.0007985810557711671
0.0008237310882026026
0.0008504810737162413
0.0008789641654574856
0.0009093088428878527
0.0009416374091912661
0.000976064740732177
0.0010126973090615677
0.001051632482190889
0.001092958098158196
0.001136752291755176
0.0011830835457536544
0.0007394404650229816
0.0006948526079983695
0.0006538266702802832
0.0006164998937338289
0.0005830111011133236
0.0005534898949950757
0.0005280424682702002
0.0005067349076588304
0.0004895760032580908
0.00047650260472500766
0.00046737093965264827
0.00046195657443463166
0.0004599638587159677
0.0004610433769015494
0.0004648140885529087
0.00047088618391923586
0.0004788812799437865
0.0004884479364986098
0.0004992719166660646
0.0005110816839069886
0.0005236501783315009
0.0005367940315224307
0.0005503712373369564
0.0005642780501483907
0.0005784456314939509
0.0005928367579319082
0.000607442749454277
0.0006222806741531253
0.0006373908201388895
0.0006528343889914283
0.0006686913475029946
0.0006850583699089751
0.0007020468071139472
0.0007197806300184246
0.0007383943092196686
0.0007580306117279635
0.000778838315524479
0.0008009698631921931
0.0008245789946388366
0.0008498184141586449
0.0008768375569721607
0.0009057805236518229
0.0009367842469772205
0.0009699769452095745
0.0010054768999035375
0.0010433915772676482
0.0010838170921676309
0.0011268379954795793
0.001172527350518909
0.0007289430234541853
0.0006851053421445029
0.0006450470395486377
0.0006089162633087462
0.0005768563222001809
0.0005489917141771704
0.000525410893381598
0.0005061474979829235
0.0004911630141611243
0.00048033461252885285
0.0004734515551387139
0.00047022191089460285
0.0004702888089496305
0.00047325312421804273
0.0004786982917226923
0.0004862132147756107
0.0004954105616059876
0.0005059393871374052
0.0005174923519696249
0.0005298085764454008
0.000542673407642923
0.0005559162753318479
0.0005694075565060319
0.0005830550856252044
0.0005968007043770391
0.0006106170614208536
0.0006245047464224108
0.0006384897620093804
0.0006526212892822498
0.0006669696766510413
0.0006816245705261131
0.0006966931049676402
0.0007122980730383923
0.0007285760138639893
0.0007456751655259112
0.000763753254275276
0.0007829751142551266
0.0008035101575071629
0.0008255297394221306
0.0008492044873628197
0.0008747016771720866
0.0009021827512351321
0.0009318010711266713
0.0009636999873876703
0.0009980112898714403
0.001034854076921634
0.0010743340538015972
0.0011165432438777524
0.00116156007319636
0.0007180842641995601
0.0006750298234546316
0.0006359851764211543
0.0006011089140488136
0.0005705467923052935
0.0005444142768256295
0.0005227763258981999
0.0005056271652582535
0.0004928740110279181
0.0004843289041710049
0.00047971152130398193
0.00047866323341187766
0.00048076980134808753
0.00048558817149351667
0.0004926725681568629
0.0005015962694659622
0.0005119672963717511
0.00052343792259769
0.0005357089849017842
0.0005485303997600328
0.0005616992615536161
0.0005750566361591208
0.0005884838424273864
0.0006018987250362292
0.0006152521995852025
0.0006285251955652588
0.0006417260223547442
0.0006548881223759962
0.0006680681408655635
0.0006813442237858694
0.0006948144480365645
0.0007085952877849864
0.000722820025818212
0.0007376370289237426
0.0007532078216441562
0.0007697049135873251
0.0007873093616301946
0.0008062080788235426
0.0008265909344920335
0.000848647721756696
0.0008725650955915742
0.000898523602567312
0.0009266949293954449
0.0009572394896361837
0.0009903044469778228
0.0010260222420648262
0.0010645096524060048
0.0011058673766987225
0.0011501801009526963
0.0007068669024446236
0.000664629591832658
0.0006266461588305329
0.0005930849540889886
0.000564091682619281
0.0005397682027895585
0.0005201495517515063
0.0005051831476391244
0.0004947150166079155
0.0004884872179832376
0.0004861481991505548
0.0004872744275374781
0.0004913988052012349
0.0004980402725187265
0.0005067298322116598
0.0005170302067397727
0.000528548435883457
0.0005409422196467277
0.0005539215259109313
0.0005672470776498532
0.0005807270854312933
0.0005942132253010504
0.0006075965141513624
0.0006208034595511823
0.0006337926667502472
0.0006465519591257161
0.0006590959912929333
0.0006714642898265173
0.0006837196325190889
0.0006959466649749771
0.0007082506481024281
0.0007207562292733294
0.0007336061328888329
0.0007469596733213121
0.0007609910058523495
0.0007758870505632695
0.0007918450509896624
0.0008090697635519137
0.0008277703136620907
0.0008481567965960624
0.0008704367407684767
0.0008948115821312361
0.0009214733154695745
0.0009506014874551022
0.0009823606762947566
0.0010168985659455515
0.0010543446744971678
0.0010948097437682473
0.0011383857480454047
0.0006952938390139053
0.0006539084568482961
0.0006170354823138192
0.0005848520763066726
0.0005575008636702694
0.0005350648039495506
0.000517541897874026
0.0005048249875571857
0.0004966921584755664
0.0004928113554671598
0.000492759169823499
0.0004960498880624642
0.0005021685890742607
0.000510602152235601
0.0005208639719825981
0.000532510717192286
0.0005451515490466955
0.000558451365121646
0.0005721299559524663
0.0005859587614750019
0.0005997565053128055
0.0006133845621543917
0.0006267425675492675
0.0006397645313493479
0.0006524155537494924
0.0006646891443138693
0.0006766050883006591
0.0006882077745405564
0.0006995648837249029
0.0007107663281013916
0.0007219233293163387
0.0007331675188464463
0.0007446499451452628
0.0007565398744939799
0.0007690232805915142
0.0007823009334730697
0.0007965860234866854
0.0008121012918997138
0.0008290756856262468
0.0008477406065598428
0.0008683258804836138
0.0008910556188358194
0.0009161441802593632
0.0009437924505248266
0.0009741846449768967
0.0010074857977295658
0.0010438400420663945
0.0010833697164213014
0.001126175261061063
0.0006833681692122319
0.0006428705187321328
0.0006071590995762505
0.000576418613980396
0.0005507849640343054
0.0005303161288453561
0.0005149652542054764
0.0005045625396909868
0.0004988116825593532
0.0004973032130484783
0.0004995422773000669
0.0005049845505170868
0.0005130727222787092
0.0005232674768645389
0.0005350698040716737
0.0005480342845731197
0.0005617748052773905
0.0005759648637863929
0.000590334549908148
0.0006046658536893847
0.0006187874358000264
0.000632569555015942
0.0006459195241293272
0.0006587778522904063
0.0006711151024539287
0.0006829294200640079
0.0006942446515348137
0.0007051089530963228
0.0007155937822333919
0.0007257931593359453
0.0007358230832163805
0.0007458209797701679
0.0007559450587065769
0.0007663734506213834
0.0007773029983799523
0.0007889475861519394
0.0008015359099565473
0.0008153086280572669
0.0008305148790776426
0.0008474082185324308
0.0008662420951569343
0.0008872650578344586
0.0009107159403839827
0.0009368193031456586
0.0009657814083822144
0.000997786968160271
0.0010329968332414524
0.001071546701097494
0.001113546825974089
0.0006710931919797901
0.0006315201919283956
0.0005970234655406094
0.0005677936037058311
0.0005439554355295633
0.0005255350112399824
0.0005124320980194226
0.0005044059823514805
0.0005010799724522965
0.0005019648203947928
0.0005064956764975473
0.0005140739277768862
0.000524105584308668
0.0005360308370674536
0.0005493430454157533
0.0005635981646221649
0.0005784169721965633
0.0005934826560470802
0.000608535906204721
0.0006233690363656179
0.0006378200943604023
0.0006517674914176883
0.0006651253928527135
0.0006778399380795164
0.0006898862606334173
0.0007012662300240624
0.0007120068157885186
0.0007221589663668506
0.0007317968929610599
0.0007410176465354859
0.0007499408721660327
0.0007587086183182499
0.0007674850699509821
0.0007764560654522
0.0007858282513595624
0.0007958277297282724
0.000806698065735135
0.000818697552451517
0.0008320956791575289
0.0008471688196222853
0.0008641952433539513
0.0008834496462864416
0.0009051974830408822
0.0009296894435627383
0.0009571564371060403
0.000987805417369339
0.0010218163055277204
0.0010593401553790401
0.00110049857731216
0.0006584724194269869
0.0006198622317133695
0.0005866355888646184
0.0005589868566621902
0.0005370246256225212
0.0005207351229325163
0.0005099555208963514
0.0005043658329130195
0.000503503575225002
0.0005067983858798051
0.0005136178874232702
0.0005233141526106675
0.0005352623829281014
0.0005488877440579244
0.0005636803011234917
0.0005792003798964436
0.000595077426480812
0.0006110051449020802
0.000626734982568357
0.0006420693047260506
0.0006568550215915853
0.0006709780367870272
0.0006843586429809313
0.0006969478554873861
0.0007087246075360545
0.0007196937031496535
0.0007298844160222379
0.0007393496237334424
0.0007481653691566809
0.0007564307411735193
0.0007642679628814553
0.0007718225667984875
0.0007792635236782157
0.0007867831761929364
0.0007945968140191827
0.0008029417173792497
0.0008120754978817668
0.00082227358543056
0.0008338257544338395
0.0008470316554233684
0.0008621954182738303
0.0008796195119417209
0.0008995981663260875
0.0009224107615628171
0.0009483156446738323
0.0009775448248826501
0.0010102999218592216
0.0010467496067774072
0.0010870286097477103
0.000645509586846431
0.0006079017645126944
0.0005760030911095521
0.0005500090394910223
0.0005300058578359538
0.0005159310311398259
0.0005075492587122867
0.0005044529679869462
0.0005060892345038838
0.0005118063498059083
0.000520907856023326
0.0005327020270031442
0.0005465391815646859
0.0005618346386315815
0.0005780790675219488
0.0005948397294427271
0.0006117561769493126
0.0006285332317391055
0.0006449331379557523
0.0006607680057669767
0.0006758931071629237
0.0006902012405150215
0.0007036181863975647
0.000716099180635351
0.0007276262910462096
0.0007382065750289736
0.0007478708994714092
0.0007566733127558735
0.000764690865466106
0.0007720237787542118
0.0007787958556627668
0.0007851550204281677
0.0007912738542043779
0.0007973499740912322
0.0008036060786187491
0.0008102894615931074
0.0008176707842514296
0.0008260419017381633
0.0008357125735987852
0.0008470059574871814
0.0008602528940077504
0.0008757851333065003
0.0008939278139316694
0.0009149916536041046
0.0009392654155545157
0.0009670092418328139
0.0009984493796955768
0.0010337746746017775
0.0010731349924690118
0.0006322086633418165
0.0005956443227088348
0.0005651342749872176
0.0005408717662412834
0.0005229135209995913
0.000511138260756863
0.0005052277250482187
0.0005046786490974385
0.0005088439316152087
0.0005169914460336265
0.0005283650224263267
0.0005422350790851809
0.0005579329366488128
0.0005748689131596611
0.0005925377498393475
0.0006105158125014335
0.0006284538992784209
0.0006460683607893128
0.0006631321807872112
0.000679466882112478
0.0006949356212554902
0.0007094375487309241
0.0007229033681561079
0.0007352919666991043
0.00074658797462981
0.0007568001182735322
0.0007659602450007815
0.000774122913404014
0.0007813654524113453
0.0007877883975132561
0.0007935162092518271
0.0007986981679430896
0.0008035093191386995
0.0008081513173141703
0.0008128529828124022
0.0008178703533942046
0.0008234859838514522
0.0008300072351410884
0.0008377633110770255
0.0008471008589518205
0.0008583780602906196
0.0008719573000301162
0.0008881967029985807
0.0009074410346010552
0.0009300126330588205
0.0009562031253472765
0.0009862666434039514
0.0010204150952691918
0.0010588157867205733
0.0006185738632695438
0.0005830958849296185
0.0005540382034057484
0.0005315877030471605
0.0005157631682291711
0.0005063733617921916
0.0005030060484684925
0.000505054554683711
0.0005117749356310427
0.000522356772702016
0.0005359893973255
0.0005519116285266111
0.0005694415455510694
0.000587988946679304
0.0006070556941570797
0.000626229065697718
0.0006451719819723808
0.0006636125721903029
0.0006813344236651157
0.0006981681212656803
0.0007139842513907845
0.0007286878232300292
0.000742213964232576
0.0007545247196480644
0.0007656067925153253
0.0007754700804742532
0.0007841468884415944
0.0007916917159270611
0.0007981815317036867
0.0008037164550848691
0.0008084207611210363
0.0008124441157358901
0.000815962925537654
0.0008191816556916215
0.0008223339289518539
0.0008256831729792286
0.0008295225379167593
0.0008341737725785629
0.0008399847407451254
0.0008473252972633208
0.0008565813444084249
0.000868147062034803
0.0008824155437445017
0.0008997683453272283
0.0009205647065700891
0.0009451313750253292
0.0009737539801625406
0.0010066707514454543
0.00104406906694359
0.000604609658765012
0.0005702629230621871
0.0005427247913909253
0.0005221706874415548
0.0005085716265443194
0.0005016539822433419
0.0005009001141592707
0.0005055928193201544
0.00051488986319397
0.0005279058727682591
0.000543781647291181
0.0005617308612710344
0.000581063905793876
0.0006011941533008392
0.0006216332334457606
0.0006419808134021747
0.0006619125834105737
0.0006811685637217786
0.0006995427448001094
0.0007168744104422256
0.0007330411445880833
0.0007479533661118891
0.0007615501856283846
0.0007737963808337301
0.0007846803117456482
0.0007942126283572493
0.0008024256527025787
0.0008093733414096186
0.0008151317517239485
0.0008197999427029173
0.0008235012428914009
0.0008263848052333058
0.0008286273480712583
0.0008304349468574911
0.0008320446945284268
0.0008337259911988645
0.0008357811611369296
0.0008385450372215789
0.0008423831169914698
0.0008476879029361805
0.0008548731188855306
0.00086436566580211
0.0008765954493230302
0.0008919835542250508
0.0009109295974190299
0.0009337993713467991
0.0009609139996133453
0.0009925417054344892
0.0010288929459892028
0.0005903207937258798
0.0005571524575579916
0.0005312049133902363
0.0005126358644634209
0.0005013571180335285
0.0004969989466258955
0.0004989266104596682
0.0005063060811116152
0.0005181967490380769
0.000533642825147209
0.0005517431898684014
0.0005716929145317872
0.0005927999862553853
0.0006144850442527959
0.000636271747668511
0.000657773331137966
0.0006786786999532687
0.0006987397613714211
0.0007177606563997743
0.0007355889971760391
0.0007521089548104973
0.0007672359497491736
0.0007809126880798429
0.0007931063153771823
0.0008038064998639457
0.0008130242968653445
0.0008207916814808528
0.0008271616640355156
0.0008322089224211632
0.0008360308963902072
0.0008387492904637558
0.0008405119231334034
0.0008414948387797665
0.0008419045632874455
0.0008419803331892171
0.0008419960613054967
0.0008422617224720585
0.0008431237598573976
0.0008449640423895507
0.0008481968733337309
0.0008532635935616351
0.0008606244761382068
0.0008707478942073905
0.0008840971522213292
0.0009011158425566935
0.000922213015769925
0.000947749697478182
0.0009780282372627046
0.001013285604922191
0.000575712299757261
0.0005437721230031006
0.0005194905289868595
0.000502999841987478
0.0004941393934369005
0.0004924283403051145
0.0004971030808676778
0.0005072075382930813
0.0005217041281717807
0.0005395723472896584
0.0005598762993780303
0.0005817989730150276
0.0006046509111321953
0.0006278633039784438
0.0006509737380808074
0.0006736099220705522
0.0006954742452088107
0.0007163303989468685
0.0007359923802828618
0.0007543157558756654
0.0007711908956596878
0.0007865378517411967
0.0008003025866995431
0.0008124543053965477
0.0008229836970844154
0.0008319019419463984
0.0008392403754064817
0.0008450507340413682
0.0008494059288053821
0.0008524013044959634
0.0008541563483512193
0.0008548168040392679
0.0008545571279345883
0.0008535831896912756
0.0008521350657455063
0.0008504897003894447
0.0008489631150127978
0.000847911738052314
0.0008477323213143641
0.0008488598305029401
0.0008517626906768526
0.0008569348816663809
0.0008648846592320743
0.000876120138944237
0.0008911325750010146
0.0009103787721721779
0.0009342645033281062
0.0009631308879324156
0.0009972453279808353
0.0005607895147636647
0.000530130246451761
0.0005075948306749182
0.0004932808679789843
0.0004869398789212283
0.00048796359968284326
0.0004954479821515224
0.0005083110161314712
0.0005254211307366818
0.0005456999101083115
0.0005681842244179895
0.0005920513773980433
0.0006166190574957316
0.0006413318808027678
0.0006657429159954706
0.0006894950067538512
0.0007123041406653548
0.0007339456069940341
0.0007542429309743479
0.0007730592604779587
0.0007902907982526749
0.0008058618944990825
0.0008197214748915353
0.0008318405471490125
0.0008422105918371166
0.0008508426958563399
0.0008577673294509624
0.0008630347002961304
0.0008667156421262403
0.0008689030108340729
0.0008697135675912486
0.0008692903249345901
0.0008678053154566989
0.0008654627101854943
0.0008625021605749016
0.0008592021599196657
0.0008558831143530405
0.0008529096825921432
0.000850691798912748
0.0008496836621901776
0.000850379901635296
0.0008533081822540603
0.0008590177612760954
0.0008680639985216522
0.0008809895398287056
0.000898303709160339
0.0009204623326608551
0.0009478505083451701
0.0009807705433088631
0.0005455581051109057
0.0005162359416904373
0.0004955324180973197
0.00048349903264191285
0.00047978183665710935
0.0004836276081713682
0.0004939807492504509
0.000509631045303638
0.0005293575906161488
0.0005520318662420075
0.0005766713181510326
0.0006024537461644466
0.0006287081673512676
0.0006548950927892069
0.0006805843064017384
0.00070543422641817
0.0007291744179618326
0.0007515915113023912
0.000772518206516906
0.0007918248633003119
0.0008094131741624535
0.0008252114890723238
0.0008391714468666837
0.0008512656511600303
0.0008614861985724393
0.0008698439237666085
0.0008763682703875044
0.000881107731373074
0.000884130827736544
0.0008855276125729124
0.0008854116965199153
0.000883922790866956
0.0008812297522876328
0.0008775340846350438
0.0008730738028031134
0.0008681274848104344
0.0008630182249716783
0.0008581170507592871
0.000853845184933355
0.0008506743452766213
0.0008491241242012188
0.000849755456576766
0.0008531593654451597
0.0008599406629225443
0.000870697104258171
0.0008859955426255528
0.0009063476433936425
0.000932188314420823
0.0009638598701281624
0.0005300240926022282
0.0005020992234610243
0.0004833195040398942
0.00047367649865690523
0.0004726905395448392
0.00047944479773942285
0.0004927218677160687
0.0005111829530116485
0.0005335241689434938
0.0005585755927459517
0.0005853431825621714
0.000613011111977441
0.0006409234751874941
0.0006685587495007888
0.0006955043669360639
0.0007214345601819057
0.0007460923331302734
0.0007692753412839233
0.0007908250871937568
0.0008106187801256522
0.0008285632832302796
0.0008445906827565213
0.0008586551230240515
0.000870730644363348
0.0008808098366657393
0.0008889031804106778
0.0008950389930200728
0.0008992639338942575
0.0009016440485388585
0.0009022663519151
0.000901240963579675
0.0008987038111107719
0.0008948199110405306
0.0008897872135157417
0.0008838409516419055
0.0008772583604488222
0.0008703635141597105
0.0008635318660815403
0.0008571938620438443
0.0008518367510273752
0.0008480034790190213
0.0008462874080670173
0.0008473216775139439
0.0008517624605847396
0.0008602662601201979
0.0008734626777420375
0.0008919254968152423
0.0009161459489592996
0.0009465121730766313
0.000514193887947419
0.000487731146783114
0.0004709741585309089
0.0004638377628631972
0.00046569346005218996
0.0004754412556408934
0.0004916929545201786
0.0005129829681853968
0.0005379324937435107
0.0005653396494109731
0.0005942068279899182
0.0006237300738782471
0.000653271852107192
0.0006823302904922916
0.0007105111228079216
0.000737504456641436
0.0007630664931661138
0.000787005548485371
0.0008091715422851756
0.0008294481814514525
0.0008477472059427093
0.0008640042099087857
0.0008781756773582086
0.0008902369731759044
0.0009001811091694273
0.0009080181654161263
0.0009137752938044202
0.0009174972668188527
0.0009192475627932597
0.000919110000486377
0.0009171909512231152
0.0009136221649911937
0.0009085642451972752
0.0009022107906204934
0.0008947931852580822
0.0008865859471391196
0.0008779124330760282
0.000869150524274318
0.0008607376784039978
0.0008531744317371348
0.0008470251045371627
0.0008429141876004034
0.0008415168143363595
0.0008435420478650399
0.0008497086167446415
0.0008607142494012081
0.0008772016229600941
0.0008997255508105994
0.0009287266244931713
0.0004980743329921031
0.0004731439779489238
0.00045851659862623014
0.0004540099527657222
0.00045882047258153795
0.0004716448357365415
0.0004909168481518915
0.0005150483422297822
0.0005425953170465287
0.0005723339540498736
0.0006032708493688098
0.0006346189667095563
0.000665761967731478
0.0006962189414558612
0.0007256143183663451
0.0007536539803483395
0.000780106995290726
0.0008047919354473885
0.000827566744891437
0.0008483212897114307
0.0008669719199212988
0.0008834575452445207
0.0008977368659045661
0.0009097865062926112
0.0009195998800237779
0.0009271866758294215
0.0009325729003424731
0.0009358014502060267
0.0009369332149262513
0.0009360487352200731
0.0009332504598575325
0.0009286656564607813
0.0009224500360618475
0.0009147921429079461
0.0009059185325542196
0.0008960997014542129
0.0008856566245790944
0.0008749675852047987
0.0008644747244290884
0.0008546893885811701
0.0008461949296611707
0.0008396451914456251
0.0008357566499413477
0.0008352923206678734
0.0008390363820098454
0.0008477601598349943
0.0008621824902634646
0.0008829298319312331
0.0009105027754916823
0.0004816727547807635
0.00045835140562466235
0.0004459695328732111
0.0004442231610702125
0.00045210406805006633
0.0004680852736049211
0.0004904177090477449
0.0005173974869040804
0.0005475266909506686
0.0005795699762491078
0.00061254562077338
0.0006456880492945404
0.0006784044711867365
0.0007102358890488996
0.000740825586076189
0.0007698949737209389
0.0007972255792517429
0.000822645795048483
0.0008460211947255644
0.0008672474821098323
0.0008862453798830272
0.0009029569586894099
0.000917343055029274
0.0009293815357816641
0.000939066248142542
0.0009464065541570953
0.000951427395057804
0.0009541698668163584
0.0009546923178217027
0.000953072004377945
0.0009494073606509043
0.0009438209564251465
0.0009364632266191838
0.0009275170567706756
0.0009172032912573735
0.0009057871840309407
0.0008935857175612126
0.0008809755508294479
0.0008684010938675909
0.0008563818207470968
0.0008455174237686636
0.0008364888332594142
0.0008300526351125478
0.0008270263034628965
0.0008282623290100333
0.0008346111119121361
0.000846875379228145
0.0008657621629111342
0.000891840636729537
0.00046499703563588593
0.0004433688029053911
0.0004333585710319341
0.00043451082095845284
0.00044557957841258414
0.00046479430443712713
0.0004902211315612922
0.000520050131072348
0.000552742164272867
0.0005870609512816228
0.000622043510041921
0.0006569497130605433
0.0006912121926147046
0.000724394475536008
0.0007561586337354679
0.0007862412349455357
0.0008144357929510361
0.0008405800603503058
0.0008645468486024657
0.000886237398491158
0.0009055766001866805
0.0009225095706040535
0.0009369992481135003
0.0009490247748109156
0.0009585805165482325
0.0009656756300165333
0.0009703341311411609
0.0009725954547128758
0.0009725155248931821
0.000970168382192631
0.0009656484358939892
0.000959073431720333
0.0009505882413940108
0.0009403695899894022
0.0009286318317424759
0.000915633853412515
0.0009016871076134089
0.0008871646292059086
0.0008725106295360501
0.0008582498562291421
0.0008449953240940811
0.0008334522892557332
0.0008244155884303809
0.0008187570128207365
0.0008173997455090924
0.0008212786362886805
0.0008312884596776058
0.0008482266675551917
0.0008727407698417018
0.00044805570497309335
0.00042821355430272903
0.00042071271134039203
0.0004249101238545051
0.0004392854076331142
0.00046180578252633136
0.0004903542688910494
0.000523027498256948
0.000558259001634688
0.0005948221161044878
0.0006317791154693248
0.0006684187129732423
0.0007042003667888333
0.0007387104144810621
0.0007716294508169039
0.0008027087124087316
0.000831753171605393
0.0008586094648074022
0.0008831572581369494
0.0009053030534014436
0.0009249757387720721
0.000942123405868583
0.0009567111088472677
0.0009687193500085706
0.0009781431544186473
0.0009849916531949028
0.0009892881385852237
0.0009910705887791146
0.000990392690019886
0.0009873254104301459
0.0009819592054656292
0.0009744069595487687
0.0009648077913616104
0.0009533318686431864
0.0009401863860657846
0.0009256228456324627
0.0009099457239772092
0.0008935224848521408
0.0008767946542986964
0.0008602892650157066
0.0008446293409331122
0.0008305412161249107
0.0008188554570427604
0.000810497292591919
0.0008064623630826552
0.0008077751102640534
0.0008154308709822067
0.0008303283270929508
0.0008532043905809588
0.0004308580607238321
0.0004129054657108969
0.00040806491933931255
0.0004154624798107506
0.0004332632641264028
0.0004591558010553328
0.0004908459726630599
0.0005263525071685628
0.0005640964270880941
0.000602870969637108
0.0006417695268009752
0.0006801124228464272
0.0007173868805737424
0.000753202028823289
0.0007872565348481812
0.0008193157161545096
0.0008491954305103205
0.0008767507124865344
0.0009018677138712776
0.0009244579511507918
0.0009444541809207023
0.0009618074449173845
0.0009764849789422494
0.0009884687860602314
0.0009977547495241994
0.0010043522155634972
0.0010082840178098317
0.0010095869487915785
0.0010083127131929569
0.001004529424984245
0.0009983237378102922
0.0009898037260882408
0.0009791026629245706
0.000966383868271896
0.0009518468217632084
0.0009357347393530841
0.0009183437828964026
0.0009000339759302946
0.0008812416881560756
0.0008624931557835902
0.0008444178416163895
0.0008277594418239853
0.0008133810458490549
0.0008022596179585169
0.0007954642626169565
0.0007941137658339419
0.0007993128044201424
0.0008120730945697884
0.0008332334847802142
0.0004134143312723664
0.0003974672806638227
0.00039545281383549793
0.00040621401810049496
0.000427558387941329
0.0004568828109079787
0.0004917269492327991
0.0005300499976815848
0.000570275894705212
0.000611227559854284
0.0006520346130641186
0.000692051117334696
0.0007307925461375228
0.000767890512768958
0.000803061138752782
0.0008360831467694917
0.0008667826712886422
0.0008950226576571917
0.0009206953946897487
0.0009437172022627891
0.0009640246207988962
0.0009815716693230942
0.0009963278875783762
0.0010082769796623508
0.001017415948077884
0.0010237546588691428
0.001027315817997193
0.0010281353713549421
0.0010262633694444908
0.0010217653653963894
0.0010147244436818994
0.0010052440079040788
0.0009934514899511073
0.000979503178625051
0.0009635904000634844
0.0009459473065213369
0.0009268605276769182
0.0009066808789755722
0.0008858371526217876
0.0008648516576440146
0.0008443565147801277
0.0008251086300259175
0.0008079997143508552
0.0007940558658270994
0.0007844197526650826
0.0007803086840610518
0.0007829455865776568
0.00079346801994297
0.0008128309383339012
0.0003957358931339109
0.00038192533298494086
0.00038291947664253177
0.0003972161218265208
0.00042221976398879637
0.00045502773742891567
0.0004930299352510157
0.0005341469851247897
0.0005768213889692792
0.0006199148006273997
0.0006625973401170107
0.0007042582831897563
0.0007444414020160439
0.0007828002190216356
0.0008190675400544273
0.0008530347419586281
0.000884537601244365
0.0009134464927481059
0.0009396595209202631
0.0009630976391630378
0.0009837011381563722
0.0010014270989144865
0.0010162475492848599
0.0010281481593591693
0.001037127378465014
0.0010431959649220938
0.0010463768968149256
0.001046705682630105
0.0010442311183234535
0.001039016564964187
0.001031141850754736
0.0010207059347176854
0.0010078305078695137
0.0009926647514044496
0.0009753915183068248
0.0009562352487016924
0.0009354719560039219
0.0009134416021731288
0.000890563063915712
0.0008673515889531134
0.000844438017092445
0.0008225879197815903
0.0008027170411491623
0.00078589704943738
0.0007733432170875535
0.0007663747725064357
0.0007663417623890568
0.0007745213863603944
0.0007920006824881778
0.0003778355658053685
0.00036631037460756384
0.00037051440272671174
0.0003885259849804601
0.00041730031058861343
0.00045363409456457396
0.0004947898956539365
0.0005386729462290995
0.0005837597582881997
0.0006289588217178384
0.0006734841211942741
0.0007167609626635004
0.0007583610443248233
0.0007979589729451644
0.000835303332781325
0.0008701973408677513
0.0009024857650985228
0.0009320459431911731
0.000958781508940622
0.0009826179282999433
0.0010034992668492269
0.0010213858166871366
0.0010362523462312363
0.0010480868270897233
0.0010568895546646737
0.0010626726241088557
0.001065459757691908
0.0010652865083627763
0.0010622008908546222
0.0010562645188648553
0.0010475543570561694
0.0010361652320246967
0.0010222132888417002
0.0010058406305270037
0.0009872214365548768
0.0009665699194972248
0.0009441505353613878
0.000920290888524554
0.000895397716899522
0.0008699761157053196
0.0008446516052763609
0.0008201935428157422
0.0007975364569623837
0.0007777930156580745
0.0007622489284514969
0.0007523277220953162
0.000749515176074937
0.0007552428580434899
0.0007707478558364129
0.0003597280142158518
0.0003506586283004046
0.0003582946054310646
0.0003802071730407585
0.00041285703071732553
0.00045274809669473555
0.0004970442480255572
0.0005436601406998961
0.0005911210855765939
0.0006383893559159022
0.000684725204226149
0.0007295901323117858
0.0007725829906337586
0.0008133984153109742
0.0008517997427885997
0.0008876011659119182
0.0009206557879187591
0.0009508474670627706
0.0009780851243769344
0.0010022986750724437
0.0010234360509832165
0.0010414609768739955
0.0010563512900256522
0.0010680976764360786
0.0010767027544087457
0.001082180477477801
0.001084555860228515
0.001083865057240607
0.001080155850544543
0.0010734886274584579
0.0010639379610270666
0.0010515949420238058
0.0010365704571117854
0.0010189996645903307
0.0009990479886104893
0.0009769190337752917
0.0009528649077597839
0.0009271995106469601
0.0009003153621339858
0.0008727044025853682
0.0008449827570140305
0.0008179184218490914
0.0007924588481101732
0.0007697521042640573
0.0007511508238860958
0.0007381839394682386
0.0007324810478604353
0.0007356436401277865
0.0007490789845456061
0.0003414303023523409
0.00033501312857175003
0.0003463258861470428
0.00037233015855005615
0.00040895111195987253
0.00045241876984546917
0.0004998331182762706
0.000549143973179278
0.000598939100632647
0.0006482401680193447
0.0006963551002770255
0.000742781120862088
0.0007871430792437079
0.0008291543752975764
0.0008685919670212855
0.0009052801214629439
0.0009390796274516747
0.0009698804566615078
0.000997596630077173
0.0010221625169364841
0.0010435300834104274
0.001061666790465492
0.0010765539570700253
0.0010881854815786383
0.0010965668662244338
0.0011017145268530605
0.0011036553986548208
0.0011024268730731946
0.0010980771246066816
0.001090665911687376
0.0010802659659009885
0.0010669651213200187
0.001050869383739508
0.0010321072014501244
0.0010108352779891051
0.0009872463648052622
0.0009615795854147878
0.0009341339594185887
0.0009052858789482096
0.0008755112603533338
0.0008454127850970404
0.0008157517543834783
0.0007874821336426755
0.0007617807695552521
0.0007400622405254164
0.000723960450608473
0.000715256043937983
0.0007157366507334105
0.0007270021825018946
0.00032296266100007633
0.0003194254302362304
0.00033468426708288144
0.0003649727910800618
0.00040564796084713116
0.00045269806598362836
0.0005031996338181782
0.0005551634013352107
0.0006072516399691823
0.0006585495311851909
0.0007084130581187938
0.0007563740702678693
0.0008020819068319819
0.0008452672753844763
0.0008857195369454547
0.0009232721081960363
0.000957792833281147
0.0009891774381739847
0.0010173449238983596
0.0010422341988190087
0.0010638015200282772
0.0010820184811873084
0.001096870390280518
0.0011083549498043359
0.0011164811984646019
0.0011212687065349153
0.0011227470425139467
0.0011209555507219822
0.0011159435011748944
0.0011077706972413726
0.0010965086559991944
0.0010822425139203381
0.0010650738601173824
0.0010451247651209901
0.0010225433597816703
0.0009975114308949052
0.0009702546395549019
0.0009410561292483575
0.0009102744479978129
0.0008783667938884164
0.0008459184500068735
0.0008136785874979788
0.000782600820685222
0.0007538831660074446
0.0007289956083682018
0.0007096747713891154
0.0006978583366978395
0.0006955367054494728
0.0007045273732728691
0.00030434956121781407
0.0003039577825604469
0.0003234575666191351
0.0003582206469421218
0.00040301715866492525
0.0004536409867976714
0.0005071902619528403
0.000561761397074622
0.0006161011609380552
0.0006693607572114559
0.000720943590757582
0.0007704144446042033
0.0008174453076527074
0.0008617825696735452
0.0009032267059414062
0.0009416193511482855
0.000976834809208372
0.0010087742643283188
0.001037361659929353
0.0010625406234447752
0.0010842720617596899
0.0011025322033926396
0.001117310958508931
0.0011286105290643723
0.0011364442422381223
0.001140835609133409
0.001141817632929594
0.001139432410087108
0.0011337310878561527
0.0011247742639363843
0.0011126329424991461
0.001097390198165535
0.0010791437499429975
0.0010580097156108902
0.0010341279098510436
0.0010076691736909888
0.0009788453851662918
0.0009479230034058258
0.000915241227462096
0.0008812360559303209
0.0008464715769666274
0.0008116793903635495
0.0007778055440922068
0.0007460607012412866
0.0007179620993881536
0.0006953447406919367
0.000680307651793549
0.000675060714324043
0.0006816665360650748
0.0002856212277325705
0.0002886858860179288
0.0003127470649054806
0.0003521671891875777
0.00040113232980372427
0.00045530572686849224
0.0005118552030610651
0.0005689854694356571
0.0006255353184326995
0.0006807227885378358
0.000733997060665741
0.0007849535920403654
0.0008332848776704906
0.0008787512169507506
0.0009211628598251597
0.0009603687385439288
0.0009962490739305033
0.001028710293355254
0.0010576813450065945
0.0010831108673139411
0.0011049648942027801
0.0011232249114846102
0.0011378861632718026
0.0011489561605129547
0.0011564533787888221
0.0011604061569454095
0.0011608518269235499
0.0011578361218143286
0.0011514129265711615
0.0011416444565807518
0.0011286019762677558
0.0011123672064576936
0.0010930346196931593
0.0010707148928152583
0.0010455398834364844
0.0010176696310271278
0.000987302065249147
0.0009546863436261211
0.0009201410378003156
0.0008840787123387602
0.0008470386843935951
0.0008097296323622605
0.0007730825981185768
0.0007383115614432535
0.0007069712330837244
0.0006809883119786245
0.0006626252981618821
0.0006543278913663437
0.0006584339782373104
0.00026681578940323576
0.0002737023650175801
0.0003026691573209375
0.0003469136555259262
0.00040007092111823267
0.00045775385043215415
0.0005172488504710566
0.0005768882596593572
0.0006356076142194996
0.0006926908612318325
0.0007476303315610143
0.000800049365756778
0.0008496585471363243
0.0008962301894191426
0.0009395829487832809
0.000979572167102329
0.001016083513373205
0.0010490285455651044
0.001078341400175943
0.0011039761507743583
0.0011259045726541416
0.0011441141682940114
0.0011586063803671021
0.0011693949641541864
0.0011765045203330916
0.0011799692090391804
0.0011798316813043767
0.0011761422777363953
0.0011689585592645317
0.0011583452534941498
0.001144374725478688
0.0011271281169850458
0.001106697348169952
0.0010831882462628037
0.0010567251660148697
0.0010274576080570423
0.0009955695390637862
0.0009612923891184741
0.0009249230608755148
0.0008868487255520162
0.0008475806315993785
0.0008077993758785966
0.0007684134694956172
0.000730630216456683
0.0006960304403985897
0.0006666232997035698
0.0006448341766987075
0.0006333599764973112
0.0006348466374585277
0.0002479823558428864
0.0002591210966497369
0.00029335681883376256
0.00034256858541638124
0.00039991390226115105
0.00046105052098424594
0.0005234303316462934
0.0005855282213658044
0.0006463781311212152
0.0007053272499954813
0.0007619074958297044
0.000815766810339081
0.0008666312051444957
0.0009142830174197401
0.0009585479377830788
0.0009992868877820857
0.0010363906158254584
0.0010697758263173512
0.0010993821740293206
0.0011251697478400404
0.0011471168374626438
0.0011652178772424788
0.0011794815216046718
0.0011899288436727981
0.001196591671656472
0.0011995110928631901
0.0011987361666671533
0.0011943228984370015
0.0011863335387732213
0.001174836288858234
0.0011599055160133587
0.001141622617146112
0.001120077716371053
0.0010953724533377524
0.0010676242202177384
0.001036972351438556
0.0010035869799069764
0.0009676815711627127
0.0009295305602641105
0.0008894940638776019
0.0008480522945456589
0.0008058528940039862
0.0007637743829851006
0.0007230069140259546
0.000685144590086241
0.0006522670778210892
0.000626958762945439
0.000612181469851257
0.0006109244173405482
0.00022918543963689145
0.00024508251957602265
0.00028496059798590207
0.000339246904685893
0.0004007454127774586
0.0004652648086773579
0.0005304641486804384
0.0005949704017636952
0.0006579143669284131
0.0007187021083449644
0.0007769006881306227
0.0008321789208494256
0.0008842753795594106
0.0009329803694974057
0.0009781252708099565
0.0010195758435629385
0.0010572276781732107
0.0010910028009612563
0.001120846891459923
0.001146726817996142
0.0011686283413808324
0.0011865539200720165
0.0012005205991580154
0.0012105579942038468
0.0012167063978877773
0.0012190150477655302
0.0012175406010570449
0.001212345869759965
0.0012034988789617843
0.0011910723252345193
0.0011751435330904809
0.0011557950390663034
0.0011331159798304504
0.0011072045296514523
0.0010781717337585196
0.0010461472325562027
0.0010112875892080682
0.000973788250706747
0.0009339006307311068
0.0008919564453103213
0.000848402279463184
0.000803848324529921
0.0007591358721285496
0.0007154271750650544
0.0006743154841363952
0.0006379362289305398
0.0006090250589090572
0.0005908198783606651
0.0005866905614225621
0.00021051131768771135
0.00023175998363271489
0.000277648726686426
0.0003370685152466666
0.0004026524013604873
0.00047047010667163524
0.0005384209401377885
0.0006052873435329961
0.0006702921861373109
0.0007328944196180883
0.0007926909973310061
0.0008493674823918668
0.0009026719752769761
0.0009524006657360199
0.0009983893419417207
0.0010405079877630072
0.00107865696784972
0.0011127640032866685
0.0011427815171922977
0.0011686841380906248
0.0011904662666589818
0.0012081396783554625
0.0012217311719381154
0.0012312802942138687
0.0012368371818397572
0.00123846056633793
0.0012362159919144574
0.0012301742996453622
0.0012204104382320053
0.0012070026729646473
0.001190032283270065
0.0011695838685592764
0.001145746426725405
0.0011186154365237482
0.00108829627470646
0.0010549094472032331
0.001018598335175538
0.0009795404877810537
0.0009379639861612495
0.0008941711257454217
0.0008485726851911895
0.000801737372706441
0.0007544623894654286
0.0007078713042456541
0.0006635413317896987
0.0006236461443904497
0.0005910605090785245
0.0005693059746771224
0.0005621720718680927
0.00019207713150146483
0.000219367036339288
0.0002716057910758846
0.0003361563970264833
0.0004057243245265878
0.00047674469414459855
0.0005473783911847925
0.0006165601315969514
0.00068359691152425
0.0007479930774022077
0.0008093694906835512
0.0008674239984527564
0.0009219110729331366
0.0009726307201826116
0.0010194219630611128
0.0010621585672977822
0.0011007458204036506
0.0011351177539511048
0.0011652345082835132
0.0011910797074092831
0.0012126578049804573
0.0012299914128706246
0.0012431186498801279
0.0012520905598387988
0.0012569686521809622
0.0012578226180566254
0.0012547282741114936
0.0012477657864351955
0.0012370182307685632
0.0012225705538387163
0.0012045090169802047
0.0011829212301387754
0.001157896926488637
0.001129529692107012
0.0010979199620906102
0.0010631797408206364
0.0010254397258856072
0.000984859853143398
0.0009416447967154581
0.0008960667427622464
0.0008484989262163186
0.0007994650763035651
0.000749711971913226
0.000700313932573003
0.0006528162148895348
0.0006094105780809492
0.0005730938758816526
0.0005476740687470493
0.0005374001813528512
0.00017404371560556967
0.0002081651542930758
0.00026702931672892033
0.00033663432253306014
0.0004100529935347283
0.0004841724904780496
0.0005574223249465134
0.0006288796146288989
0.0006979245822838554
0.0007640981173925368
0.0008270383660191906
0.0008864507164783487
0.0009420927886666369
0.0009937664051188786
0.0010413128136233724
0.0010846093498818035
0.0011235666465133761
0.0011581259589718738
0.0011882564234431397
0.0012139521930019284
0.0012352294678657852
0.0012521234701795415
0.0012646854281284418
0.0012729796369986375
0.0012770806615481072
0.001277070738358714
0.0012730374313016158
0.0012650715898560962
0.0012532656604968767
0.0012377124074676598
0.0012185041130992162
0.0011957323523203913
0.001169488475466249
0.0011398649945860715
0.0011069581617596893
0.0010708721703253522
0.0010317256285902088
0.0009896612943600207
0.0009448605876299703
0.000897565227590958
0.0008481096295703142
0.0007969696475272562
0.0007448359782501007
0.0006927236108292113
0.0006421295607479306
0.0005952411594416809
0.0005551550703239746
0.0005259622928279302
0.0005124108896534024
0.00015663324289895682
0.0001984705357287146
0.000264123691606086
0.00033862440436810344
0.0004157326765021625
0.0004928440522758172
0.0005686480153721577
0.0006423478380508002
0.0007133834111161574
0.0007813221265985483
0.0008458122495826301
0.0009065617588222636
0.0009633281930847384
0.0010159133255609682
0.0010641598519442
0.0011079487670840194
0.0011471968145117413
0.0011818537503932682
0.0012118993492501822
0.00123734017512403
0.0012582061888048277
0.001274547280396622
0.001286429818847725
0.0012939333034666953
0.0012971471916400526
0.0012961679652112805
0.0012910964875900168
0.0012820356963982708
0.0012690886738218536
0.001252357140339669
0.0012319404290021907
0.0012079350195463385
0.0011804347483756919
0.0011495318681499058
0.0011153192196794069
0.001077893915763887
0.001037363149136319
0.0009938530705174654
0.0009475222138872459
0.0008985817994462434
0.0008473266200159059
0.0007941824073380065
0.0007397789167021075
0.0006850624747214628
0.0006314656422112608
0.000581146874973257
0.0005372749344454825
0.0005042129014697436
0.00048724558080344004
0.00014015298958773272
0.00019065665702399894
0.00026309124067009184
0.00034224482019787697
0.00042286057438014495
0.0005028578726136263
0.0005811617709726912
0.0006570797337480997
0.0007300954793853719
0.0007997918601856702
0.0008658196587839903
0.0009278843660132285
0.000985740283703621
0.001039187486144925
0.0010880696594079864
0.0011322719358378259
0.001171718364560811
0.0012063689212974133
0.0012362160939055002
0.0012612811441283234
0.0012816101710445404
0.0012972701041705558
0.001308344743868027
0.0013149309499635746
0.0013171350605354622
0.0013150696045857693
0.0013088503568623364
0.001298593771929498
0.0012844148289446273
0.0012664253197053742
0.0012447326219274584
0.0012194390196732195
0.0011906416669943596
0.0011584333450953342
0.0011229042474404966
0.0010841451575104525
0.0010422525877338868
0.0009973367719388108
0.0009495339269625751
0.0008990250581177828
0.000846065009304219
0.0007910278286942685
0.0007344783814940549
0.0006772860041844441
0.00062080312804443
0.0005671335315459055
0.0005194849736078821
0.00048247258908069905
0.0004619517429749716
0.00012502890501578606
0.00018514590559065667
0.0002641210916355302
0.0003476081522835836
0.0004315377930999962
0.0005143220509138489
0.0005950828500926076
0.0006732051220716323
0.0007481987174172612
0.0008196501009884398
0.0008872046502823954
0.0009505602567728439
0.0010094649992243375
0.0010637159237986194
0.0011131576781238121
0.0011576805088408908
0.0011972174979860278
0.0012317410949905187
0.0012612590877455368
0.0012858101901276695
0.0013054594266531218
0.0013202934804479912
0.0013304161467685865
0.0013359440064902488
0.001337002406186541
0.001333721806298278
0.0013262345382430958
0.0013146719963493942
0.0012991622821171076
0.0012798283173852828
0.0012567864506797715
0.001230145599196073
0.0012000070007015932
0.0011664647005061718
0.0011296069776853411
0.0010895190374828815
0.0010462874898660164
0.0010000074436205455
0.0009507935519532442
0.0008987971925183771
0.000844233406715731
0.0007874237062173511
0.0007288651179000163
0.0006693429004882481
0.0006101147099251893
0.0005532032195385452
0.0005018170385639498
0.0004607928292274109
0.00043658382237546546
0.00011186643015812328
0.00018238001455716512
0.00026737762243022234
0.00035482080132383167
0.00044187093038452845
0.0005273564130584857
0.0006105457825309798
0.000690871094315218
0.0007678492262527049
0.0008410578016334382
0.0009101286739317258
0.0009747471045938008
0.0010346522551469865
0.0010896372673361316
0.0011395482879365388
0.0011842822884370813
0.0012237837692948873
0.001258040553015804
0.0012870789161130525
0.00131095831518927
0.001329765943281351
0.0013436113198304128
0.0013526210786025065
0.001356934077850381
0.0013566969196182567
0.001352059932755276
0.0013431736483892015
0.0013301857781483867
0.001313238694784042
0.0012924674124709591
0.0012679980706575707
0.0012399469422959713
0.0012084200172551409
0.0011735132594841182
0.00113531371042679
0.001093901725838219
0.0010493548138506017
0.0010017538335598676
0.0009511927955851543
0.0008977943247765305
0.0008417342695958218
0.0007832814707656523
0.0007228632358522908
0.0006611751055730689
0.00059936683508693
0.000539353798914003
0.0004843029598194331
0.000439230241818696
0.00041120425578174927
0.00010160373740777661
0.00018276135789928235
0.00027299127484814456
0.0003639838653309868
0.0004539743878838176
0.0005420951762184936
0.0006277031901360646
0.0007102448591761651
0.0007892240077580878
0.0008641965538704326
0.0009347726514273205
0.001000620122903652
0.0010614669671825576
0.0011171021680701503
0.001167374649146334
0.0012121905180275015
0.001251508888279697
0.0012853366281077895
0.001313722394095637
0.0013367502847199241
0.0013545334051479033
0.001367207581615949
0.001374925407687897
0.001377850751107346
0.0013761538022757582
0.0013700067056974553
0.0013595797850554502
0.0013450383512296814
0.001326540070463283
0.0013042328669079983
0.001278253340106533
0.001248725694463877
0.0012157612065063885
0.0011794583008445723
0.0011399033747781595
0.0010971726177843436
0.0010513352393992455
0.001002458789670854
0.0009506177078323311
0.0008959070113967395
0.0008384644141449966
0.0007785066684229002
0.0007163905925771112
0.000652717988365243
0.0005885195758010863
0.0005255784366601751
0.0004669741400375507
0.0004178469967240225
0.000385884745909264
9.584560709526601e-05
0.00018657440691100357
0.0002810546443453572
0.0003751957251451127
0.00046797351332709513
0.000558690273201888
0.0006467292214779824
0.0007315171551971656
0.0008125241817811729
0.000889271433412036
0.0009613392937740301
0.0010283737383105151
0.001090090009953534
0.0011462735219977096
0.0011967782112669379
0.0012415227385971094
0.0012804850144936563
0.0013136955458422064
0.0013412300739804404
0.0013632019202399522
0.0013797543846145335
0.001391053466528746
0.0013972811014102506
0.0013986290382490604
0.0013952934248464555
0.0013874701206261619
0.001375350722071153
0.001359119262648437
0.0013389495366866533
0.0013150029942819914
0.0012874271614731233
0.0012563545569216521
0.0012219021046550277
0.0011841710855089696
0.0011432477343861459
0.0010992046884224446
0.0010521036443715843
0.0010019998314859694
0.0009489493220793413
0.0008930209249144176
0.0008343157082812067
0.0007729996244578933
0.000709359365094426
0.0006439007228093198
0.0005775266683489041
0.0005118652293700409
0.00044986111417174397
0.0003967112648449922
0.00036070787273886716
9.677960020010426e-05
0.00019392354864486102
0.00029162561186262117
0.0003885563960108796
0.0004840086807016673
0.0005773154792016421
0.0006678237441366535
0.0007549063533335602
0.0008379787816553816
0.0009165142701176795
0.000990055662082025
0.00105822331187438
0.0011207190311582915
0.0011773263717810567
0.0012279077537061113
0.0012723990640852246
0.0013108023953579983
0.0013431775721615827
0.001369633055131235
0.0013903167203908567
0.0014054069110037539
0.0014151040525341842
0.0014196230277109454
0.0014191864205006343
0.0014140186705664136
0.0014043411259334255
0.0013903679441039623
0.001372302768444145
0.0013503360956573789
0.001324643249939157
0.001295382888811402
0.0012626959843101161
0.0012267052520436006
0.0011875150424095994
0.0011452117687065174
0.0010998650367602058
0.0010515297796431723
0.0010002499251659737
0.0009460645007874867
0.0008890177412622549
0.0008291759699116735
0.0007666563139027329
0.0007016768338074502
0.0006346468820738335
0.0005663357548582413
0.0004981969498639094
0.00043299309166261864
0.00037589772929951854
0.00033576917682221565
0.00010535428827570338
0.00020472858485176234
0.0003047372869385989
0.0004041735542544523
0.0005022404366298365
0.0005981715224138802
0.0006912174740618867
0.0007806633999574082
0.0008658492319470067
0.0009461873907805965
0.0010211759589092892
0.0010904068385369588
0.0011535690024360203
0.0012104473326636114
0.0012609177790067502
0.0013049396864312076
0.0013425461613408192
0.0013738332930169528
0.0013989489428094623
0.001418081681664705
0.0014314503152188468
0.0014392942993207776
0.0014418652271708052
0.0014394194677145953
0.0014322119555260655
0.0014204910746789551
0.0014044945410129723
0.0013844461659612093
0.0013605533777839628
0.00133300538003665
0.0013019718404475567
0.001267602025104001
0.0012300243232683586
0.0011893461494065921
0.0011456542660168937
0.0010990156530380662
0.001049479174438907
0.0009970784923778561
0.000941837015402094
0.0008837762596680687
0.0008229300953850553
0.0007593694615237961
0.0006932463989081457
0.000624875273030751
0.0005548888614381111
0.00048455096143157117
0.00041639750040414406
0.00035548816819159904
0.00031117991419040005
0.00012011220881666645
0.00021878313159863104
0.00032041275029375855
0.00042217008453544134
0.0005228558849052301
0.0006214924124703612
0.000717178266700161
0.0008090777809137113
0.0008964346232575025
0.000978587871916676
0.001054984508207679
0.0011251865101383042
0.0011888723331145378
0.001245833326764806
0.0012959660203508327
0.0013392613674238804
0.0013757920463752715
0.0014056988173548632
0.0014291767782742214
0.0014464621765100415
0.0014578202440401946
0.0014635343498420235
0.0014638966150806764
0.0014592000186263014
0.0014497319331021642
0.0014357689724586928
0.0014175729969156923
0.0013953881054236342
0.001369438445161853
0.0013399266782902334
0.0013070329654496955
0.0012709143517806774
0.0012317044743298858
0.001189513551263506
0.001144428667459601
0.0010965144460273477
0.0010458143063770626
0.0009923526851051412
0.0009361388905538247
0.0008771737831726273
0.0008154614441660677
0.0007510298951242323
0.0006839688520300486
0.0006145010348892887
0.0005431231456299638
0.0004708993472936692
0.0004000995582897623
0.0003355721123491258
0.00028707077575599324
0.00013894429462604587
0.0002358391290727792
0.0003386819209430984
0.000442693041301187
0.0005460765544786891
0.0006475532911962192
0.0007460188512205773
0.000840484721214153
0.0009300779051703138
0.0010140523178315797
0.001091798834679955
0.0011628499613094724
0.0012268782958408107
0.0012836893300506012
0.0013332097490940354
0.0013754726082945458
0.0014106007487896897
0.0014387896566561249
0.0014602907392384434
0.0014753957366010584
0.0014844227393094713
0.001487704067287004
0.0014855760888990838
0.0014783709274029284
0.0014664099108689817
0.0014499985659994297
0.001429422929055818
0.0014049469414715741
0.0013768107075514068
0.0013452294120362396
0.001310392722716873
0.0012724645356474045
0.001231582957329511
0.0011878604607645062
0.0011413842040772476
0.0010922165686415228
0.0010403960715163682
0.0009859389591791836
0.0009288420432699923
0.00086908778865463
0.0008066535068090019
0.000741528177321528
0.0006737439266045358
0.0006034370260491622
0.0005309719456294663
0.0004572093061461843
0.00038412190506564945
0.00031624755867368833
0.0002635969959454173
0.00016056534832008812
0.00025567686220855296
0.00035959842708803544
0.0004659240710368789
0.0005721681048201849
0.000676680204086468
0.0007781063593265131
0.0008752738709460658
0.0009671731148900067
0.0010529621370403443
0.0011319726788551298
0.0012037109208186524
0.0012678514058399393
0.001324224729737695
0.0013728004716157182
0.0014136671081278968
0.00144701058833484
0.0014730929955483803
0.0014922323907355707
0.0015047845868868832
0.0015111272883058093
0.0015116467664085566
0.0015067270429445217
0.0014967414111525558
0.0014820460378939361
0.0014629753451480486
0.0014398388568455196
0.0014129192071979982
0.0013824710314798902
0.0013487204935714592
0.00131186524236162
0.0012720746290023216
0.0012294900583793447
0.0011842253921309472
0.001136367370313382
0.0010859760806415236
0.0010330855895299277
0.0009777049789546856
0.0009198202476900677
0.0008593979154287127
0.000796391884037109
0.0007307565422133653
0.0006624721518691681
0.0005915955241703606
0.0005183661635178832
0.0004434438672089461
0.0003684843350552883
0.00029762166872821134
0.00024094544317797823
0.00018436191981447962
0.0002781455537722864
0.0003832555621616761
0.000492091576107478
0.0006014523738993956
0.0007092623147398738
0.0008138740856117712
0.0009138997621595883
0.00100817373695455
0.001095749215663488
0.0011758986689955838
0.0012481088509966821
0.0013120682479454025
0.0013676477500206272
0.0014148764843983357
0.001453915028586103
0.0014850280509993584
0.0015085580330163476
0.001524901256920866
0.001534486787012553
0.0015377587775624157
0.0015351621336798958
0.0015271313325890786
0.0015140820745389552
0.0014964053600168103
0.0014744635669074499
0.0014485881125969103
0.0014190783190251954
0.0013862011435385759
0.001350191488136188
0.0013112528499539746
0.001269558124346085
0.001225250418295232
0.0011784437773747656
0.0011292237771999645
0.0010776479858820981
0.0010237463772928236
0.0009675218837154894
0.0009089514543683915
0.0008479883008320437
0.000784566605065035
0.0007186111647068678
0.0006500570376094496
0.000578890266514794
0.0005052360155053164
0.00042956298031825044
0.0003532036802681587
0.00027981128126866405
0.0002193444319251314
0.00021005925160278948
0.000303180940523014
0.0004098016083274689
0.0005214851962526241
0.000634322479023996
0.0007457672465511709
0.0008538360177702558
0.0009568943460709327
0.0010536022339212386
0.0011429017609821005
0.0012240101955730063
0.0012964069574313945
0.0013598120447031656
0.001414157223282382
0.0014595526097702712
0.001496251477407135
0.0015246157506937949
0.0015450840497905243
0.0015581434923242212
0.0015643058685551972
0.0015640883299658619
0.0015579983868091647
0.0015465227887883342
0.0015301197442588329
0.0015092138923249276
0.0014841934549826585
0.0014554090426538702
0.0014231736502636132
0.0013877634511845194
0.0013494190656287912
0.001308347044316998
0.001264721365861489
0.0012186847975010626
0.0011703500153797716
0.0011198004257735024
0.001067090677828595
0.00101224692012524
0.0009552669426484283
0.00089612049032095
0.0008347502895302955
0.0007710748131583867
0.0007049947918148526
0.0006364076197341149
0.0005652388612832265
0.0004915131847313432
0.000415525038809263
0.0003382939036094639
0.0002629428879670866
0.0001990768725221338
0.00023756606689699948
0.0003308117270623466
0.0004394556868678528
0.0005544735385492403
0.0006712619564521618
0.0007867604461492693
0.0008986047897701407
0.0010048819200200964
0.001104060674903189
0.0011949698831830574
0.0012767817704980589
0.0013489876672092243
0.0014113639893821642
0.0014639307553335845
0.0015069062627402912
0.0015406615130867725
0.0015656772856895626
0.0015825058563707548
0.0015917384682971572
0.001593978919748535
0.0015898230828661616
0.0015798438072749505
0.0015645804650548725
0.001544532320691065
0.001520154922981957
0.001491858782319046
0.001460009690557148
0.0014249301436311534
0.0013869014273820645
0.0013461660180644052
0.001302930027778567
0.0012573654912525385
0.0012096123453861221
0.0011597799994258248
0.0011079484353510938
0.0010541688202665418
0.0009984636630698772
0.0009408266190455463
0.000881222161123446
0.0008195855402887754
0.0007558238457075862
0.0006898197670019781
0.0006214414009831159
0.0005505656065159857
0.0004771334174471955
0.0004012888960457733
0.00032376647334420743
0.0002471514403376149
0.00018049614824890565
0.00026691167301577445
0.0003611639312979403
0.0004725258690298017
0.00059152652523357
0.0007128692975368791
0.0008329297322638761
0.0009489138304643614
0.0010585967019797814
0.0011602421786815276
0.0012525701548677763
0.0013347267619791747
0.0014062442769110011
0.0014669900127003885
0.00151710805249661
0.001556958808079783
0.0015870608715369081
0.0016080384451015418
0.0016205763157439172
0.0016253831733247337
0.0016231631777305017
0.0016145950836352892
0.0016003178971037337
0.0015809219075112618
0.0015569439488405225
0.0015288658415119095
0.0014971151068823244
0.001462067201383638
0.0014240486668833769
0.0013833407276167727
0.001340182977352521
0.0012947768926608195
0.001247288981004129
0.0011978534290036612
0.0011465741605800337
0.001093526251283271
0.001038756679467271
0.0009822844342366607
0.0009241000552224828
0.0008641647691412338
0.0008024095493461463
0.0007387347346568077
0.0006730114807810147
0.0006050877268081661
0.0005348047618125096
0.0004620396124675191
0.00038681644148466887
0.00030963110211442037
0.0002325769946489052
0.00016403955914234223
0.00029822160137507706
0.0003944684292566505
0.0005094317455327498
0.0006332443041938234
0.0007598897437392996
0.000885116531627788
0.0010056445821555503
0.0011189031583295635
0.001222942516827326
0.001316387870708996
0.0013983908221014373
0.001468566924956262
0.0015269211958122927
0.001573767848448188
0.001609650973022054
0.001635271547099994
0.0016514242541501526
0.0016589457412721472
0.0016586744767156485
0.001651421359026916
0.0016379496506944793
0.0016189625705848125
0.0015950968782786168
0.0015669209269114303
0.0015349358769209422
0.0014995790007192185
0.001461228236246339
0.0014202073486381708
0.0013767912269209068
0.0013312109761325604
0.0012836585675690944
0.0012342908857145107
0.001183233065247681
0.0011305810508410686
0.001076403341798988
0.0010207419087616479
0.0009636122976773463
0.0009050029767970174
0.0008448740517843547
0.0007831556028624632
0.0007197461507515859
0.0006545122832673774
0.0005872916441243011
0.0005179043303911006
0.0004461854677455478
0.0003720758101402181
0.0002958969451816992
0.00021935791025856855
0.00015022240767422526
0.0003317120536591401
0.0004310749476932332
0.0005507342363637484
0.000680395464783676
0.0008132568904114892
0.0009443557132003619
0.0010698597010902501
0.0011868188524116867
0.0012930705871724642
0.0013871749269821051
0.001468338494790312
0.0015363203059988973
0.0015913254763681055
0.0016338965076281734
0.0016648109194331313
0.0016849913672077465
0.0016954314782139396
0.0016971381798419206
0.0016910895524009728
0.001678206212032843
0.001659333784958512
0.0016352339993639575
0.001606582135054844
0.0015739689074043906
0.0015379052339070862
0.0014988286856333233
0.0014571107344834274
0.0014130641600791098
0.0013669501776084692
0.0013189849957205393
0.001269345619760678
0.0012181747888169296
0.001165584983278979
0.0011116614701493057
0.0010564643727227394
0.0010000297657500822
0.0009423698137311584
0.0008834719977286713
0.0008232975298174941
0.0007617791615533588
0.0006988188112969938
0.0006342858971522496
0.0005680183004735527
0.0004998304255327897
0.0004295397677153456
0.000357045310764873
0.00028257436005955016
0.0002076194739919409
0.00013957756244997648
0.00036769647237071235
0.0004714752974207354
0.0005971763489167524
0.0007339684496004216
0.0008741475853386196
0.0010119263973638448
0.0011428430291085157
0.0012635389083990836
0.0013716554063338748
0.0014657400127146645
0.0015451293141092721
0.0016098095804458635
0.0016602676309083796
0.0016973460360397282
0.00172211351429214
0.0017357568497081474
0.0017394964953497093
0.0017345249513296553
0.0017219651373780807
0.0017028451320157574
0.0016780855298221997
0.0016484959886878254
0.0016147780736811075
0.0015775320981226146
0.0015372662232624147
0.0014944065598781868
0.0014493074030536175
0.0014022610280374184
0.0013535066918734559
0.0013032386369845395
0.0012516129935621284
0.0011987535403474405
0.0011447563190024087
0.00108969311463492
0.0010336138215504085
0.0009765477156022832
0.0009185036595839721
0.0008594692850430489
0.0007994092372940681
0.0007382626676246268
0.0006759403651148599
0.0006123223719906035
0.0005472579530228349
0.0004805723164748287
0.00041209142084562767
0.00034171817196077876
0.00026967732767340486
0.0001974579996081474
0.00013250779046692967
0.00040660274250232367
0.0005163393662625661
0.0006497401161860194
0.0007952417395151438
0.0009440548710173938
0.0010894165754903266
0.0012261466559544594
0.0013504599218461084
0.001459845527625
0.0015529259555918098
0.0016292780707126548
0.0016892297239728292
0.0017336538101399219
0.0017637789955630854
0.0017810294785447246
0.0017868990268999343
0.001782858978169864
0.0017702963874052882
0.0017504768450451948
0.0017245261587006335
0.0016934255730719563
0.0016580160708225152
0.0016190082684754388
0.0015769953297187734
0.0015324670861709855
0.0014858241608407085
0.0014373913412732294
0.0013874297707227726
0.0013361477434388582
0.0012837100295794105
0.0012302457378144786
0.0011758547664762976
0.0011206129103062167
0.0010645756894658923
0.0010077809583554423
0.0009502503406875018
0.0008919895312667293
0.0008329875134790894
0.0007732147803053477
0.0007126207459006494
0.0006511307584753977
0.0005886436212787204
0.0005250316695079346
0.0004601482732857386
0.00039385538682349275
0.0003261082170805247
0.00025722661423662016
0.00018892294395745108
0.00012909290108455737
0.00044900236737452804
0.0005665691748820724
0.000709727427525316
0.0008658808940286745
0.0010248853866010382
0.0011788046616654228
0.0013216442184487808
0.0014491988613690137
0.001558893979344284
0.0016495663392548873
0.0017211917411377197
0.001774592154705697
0.0018111562918938576
0.0018325978730891366
0.0018407636178445694
0.001837492707343782
0.0018245227053397903
0.0018034335626751505
0.0017756205015631316
0.0017422872894269454
0.001704452857081137
0.001662965846504774
0.001618523181802112
0.0015716900072559278
0.001522919298183645
0.0014725701481130972
0.0014209242163408368
0.0013682001336156671
0.0013145658556071589
0.0012601490605540818
0.0012050457369133035
0.0011493271192969112
0.001093045120964314
0.0010362363888971988
0.0009789250806438732
0.0009211244371738997
0.000862837210023946
0.0008040550042888522
0.0007447566395957549
0.0006849057450470535
0.0006244480688271081
0.0005633095790195771
0.0005013978130215711
0.0004386123538523859
0.0003748796601683043
0.0003102565756184612
0.0002452536980864492
0.0001820025103266656
0.00012899653091521374
0.000495655465986609
0.0006233794326010491
0.0007788764833577884
0.0009480742652064921
0.00111908974654255
0.0012825608235752443
0.0014315870351691874
0.001561598469658653
0.0016701173658530976
0.0017564096007710683
0.0018210728134593515
0.001865621049576711
0.0018921138878206047
0.0019028571072675525
0.0019001825092630083
0.0018863010213228208
0.0018632161743196948
0.0018326830025637022
0.0017961984432767178
0.0017550117798482722
0.0017101464930050641
0.0016624274605554063
0.0016125095344007973
0.0015609050840578898
0.0015080091903608313
0.0014541218975539266
0.0013994673832018246
0.0013442101652283431
0.0012884685973902957
0.001232325954741145
0.001175839411182329
0.001119047183507151
0.0010619740744503205
0.0010046356003837304
0.0009470408439619051
0.0008891941339483058
0.0008310956306883567
0.0007727408977077864
0.0007141195894354144
0.0006552135267224929
0.0005959947632798574
0.0005364249949348361
0.000476459400349166
0.00041606228703823804
0.0003552534839621906
0.00029423949255237217
0.00023380537315138296
0.00017661921255308625
0.00013156734542603667
0.0005475786944768749
0.0006884183155975326
0.0008595321477440362
0.0010447247681803643
0.0012298368071859051
0.0014037692436261362
0.0015586545081074689
0.0016897036983411088
0.0017948108871274438
0.0018739934553279167
0.0019287755811659
0.0019616107675701133
0.001975404132836078
0.001973157712700923
0.0019577342055519804
0.0019317192943164663
0.0018973576312649315
0.0018565389232597707
0.0018108148924611172
0.0017614329312536496
0.001709376814654156
0.0016554084201215937
0.0016001069954390738
0.0015439042598484653
0.0014871147239265787
0.0014299612586694643
0.0013725962856142807
0.001315119109116569
0.0012575899462167624
0.0012000411796143202
0.0011424862970768153
0.0010849269054554259
0.0010273581306145614
0.0009697726425950615
0.0009121634826579417
0.0008545258199776369
0.0007968577376425189
0.000739160153483881
0.0006814360477829296
0.0006236893531684082
0.0005659242852522965
0.0005081468422320375
0.0004503723891869887
0.0003926485762599463
0.0003351169120419272
0.00027817714981165636
0.00022294873395282044
0.00017263888235862456
0.00013604273898300203
0.0006061483415924716
0.0007639512356446506
0.0009548992442177842
0.0011597232938791234
0.0013612447908205516
0.001546267501800838
0.00170598015664038
0.0018356819236391758
0.0019340907403339069
0.00200244566113299
0.002043599071547262
0.0020612361851784456
0.0020592859255946557
0.002041527984810235
0.0020113661880961945
0.001971725553765236
0.001925031746716523
0.0018732394867076586
0.0018178858474919251
0.0017601526963037107
0.0017009288822360893
0.0016408671924294208
0.0015804339221659647
0.0015199505835263786
0.0014596281851742361
0.0013995949388250033
0.0013399183843448058
0.0012806229045286557
0.0012217035023819774
0.0011631365850228762
0.0011048883649154085
0.0010469213640709523
0.000989199395953308
0.0009316913054412075
0.0008743736708239517
0.0008172326163203502
0.0007602648560264083
0.0007034781060964183
0.0006468910943415806
0.0005905336352053764
0.000534447776126136
0.0004786922097676669
0.000423354840666415
0.00036858481547935395
0.0003146716306473514
0.00026224305638071504
0.00021277589216275308
0.00016989067914379273
0.0001417052833377865
0.0006732597665814503
0.0008531462889366416
0.0010694258184878696
0.0012983411134864604
0.0015186820561859963
0.0017147871788314687
0.001877115598264824
0.002001640312794305
0.002088620815636378
0.002141179604231034
0.002163999274190137
0.002162311302820977
0.00214121712619671
0.0021053000703892748
0.0020584534406902074
0.002003849452291367
0.0019439884037274976
0.0018807857048520683
0.0018156702282276674
0.0017496791360632267
0.0016835420494307365
0.0016177520810588845
0.0015526238102078229
0.0014883395133318716
0.0014249854249466672
0.001362579844779486
0.0013010947460871264
0.0012404722996643964
0.0011806374744869072
0.0011215076408696296
0.0010629998980224201
0.0010050366774901611
0.0009475500352220626
0.000890484934796911
0.0008338017406299271
0.0007774780840218733
0.0007215102440272383
0.0006659142179956588
0.0006107267838435938
0.0005560071631712554
0.0005018405650911085
0.0004483463367451308
0.000395696635463783
0.00034415884771414384
0.0002941924123182442
0.0002466728100178368
0.00020340720271718344
0.00016819089215757053
0.00014794731390374588
0.0007515807119612022
0.0009605290019478426
0.001209393801219463
0.0014677944014351088
0.0017091427993567584
0.0019150525535714359
0.0020758596897908627
0.002189263173318566
0.00225816201603617
0.0022884476751076775
0.002287207739603516
0.0022615012329653735
0.0022176627865646446
0.002161002296334522
0.0020957564570118947
0.0020251769986410475
0.0019516776628247115
0.0018769937047654
0.001802330052333872
0.0017284881425713497
0.001655969218370146
0.0015850557102463192
0.0015158738827096166
0.001448441257226173
0.0013827020726479983
0.0013185535652326377
0.00125586532761326
0.0011944935241735468
0.0011342913308368494
0.0010751166351873993
0.0010168377710523114
0.0009593378590676468
0.000902518170187994
0.0008463008135435469
0.0007906309680473447
0.0007354788285418111
0.0006808414301830756
0.0006267445715978612
0.0005732452270036281
0.0005204352213280937
0.00046844775156806536
0.0004174700239534687
0.00036776883471386696
0.00031974356185907987
0.0002740373853857666
0.00023176962268765846
0.00019499093319553783
0.0001673628159519675
0.00015427879534673662
0.000844967492869056
0.0010927284584485125
0.0013838463255480622
0.0016780516770722124
0.0019416752215192885
0.002153735723209189
0.0023058175067310204
0.0023991473818048875
0.002440863783484697
0.002440718822607202
0.00240876000126019
0.0023540131798241554
0.0022839285433825453
0.0022043017893621504
0.0021194390477491864
0.002032414669817572
0.001945338326045862
0.001859592576815854
0.0017760278397856055
0.0016951146978972883
0.0016170590294676652
0.0015418870246913475
0.0014695068769296398
0.0013997529388207722
0.0013324169766297537
0.0012672700900046721
0.0012040779752146005
0.0011426115084384372
0.0010826540906369228
0.0010240067963811332
0.0009664920756470421
0.0009099565443867212
0.0008542732466381533
0.0007993436638417289
0.0007450996777834715
0.0006915056613009021
0.0006385608849443655
0.0005863025144167768
0.0005348096893488042
0.0004842096326681834
0.0004346876670192528
0.00038650485531100916
0.00034003059678049753
0.00029580440857547
0.0002546529899589788
0.00021790170782464937
0.0001876962514886308
0.00016724798424490718
0.0001603151751530747
0.0009591771341397315
0.001259743035530522
0.0016060692337352233
0.0019429625912140112
0.002227759999399875
0.0024380449852597305
0.0025694481605207757
0.0026296577454673208
0.002632211756602954
0.0025918738023448526
0.002521976363093053
0.0024333288712239595
0.0023340819320908125
0.002230050653870954
0.0021251867484521226
0.0020220419681882106
0.0019221596522985749
0.0018263803257967716
0.0017350688997929782
0.0016482781372221381
0.0015658634720949391
0.0014875621261838464
0.001413046711719959
0.0013419609574118222
0.0012739431109407527
0.001208640975453633
0.001145721362138856
0.0010848758963422941
0.0010258245180626152
0.0009683176015614046
0.000912137331734195
0.0008570987791780666
0.000803050985153578
0.0007498782845894627
0.0006975020507047658
0.0006458830380748689
0.000595024542817032
0.0005449767179341355
0.0004958426390233836
0.0004477872261241097
0.00040105110101508717
0.00035597324564836443
0.0003130293968481474
0.000272897597905411
0.00023656565853135339
0.0002054836629239427
0.00018169552226499208
0.00016770763976260033
0.000165761983701716
0.0011031444150367009
0.0014771710024220094
0.0018959882814080925
0.002281741251546354
0.002581328611492132
0.0027744814315343756
0.0028661996740277106
0.002875079288272019
0.002823587400042789
0.002732289270646982
0.0026175136922812264
0.002491098237195944
0.0023610608590838612
0.0022325089082795143
0.0021084756358287883
0.0019905842249048375
0.0018795354297084306
0.0017754489253293643
0.0016780944788643603
0.0015870445151254962
0.0015017724935753127
0.001421714816199925
0.001346308653242706
0.0012750141410911482
0.0012073266292100945
0.001142782743319787
0.0010809627422860254
0.0010214907865778648
0.0009640341695897073
0.0009083021940328057
0.0008540451388412141
0.0008010536140946072
0.0007491585140716852
0.0006982317345458523
0.0006481878115825585
0.0005989866659222103
0.0005506377110853784
0.0005032057327472223
0.0004568192261110624
0.00041168238023784655
0.00036809275812235123
0.0003264680500375996
0.0002873868309801104
0.0002516482460353745
0.00022034747110546884
0.00019493185713251272
0.0001771321840846202
0.0001686155316823779
0.00017040113141333116
0.0012914147920592136
0.0017703010315710842
0.0022840598528844356
0.002720592158802896
0.0030175977712648986
0.003165851765355833
0.003189137501537636
0.0031228922655381643
0.0030005558443321925
0.0028480498636068805
0.0026832306128196405
0.0025173887735058013
0.002357105893324567
0.002205831924133272
0.0020650439552693566
0.0019350349564604401
0.0018154257531331865
0.001705485998406768
0.001604329286844029
0.001511027813971214
0.0014246767782950761
0.001344428045356589
0.0012695054526758065
0.0011992094930493378
0.0011329161512814202
0.0010700728031953044
0.001010192923041881
0.0009528506294742338
0.0008976756662490038
0.0008443491571800992
0.0007926003299735573
0.0007422043298155214
0.0006929812166224911
0.0006447962463269678
0.0005975615712766187
0.0005512395599097573
0.0005058480415677129
0.0004614679487397943
0.0004182540862732355
0.0003764501326470268
0.0003364094363075525
0.0002986233966103269
0.00026375800814791475
0.00023269306507196273
0.00020654070983236396
0.0001865862663264103
0.00017407341904211702
0.00016984384815035196
0.00017407966391081993
0.001549057691593547
0.0021819908051786217
0.0028173831009979645
0.0032933889246801167
0.0035487028051097123
0.0036049072238265724
0.0035194455790488375
0.003350335561569059
0.0031414017626601727
0.002920814285383346
0.002704769987268213
0.002501557041762185
0.0023146750468419205
0.0021449090954555163
0.001991610114035724
0.0018534476343779322
0.0017288345941571563
0.001616156185078316
0.0015138849660505322
0.0014206317283696644
0.0013351612457317603
0.001256389759444898
0.0011833737720861783
0.001115295467416427
0.0010514476154661954
0.0009912194209043617
0.0009340839910047156
0.00087958767776495
0.0008273413352188368
0.0007770134393886806
0.0007283249938839459
0.00068104616044955
0.0006349945958893733
0.0005900355382661591
0.000546083765221262
0.0005031076485265662
0.0004611356558824751
0.0004202658031754918
0.00038067871436537877
0.0003426550012413504
0.00030659731073170364
0.00027305573287039894
0.0002427503409675179
0.00021657325584637408
0.00019553410333504763
0.00018060303446217792
0.00017245319450443124
0.0001712440680817245
0.0001767005473029083
0.001922784585076161
0.0027882076231242232
0.0035683386576632124
0.00403742230884241
0.004171557013778136
0.0040623997835400865
0.0038188728184167272
0.0035215104957509935
0.0032171553912219435
0.002929232868971431
0.002667402338997611
0.002434035029794774
0.0022279822880589472
0.0020466135366323406
0.0018868576188116356
0.0017457012843702245
0.0016204029310638033
0.0015085624621783097
0.001408122142674695
0.0013173373637148124
0.0012347369723004198
0.0011590826651114753
0.0010893316736495203
0.0010246042976124383
0.0009641565468569495
0.0009073575721109505
0.0008536713507813395
0.0008026420618088453
0.0007538826362327726
0.000707066059220449
0.0006619191016122794
0.0006182182650888526
0.0005757878327980064
0.0005345000283703857
0.0004942774035177268
0.0004550976982528009
0.0004170015384981689
0.00038010341482583873
0.0003446063103842177
0.00031081982716240253
0.0002791800387195052
0.0002502652990460352
0.00022479416518355371
0.000203579759797712
0.00018740911539544717
0.00017684340488134128
0.00017201907217046642
0.00017262460385581238
0.0001782148652852859
0.00250629141155634
0.0037308436199723852
0.004640672730589277
0.004971756912979789
0.004839808571102441
0.004468335113319391
0.0040236246449555394
0.003588269780388597
0.0031952610520319773
0.002853074743217175
0.0025596716806971995
0.002309245916078799
0.002095222799490221
0.0019114659121117364
0.0017526732562294014
0.0016144273483417074
0.0014931120092242735
0.001385789967495329
0.0012900805145852367
0.0012040516268780582
0.0011261301280928576
0.001055029052145465
0.0009896898492524906
0.000929236811734507
0.000872941324891629
0.0008201939337832288
0.0007704826149871894
0.0007233759994733524
0.0006785105948086603
0.0006355813051866845
0.0005943347557297959
0.0005545651042114024
0.000516112179219757
0.0004788619270627552
0.0004427492837334442
0.0004077637051209003
0.0003739576540957458
0.00034145826258576563
0.00031048193601535137
0.0002813503726195665
0.0002545034824157615
0.00023049896638142322
0.00020998008741269583
0.00019358815405066436
0.0001818103709084489
0.00017480361064858802
0.00017230116703770808
0.00017372855010626919
0.0001786154458415662
0.003520959397891421
0.005273855045825631
0.00614603450156696
0.006026892404992584
0.005408888756330845
0.0046985392203781765
0.004049227342975042
0.0035004947277861324
0.0030494298232799895
0.002681020803594481
0.002379093406793253
0.0021296362715114295
0.0019214016987366413
0.0017456315769900264
0.0015955816000728248
0.0014660666687373019
0.0013530871091066215
0.0012535389996346817
0.0011649954312660156
0.0010855430850976594
0.0010136604834391572
0.0009481271594313823
0.0008879556453996887
0.0008323403117432667
0.0007806187049565958
0.0007322422279842067
0.0006867538793884792
0.0006437714055387598
0.0006029746888951633
0.0005640965453054664
0.0005269163706620402
0.0004912562887951407
0.00045697962645757656
0.0004239916878650374
0.0003922429191447618
0.00036173461967387726
0.0003325273073034035
0.0003047515274913923
0.00027862000884986093
0.0002544380877727267
0.00023260561335398104
0.00021359809481080586
0.00019791046217498506
0.00018595206136966293
0.0001779082193648166
0.00017362834503523356
0.00017262325804443416
0.00017422093675253917
0.00017793473533788572
0.005469202890325787
0.007898712005295697
0.008024998834381918
0.006845297721423755
0.0056087582364426685
0.004598314875736906
0.003822121987174178
0.003231261133183896
0.0027770185583997466
0.0024220258433472752
0.0021394596140162296
0.0019103915265451337
0.0017214326044869643
0.0015630171735826566
0.0014282206911545425
0.0013119589088226521
0.00121044520934562
0.0011208201205162535
0.0010408956026449296
0.0009689763599862604
0.0009037333668081482
0.0008441132093144089
0.0007892723072136069
0.0007385286472834222
0.0006913260141654198
0.0006472072727980235
0.0006057943173187239
0.0005667730289381473
0.0005298820938556771
0.0004949048958754272
0.00046166396566909315
0.00043001767120312936
0.0003998589904372011
0.0003711163243989207
0.00034375637610170026
0.00031778910109054876
0.0002932745428583219
0.0002703308347772255
0.00024914150546240954
0.00022995813139337496
0.00021309125656974749
0.00019887941468518875
0.00018762672740180275
0.00017951033505858506
0.00017448324462272414
0.00017222425112704305
0.00017218366386687127
0.00017371480741233653
0.00017626016774590625
0.010238038829322041
0.011903064706091461
0.009141474196135323
0.0067682559081541525
0.005164898192611929
0.004089488619607102
0.003347923997620659
0.0028163926960333837
0.0024212507242875464
0.0021177249441981074
0.0018778160534294144
0.0016834245043063389
0.0015224830617417318
0.0013867148556602057
0.0012702965418444777
0.0011690368581111705
0.0010798575691888706
0.0010004568334861987
0.0009290855978678119
0.0008643957780906284
0.000805335088978335
0.0007510728405411861
0.000700946700013131
0.000654423916616183
0.0006110727044195817
0.0005705408901046614
0.0005325398574894871
0.0004968324399972167
0.0004632238365702875
0.0004315549247229307
0.0004016975595123009
0.00037355160511958786
0.00034704355936640183
0.0003221267010561892
0.00029878269963027216
0.0002770245367530611
0.00025690032625013743
0.0002384970671235623
0.0002219423880328767
0.00020740088895290039
0.00019506007103732827
0.0001851002272534324
0.0001776453293250091
0.00017270026716557422
0.00017009311805650954
0.00016945317555237726
0.0001702558215865113
0.00017192546108482821
0.0001738192243152791
0.020544496099851622
0.01263590704159234
0.007857345837184733
0.005528501615368284
0.0041890371358595776
0.003356273061812338
0.002793326495569369
0.0023891402346963224
0.0020847246469101106
0.0018466712391660687
0.0016547710334511166
0.001496166547224905
0.00136232226093116
0.0012473694430887021
0.0011471522299296767
0.001058653603207682
0.0009796366192839536
0.0009084127081667706
0.0008436876740561674
0.0007844567146487275
0.0007299312298452857
0.0006794867610681059
0.0006326252912466121
0.00058894750324945
0.0005481320737102382
0.0005099200255648564
0.00047410278194977295
0.0004405129784952637
0.00040901737458473987
0.0003795114025713153
0.00035191503550784087
0.00032616975533800657
0.00030223647256141936
0.00028009428463128864
0.0002597399536676393
0.00024118791248884912
0.0002244704365257842
0.00020963730585757658
0.00019675380200304905
0.0001858952913015544
0.0001771361684991595
0.00017053104495849946
0.0001660873568316599
0.00016373125513705544
0.00016327206726333147
0.00016437394216805914
0.00016654704931089463
0.00016916801052131746
0.00017137906947575342

SCALARS STRAIN_XX float 1
LOOKUP_TABLE default
0.0007565006741059215
-0.006319599784759423
4.740736638788462e-05
-0.0011912622063055293
0.0007563333498508594
0.0007558313955840148
0.0007549948669354461
0.0007538238570722029
0.0007523184973735977
0.0007504789583757958
0.0007483054509850905
0.0007457982279587792
0.0007429575856523515
0.0007397838660307711
0.0007362774589412583
0.0007324388046443856
0.0007282683965985988
0.0007237667844930038
0.0007189345775213446
0.0007137724478888103
0.0007082811345410726
0.0007024614471024277
0.000696314270008918
0.0006898405668178771
0.0006830413846726203
0.0006759178588978958
0.0006684712176971159
0.0006607027869180871
0.0006526139948486191
0.0006442063769985448
0.0006354815808179651
0.0006264413702950613
0.0006170876303695522
0.0006074223710897881
0.0005974477314325847
0.0005871659826954265
0.0005765795313607356
0.0005656909213199767
0.0005545028353334735
0.0005430180955886309
0.0005312396632046511
0.0005191706365162835
0.0005068142479518617
0.0004941738593021655
0.0004812529551560191
0.00046805513425621486
0.0004545840985038692
0.000440843639310985
0.00042683762097033614
0.00041256996067536803
0.0003980446047825827
0.0003832655008621181
0.0003682365650276298
0.00035296164397384967
0.0003374444710749439
0.00032168861580814286
0.00030569742566055776
0.0002894739595485545
0.00027302091162363564
0.00025634052414783004
0.00023943448788727242
0.00022230382818420706
0.00020494877450860476
0.00018736861084275684
0.00016956150369206932
0.00015152430380992003
0.00013325231683341057
0.00011473903689480751
9.59758358300665e-05
7.695159875566876e-05
5.7652294399324414e-05
3.806046547970808e-05
1.8154620399325055e-05
-2.091497776806825e-06
-2.2709796078098504e-05
-4.373891046151844e-05
-6.522553158257866e-05
-8.722604734078508e-05
-0.00010980859528081366
-0.0001330556501046281
-0.00015706731660419804
-0.00018196556222384308
-0.00020789971534773515
-0.00023505368954751006
-0.0002636555930955013
-0.0002939906838642422
-0.00032641909340130545
-0.00036140047450940443
-0.0003995289059290832
-0.000441583344236344
-0.0004886022569036141
-0.0005419970013006946
-0.0006037293736666982
-0.0006766000245109561
-0.0007647357612972829
-0.0008744639004671997
-0.0010159339014013044
-0.0012066360457211444
-0.0014780688947842388
-0.0018995281334085838
-0.0025957062065658262
-0.004079480451553508
-0.005723580484722945
-0.0020735076457259285
0.001737636805238313
0.0012517323815120743
0.0010854074026331682
0.000894672104920639
0.000761037774977831
0.0006583233647091632
0.0005786868439036446
0.0005149878177375497
0.00046285764595412364
0.0004192949834423707
0.00038223674337132987
0.00035021829116522796
0.0003221778369639265
0.0002973297917256897
0.0002750828699460802
0.00025498535826165634
0.00023668776941556465
0.00021991680438810464
0.00020445685462815123
0.00019013663327799388
0.00017681936228480712
0.00016439546734662094
0.00015277706939880852
0.000141893781396547
0.00013168946553486754
0.00012211970499310162
0.00011314981211575387
0.00010475324197506235
9.69103131372457e-05
8.960716048391198e-05
8.283486093296592e-05
7.658868367429669e-05
7.086742320581638e-05
6.567277662653144e-05
6.100872647666136e-05
5.688088663348065e-05
5.329576058524417e-05
5.025984733331504e-05
4.7778507741512086e-05
4.585446945126921e-05
4.448579553393249e-05
4.3663062874951114e-05
4.336538103697288e-05
4.355473098125416e-05
4.4167895584951156e-05
4.5104454971633956e-05
4.6203534524716025e-05
4.708809178410184e-05
4.8255660693080626e-05
5.0456813972591524e-05
5.31811664966908e-05
5.5601650460382346e-05
5.714773795777173e-05
5.744319269587392e-05
5.6252269741097205e-05
5.3437839738563336e-05
4.89323643713159e-05
4.271811206989218e-05
3.481349823675553e-05
2.5263428208792404e-05
1.4132282551544695e-05
1.4986804692460054e-06
-1.2548531695157766e-05
-2.7913425143005072e-05
-4.4495501825683736e-05
-6.219173302761741e-05
-8.089822955157505e-05
-0.00010051161681252918
-0.0001209301666385866
-0.0001420547234957971
-0.00016378945363649394
-0.00018604243964494283
-0.00020872613890834946
-0.00023175772193417474
-0.0002550593046730526
-0.0002785580877582988
-0.0003021864146178846
-0.00032588175961517467
-0.0003495866566421389
-0.00037324857787296266
-0.00039681977166378807
-0.00042025706784510654
-0.0004435216578995496
-0.0004665788567584338
-0.0004893978521937382
-0.0005119514470415271
-0.0005342157987781766
-0.0005561701602919307
-0.0005777966250565883
-0.0005990798793269261
-0.0006200069634418777
-0.000640567043840962
-0.0006607511969742956
-0.0006805522059145485
-0.0006999643701584863
-0.0007189833288332968
-0.0007376058972950201
-0.000755829916920284
-0.0007736541177413309
-0.0007910779934577113
-0.0008081016882692197
-0.0008247258949107029
-0.0008409517632264659
-0.0008567808185974187
-0.0008722148895250678
-0.0008872560436775749
-0.0009019065317161876
-0.000916168738240344
-0.0009300451392145314
-0.0009435382652709517
-0.0009566506703150898
-0.0009693849048953915
-0.000981743493834791
-0.0009937289176577165
-0.0010053435973817661
-0.001016589882278006
-0.0010274700402378364
-0.0010379862504160658
-0.001048140597850404
-0.001057935069786812
-0.0010673715534660778
-0.0010764518351526935
-0.0010851776002102284
-0.0010935504340482544
-0.0011015718237857306
-0.0011092431604933428
-0.0011165657418940947
-0.0011235407754154646
-0.001130169381499871
-0.0011364525970925686
-0.0011423913792361021
-0.0011479866087105274
-0.0011532390936668333
-0.0011581495732082823
-0.0011627187208817064
-0.0011669471480459243
-0.0011708354070894978
-0.001174383994475336
-0.0011775933535924173
-0.001180463877398888
-0.0011829959108435064
-0.0011851897530543523
-0.0011870456592865328
-0.001188563842621906
-0.0011897444754151185
-0.001190587690481944
-0.0011910935820265835
-0.001168360169974136
-0.0011229332562004482
-0.001078244866237309
-0.0010342633513948612
-0.0009909569459998718
-0.0009482937768348712
-0.0009062418732666997
-0.0008647691778966735
-0.0008238435575728356
-0.0007834328146136505
-0.0007435046981016811
-0.0007040269151150477
-0.0006649671417740004
-0.0006262930339892179
-0.0005879722378077429
-0.0005499723992614596
-0.0005122611736318208
-0.00047480623405331035
-0.0004375752793863956
-0.00040053604129844443
-0.00036365629049886386
-0.00032690384208266865
-0.0002902465599438546
-0.0002536523602268177
-0.00021708921379109595
-0.00018052514767191014
-0.00014392824552596052
-0.00010726664705860207
-7.050854643548488e-05
-3.362218968895865e-05
3.424128862988173e-06
4.066207116014348e-05
7.812326087331473e-05
0.00011583928976698395
0.00015384172490272974
0.00019216211662634452
0.0002308320072732048
0.0002698829405178578
0.00030934647128482275
0.0003492541761285492
0.0003896376639816435
0.00043052858716151413
0.0004719586525166248
0.0005139596325848712
0.0005565633766282162
0.0005998018213998927
0.0006437070014928957
0.0006883110591115965
0.0007336462531023198
0.0007334824032545601
0.0006881541376157433
0.0006435569687032021
0.0005996586404124829
0.0005564270136148113
0.0005138300570645936
0.00047183583756788764
0.0004304125095763924
0.0003895283043653869
0.0003491515189470932
0.0003092505048634039
0.00026979365699397533
0.00023074940250722534
0.000192086190073072
0.00015377247944734816
0.00011577673152876665
7.806739898038605e-05
4.061291749858649e-05
3.3816978034295464e-06
-3.3657881584193606e-05
-7.053748072160326e-05
-0.00010728880373121974
-0.00014394360335481275
-0.00018053368454271123
-0.00021709090705306192
-0.00025364718704330307
-0.0002902344976437817
-0.0003268848685104251
-0.0003636303843602192
-0.000400503182500239
-0.0004375354493677317
-0.00047475941610585913
-0.0005122073532068382
-0.000549911564260939
-0.000587904378857116
-0.0006262181446890112
-0.0006648852189275841
-0.000703937958929412
-0.0007434087123582051
-0.0007833298068056695
-0.0008237335390066326
-0.0008646521637524295
-0.0009061178826158652
-0.0009481628326104511
-0.000990819074915959
-0.0010341185838119112
-0.0010780932359698294
-0.0011227748002637398
-0.0011681949282670713
0.0007329908716990582
0.0006876833899582057
0.000643106885753521
0.0005992291112464686
0.0005560179365742147
0.0005134413405710242
0.0004714674007567921
0.00043006428275827575
0.00038920022932227365
0.00034884354907290785
0.00030896260515760645
0.00026952580391813975
0.00023050158371451464
0.00019185840402071442
0.00015356473490226125
0.00011558904697648667
7.789980194729395e-05
4.0465443797201184e-05
3.254390710281608e-06
-3.376497220886411e-05
-7.062429936331103e-05
-0.00010735529019131521
-0.00014398969375311292
-0.00018055931234458908
-0.00021709600411319723
-0.0002536316846588715
-0.00029019832760996935
-0.00032682796417120454
-0.00036355268164732935
-0.000400404620953447
-0.00043741597312960486
-0.00047461897488396696
-0.0005120459031960381
-0.0005497290690182703
-0.0005877008101215705
-0.0006259934831381378
-0.0006646394548623909
-0.0007036710928786359
-0.0007431207555927196
-0.0007830207817533317
-0.0008234034795574964
-0.0008643011154439689
-0.0009057459026875936
-0.0009477699899171434
-0.0009904054496887415
-0.0010336842672566367
-0.001077638329692349
-0.0011222994155122743
-0.0011676991849825912
0.0007321717125253464
0.0006868988667377257
0.0006423567989936957
0.0005985132753658448
0.0005553361815652193
0.0005127935133515571
0.00047085336622112474
0.00042948392453938215
0.0003886534502790352
0.00034833027151685804
0.0003084827708348364
0.00026907937376265194
0.00023008853738969075
0.00019147873926582236
0.0001532184667010607
0.00011527620656488777
7.762043567674889e-05
4.021961187016346e-05
3.042165803709358e-06
-3.3943506416563764e-05
-7.076904974705138e-05
-0.00010746615580148065
-0.0001440665674914566
-0.00018060208268055492
-0.0002171045568278749
-0.00025360590460454314
-0.0002901381004732761
-0.00032673317822818563
-0.0003634232294989385
-0.0004002404012300437
-0.0004372168921529146
-0.00047438494827483523
-0.0005117768574159532
-0.0005494249428323191
-0.0005873615559699107
-0.0006256190684024761
-0.0006642298630133564
-0.0007032263244892802
-0.0007426408292026628
-0.0007825057345673749
-0.000822853367961901
-0.0008637160153230682
-0.0009051259095229391
-0.0009471152186511325
-0.0009897160343347788
-0.0010329603602379014
-0.001076880100891664
-0.0011215070510166613
-0.0011668728855071529
0.0007310250163032883
0.0006858006526475545
0.000641306785978612
0.0005975112021280924
0.0005543818088853693
0.0005118866259702738
0.00046999377429830075
0.00042867146470788165
0.0003878879863122223
0.0003476116946307708
0.00030781099964707936
0.00026845435393098045
0.0002295102409539033
0.00019094716371689878
0.00015273363380151887
0.00011483816094423052
7.722924322554518e-05
3.987535795572957e-05
2.7449533297209296e-06
-3.4193559084875715e-05
-7.097181097131389e-05
-0.00010762148295225565
-0.00014417430930467818
-0.00018066208166990773
-0.0002171166517355538
-0.00025356993287328
-0.00029005390072300526
-0.00032660059272116384
-0.00036324210657747054
-0.0004000105977109781
-0.00043693827566277423
-0.00047405739950936066
-0.000511400272307522
-0.0005489992346079961
-0.0005868866570821658
-0.0006250949323137484
-0.0006636564658148022
-0.000702603666333053
-0.0007419689355259707
-0.0007817846570856847
-0.0008220831854077288
-0.0008628968339058656
-0.0009042578630850117
-0.0009461984684942773
-0.0009887507686920257
-0.0010319467933648972
-0.0010758184717530924
-0.001120397621544083
-0.0011657159384063113
0.0007295509107135233
0.0006843888670175202
0.0006399569559248424
0.0005962229891591963
0.0005531549033690032
0.0005107207495343049
0.0004688886816857756
0.00042762694510843326
0.00038690386419517524
0.0003466878301072226
0.00030694728838977567
0.00026765072668185485
0.00022876666265006854
0.0001902636322662458
0.0001521101785390256
0.00011427484079993037
7.67261446345508e-05
3.943259254004673e-05
2.36265538073346e-06
-3.451523529551467e-05
-7.123269402551952e-05
-0.00010782138723823075
-0.00014431303806409422
-0.00018073943011608128
-0.00021713241021987687
-0.0002535238900781185
-0.000289945846860045
-0.000326430322714644
-0.0003630094232120056
-0.000399715314723857
-0.000436580220760489
-0.0004736364172876608
-0.0005109162270538375
-0.0005484520129643573
-0.0005862761705457144
-0.0006244211195508271
-0.000662919294763423
-0.0007018031360672406
-0.0007411050778540783
-0.0007808575378534235
-0.0008210929054754494
-0.0008618435297685151
-0.0009031417071023022
-0.0009450196686979674
-0.000987509568136904
-0.0010306434689903768
-0.0010744533327230758
-0.0011189710070339744
-0.001164228214808161
0.0007277495614291003
0.0006826636645714001
0.0006383074503478903
0.0005946487628762966
0.0005516555748019615
0.0005092959760081303
0.0004675381616631371
0.00042635041978074053
0.00038570111846196535
0.00034555869297790053
0.00030589163284348424
0.00026666846902280265
0.00022785776139648838
0.00018942808661145735
0.00015134802642320058
0.00011358615663073566
7.611103669409116e-05
3.8891200114706596e-05
1.8951456493557095e-06
-3.490867058095967e-05
-7.155184203407553e-05
-0.0001080660176975643
-0.00014448290701144005
-0.0001808342837340931
-0.00021715198873008818
-0.0002534679316654958
-0.0002898140916032626
-0.00032622251649738185
-0.0003627253215908098
-0.000399354686728298
-0.000436142852601314
-0.0004731221159481781
-0.0005103248237389603
-0.0005477833663807882
-0.000585530169985647
-0.0006235976877501689
-0.0006620183905038333
-0.000700824756489592
-0.0007400492604493652
-0.0007797243620952613
-0.0008198824940566518
-0.0008605560494029341
-0.0009017773688517918
-0.0009435787277833317
-0.0009859923231913962
-0.0010290502607145065
-0.0010727845419001168
-0.0011172270518671318
-0.0011624095475427155
0.0007256211732471889
0.00068062523639786
0.0006363584438779452
0.0005927886791555683
0.0005498839584503483
0.0005076124186131484
0.0004659423043732803
0.00042484195513373384
0.00038427979148630186
0.00034422430160887304
0.00030464402769712266
0.00026550755257270006
0.00022678348659938274
0.00018844045502792634
0.00015044708587960465
0.0001127719984679749
7.538379264809009e-05
3.82510388721099e-05
1.3422691204639238e-06
-3.5374031231379086e-05
-7.192943055945038e-05
-0.00010835555710879867
-0.00014468410404743323
-0.00018094683342992644
-0.00021717557905098417
-0.0002534022481758193
-0.00028965882214095767
-0.00032597735582512986
-0.0003623899759956644
-0.0003989288785416591
-0.0004356263246110004
-0.0004725146356739799
-0.0005096261875420416
-0.0005469934033760515
-0.0005846487457248856
-0.0006226247076420156
-0.0006609538029344874
-0.0006996685556063116
-0.0007388014885664483
-0.0007783851116800589
-0.000818451909251123
-0.0008590343270342841
-0.0009001647588841036
-0.000941875533160886
-0.0009841988990237152
-0.0010271670127531217
-0.0010708119242577357
-0.0011151655639314586
-0.0011602597300398917
0.0007231659914693777
0.0006782738111326266
0.0006341101452511784
0.0005906429241420211
0.0005478402156998948
0.0005056702123090668
0.0004641012171594375
0.0004231016301524799
0.0003826399335728171
0.000342684677690913
0.000303204466451706
0.0002641679433928113
0.00022554377792464368
0.00018730065209373768
0.00014940724793897854
0.00011183223553936591
7.454426184148348e-05
3.7511940344158836e-05
7.0384170752072e-07
-3.591151465550978e-05
-7.236566795619397e-05
-0.00010869022233540745
-0.00014491685206529016
-0.0001810773056220571
-0.00021720340861219875
-0.00025332706554081336
-0.0002894802604168834
-0.00032569505619611463
-0.0003620035930675153
-0.000398438085595172
-0.00043503081873202845
-0.00047181414272790396
-0.0005088204669592847
-0.0005460822527138516
-0.0005836320049687007
-0.0006215022632077236
-0.0006597255913303123
-0.0006983345667108552
-0.0007373617684763791
-0.0007768397650783206
-0.0008168011012439221
-0.0008572782844027206
-0.0008983037706941084
-0.0009399099506734856
-0.0009821291348466998
-0.0010249935391747728
-0.0010685352707038276
-0.0011127863134884038
-0.0011577785149896787
0.0007203843035287078
0.0006756096563490298
0.0006315627984728971
0.0005882117151969502
0.0005455245348014914
0.0005034695143528656
0.0004620150249539753
0.00042112953663397956
0.00038078160305748477
0.00034093984622227683
0.0003015729413029808
0.0002626496017860504
0.0002241385650294678
0.0001860085783685076
0.00014822838587700218
0.00011076671588174958
7.359226931648598e-05
3.667370899114297e-05
-2.0350158603247214e-08
-3.652134978604333e-05
-7.286079576592389e-05
-0.00010907026470730376
-0.00014518140931716648
-0.00018122596259225664
-0.00021723574082357333
-0.00025324264540430415
-0.00028927866343764864
-0.0003253758671463469
-0.00036156641209090086
-0.0003978825342083164
-0.0004343565456879449
-0.0004710208297058489
-0.000507907834044092
-0.0005450500636263112
-0.0005824800720063037
-0.0006202304518525162
-0.0006583338244778045
-0.000696822828470734
-0.0007357301074925462
-0.0007750882973125304
-0.0008149300121638459
-0.000855287830512221
-0.0008961942803409505
-0.0009376818240674557
-0.000979782843219504
-0.0010225296230124078
-0.0010659543369824
-0.001110089031845962
-0.0011549656127693235
0.0007172764408605555
0.0006726330801530387
0.0006287166841480681
0.0005854953019781197
0.0005429371317176107
0.0005010105049298217
0.0004596838707136263
0.000418925779447109
0.00037870486641332384
0.0003389898354810735
0.00029974944300087435
0.00026095248206336677
0.00022256776725443415
0.00018456412002840092
0.00014691035480803605
0.00010957526590773998
7.252761536437703e-05
3.573612174895655e-05
-8.305499784093428e-07
-3.720379751791978e-05
-7.341508914069583e-05
-0.0001094959704261324
-0.00014547806979957285
-0.00018139310285091546
-0.0002172728754212552
-0.00025314928545067177
-0.00028905432358557653
-0.00032502007254899467
-0.00036107870528168107
-0.0003972624818663536
-0.0004336037452514973
-0.00047013491579513697
-0.0005068884846536335
-0.0005438970060449972
-0.0005811930884208324
-0.0006188093845868346
-0.0006567785808177295
-0.0006951333850191563
-0.0007339065139966803
-0.0007731306799007318
-0.0008128385759254851
-0.0008530628613500786
-0.0008938361460224383
-0.000935190974398087
-0.0009771598092596244
-0.0010197750152571908
-0.0010630688424250144
-0.0011070734098448645
-0.0011518206896435012
0.0007138427810141021
0.0006693444329781581
0.000625572120973565
0.0005824939676464342
0.0005400782510629848
0.0004982933878498923
0.000457107915894902
0.00041649047681128397
0.000376409798356721
0.0003368346769835844
0.0002977339606836867
0.0002590765322766297
0.00022083129327675884
0.00018296714845987167
0.00014545299123738025
0.00010825768993254373
7.135007504081818e-05
3.469892754455824e-05
-1.7270316589026915e-06
-3.795915116702074e-05
-7.402885728024053e-05
-0.00010996766097814097
-0.00014580716364073976
-0.00018157906149914775
-0.00021731514880608718
-0.00025304731972203325
-0.0002888075689177695
-0.0003246279908986521
-0.00036054077805962515
-0.0003965782174837275
-0.0004327726865003353
-0.0004691566470226657
-0.0005057626386879596
-0.0005426232708275033
-0.0005797712132975919
-0.0006172391862079057
-0.0006550599485891205
-0.0006932662860477036
-0.0007318909974634797
-0.0007709668807937497
-0.0008105267180571747
-0.0008506032595813398
-0.0008912292076096952
-0.0009324371993765874
-0.000974259789773277
-0.0010167294337431808
-0.0010598784685609023
-0.001103739096166595
-0.0011483433657451345
0.0007100837500002778
0.000665744109574541
0.0006221294673853026
0.0005792080301914651
0.000536948167131782
0.0004953183913020316
0.0004542873409626003
0.0004138237605871629
0.0003738964819487142
0.00033447440542427447
0.000295526481684226
0.0002570216939171362
0.00021892904072577776
0.0001812175198148802
0.000143856112576892
0.00010681376966808673
7.005939765399783e-05
3.356184679090155e-05
-2.710100001791671e-06
-3.878773693381497e-05
-7.470244386598682e-05
-0.00011048569353597288
-0.0001461690574696341
-0.00018178421056633135
-0.00021736293435239626
-0.0002529371189020164
-0.00028853876342927896
-0.000324199975558667
-0.00035995296928449346
-0.000395830061632662
-0.00043186366804071747
-0.00046808629647486163
-0.0005045305403054573
-0.0005412290699653049
-0.0005782146234184362
-0.0006155199954718303
-0.0006531780259671195
-0.0006912215868948724
-0.0007296835684814224
-0.00076859686430629
-0.0008079943555175096
-0.00084790889422308
-0.0008883732861488796
-0.0009294202726670882
-0.0009710825123141343
-0.0010133925619335116
-0.0010563828575966933
-0.0011000856954738953
-0.001144533212846108
0.0007059998248706424
0.000661832551185456
0.0006183891233522572
0.0005756378438671372
0.0005335471850023135
0.0004920857686575348
0.0004512223459229571
0.00041092577657172687
0.00037116500868458963
0.00033190905859224273
0.00029312699130445215
0.0002547879015783334
0.00021686089576168882
0.00017931507453122515
0.0001421195166298836
0.00010524326369262695
6.865530623609563e-05
3.232457087439028e-05
-3.7800911890516522e-06
-3.968991435421659e-05
-7.54362274723073e-05
-0.0001110504613281161
-0.00014656415474408185
-0.0001820089592993235
-0.00021741664266231936
-0.00025281909054064214
-0.00028824830725483687
-0.00032373641494617907
-0.0003593156514305621
-0.0003950183667126829
-0.000430877018176329
-0.0004669241644683403
-0.0005031924580955732
-0.0005397146367560142
-0.0005765235134279628
-0.0006136519652447612
-0.0006511329211864672
-0.0006889993486251583
-0.0007272842387670317
-0.000766020591042375
-0.0008052413965038633
-0.0008449796203043791
-0.0008852681833382225
-0.0009261399431438062
-0.0009676276741818438
-0.0010097640476205527
-0.001052581610778429
-0.0010961127663959807
-0.0011403897519294069
0.0007015915365206993
0.0006576102479025222
0.0006143515323076977
0.0005717838007271616
0.0005298756417082565
0.0004885957993113422
0.00044791315087110443
0.00040779668478888476
0.0003682154785646251
0.0003291386772586104
0.000290535472555041
0.0002523750825812571
0.00021462673261832277
0.00017725963682141876
0.00014024298105170908
0.00010354590690538434
6.713749701075791e-05
3.098676165032614e-05
-4.937373247989766e-06
-4.0666076717245166e-05
-7.623062193236907e-05
-0.00011166239395162312
-0.00014699289601170456
-0.00018225375437551426
-0.00021747672173699187
-0.00025269367919105893
-0.0002879366367794391
-0.0003232377326252802
-0.0003586292306708887
-0.00039414351703376553
-0.00042981309499662485
-0.00046567057864753175
-0.0005017486851871741
-0.0005380802259210023
-0.0005746980959554295
-0.0006116352626199921
-0.0006489247526404328
-0.0006865996380922227
-0.0007246930211699657
-0.00076323801781541
-0.000802267740256228
-0.0008418152785186605
-0.0008819136809897574
-0.0009225959341199726
-0.000963894941373813
-0.0010058435015547142
-0.0010484742866511243
-0.0010918198193736362
-0.0011359124505766422
0.000696859472709652
0.0006530777411899557
0.0006100171832063035
0.0005676463322480244
0.0005259339074641655
0.0004848487895494075
0.0004443599965414704
0.0004044366597650295
0.00036504800013701093
0.0003261633050281247
0.00028775190585546154
0.0002497831565609765
0.000212226413111158
0.00017505101413427515
0.0001382262627934698
0.00010172140997693455
6.550563887051784e-05
2.954805096341171e-05
-6.182346475758975e-06
-4.171665142664257e-05
-7.708607663297092e-05
-0.00011232195759993213
-0.00014745575907357337
-0.000182519080008113
-0.00021754365703174623
-0.0002525613664246261
-0.00028760422462432766
-0.0003227043872752847
-0.00035789414683908114
-0.0003932059287819221
-0.00042867228635482825
-0.00046432589398141095
-0.0005001995392675171
-0.0005363261136464264
-0.0005727386016734838
-0.0006094700689857017
-0.0006465536489439338
-0.0006840225279785605
-0.0007219099296651155
-0.0007602490975631398
-0.000799073276860405
-0.0008384156948756894
-0.0008783095404863224
-0.0009187879425622766
-0.0009598839475062682
-0.0010016304960193496
-0.0010440603992341168
-0.0010872063143819916
-0.0011311007201874322
0.0006918042812869281
0.0006482356265658505
0.0006053866126936357
0.0005632259110251959
0.0005217223869307904
0.00048084507342811584
0.0004405631448480583
0.0004008458907777769
0.0003616626905026866
0.0003229829881469065
0.0002847762686895429
0.0002470120350122242
0.00020965978611217352
0.00017268899659446895
0.0001360690975374781
9.976945880723641e-05
6.375937287945463e-05
2.8008040212342598e-05
-7.515443800562071e-06
-4.2842100280464536e-05
-7.80030767093144e-05
-0.00011302965517380784
-0.0001479532590165358
-0.0001828054579081932
-0.00021761797135858534
-0.00025242267068662026
-0.00028725157947011727
-0.00032213687249613805
-0.0003571108732315373
-0.0003922060498315232
-0.0004274550097018749
-0.0004628904926282024
-0.0004985453624833973
-0.0005344525975224173
-0.000570645279272383
-0.0006071565800260688
-0.0006440197489477619
-0.0006812680968029
-0.0007189349793272363
-0.0007570537792576735
-0.0007956578870553569
-0.0008347806803623117
-0.0008744555022465095
-0.0009147156383061022
-0.0009555942927222004
-0.0009971245633713672
-0.0010393394161328337
-0.0010822716585519717
-0.0011259539130510448
0.0006864266736135241
0.0006430845564264454
0.0006004604073727741
0.0005585230525264285
0.0005172415205033408
0.0004765850136490503
0.0004365228793990392
0.00039702458206434816
0.0003580596752710824
0.0003195977752578574
0.00028160853521079596
0.00024406162079186188
0.00020692668699286317
0.00017017335642511352
0.00013377119913365401
9.768971400500682e-05
6.189831181920091e-05
2.636629998048801e-05
-8.937131053730332e-06
-4.40429196387853e-05
-7.898214310661758e-05
-0.00011378602624001875
-0.00014848594807621298
-0.00018311344706300667
-0.0002177002245939193
-0.00025227814694980187
-0.00028687924567421977
-0.0003215357164083134
-0.00035627991620810736
-0.0003911443593640411
-0.000426161711738483
-0.00046136478363291043
-0.0004967865211925136
-0.0005324599963522734
-0.000568418395325742
-0.000604695005636126
-0.0006413232016887812
-0.0006783364288854283
-0.0007157681862836724
-0.0007536520078109173
-0.0007920214420496106
-0.0008309100306213555
-0.0008703512852111382
-0.0009103786632891409
-0.0009510255426073196
-0.0009923251945710742
-0.0010343107566118536
-0.001077015203715571
-0.0011204713192940322
0.0006807274281640625
0.0006376252429972789
0.000595239206150051
0.0005535383168830874
0.000512491785603859
0.0004720690024108687
0.0004322395059683907
0.00039297295297389804
0.00035423908845345746
0.0003160077170935101
0.00027824867579069883
0.00024093180757508352
0.0002040269370364629
0.00016750384735915322
0.00013133225904762613
9.548181040397097e-05
5.992203979852332e-05
2.4622369757567367e-05
-1.0447907123582721e-05
-4.531964044685762e-05
-8.002383247231138e-05
-0.00011459164679777865
-0.00014905441528769375
-0.00018344364328533942
-0.00021779101314470164
-0.00025212838611811763
-0.00028648780263445714
-0.00032090148099933136
-0.00035540181454444945
-0.0003900213672480068
-0.0004247928678421444
-0.00045974920241749625
-0.0004949234055287497
-0.0005303486497995002
-0.000566058234019988
-0.000602085569727812
-0.0006384641662593839
-0.0006752276142595957
-0.0007124095676394274
-0.0007500437239754698
-0.0007881638033523342
-0.0008268035256594334
-0.000865996586367131
-0.0009057766308241035
-0.000946177227138305
-0.0009872318377280379
-0.0010289737896576295
-0.0010714362439035812
-0.0011146521637319562
0.0006747073942935903
0.0006318584613919599
0.0005897237026385965
0.0005482723106975881
0.0005074736979559103
0.00046729746221729003
0.000427713352905087
0.0003886912380462981
0.0003502010722788352
0.000312212866094755
0.0002746966565025261
0.00023762247926241095
0.0002009603428212754
0.0001646802040463084
0.00012875194583213898
9.314535663275671e-05
5.783011194846929e-05
2.2775757779481584e-05
-1.2048303958723668e-05
-4.667282807654133e-05
-8.112873683719765e-05
-0.00011544712880744444
-0.0001496592858755464
-0.0001837966784834358
-0.0002178909691207177
-0.0002519740141267967
-0.00028607786384442723
-0.00032023476116302386
-0.0003544771384835669
-0.0003888376131296413
-0.0004233489812212084
-0.00045804421001917925
-0.0004929564287406351
-0.0005281189178365628
-0.0005635650967168902
-0.0005993285099021631
-0.0006354428115768593
-0.0006719417485172993
-0.0007088591413676492
-0.0007462288642406001
-0.0007840848226255373
-0.0008224609295967205
-0.0008613910803274391
-0.0009009091249334161
-0.0009410488396899975
-0.000981843896693028
-0.0010233278320634599
-0.0010655340128295663
-0.0011084956026586202
0.0006683674961490973
0.0006257850527564611
0.000583914647596439
0.0005427256888422517
0.0005021878128160027
0.0004622708466163819
0.0004229447714569547
0.000384179686997218
0.000345945776915826
0.0003082132759424308
0.00027095243853200615
0.00023413350933384482
0.0001977266955767666
0.00016170214146288758
0.00012602990463501425
9.067993475752519e-05
5.562205422803324e-05
2.0825941017052256e-05
-1.37388863845353e-05
-4.8103081944387673e-05
-8.229748303934174e-05
-0.00011635311943164814
-0.00015030122032973507
-0.00018417321959475377
-0.000218000759153882
-0.0002518156906784752
-0.0002856500755802478
-0.00031953618337161123
-0.00035350648842762155
-0.00038759366517740143
-0.0004218305817422876
-0.00045625029202674833
-0.0004908860262574281
-0.0005257711799551341
-0.0005609393013146229
-0.0005964240769592193
-0.0006322593160310145
-0.0006684789325730825
-0.0007051169261585947
-0.0007422073607233964
-0.0007797843415640123
-0.0008178819904717696
-0.0008565344189865928
-0.0008957756997717381
-0.0009356398361328694
-0.0009761607297315016
-0.0010173721465746607
-0.0010593076813993274
-0.0011020007206116286
0.0006617087367028283
0.0006194059274730092
0.0005778128513711362
0.0005368991562212067
0.0004966347261341588
0.0004569896408443356
0.0004179341359837254
0.00037943856458661656
0.0003414733600810492
0.0003040090009869338
0.00026701597750499774
0.00023046476014577369
0.00019432577051407102
0.00015856935433257495
0.00012316575675836306
8.808510001873804e-05
5.329736336833321e-05
1.8772365347983836e-05
-1.552025169256414e-05
-4.961103486071911e-05
-8.353073183980453e-05
-0.00011731029993271156
-0.0001509809131071532
-0.0001845739671203436
-0.0002181210827993707
-0.00025165410754903253
-0.00028520511515158257
-0.00031880640391364465
-0.0003524904932044737
-0.00038629011841716915
-0.00042023822437104027
-0.00045436795715924835
-0.0004887126544320672
-0.0005233058340925047
-0.0005581811813683394
-0.0005933725342138858
-0.0006289138669858215
-0.000664839272330761
-0.0007011829412184949
-0.0007379791410547117
-0.0007752621918109292
-0.0008130664401170824
-0.0008514262312746294
-0.0008903758791656072
-0.0009299496340557977
-0.0009701816483183002
-0.0010111059401372974
-0.0010527563552912666
-0.0010951665271598503
0.0006547322018812464
0.0006127220683942471
0.0005714191863194838
0.0005307934694629203
0.0004908150756112719
0.00045145436234267
0.0004126818440307401
0.0003744681503452716
0.0003367839865126318
0.0002996000955591499
0.00026288722272102614
0.00022661608216568052
0.00019075732613261218
0.00015528151656678268
0.0001201590992849474
8.536038068556755e-05
5.085550698631579e-05
1.6614445950272895e-05
-1.7393028957643847e-05
-5.119735205792337e-05
-8.482917667264133e-05
-0.0001183193841639889
-0.0001516990908921981
-0.00018499965318977157
-0.00021825267044595792
-0.00025148998638873906
-0.0002847436886419866
-0.00031804610662356284
-0.0003514298078362753
-0.00038492759258788867
-0.00041857248715954543
-0.0004523977354248443
-0.0004864367889044611
-0.0005207232952239946
-0.0005552910849271327
-0.0005901741565821771
-0.0006254066601076998
-0.0006610228782336872
-0.0006970572060084358
-0.0007335441282593897
-0.0007705181949176844
-0.0008080139941227058
-0.0008460661230350942
-0.0008847091563036081
-0.0009239776121541844
-0.0009639059160991585
-0.001004528362300099
-0.0010458790726595103
-0.0010879919537653466
0.0006474390647588555
0.0006057345340739974
0.0005647345891667303
0.0005244094385063903
0.00048472954161612883
0.0004456655611133999
0.00040718831623066053
0.00036926873813039173
0.0003318778272845096
0.00029498661314390794
0.00025856611628017516
0.00022258731313911555
0.0001870211035048154
0.00015183828073467683
0.00011700950479000987
8.250527805425982e-05
4.8295923902321657e-05
1.4351567959406894e-05
-1.9357878032794378e-05
-5.286272984091899e-05
-8.619354196564693e-05
-0.00011938111658597612
-0.0001524565103425429
-0.0001854510390789161
-0.00021839628065476715
-0.00025132407593611095
-0.0002842665280555529
-0.00031725600002040113
-0.00035032511072944934
-0.00038350672944007956
-0.00041683396870676424
-0.0004503401757910779
-0.00048405892252212585
-0.0005180239935655307
-0.0005522693730394554
-0.000586829229398432
-0.0006217378984902518
-0.0006570298646782758
-0.0006927397399127217
-0.0007289022406298078
-0.0007655521623568889
-0.0008027243519068013
-0.000840453677055561
-0.0008787749936141338
-0.0009177231098282069
-0.0009573327480702754
-0.0009976385038257748
-0.0010386748020194698
-0.0010804758507806708
0.0006398305897815865
0.0005984444619558072
0.000557760063264271
0.0005177479280396061
0.0004783788479216652
0.00043962381987309226
0.0004014539959962811
0.00036384063547735134
0.00032675505893396987
0.00029016860539466207
0.0002540525920891679
0.00021837827718260432
0.00018311682554102756
0.0001482392775737431
0.00011371652115841203
7.951926661954842e-05
4.5618024699807625e-05
1.1983087436502256e-05
-2.1415488166301535e-05
-5.460789379645712e-05
-8.762458096140337e-05
-0.00012049626973029977
-0.0001532539552378888
-0.0001859289120942425
-0.00021855269683728569
-0.00025115714855367154
-0.00028377438777832853
-0.0003164368137647289
-0.0003491771001969126
-0.00038202818939111084
-0.00041502328501041917
-0.0004481958432904971
-0.0004815795627487725
-0.0005152083723245979
-0.0005491164178738686
-0.0005833380469197594
-0.0006179077915415576
-0.0006528603492674033
-0.0006882305618244686
-0.0007240533915918628
-0.0007603638955989323
-0.0007971971969145965
-0.0008345884532823997
-0.0008725728228720082
-0.000911185427041274
-0.0009504613100337882
-0.0009904353955758494
-0.001031142440384233
-0.00107261698465195
0.0006319081369791845
0.0005908530714754724
0.000550496680700026
0.0005108098587435039
0.0004717637622138613
0.00043332975396125377
0.00039547934896377174
0.00035818416271140565
0.0003214158623715275
0.00028514612096521615
0.0002493465747303023
0.0002139887837950107
0.00017904419623662542
0.00014448411555269502
0.0001102796715292548
7.640179445174888e-05
4.282119257002155e-05
9.508332699977395e-06
-2.356657617916209e-05
-5.6433596490765344e-05
-8.91230729604471e-05
-0.00012166564102679547
-0.0001540922329409702
-0.00018643408172811687
-0.00021872272317388934
-0.0002509899959848642
-0.0002832680402531442
-0.0003155892943332622
-0.00034798649021427195
-0.00038049264744233766
-0.00041314106561994406
-0.000445965315477734
-0.0004789992284845875
-0.0005122768849315017
-0.0005458326003962479
-0.0005797009104692343
-0.0006139165535968421
-0.0006485144518782156
-0.0006835296896350999
-0.0007189974895626147
-0.0007549531862635316
-0.0007914321969689111
-0.0008284699892548899
-0.0008661020455806578
-0.0009043638244956003
-0.0009432907183946279
-0.0009829180077413962
-0.0010232808117291124
-0.001064414035407823
0.0006236731661206896
0.0005829616670276032
0.0005429455842092497
0.0005035962082884371
0.00046488509632102186
0.00042678401095298975
0.0003892648621398962
0.0003522996517782706
0.00031586042153890475
0.0002799192041321
0.00024444797817571866
0.00020941862677946888
0.0001748028999038299
0.0001405723805003652
0.0001066984543927854
7.315228381544079e-05
3.990478448860025e-05
6.926606078542975e-06
-2.5811884134691055e-05
-5.8340614577680156e-05
-9.068981989987802e-05
-0.0001228900488993142
-0.00015497217007045866
-0.0001869673749799991
-0.00021890717966387943
-0.0002508234242209653
-0.0002827482707563201
-0.0003147141998005766
-0.00034675400530184306
-0.00037890078825420013
-0.00041118794899232497
-0.0004436491781462002
-0.00047631844621403847
-0.0005092299916762534
-0.0005424183075390936
-0.0005759181261647027
-0.0006097644022156224
-0.0006439922935162113
-0.0006786371396126437
-0.0007137344377978524
-0.0007493198163585264
-0.0007854290047985182
-0.0008220978007980493
-0.0008593620336814281
-0.0008972575241879021
-0.0009358200403720199
-0.0009750852495015107
-0.0010150886658726872
-0.001055865594526379
0.0006151272407606146
0.0005747716407400556
0.0005351079888270627
0.0004961080120235387
0.0004577437061048892
0.00041998726991992227
0.00038281104270100424
0.0003461874447471176
0.0003100889217763326
0.0002744878931777092
0.00023935670432696722
0.00020466758306669677
0.00017039260039077714
0.0001365036353154108
0.00010297234386696344
6.97701320698402e-05
3.686813277686035e-05
4.237186150441673e-06
-2.8152176424042128e-05
-6.032974523071774e-05
-9.232564217165603e-05
-0.00012417032802638936
-0.00015589460727492762
-0.00018752963072735064
-0.00021910689618749254
-0.00025065824735633947
-0.0002822158711538272
-0.00031381229360660616
-0.00034548037441383
-0.00037725330026478843
-0.00040916457694222625
-0.00044124802020340946
-0.00047353774538907577
-0.0005060681556689625
-0.0005388739287924176
-0.0005719900021751349
-0.0006054515561181228
-0.0006392939949242562
-0.0006735529256523304
-0.0007082641342282775
-0.0007434635586195874
-0.0007791872587729815
-0.00081547138301769
-0.0008523521306475013
-0.0008898657104155802
-0.000928048294707664
-0.0009669359692013901
-0.0010065646778737117
-0.00104697016328469
0.00060627203211672
0.0005662844749929024
0.000526985183216741
0.0004883463632921858
0.00045034049094773063
0.00041294024027657716
0.0003761184163863524
0.00033984789193500166
0.00030410154785575684
0.0002688522185004085
0.00023407264135733735
0.00019973541142961546
0.00016581294029087434
0.00013227741977334465
9.910079018434143e-05
6.625471289573959e-05
3.3710547106423846e-05
1.4393305406952084e-06
-3.0588236183581996e-05
-6.240180180350127e-05
-9.403137357463282e-05
-0.00012550732365190114
-0.0001568603929856395
-0.00018812169301830894
-0.00021932270544786298
-0.00025049528029783593
-0.0002816716325022956
-0.00031288433717675574
-0.0003441663237050067
-0.0003755508687272554
-0.00040707158806811846
-0.00043876242759483593
-0.0004706576529474966
-0.0005027918380343919
-0.0005351998521389348
-0.0005679168454407377
-0.0006009782327119238
-0.0006344196749130562
-0.0006682770583819331
-0.0007025864712829248
-0.0007373841769661546
-0.0007727065838758177
-0.0008085902116453762
-0.0008450716530257101
-0.0008821875313115885
-0.0009199744529620074
-0.0009584689551528436
-0.0009977074480561443
-0.001037726151709478
0.0005971093227126432
0.0005575017446105648
0.0005185785305998284
0.00048031241329904916
0.0004426763927621244
0.0004056436601421029
0.00036918752542075724
0.00033328134959533765
0.00029789848163217815
0.00026301220041470086
0.00022859566183240534
0.00019462185107817372
0.00016106354014584756
0.0001278932504498107
9.508322042377964e-05
6.26053778988604e-05
3.043131701203348e-05
-1.4677206440785685e-06
-3.312086095057328e-05
-6.455760861247397e-05
-9.580785528314926e-05
-0.00012690188481899624
-0.0001578703760136994
-0.00018874440314562584
-0.00021955543464808854
-0.0002503353301814029
-0.00028111633634818204
-0.00031193108124966834
-0.00034281256803324485
-0.00037379416752987647
-0.0004049096100256842
-0.00043619297615637704
-0.0004676786868570578
-0.0004994014922439225
-0.000531396459250278
-0.0005636989577877554
-0.0005963446451554659
-0.0006293694483764079
-0.000662809544102535
-0.0006967013356984739
-0.0007310814270903299
-0.0007659865929508535
-0.0008014537447865121
-0.0008375198924970785
-0.0008742221009949824
-0.0009115974415006495
-0.0009496829371726974
-0.0009885155027885605
-0.0010281318782631443
0.0005876410097102793
0.0005484251186470843
0.000509889469205241
0.0004720073704449672
0.0004347523944411612
0.0003980982941389586
0.0003620189258941803
0.00032648817710608
0.0002914798992592687
0.0002569678465999751
0.00022292562058106452
0.00018932662012215488
0.0001561439976469791
0.00012335062078158655
9.091903952559473e-05
5.882145864556838e-05
2.7029714985519468e-05
-4.4847406544305205e-06
-3.575085745348921e-05
-6.679799472442095e-05
-9.765592870267936e-05
-0.00012835485638764316
-0.0001589253968434526
-0.0001893985903473435
-0.00021980589574496247
-0.00025017918633535275
-0.00028055074456426253
-0.00031095325575411915
-0.00034141980104365733
-0.00037198384965061787
-0.00040267925050870576
-0.0004335402232660411
-0.00046460134856752384
-0.0004958975574796114
-0.0005274641198536223
-0.0005593366313638901
-0.000591550998901296
-0.0006241434239517372
-0.0006571503835439575
-0.0006906086083132098
-0.0007245550571972534
-0.0007590268882602599
-0.000794061425129897
-0.0008296961185335822
-0.0008659685024331176
-0.000902916144283989
-0.0009405765889871852
-0.0009789872961587062
-0.001018185570415945
0.0005778691078480351
0.0005390563616752518
0.0005009195121445211
0.00046343249903592256
0.00042656951765696776
0.00039030493054065555
0.0003546131845174399
0.0003194687335863599
0.0002848459679095543
0.00025071914915208385
0.00021706235228730617
0.00018384941388927857
0.00015105388683970536
0.00011864900128925524
8.660763163344725e-05
5.4902269193365716e-05
2.3505000231941866e-05
-7.612511111518276e-06
-3.84790354216802e-05
-6.912378661886402e-05
-9.957642706944836e-05
-0.0001298670696814888
-0.0001600262774590726
-0.00019008506096478107
-0.00022007487410564464
-0.00025002760861460955
-0.0002799755875481462
-0.00030995155806255096
-0.000339988683667489
-0.0003701205360869882
-0.0004003810867869292
-0.00043080469815474985
-0.00046142611424329367
-0.0004922804509175866
-0.000523403185171674
-0.0005548301433142477
-0.0005865974876574846
-0.0006187417012839037
-0.0006512995704130698
-0.0006843081638447709
-0.0007178048089179082
-0.0007518270633970646
-0.0007864126826826611
-0.000821599581736175
-0.0008574257911211887
-0.0008939294065849093
-0.0009311485316446677
-0.0009691212127010268
-0.0010078853662742488
0.0005677957518910913
0.0005293973344798197
0.0004916702466099079
0.0004545891172620031
0.00041812881990560134
0.00038226437767145053
0.0003469708746644182
0.00031222337386236395
0.0002779968419331089
0.00024426608118715133
0.00021100566876973306
0.00017818990308480966
0.00014579275733825608
0.0001137878399895669
8.214836181243812e-05
5.084710918674406e-05
1.985642317889116e-05
-1.0851816084815835e-05
-4.130620028590585e-05
-7.153579958082669e-05
-0.00010157016563575537
-0.00013143933159418414
-0.00016117380952534424
-0.00019080458587223033
-0.00022036311537753056
-0.00024988131391489633
-0.0002793915505932931
-0.0003089266394350296
-0.00033851983085462557
-0.0003682048030877506
-0.00039801565363799946
-0.00042798689072579606
-0.00045815342464009196
-0.0004885505588100724
-0.0005192139803325041
-0.0005501797496125049
-0.0005814842887015659
-0.0006131643678479299
-0.0006452570897128094
-0.0006777998706519795
-0.0007108304184173784
-0.0007443867055986304
-0.0007785069381012529
-0.0008132295179481878
-0.0008485929996954072
-0.0008846360397723185
-0.0009213973380945047
-0.0009589155713522549
-0.0009972293174542656
0.0005574231984890672
0.0005194499940433996
0.00048214333228014696
0.0004454785943301168
0.00040943139068391667
0.0003739774594490421
0.00033909257160064706
0.00030475244369425336
0.0002709326583816181
0.0002376085929419959
0.0002047553559127119
0.00017234773177832608
0.00014036013355917128
0.00010876656302991788
7.754057819964644e-05
4.665526759822306e-05
1.6083230841287154e-05
-1.4203435110923202e-05
-4.4233144627357895e-05
-7.40348276639877e-05
-0.00010363793026595461
-0.00013307241196807654
-0.00016236874072600438
-0.0001915578859748437
-0.0002206713103641481
-0.00024974096065879517
-0.00027879925822605223
-0.0003078790894518158
-0.00033701379634511436
-0.00036623716750097267
-0.0003955834294992167
-0.0004250872387223253
-0.00045478367348047934
-0.0004847082262374983
-0.0005148967956392549
-0.0005453856779576004
-0.0005762115574784155
-0.0006074114952839636
-0.0006390229158083865
-0.0006710835904818143
-0.0007036316177249299
-0.0007367053985127651
-0.000770343606695441
-0.0008045851532465596
-0.0008394691436077757
-0.0008750348273126661
-0.0009113215391061708
-0.0009483686308290823
-0.000986215393412441
0.0005467538273246568
0.000509216392701196
0.0004723404988055272
0.000436102346620784
0.0004004783466710509
0.00036544500994894363
0.00033097884678688866
0.00029705627416640396
0.0002636535318169674
0.0002307466073102509
0.00019831117021072383
0.00016632251520329062
0.00013475551398481366
0.00010358457558248726
7.278361465107465e-05
4.2326027204421415e-05
1.2184673156533042e-05
-1.7668135015095642e-05
-4.7260638215748646e-05
-7.66216320466808e-05
-0.00010578046424985414
-0.00013476702903887362
-0.00016361175904354018
-0.0001923456155524776
-0.00022100007768170596
-0.0002496071310279747
-0.00027819925628561927
-0.00030680941821696877
-0.00033547105527056823
-0.0003642180700402886
-0.00039308482065378227
-0.0004221061130719611
-0.0004513171941738234
-0.0004807537453949055
-0.0005104518765838744
-0.0005404481196414775
-0.0005707794214105731
-0.0006014831351968146
-0.0006325970102177099
-0.0006641591782041898
-0.0006962081363151369
-0.0007287827254731194
-0.0007619221031896924
-0.0007956657099231
-0.000830053228001807
-0.0008651245321550918
-0.0009009196307199346
-0.0009374785966427632
-0.0009748414874677404
0.0005357901414241779
0.000498698676327083
0.00046226354222920563
0.00042646183272458064
0.0003912708257731235
0.00035666786685620484
0.0003226302611345226
0.00028913517513287136
0.0002561595483150298
0.00022368001474715703
0.00019167283488428512
0.0001601138373554502
0.00012897837047176814
9.824126304244936e-05
6.787679395896511e-05
3.7858669899839664e-05
8.160010419960525e-06
-2.124666038032076e-05
-5.038941645835738e-05
-7.929692758254381e-05
-0.00010799845311884837
-0.00013652383271884786
-0.00016490347474365323
-0.00019316834320658388
-0.00022134994395072599
-0.0002494803106970851
-0.000277591991506879
-0.00030571803609988823
-0.00033389198436164385
-0.0003621478562576279
-0.0003905201432545318
-0.00041904380122839203
-0.0004477542447189459
-0.0004766873422706289
-0.000505879412484104
-0.0005353672202896807
-0.0005651879728465958
-0.0005953793143712383
-0.000625979319104024
-0.0006570264815399535
-0.0006885597029736117
-0.0007206182733464363
-0.0007532418473342132
-0.0007864704135777186
-0.0008203442559409973
-0.0008549039056816917
-0.0008901900834387619
-0.0009262436299868363
-0.0009631054247756414
0.0005245347664868784
0.00048789908139801417
0.00045191432018602384
0.00041655854719783135
0.0003818099798734904
0.0003476468636545312
0.00031404735707544476
0.00028098942759822824
0.00024845075856672473
0.00021640866747071235
0.00018484003552365837
0.00015372124837711152
0.00012302814762362433
9.27359925828534e-05
6.281943172503564e-05
3.325248296577799e-05
4.008521967821294e-06
-2.4939722489286957e-05
-5.362016706090235e-05
-8.206136732560022e-05
-0.00011029250722731024
-0.00013834338546786463
-0.0001662443998044394
-0.0001940265301450144
-0.00022172132125631975
-0.0002493608658050454
-0.0002769777883472892
-0.0003046052307649823
-0.0003322768395239866
-0.000360026754999059
-0.0003878896029777424
-0.000415900488320541
-0.00044409499062021164
-0.000472509161569852
-0.0005011795236193849
-0.0005301430693745827
-0.0005594372610726213
-0.0005891000293546068
-0.0006191697704498382
-0.0006496853407899923
-0.0006806860479853416
-0.0007122116370205274
-0.0007443022704661721
-0.0007769985014567118
-0.0008103412381557607
-0.0008443716984207613
-0.0008791313533906917
-0.0009146618587568493
-0.0009510049725402871
0.0005129904490744465
0.00047681993076704446
0.00044129474570228427
0.000406394012858924
0.0003720969661131137
0.0003383828203861721
0.00030523064929425994
0.0002726192749014007
0.00024052716996883126
0.0002089323728807187
0.00017781241521427167
0.00014714426171627245
0.00011690426225382069
8.706811512897031e-05
5.7610840988921066e-05
2.850676642881603e-05
-2.7048372464110826e-07
-2.874798654171925e-05
-5.695351467663086e-05
-8.491552478429663e-05
-0.00011266314183606973
-0.00014022614047573166
-0.0001676349245051371
-0.0001949205055155448
-0.0002221144815881882
-0.00024924901687906975
-0.0002763568227810646
-0.000303471141223686
-0.00033062573053047853
-0.00035785485410792903
-0.00038519327209013
-0.0004126762359130489
-0.0004403394856424478
-0.0004682192497313534
-0.0004963522467385708
-0.0005247756884002733
-0.0005535272833131215
-0.0005826452403604643
-0.0006121682708944936
-0.0006421355885778647
-0.0006725869056890847
-0.0007035624246087844
-0.00073510282313034
-0.0007672492321796169
-0.0008000432044873952
-0.0008335266727370356
-0.0008677418957108536
-0.0009027313909852211
-0.0009385378527798421
0.0005011600534857437
0.00046546362795690755
0.00043040677939985145
0.00039596977142584847
0.00036213293650548236
0.00032887653279736664
0.00029618061395421955
0.00026402491255664924
0.00023238873758690414
0.00020125088611117428
0.00017058956909645167
0.0001403823510529972
0.00011060610297219042
8.123696782752498e-05
5.225033772821437e-05
2.3620841664224556e-05
-4.677657338656742e-06
-3.2672056923455887e-05
-6.039000329207223e-05
-8.785987362978047e-05
-0.00011511075440527276
-0.00014217241685063526
-0.00016907529086194085
-0.00019585043847314355
-0.00022252952794755846
-0.00024914480940536454
-0.0002757290927652696
-0.000302315728627338
-0.00032893859256494717
-0.00035563207312948363
-0.0003824310637041857
-0.0004093709581758265
-0.0004364876502265559
-0.0004638175358845447
-0.0004913975188124585
-0.0005192650176586199
-0.0005474579746479881
-0.0005760148644492224
-0.0006049747022217342
-0.0006343770496236058
-0.0006642620174480574
-0.0006946702634552113
-0.0007256429838782543
-0.0007572218970101742
-0.000789449217222237
-0.0008223676177303123
-0.0008560201804129501
-0.0008904503309993695
-0.0009257017579896477
0.0004890465571231084
0.0004538326497650941
0.0004192524198859235
0.00038528737227349653
0.0003519190256686326
0.00031912875966325083
0.0002868976762299227
0.00025520647659098934
0.00022403535386215099
0.00019336390162588745
0.0001631710383116216
0.00013343494699041185
0.00010413302993942514
7.524187710188589e-05
4.673724736681679e-05
1.8594061424175403e-05
-9.213595181711717e-06
-3.6712460273215195e-05
-6.39300760658256e-05
-9.089476455105864e-05
-0.00011763559877163914
-0.00014418237147692666
-0.00017056556256820178
-0.00019681630663841284
-0.00022296636178383163
-0.00024904808071874395
-0.00027509438506339917
-0.00030113874350360596
-0.00032721515434019867
-0.00035335813276213724
-0.00037960270299082456
-0.0004059843952568549
-0.00043253924738643774
-0.00045930381059454796
-0.00048631515890643203
-0.0005136109014599382
-0.00054122919677833
-0.0005692087679481312
-0.0005975889174900154
-0.0006264095405729528
-0.0006557111350942893
-0.0006855348070323995
-0.000715922269375141
-0.0007469158328391005
-0.0007785583865235358
-0.0008108933665913485
-0.0008439647110415859
-0.0008778167986368294
-0.0009124943700785492
0.00047665304413616136
0.00044192953694856393
0.0004078336920854851
0.0003743483590637449
0.00034145633643177346
0.00030914020806315076
0.0002773821959397573
0.0002461640302013151
0.0002154668369231821
0.0001852710437619668
0.0001555563032880874
0.00012630143351517037
9.748437484731107e-05
6.908216240377981e-05
4.107091245311094e-05
1.3425821499850202e-05
-1.3878823579449882e-05
-4.08696260574265e-05
-6.757405229964769e-05
-9.402039891200304e-05
-0.00012023775584802608
-0.0001462559671702797
-0.00017210559106382558
-0.00019781786057472333
-0.0002234246463968957
-0.00024895842286100237
-0.0002744522380944028
-0.00029993968912558227
-0.0003254549025033177
-0.00035103252079429445
-0.0003767076951156009
-0.0004025160836525444
-0.00042849385590983894
-0.0004546777022465861
-0.00048110484805378604
-0.0005078130717485192
-0.0005348407255809187
-0.0005622267580804191
-0.0005900107368063782
-0.0006182328699152403
-0.0006469340249136879
-0.0006761557428348239
-0.0007059402459543979
-0.0007363304370583083
-0.0007673698881831715
-0.0007991028166817677
-0.0008315740464181418
-0.0008648289518772053
-0.0008989133829856548
0.00046398269710696974
0.0004297568827307586
0.0003961526332451103
0.0003631542539722977
0.0003307459230459742
0.000298911516351467
0.0002676344510488854
0.00023689754853706366
0.00020668291735217786
0.0001769718561214857
0.0001477447763225323
0.0001189811442424216
9.065944120011571e-05
6.275714079652308e-05
3.52507016997555e-05
8.115574261836298e-06
-1.867378089842708e-05
-4.514386432181074e-05
-7.132210117826313e-05
-9.723679882260583e-05
-0.0001229171004417386
-0.00014839293671886416
-0.00017369497732268085
-0.00019885458387997295
-0.00022390376591412803
-0.0002488751410355003
-0.00027380190045759385
-0.00029871778069040663
-0.00032365704203369226
-0.00034865445426223666
-0.00037374528966506665
-0.000398965323373638
-0.0004243508406924631
-0.00044993865093017303
-0.0004757661070207025
-0.0005018711300238711
-0.0005282922374019918
-0.0005550685737844212
-0.0005822399427555425
-0.000609846838033654
-0.0006379304722490646
-0.0006665328013805696
-0.0006956965427713105
-0.0007254651845195583
-0.0007558829839303177
-0.0007869949526221713
-0.0008188468258144644
-0.0008514850132773999
-0.0008849565294171578
0.0004510387865154261
0.00041731731884439354
0.0003842112763054683
0.0003517065392042917
0.00031978877169700935
0.0002884432345402789
0.00025765461878895493
0.0002274069013957164
0.0001976832232434586
0.00016846578970781522
0.00013973579341810074
0.00011147335847405064
8.365750499467108e-05
5.626613253484228e-05
2.92760206141057e-05
2.662844365873562e-06
-2.359879686182611e-05
-4.953534023940882e-05
-7.517421186458315e-05
-0.00010054377318784489
-0.00012567326374133734
-0.00015059274235596604
-0.00017533302890768447
-0.00019992564845507858
-0.0002244027794236533
-0.00024879720726405795
-0.00027314228476816725
-0.0002974718999741472
-0.0003218204523346691
-0.0003462228375652127
-0.00037071444133489253
-0.0003953311417134579
-0.00042010932004645125
-0.00044508587969701403
-0.0004702982718682125
-0.000495784527503595
-0.0005215832940563873
-0.0005477338757186811
-0.0005742762755104741
-0.0006012512374449644
-0.0006287002868110483
-0.0006566657664467028
-0.0006851908667193062
-0.0007143196467827382
-0.0007440970445481794
-0.0007745688726894613
-0.0008057817979092016
-0.0008377833006222623
-0.000870621612175132
0.000437824657695447
0.00040461349879086913
0.0003720116303045592
0.0003400066354540825
0.0003085857779827868
0.0002777358017774299
0.0002474427541138914
0.0002176918335989313
0.0001884672633814706
0.00015975218970186163
0.0001315286053488918
0.00010377729711802115
7.647781592549365e-05
4.9608467843648835e-05
2.314632399284084e-05
-2.9327530382140387e-06
-2.865406876524569e-05
-5.404404501770199e-05
-7.913015947947933e-05
-0.00010394087924124731
-0.00012850559096865634
-0.0001528545301612812
-0.00017701871180114605
-0.00020102986447563618
-0.00022492036981641012
-0.0002487232088310288
-0.00027247191642479894
-0.00029620054512365795
-0.0003199436387204314
-0.0003437362162805281
-0.0003676137666628926
-0.00039161225344041097
-0.00041576812984182084
-0.0004401183630857882
-0.00046470046723725515
-0.0004895525434851201
-0.0005147133265187846
-0.000540222235468455
-0.0005661194276682202
-0.0005924458533021777
-0.000619243308801848
-0.0006465544866771575
-0.0006744230192852422
-0.0007028935138721224
-0.0007320115760639017
-0.0007618238188406646
-0.0007923778539014603
-0.0008237222622278001
-0.0008559065405825345
0.000424343714961591
0.0003916480779605552
0.000359555657432716
0.0003280558769223293
0.00029713772097731154
0.00026678952056777457
0.00023699876518108688
0.00020775194279544756
0.00017903440835450842
0.00015083028077449937
0.00012312236793373776
9.589211854165803e-05
6.911959927769374e-05
4.278349514485623e-05
1.686113060947014e-05
-8.671491195303235e-06
-3.3839634134172153e-05
-5.866976265974582e-05
-8.31894664281202e-05
-0.00010742737900617979
-0.00013141309363309047
-0.000155177078834369
-0.00017875059647173548
-0.00020216562455571967
-0.00022545478686143076
-0.00024865129108034875
-0.0002717888769207849
-0.0002949017752448045
-0.000318024679005872
-0.00034119272643404414
-0.0003644414966081618
-0.0003878070172590371
-0.00041132578436537314
-0.000435034792835496
-0.0004589715773119676
-0.00048317426189176506
-0.0005076816173205071
-0.0005325331239934969
-0.0005577690388774621
-0.0005834304642536223
-0.0006095594159738387
-0.0006361988887170732
-0.0006633929155337951
-0.0006911866187716605
-0.0007196262492899091
-0.0007487592106955503
-0.0007786340651750757
-0.0008093005173579505
-0.0008408093725390826
0.0004105994025501848
0.0003784236902153325
0.0003468452463137976
0.00031585548245579654
0.00028544523345726963
0.0002556045273444602
0.00022632238551500766
0.0001975866544151367
0.00016938386941064303
0.00014169915083543433
0.00011451613152071343
8.781691446460376e-05
6.158205871638627e-05
3.5790591038986803e-05
1.0420040490853426e-05
-1.4553507257977723e-05
-3.9155339286287854e-05
-6.341203199467179e-05
-8.735135845666254e-05
-0.00011100219005332282
-0.00013439439575724276
-0.00015755874222456146
-0.00018052679759011112
-0.00020333084155412851
-0.00022600378401124266
-0.0002485790941150249
-0.0002710907413044565
-0.0002935731494506976
-0.0003160611649206061
-0.0003385900390026845
-0.0003611954248051675
-0.00038391338841658714
-0.00040678043381733257
-0.0004298335407458085
-0.00045311021445314627
-0.0004766485460244198
-0.0005004872816993322
-0.0005246658993886201
-0.0005492246903518092
-0.0005742048437752728
-0.0005996485317648062
-0.0006255989920435539
-0.0006521006054240105
-0.0006791989649023097
-0.0007069409330066915
-0.0007353746838230212
-0.0007645497259225024
-0.0007945169022368186
-0.0008253283627712429
0.000396595181978304
0.00036494292048629487
0.00033388218103357287
0.00030340652232060906
0.00027350876781486984
0.0002441807589506563
0.00021541314247380122
0.00018719519347565002
0.00015951467485486527
0.00013235773312782933
0.00010570882971000159
7.955070603992429e-05
5.386438023956893e-05
2.8629172419589524e-05
3.822755260340601e-06
-2.0578773861199044e-05
-4.460080316868827e-05
-6.827010329936588e-05
-9.161471473249268e-05
-0.00011466382983829886
-0.00013744767336701998
-0.0001599973849362007
-0.00018234490675213418
-0.0002045228794336322
-0.00022656454840830776
-0.00024850368293623595
-0.0002703745093952162
-0.00029221166004590455
-0.00031405013809115566
-0.0003359252994573894
-0.00035787285136047687
-0.000379928867375924
-0.0004021298184126963
-0.00042451261869070256
-0.00044711468554140986
-0.0004699740115859975
-0.0004931292475922598
-0.0005166197940664361
-0.0005404858993961052
-0.0005647687621217722
-0.0005895106346753371
-0.0006147549256819151
-0.0006405462976760978
-0.0006669307568356424
-0.0006939557310865849
-0.0007216701326862567
-0.0007501244011495576
-0.0007793705221558027
-0.000809462017865574
0.0003823345053780981
0.00035120827288370607
0.0003206681053739423
0.0002907098800556331
0.00026132855712040224
0.00023251791454053988
0.0002042703215997788
0.0001765765529191173
0.00014942564378160237
0.00012280478659330548
9.669926737822937e-05
7.109244032718837e-05
4.596573763473782e-05
2.129871118715745e-05
-2.9308978743651905e-06
-2.6747066088074635e-05
-5.017537572859038e-05
-7.324288872231896e-05
-9.597801113530547e-05
-0.00011841035280629926
-0.0001405705864536784
-0.0001624903102560171
-0.00018420191751187598
-0.00020573847654361296
-0.00022713362354030188
-0.00024842147055254894
-0.00026963653037037237
-0.00029081365954552584
-0.0003119880203701288
-0.000333195062199464
-0.00035447052211175483
-0.0003758504445325389
-0.0003973712191145365
-0.00041906963585316157
-0.00044098295612951966
-0.00046314899810245445
-0.0004856062346134831
-0.0005083939015184994
-0.0005315521141136667
-0.000555121989075198
-0.0005791457690802861
-0.0006036669470168912
-0.0006287303864217176
-0.0006543824345086671
-0.0006806710238656853
-0.0007076457586086887
-0.0007353579804916313
-0.0007638608101885585
-0.0007932091586950818
0.00036782078430959387
0.0003372221337500144
0.0003072044816392551
0.00027776620877925044
0.00024890457072876057
0.00022061541234940241
0.00019289292639185955
0.0001657294581329171
0.00013911535693524935
0.00011303887445527749
8.748610811597961e-05
6.244098743326165e-05
3.7885299872026604e-05
1.379875213890333e-05
-9.840937788021609e-06
-3.3057923025897596e-05
-5.5878089943336696e-05
-7.83289055905745e-05
-0.00010043925582347687
-0.00012223927933872962
-0.0001437602025185739
-0.0001650341795708662
-0.0001860941419677694
-0.00020697366065797803
-0.00022770682397335422
-0.00024832813359050056
-0.0002688724203570986
-0.000289374781263383
-0.00030987053834034524
-0.0003303952198035944
-0.00035098456333739576
-0.00037167454102766083
-0.00039250140510302834
-0.0004135017533251485
-0.00043471261257795393
-0.0004561715389346907
-0.00047791673222423144
-0.0004999871628681173
-0.0005224227085105109
-0.0005452642977096375
-0.0005685540576962954
-0.0005923354629289333
-0.0006166534808839256
-0.0006415547112127631
-0.0006670875140754829
-0.0006933021231250456
-0.0007202507382744654
-0.0007479875930334352
-0.0007765689908631841
0.00035305735349252815
0.0003229867290102718
0.0002934925433761429
0.0002645758812368053
0.00023623646374450972
0.00020847234071590288
0.00018127963299000233
0.00015465232728555144
0.00012858212449689773
0.0001030583410030724
7.806786125359429e-05
5.359513868756038e-05
2.962224098218135e-05
6.128934745863171e-06
-1.6907195909799267e-05
-3.951060295477444e-05
-6.170760647732657e-05
-8.352621152731736e-05
-0.00010499591599729636
-0.00012614751548964957
-0.00014701291070353534
-0.00016762492235879048
-0.0001880171180842793
-0.00020822365506397095
-0.00022827914158100437
-0.00024821851994976394
-0.0002680769726965647
-0.00028788985325475173
-0.00030769264188882685
-0.0003275209270598902
-0.00034741041199281555
-0.0003673969458026123
-0.000387516578179327
-0.00040780563631125696
-0.0004283008224379935
-0.00044903933015948356
-0.0004700589773765692
-0.0004913983534937756
-0.0005130969782684985
-0.0005351954694351423
-0.0005577357159622732
-0.0005807610535107912
-0.0006043164383480962
-0.0006284486156356728
-0.000653206277645685
-0.0006786402070782281
-0.0007048034002489602
-0.0007317511645035125
-0.0007595411837982126
0.0003380474288247545
0.0003085040750841284
0.00027953324118845223
0.00025113893277529335
0.00022332351956772445
0.00019608740266435516
0.0001694287392111607
0.00014334322708772144
0.00011782395060812756
9.286128660811275e-05
6.844286873473318e-05
4.4553606335721776e-05
2.117575311298193e-05
-1.71098030385744e-06
-2.4129276468565664e-05
-4.610403102199451e-05
-6.766214974493556e-05
-8.883233012705736e-05
-0.00010964483461504802
-0.00013013126231524994
-0.000150324325390401
-0.00017025763574445637
-0.00018996550686922872
-0.00020948277496585688
-0.00022884464268441824
-0.0002480865480714704
-0.0002672440605976333
-0.00028635280547078916
-0.00030544841683446825
-0.00032456651990952915
-0.0003437427416608835
-0.0003630127491559454
-0.0003824123144212264
-0.0004019774042899552
-0.0004217442934561226
-0.0004417496986988934
-0.0004620309320046926
-0.0004826260700818972
-0.0005035741375254742
-0.0005249153006365226
-0.0005466910686278336
-0.0005689444986451088
-0.0005917204006995677
-0.0006150655382394336
-0.0006390288196847704
-0.0006636614758133491
-0.0006890172174190412
-0.0007151523671747838
-0.0007421259591276581
0.00032279405896703693
0.00029377592251560343
0.0002653271807306892
0.0002374549963139413
0.00021016458463558874
0.0001834588532687348
0.00015733810732025937
0.00013179982357019743
0.00010683849446638271
8.244554107106165e-05
5.860929220776671e-05
3.5315025385039295e-05
1.2545063639662533e-05
-9.721078710319699e-06
-3.150650925758168e-05
-5.283673802699158e-05
-7.373943393377253e-05
-9.424416572363398e-05
-0.00011438213562691712
-0.00013418591343525874
-0.00015368917802101713
-0.00017292647251354089
-0.00019193297846707323
-0.00021074431344397836
-0.00022939635553073981
-0.00024792509743170373
-0.00026636653196955963
-0.0002847565700779069
-0.0003031309917086158
-0.0003215254294984195
-0.00033997538454319607
-0.00035851627320830854
-0.00037718350354997224
-0.00039601257962432624
-0.0004150392317044914
-0.0004342995701980528
-0.00045383026084433974
-0.0004736687185595552
-0.0004938533170763138
-0.000514423611281946
-0.0005354205688874666
-0.0005568868077494042
-0.0005788668348141804
-0.0006014072822561915
-0.0006245571359347257
-0.0006483679508019107
-0.0006728940473586485
-0.0006981926826822617
-0.0007243241889479451
0.00030730006967073873
0.0002788036913494488
0.0002508745518233061
0.00022352322823989768
0.0001967579943498261
0.00017058442892210497
0.00014500509985997546
0.00012001932745790505
9.562302786664408e-05
7.180863549170725e-05
4.856510084826917e-05
2.587795842377621e-05
3.729457431469823e-06
-1.790125297583176e-05
-3.9037893394224226e-05
-5.970678866722297e-05
-7.993657727603585e-05
-9.975790553810236e-05
-0.00011920311607100889
-0.00013830593927970585
-0.00015710119574411903
-0.00017562451637991646
-0.0001939120861729753
-0.00021200041619802174
-0.00022992614756636156
-0.00024772588993979944
-0.0002654360963231805
-0.00028309297502240004
-0.00030073243893573775
-0.0003183900917355675
-0.0003361012499893206
-0.0003539009998535553
-0.00037182428663980844
-0.00038990603528004557
-0.0004081812994968983
-0.0004266854372916343
-0.0004454543101846107
-0.0004645245034630881
-0.00048393356449504075
-0.0005037202559427497
-0.0005239248204450082
-0.0005445892530232801
-0.0005657575770986112
-0.0005874761195777808
-0.0006097937799770907
-0.0006327622880007598
-0.000656436443380589
-0.000680874331119955
-0.0007061375045767622
0.0002915679999002333
0.00026358839712909646
0.0002361750474652478
0.00020934222399258398
0.0001831014890338995
0.00015746126752553755
0.00013242650780270846
0.00010799843371606479
8.417438912301442e-05
6.0947772977564766e-05
3.8308060612162994e-05
1.6240904476634262e-05
-5.271694340335496e-06
-2.625115397471094e-05
-4.672203022111247e-05
-6.671169726568221e-05
-8.625000253940438e-05
-0.00010536890720321652
-0.00012410212312316735
-0.00014248475626830017
-0.00016055296534053473
-0.00017834364319762946
-0.00019589412732493494
-0.00021324194430912382
-0.00023042459201661706
-0.0002474793620190763
-0.0002644432037649314
-0.0002813526310850049
-0.0002982436708478726
-0.00031515185294428774
-0.000332112240270735
-0.0003491594969853768
-0.0003663279930074181
-0.000383651942503508
-0.00040116557393058165
-0.00041890332906270675
-0.00043690008829983017
-0.0004551914194199638
-0.0004738138467760642
-0.0004928051377396554
-0.0005122046029431152
-0.0005320534065604687
-0.0005523948824847479
-0.0005732748518035621
-0.0005947419364397679
-0.000616847863211205
-0.0006396477518737943
-0.0006632003799510889
-0.0006875684163283515
0.00027560002865150476
0.0002481305662055157
0.00022122777131736507
0.0001949099219039972
0.00016919211859378006
0.00014408581848452404
0.0001195984702223687
9.573325485223911e-05
7.248893339156424e-05
4.9859798673625036e-05
2.783572585927387e-05
6.402313263149549e-06
-1.445889711335763e-05
-3.477013163922474e-05
-5.455704309489934e-05
-7.384832860443194e-05
-9.267532133442706e-05
-0.0001110715693244873
-0.00012907241390464988
-0.00014671457893971143
-0.00016403578071277176
-0.00018107436671217943
-0.00019786898999988125
-0.00021445832428592412
-0.00023088082337051731
-0.0002471745272842117
-0.0002633769162856865
-0.0002795248128798708
-0.0002956543311993455
-0.0003118008724415492
-0.0003279991645591309
-0.00034428334403968294
-0.0003606870773608414
-0.0003772437195417259
-0.00039398650710445243
-0.00041094878268554654
-0.00042816424847190926
-0.00044566724555694746
-0.0004634930562001493
-0.00048167822581040437
-0.0005002609012454409
-0.000519281181714972
-0.0005387814781842729
-0.0005588068766920118
-0.0005794055004168684
-0.0006006288646504205
-0.0006225322180608119
-0.0006451748627661954
-0.0006686204447858869
0.0002593978911864573
0.0002324301388225026
0.00020603113198818575
0.00018022349362766758
0.00015502613435539742
0.00013045374125845262
0.00010651638461925189
8.321924758496191e-05
6.05624795404719e-05
3.854116981742944e-05
1.714543459736405e-05
-3.639393389509712e-06
-2.383248538358185e-05
-4.3457162247225204e-05
-6.254048132282798e-05
-8.111278101446742e-05
-9.920719939405064e-05
-0.00011685918234683438
-0.0001341059955257234
-0.00015098625279730342
-0.00016753947205465944
-0.00018380566735663403
-0.0001998249844300411
-0.0002156373847239726
-0.00023128238149905302
-0.00024679882991534294
-0.0002622247717777059
-0.00027759733451796897
-0.0002929526831368708
-0.00030832602318131563
-0.0003237516523714938
-0.00033926305819021547
-0.0003548930585722046
-0.00037067398275123127
-0.000386637889305702
-0.00040281681845761447
-0.00041924307569709933
-0.00043594954379944095
-0.0004529700202505517
-0.00047033957698131533
-0.0004880949391142817
-0.000506274879135132
-0.0005249206225061533
-0.0005440762602316705
-0.000563789163261723
-0.0005841103928779694
-0.0006050951003453067
-0.0006268029081368323
-0.00064929826395441
0.00024296278317919792
0.00021648635817024357
0.00019058272215964145
0.00016527921920753705
0.00014059886631613387
0.00011655979104915372
9.317480697105304e-05
7.04511325432971e-05
4.8390253887449844e-05
2.698792681584566e-05
6.234308995714142e-06
-1.3885790741795549e-05
-3.3392561964685975e-05
-5.231075921327728e-05
-7.06692049176533e-05
-8.850024830552149e-05
-0.00010583919946206611
-0.00012272375654570877
-0.00013919344247823886
-0.00015528906536847628
-0.00017105221464724203
-0.00018652480252775083
-0.00020174865808007488
-0.00021676517901877794
-0.00023161504432216845
-0.00024633798907813375
-0.00026097264151051544
-0.00027555642098691735
-0.0002901254949334124
-0.0003047147919605906
-0.00031935806810617267
-0.0003340880228851579
-0.00034893646176877794
-0.00036393450174734224
-0.0003791128167306814
-0.00039450191966609307
-0.0004101324783746703
-0.0004260356621930356
-0.0004422435165331081
-0.00045878936241619105
-0.00047570821788167107
-0.0004930372379005551
-0.000510816169028862
-0.0005290878145074816
-0.0005478985048477068
-0.0005672985681328879
-0.0005873427933157007
-0.000608090878699002
-0.000629607856560967
0.00022629525099713632
0.00020029764326454699
0.00017487918023303007
0.0001500723445005377
0.00012590458377106624
0.00010239769003418187
7.956734052825057e-05
5.742280675192016e-05
3.596683136571316e-05
1.5195666725337448e-05
-4.900736669804758e-06
-2.4338408092516427e-05
-4.313892064392261e-05
-6.132886356809554e-05
-7.893924612831053e-05
-9.600485644382169e-05
-0.00011256359782013985
-0.0001286558234477987
-0.0001443236880863252
-0.00015961053269047303
-0.00017456031506647024
-0.00018921709673799174
-0.000203624593398954
-0.00021782579374602967
-0.00023186264919750456
-0.0002457758350653048
-0.0002596045821740031
-0.00027338657671103616
-0.00028715792522431526
-0.00030095318112099067
-0.0003148054287197329
-0.00032874642081931124
-0.0003428067658171074
-0.00035701616059246634
-0.0003714036656147315
-0.00038599801900132636
-0.0004008279864989774
-0.00041592274455824405
-0.000431312293790123
-0.0004470279001094861
-0.0004631025607646508
-0.00047957149221106946
-0.0004964726363972253
-0.0005138471814838232
-0.0005317400923080355
-0.0005502006450284714
-0.0005692829593426218
-0.0005890465204575557
-0.0006095566816188315
0.0002093950660025561
0.00018386144309791687
0.00015891603173990524
0.00013459691825951775
0.00011093633694811682
8.79599823509253e-05
6.568651233374067e-05
4.4127248799034685e-05
2.3286075009116506e-05
3.1595210239054178e-06
-1.6262977819161972e-05
-3.499866985606499e-05
-5.307094797020993e-05
-7.050870943157614e-05
-8.734564284179847e-05
-0.00010361947008411181
-0.00011937116977707447
-0.00013464420640333267
-0.00014948378628356013
-0.0001639361581468055
-0.00017804797245167547
-0.0001918657100474973
-0.00020543518740081114
-0.00021880114257792713
-0.000232006903554047
-0.0002450941382581772
-0.0002581026840718483
-0.0002710704532617727
-0.0002840334100036343
-0.0002970256141942903
-0.0003100793270921784
-0.00032322517390619794
-0.00033649235870803146
-0.00034990892741130954
-0.0003635020749873114
-0.00037729849352185346
-0.00039132475811830096
-0.00040560774798077074
-0.00042017510023982345
-0.00043505569418496575
-0.0004502801635237969
-0.00046588143408201905
-0.0004818952839793396
-0.0004983609227544178
-0.000515321585161755
-0.0005328251344199524
-0.0005509246685527457
-0.0005696791221303284
-0.0005891538541897617
0.0001922610803421162
0.00016717406900123351
0.00014268750722855588
0.00011884560569082542
9.568577690178279e-05
7.323787081749047e-05
5.152363643287595e-05
3.055641680060114e-05
1.0341075095964035e-05
-9.125859772403464e-06
-2.7855847450603856e-05
-4.5867816156702334e-05
-6.318749885163787e-05
-7.98466587072083e-05
-9.588223791304e-05
-0.0001113354631139442
-0.0001262509386283696
-0.00014067575538030403
-0.0001546586395156877
-0.00016824916029849928
-0.0001814970123899199
-0.00019445138325993746
-0.00020716041246289269
-0.00021967074596820273
-0.00023202718576094167
-0.00024427243255017734
-0.0002564469176414815
-0.0002685887188067786
-0.0002807335542600502
-0.00029291484854769654
-0.00030516386420689377
-0.00031750989335184703
-0.00032998050383782184
-0.00034260183525415197
-0.00035539894064474335
-0.00036839617049195866
-0.00038161759608005327
-0.0003950874698378636
-0.0004088307206153467
-0.0004228734820496214
-0.00043724365220297254
-0.00045197148249256566
-0.00046709019356796274
-0.0004826366152189997
-0.00049865184660698
-0.0005151819321020032
-0.0005322785467761154
-0.0005499996841436938
-0.0005684103370561808
0.00017489106117102348
0.00015023050152580169
0.00012618633268047554
0.0001028094747046477
8.014295046220943e-05
5.822103313753938e-05
3.706866276646575e-05
1.670113959213065e-05
-2.8759101006650255e-06
-2.16663112233863e-05
-3.9682885348149696e-05
-5.694679709193162e-05
-7.348673932344979e-05
-8.933799790782993e-05
-0.00010454143723158692
-0.00011914244625253286
-0.00013318988165993584
-0.00014673504033223419
-0.00015983068808254208
-0.00017253016610493748
-0.0001848865909478218
-0.00019695215854798965
-0.0002087775580880075
-0.00022041149734249857
-0.0002319003378358042
-0.00024328783556401296
-0.0002546149812098905
-0.0002659199326339231
-0.00027723803187051964
-0.0002886018987935937
-0.00030004159393495636
-0.00031158484353922475
-0.0003232573207245424
-0.00033508297750426633
-0.00034708442333683314
-0.0003592833467468042
-0.00037170097734828475
-0.0003843585862620463
-0.0003972780234163843
-0.0004104822905340224
-0.00042399614871459906
-0.00043784675940922255
-0.00045206435723968603
-0.00046668295253229995
-0.00048174106060933693
-0.0004972824538051254
-0.0005133569308455573
-0.0005300210966471333
-0.0005473391437511039
0.00015728149960757666
0.0001330241673723003
0.00010940348770133992
8.647775035179562e-05
6.429606650408927e-05
4.2897415084804276e-05
2.231001082959351e-05
2.5510020387592945e-06
-1.6373509187225235e-05
-3.446814524144144e-05
-5.1747662462476576e-05
-6.823613325265972e-05
-8.396594821254036e-05
-9.897668841418224e-05
-0.00011331391784085511
-0.00012702794344336384
-0.00014017258571266135
-0.0001528039967148064
-0.00016497955575268914
-0.00017675686574151117
-0.00018819286646738775
-0.00019934307449993058
-0.00021026095390569302
-0.00022099741721489643
-0.00023160045239391963
-0.00024211486886166543
-0.00025258215379424503
-0.00026304042898503757
-0.0002735244982392665
-0.00028406597554766957
-0.00029469348496712197
-0.0003054329241099999
-0.0003163077842946215
-0.0003273395216375594
-0.00033854797459194385
-0.0003499518245869762
-0.0003615690974487912
-0.0003734177041401464
-0.00038551602001446906
-0.00039788350221458754
-0.000410541345041527
-0.00042351317306039103
-0.00043682577138955125
-0.00045050985203036204
-0.0004646008542313297
-0.00047913977573979614
-0.0004941740303724866
-0.0005097583256298537
-0.0005259555520840285
0.00013942738989575513
0.00011554668091378608
9.232792572713873e-05
6.983753205797331e-05
4.8131229174925e-05
2.725299790676608e-05
7.234387364677287e-06
-1.1905773990077964e-05
-3.0161284272246488e-05
-4.753811946487437e-05
-6.405367251812052e-05
-7.973573311281258e-05
-9.462126739587132e-05
-0.00010875505950879772
-0.00012218827564674782
-0.00013497700726944562
-0.00014718084364530795
-0.0001588615159136473
-0.00017008164604523786
-0.00018090362514106017
-0.00019138863698760905
-0.0002015958351025268
-0.00021158167493383687
-0.00022139939756524326
-0.00023109865726353234
-0.0002407252824281911
-0.00025032115785046877
-0.00025992421550278654
-0.0002695685211835065
-0.00027928444505694776
-0.0002890989052837002
-0.0002990356753775148
-0.00030911574751822267
-0.00031935774568378266
-0.00032977838404810904
-0.00034039296755409166
-0.0003512159328595537
-0.0003622614289274795
-0.0003735439373617295
-0.00038507893315548915
-0.00039688358680783995
-0.0004089775087632308
-0.0004213835368334041
-0.00043412856666693277
-0.0004472444244330697
-0.00046076877968220364
-0.00047474609483142555
-0.0004892286058962528
-0.0005042773269436232
0.00012132197322156386
9.778754363024911e-05
7.494624923829124e-05
5.28734671901448e-05
3.163213299216651e-05
1.1271536942615568e-05
-8.173412314032083e-06
-2.668245050679082e-05
-4.424976396817811e-05
-6.088337769470935e-05
-7.660418059098799e-05
-9.144465540694919e-05
-0.00010544738783603645
-0.00011866343115026374
-0.0001311506001463716
-0.0001429717618889896
-0.00015419318174439756
-0.0001648829725295238
-0.00017510968322672488
-0.00018494105247673497
-0.00019444294162825168
-0.0002036784529672207
-0.0002127072311574735
-0.00022158494001520775
-0.00023036290249332726
-0.00023908788904621666
-0.00024780203819122154
-0.0002565428928534134
-0.00026534353673696425
-0.00027423281627786747
-0.00028323563548764965
-0.00029237331301255713
-0.0003016639928537664
-0.00031112310229830607
-0.0003207638526024634
-0.0003305977797781884
-0.0003406353244074676
-0.00035088645071413
-0.0003613613061330609
-0.00037207092331885665
-0.00038302796691911094
-0.00039424752749605673
-0.000405747964711033
-0.0004175518012860214
-0.00042968666832396765
-0.00044218630130260766
-0.00045509158445255094
-0.0004684516392859132
-0.0004823249507506632
0.00010295643931994497
7.973379322084037e-05
5.7242331417347875e-05
3.556737317425172e-05
1.4779713871388572e-05
-5.0657317539216234e-06
-2.393071922668572e-05
-4.1793892371956316e-05
-5.865045539370749e-05
-7.451135078006123e-05
-8.940201542934414e-05
-0.00010336080146626232
-0.00011643715546745775
-0.00012868965057940608
-0.00014018396113361003
-0.00015099086003323662
-0.00016118430676043474
-0.00017083967970470582
-0.00018003219189283273
-0.00018883551515410757
-0.00019732062507007964
-0.00020555486825739235
-0.00021360124488613557
-0.00022151789290408733
-0.00022935775611359135
-0.0002371684158117757
-0.00024499206486781845
-0.00025286560355592064
-0.00026082083787390756
-0.0002688847631625237
-0.00027707991834337396
-0.0002854247987998282
-0.00029393431866398456
-0.0003026203159126324
-0.00031149209612013444
-0.0003205570128996518
-0.0003298210849411818
-0.00033928965109823565
-0.00034896806616952717
-0.000358862440859563
-0.0003689804298788223
-0.0003793320722602373
-0.0003899306877233012
-0.000400793832310657
-0.00041194431555493984
-0.00042341128010477125
-0.0004352313430473504
-0.00044744979610769186
-0.00046012185947580733
8.431957734193925e-05
6.136959219352808e-05
3.9196873734402126e-05
1.7897798773239618e-05
-2.4482508287249245e-06
-2.1780420118807254e-05
-4.0057220875902664e-05
-5.725667872910818e-05
-7.337582508887643e-05
-8.842960394289732e-05
-0.00010244928846674497
-0.00011548051851238358
-0.0001275810771695342
-0.00013881852339408943
-0.00014926778946189914
-0.00015900883844121924
-0.00016812445985590487
-0.00017669826305402982
-0.00018481290910569054
-0.00019254860461020453
-0.00019998186550662005
-0.00020718454639689584
-0.00021422312122612716
-0.0002211581943729103
-0.0002280442170480132
-0.00023492938202043486
-0.00024185566966636752
-0.0002488590197363438
-0.0002559696056503983
-0.0002632121911990311
-0.00027060655294525084
-0.00027816795514711435
-0.0002859076674666355
-0.0002938335189668199
-0.0003019504848330379
-0.0003102613048315628
-0.0003187671347046695
-0.00032746823348361615
-0.000336364691074207
-0.00034545720143633676
-0.0003547478872438633
-0.0003642411820792219
-0.00037394477599231573
-0.00038387062963855887
-0.000394036061208399
-0.00040446490897077993
-0.000415188770475766
-0.0004262483172959002
-0.00043769468162763257
6.539736531744863e-05
4.267574322767108e-05
2.0786886489767512e-05
-1.604868381435004e-07
-2.0077601267939806e-05
-3.889735541030316e-05
-5.657520434229277e-05
-7.308919873494726e-05
-8.843923510152836e-05
-0.00010264561206654952
-0.00011574701755012631
-0.00012779808990498877
-0.00013886670234509112
-0.0001490311156059623
-0.00015837713064560332
-0.00016699535377081884
-0.00017497866342633395
-0.00018241994341825646
-0.00018941012359189116
-0.00019603654748867063
-0.0002023816682839572
-0.00020852205987713455
-0.00021452771947004035
-0.0002204616311119855
-0.00022637955607685998
-0.00023233001501817615
-0.00023835442802877353
-0.00024448738143908197
-0.0002507569939050793
-0.00025718535862745634
-0.00026378904305643077
-0.0002705796319070774
-0.00027756430354807134
-0.00028474643370688573
-0.0002921262238808481
-0.00029970135481719763
-0.0003074676679146338
-0.0003154198794066152
-0.0003235523337244209
-0.00033185980352093067
-0.00034033834447775874
-0.0003489862132306856
-0.0003578048565392464
-0.00036679997920057664
-0.0003759826971687216
-0.00038537078089004827
-0.00039498999200430086
-0.0004048755142906455
-0.0004150734770574519
4.617248480030768e-05
2.362911539826023e-05
1.985076243491476e-06
-1.8637090982436596e-05
-3.8138322351668856e-05
-5.644498917910202e-05
-7.350980806515497e-05
-8.931171983225144e-05
-0.00010385481556939155
-0.00011716643858828064
-0.00012929462706261826
-0.0001403050820457728
-0.00015027784984786307
-0.0001593038983170448
-0.00016748174636806138
-0.000174914278609911
-0.00018170584565281705
-0.00018795971877900736
-0.00019377593768810856
-0.000199249563789719
-0.0002044693300883787
-0.00020951666250592022
-0.0002144650364036176
-0.000219379625617571
-0.00022431719879467205
-0.00022932621840365082
-0.00023444710068529478
-0.0002397125992540279
-0.00024514828043277004
-0.0002507730641807069
-0.0002565998102693717
-0.0002626359349000894
-0.00026888404805323765
-0.0002753426064118934
-0.0002820065806610648
-0.0002888681393186125
-0.0002959173540205643
-0.00030314293338939806
-0.0003105329942905532
-0.0003180758804600522
-0.00032576103918897925
-0.00033357996699680086
-0.00034152723502630256
-0.00034960160425423405
-0.00035780723953614604
-0.0003661550299930731
-0.0003746640213041358
-0.0003833629630960664
-0.000392291971822621
2.6623743724979096e-05
4.201961223735274e-06
-1.724087986912804e-05
-3.756669711354934e-05
-5.666514981897018e-05
-7.445585016332273e-05
-9.088927511377706e-05
-0.00010594641181064179
-0.0001196372484485236
-0.0001319982858752663
-0.00014308928795192587
-0.00015298950974570145
-0.0001617936429795222
-0.0001696077009634315
-0.00017654503489583477
-0.00018272263487750974
-0.0001882578269986042
-0.0001932654365432754
-0.0001978554498432355
-0.000202131175661116
-0.00020618788223678486
-0.00021011186846430657
-0.00021397991661994335
-0.00021785906874974563
-0.0002218066681523973
-0.00022587061021231555
-0.00023008975207060517
-0.00023449443732815592
-0.00023910709939191756
-0.0002439429146201739
-0.0002490104836813654
-0.00025431252624456705
-0.0002598465801150777
-0.0002656057011490051
-0.0002715791647208872
-0.0002777531732104325
-0.0002841115769698964
-0.0002906366185921076
-0.0002973097120761107
-0.0003041122697300556
-0.0003110265903951276
-0.0003180368228432942
-0.00032513001800784595
-0.0003322972830536305
-0.00033953504918405545
-0.0003468464635125734
-0.00035424291330012157
-0.0003617456883834771
-0.0003693877847038684
6.7253858685918134e-06
-1.5638900844706666e-05
-3.692919794139743e-05
-5.698988753718732e-05
-7.569826715990088e-05
-9.296704198281502e-05
-0.00010874519641769541
-0.00012301730290665744
-0.00013580142799880877
-0.0001471458747196884
-0.00015712505066728258
-0.00016583477199441166
-0.0001733873068092501
-0.0001799064325504241
-0.00018552273711691924
-0.00019036933992077324
-0.00019457815302601834
-0.00019827674941385443
-0.00020158585894217238
-0.00020461747496565484
-0.00020747352668172635
-0.00021024505380136762
-0.0002130118100868402
-0.00021584221919259457
-0.00021879360847316953
-0.00022191265240933478
-0.0002252359656540505
-0.00022879079526192834
-0.0002325957715553057
-0.00023666168666625943
-0.00024099227866682896
-0.00024558500712708363
-0.00025043181282569755
-0.0002555198601769341
-0.00026083226578766175
-0.00026634882050733007
-0.0002720467154823814
-0.00027790128517115025
-0.00028388678210013694
-0.00028997719941330387
-0.0002961471580286692
-0.00030237287549827584
-0.00030863323347876583
-0.00031491096005942763
-0.00032119394205656297
-0.00032747668075992515
-0.0003337619025082844
-0.00034006233288607843
-0.00034640264029163915
-1.3553740767619903e-05
-3.593307083655725e-05
-5.71250206228501e-05
-7.695411399235132e-05
-9.528410661723084e-05
-0.00011202078400254821
-0.0001271127260389724
-0.00014055013440307496
-0.0001523619513701057
-0.00016261159705896065
-0.00017139171051237497
-0.00017881829780383755
-0.00018502467198112254
-0.0001901555230163786
-0.00019436139070265354
-0.00019779373940793474
-0.00020060075940028663
-0.00020292395175520295
-0.0002048954970273909
-0.00020663636408915277
-0.00020825508513302744
-0.00020984710477632822
-0.00021149460361425516
-0.00021326669718177188
-0.00021521991780243908
-0.00021739889712973828
-0.00021983717956869202
-0.00022255810984108228
-0.00022557575074777557
-0.0002288957990475961
-0.00023251647795214
-0.00023642939387763127
-0.00024062035279376988
-0.00024507013785546707
-0.0002497552551376809
-0.00025464865837789615
-0.00025972046682383107
-0.00026493869272607197
-0.0002702699968220451
-0.00027568049141328023
-0.0002811366113969569
-0.00028660607390210494
-0.00029205894700394704
-0.0002974688473356439
-0.0003028142852651442
-0.00030808017463793483
-0.0003132595218965717
-0.00031835530668385126
-0.0003233825628495045
-3.4251192372048746e-05
-5.672776005026048e-05
-7.788165959021938e-05
-9.751484621975393e-05
-0.00011547626849891818
-0.00013166498952000595
-0.00014603074119206357
-0.00015857206645646191
-0.00016933237595938375
-0.00017839436815557017
-0.00018587332763653555
-0.0001919098266663648
-0.00019666231735989814
-0.0002003000290345394
-0.00020299649122506179
-0.00020492390135263901
-0.00020624845850962428
-0.00020712669948614584
-0.00020770280483654608
-0.0002081067932057988
-0.0002084534906518058
-0.0002088421460445123
-0.00020935656067792093
-0.00021006560663779593
-0.00021102402106460663
-0.000212273379535775
-0.00021384316923785032
-0.00021575189986701047
-0.00021800820627136328
-0.00022061191115114055
-0.00022355502841434885
-0.00022682269803091975
-0.00023039405157260348
-0.0002342430142868333
-0.00023833905478176133
-0.0002426478974474535
-0.00024713221583155115
-0.00025175232751628845
-0.0002564669127544999
-0.00026123378031639704
-0.00026601070473635663
-0.0002707563594506173
-0.00027543137017269764
-0.00027999951223381045
-0.00028442907447923105
-0.00028869441062082633
-0.0002927776966789586
-0.0002966709103087708
-0.000300378044437828
-5.541216093359275e-05
-7.807924574071076e-05
-9.926209737054449e-05
-0.00011873693507274529
-0.00013633657328120889
-0.00015195386855427172
-0.0001655419059585785
-0.0001771111685884806
-0.0001867241575154114
-0.00019448808088181105
-0.00020054630184648575
-0.00020506922970554625
-0.0002082452703653651
-0.00021027234067603313
-0.00021135031675187808
-0.00021167464827866178
-0.00021143124381851997
-0.00021079262607815678
-0.00020991527580825847
-0.0002089380290717064
-0.000207981362667749
-0.00020714739236406222
-0.00020652041339174984
-0.00020616782760867858
-0.0002061413226332042
-0.00020647819173284267
-0.00020720270685748842
-0.00020832747929755814
-0.00020985476207748596
-0.00021177766494614655
-0.00021408126665339823
-0.0002167436203013677
-0.00021973665625978512
-0.00022302699382153405
-0.0002265766778335532
-0.00023034386032358845
-0.00023428344995712544
-0.000238347754241597
-0.0002424871409234296
-0.0002466507461123292
-0.0002507872573748061
-0.00025484580037397463
-0.00025877695756307793
-0.0002625339469063872
-0.00026607398753003206
-0.0002693598775274416
-0.0002723618068122364
-0.00027505942491923025
-0.00027744418004980575
-7.709098979601006e-05
-0.00010005465726174853
-0.0001213408124274536
-0.00014069623434301856
-0.0001579362598262547
-0.0001729485315027186
-0.0001856925774511649
-0.0001961956011075829
-0.00020454515204536739
-0.0002108795336690603
-0.00021537687450058109
-0.00021824375542593146
-0.0002197041689902151
-0.00021998941831869769
-0.00021932937278029208
-0.00021794531111262762
-0.00021604441934254347
-0.00021381588151805545
-0.00021142840989690325
-0.0002090290061504441
-0.00020674272109859316
-0.00020467318050993214
-0.00020290366130985556
-0.00020149852955180696
-0.00020050488334515896
-0.0001999542766020373
-0.00019986443027974164
-0.0002002408651814629
-0.00020107841361903175
-0.0002023625862261889
-0.00020407078521718965
-0.00020617336690710326
-0.0002086345649311241
-0.00021141329191082074
-0.00021446384185837622
-0.00021773651885239817
-0.00022117821984017887
-0.0002247330011098522
-0.0002283426592330209
-0.00023194735822629035
-0.00023548633536730947
-0.00023889871851448443
-0.0002421244878555856
-0.0002451056146467404
-0.000247787408579188
-0.0002501201038092515
-0.00025206071131855714
-0.00025357516210418405
-0.00025464076178055746
-9.935305332583327e-05
-0.0001227341847086184
-0.00014420600921202136
-0.00016348153428915897
-0.00018035733929935025
-0.00019471755250166905
-0.00020653246350538224
-0.00021585235538485663
-0.0002227975224247396
-0.00022754566284721505
-0.0002303178947207741
-0.00023136455795666044
-0.00023095177413355936
-0.0002293494845720992
-0.00022682141935482817
-0.00022361720099201815
-0.00021996657946979727
-0.0002160756417784163
-0.00021212473994931455
-0.00020826783132846239
-0.00020463291355857075
-0.0002013232535351705
-0.00019841914404331962
-0.00019597996516522074
-0.000194046373293942
-0.0001926424842196247
-0.00019177795561136236
-0.00019144990705134875
-0.00019164464233871513
-0.00019233915945782512
-0.00019350244914289423
-0.0001950965942571583
-0.00019707769013977338
-0.00019939661148506496
-0.00020199965491866055
-0.00020482908880473365
-0.00020782364340883857
-0.00021091897567873837
-0.00021404814380848736
-0.00021714212753811465
-0.00022013043084260706
-0.00022294180423539003
-0.00022550512424467616
-0.0002277504675565669
-0.00022961041666995276
-0.00023102163248688717
-0.00023192672691315676
-0.00023227646518732444
-0.00023203232332526594
-0.00012227710742337364
-0.0001462138301497255
-0.00016796235804115512
-0.00018719686966528004
-0.00020369410607312677
-0.00021733742392474747
-0.00022811389728008384
-0.0002361053666828125
-0.000241474833172063
-0.00024444985674109613
-0.0002453046438479682
-0.0002443423362464539
-0.00024187870674480152
-0.00023822809641683965
-0.00023369205486524188
-0.00022855081678340816
-0.00022305749138266348
-0.00021743466549566364
-0.00021187302196494604
-0.0002065315394743783
-0.0002015388518244979
-0.0001969953873032352
-0.00019297596799898648
-0.0001895326136447295
-0.0001866973572803997
-0.00018448493609915647
-0.00018289526809298854
-0.00018191566300630128
-0.00018152274518388632
-0.000181684087289941
-0.0001823595689458826
-0.000183502484468542
-0.00018506043035116087
-0.0001869760069998297
-0.00018918737139674187
-0.00019162867849229284
-0.0001942304497361963
-0.00019691990759340087
-0.0001996213153723841
-0.00020225636232498387
-0.00020474463476097098
-0.00020700421477277096
-0.00020895244891956308
-0.00021050692964411175
-0.00021158673201594324
-0.0002121139473199177
-0.00021201555278502378
-0.00021122565321082028
-0.00020968812538497104
-0.0001459582543034475
-0.00017060886113587576
-0.0001927343798725019
-0.0002119642751972975
-0.00022805479073157364
-0.0002408927905106161
-0.00025049052963450696
-0.0002569727364192761
-0.0002605580387143333
-0.0002615370597395235
-0.0002602494596694681
-0.00025706188128155614
-0.00025234827456355056
-0.0002464735324207205
-0.00023978085579160193
-0.0002325828408372482
-0.00022515597192915879
-0.00021773801462632438
-0.00021052771777671216
-0.00020368622927946804
-0.00019733967975905562
-0.00019158246882986494
-0.0001864808811002346
-0.00018207675047511433
-0.00017839097364581984
-0.000175426742933092
-0.0001731724237905418
-0.00017160404402368845
-0.0001706873918725818
-0.0001703797406787601
-0.00017063123106175184
-0.0001713859493183297
-0.0001725827447813101
-0.0001741558304619471
-0.00017603521147306189
-0.00017814698524281584
-0.00018041355691233128
-0.00018275381291281683
-0.00018508329573914233
-0.00018731442345253785
-0.0001893567984225181
-0.00019111765112346957
-0.00019250246620336389
-0.00019341583922333812
-0.00019376261303712897
-0.00019344934231023923
-0.00019238613276551745
-0.00019048889807987083
-0.00018768207183736223
-0.00017051171624936617
-0.00019605818065754864
-0.00021867065043743245
-0.00023792707041518733
-0.0002535633106630873
-0.000265476284371422
-0.00027371514463920155
-0.00027846269181396087
-0.00028000996456926247
-0.00027872728608053913
-0.0002750348406812209
-0.0002693752984751417
-0.000262190253530568
-0.00025390145532958427
-0.00024489711497537416
-0.00023552302887446138
-0.00022607790712035034
-0.0002168121095247606
-0.00020792894587523135
-0.00019958774739551168
-0.00019190802417293814
-0.00018497415631861026
-0.0001788402017882868
-0.0001735345267683977
-0.0001690640680511277
-0.0001654181186818756
-0.0001625715893615264
-0.00016048774134709218
-0.0001591204153132443
-0.00015841579822256993
-0.0001583137797631952
-0.00015874895390121735
-0.00015965132158006663
-0.00016094674910529638
-0.00016255723439009915
-0.00016440103077590678
-0.00016639267609461997
-0.00016844297331677655
-0.0001704589686918334
-0.00017234397376747392
-0.00017399767900024097
-0.00017531640865663025
-0.000176193569055327
-0.00017652034450211813
-0.00017618669698890674
-0.00017508272625658267
-0.0001731004455336584
-0.00017013602462823216
-0.00016609254578107795
-0.00019607768557031386
-0.00022272990340004538
-0.00024594904943274097
-0.000265253760306177
-0.00028036102127166696
-0.00029118767673113515
-0.0002978361617620884
-0.00030056775638690933
-0.000299767738270844
-0.00029590705213868224
-0.0002895046429666695
-0.0002810936507169254
-0.00027119350852817137
-0.00026028886144277336
-0.0002488152918410015
-0.00023715117902189795
-0.00022561464032511526
-0.00021446435877246848
-0.0002039031339921433
-0.00019408313321306152
-0.00018511201110976835
-0.00017705926987140064
-0.0001699624178351242
-0.00016383264276269099
-0.00015865983987141006
-0.00015441692634122258
-0.0001510634375533875
-0.00014854844128861858
-0.00014681283003501345
-0.00014579106331298304
-0.00014541243552241906
-0.00014560194336024884
-0.0001462808226378315
-0.0001473668189702895
-0.000148774251414816
-0.00015041392341456558
-0.00015219293178945267
-0.00015401442223822621
-0.00015577733897038318
-0.00015737621665548856
-0.00015870106474747715
-0.00015963739719071328
-0.0001600664641916369
-0.00015986574663320527
-0.0001589097771314196
-0.00015707135383853654
-0.0001542232129501768
-0.00015024022259256097
-0.00014500215373957487
-0.00022282762193049765
-0.00025082853431494974
-0.00027478334665668926
-0.00029414263199229124
-0.00030860827964519864
-0.0003181318966105893
-0.00032289217714354503
-0.0003232563860854499
-0.0003197324369156114
-0.0003129181011999279
-0.0003034529150668175
-0.000291976766703538
-0.0002790973919834617
-0.000265367419572594
-0.00025127039854501594
-0.00023721447859555823
-0.00022353205977422184
-0.00021048369208484595
-0.0001982646751321637
-0.00018701308458612714
-0.00017681825981356392
-0.00016772907650925198
-0.00015976157348232024
-0.000152905694735136
-0.00014713104807946489
-0.00014239167684765557
-0.00013862990094260733
-0.00013577931664371986
-0.0001337670592119881
-0.0001325154348246092
-0.00013194302356615275
-0.00013196534659437207
-0.00013249518057225664
-0.00013344259257138964
-0.00013471475986491684
-0.00013621563189005186
-0.00013784548644798708
-0.00013950042903007782
-0.000141071883013987
-0.00014244611929094698
-0.00014350387652505014
-0.00014412012747345125
-0.0001441640522393088
-0.00014349928540604434
-0.00014198450986568217
-0.000139474474674859
-0.0001358215160875663
-0.00013087765860997358
-0.00012449736533449648
-0.0002509725193049991
-0.00028060429598873943
-0.0003054315012510165
-0.00032482709809468794
-0.00033848547552316416
-0.0003464152055010555
-0.00034890358143856593
-0.0003464610175368439
-0.0003397549696155513
-0.0003295426395042158
-0.00031660986466377366
-0.0003017210010246941
-0.0002855819704883598
-0.00026881645487935614
-0.00025195371201241785
-0.00023542568508252323
-0.0002195708515153419
-0.00020464243076908706
-0.00019081896414959874
-0.00017821575198237677
-0.00016689609022936774
-0.0001568816385770042
-0.00014816155599044222
-0.00014070025889081276
-0.00013444380324077352
-0.00012932498054516774
-0.000125267264539338
-0.0001221877634377754
-0.00011999933251327557
-0.00011861199118032208
-0.0001179337730328636
-0.00011787111997387488
-0.00011832891486945885
-0.00011921023232864744
-0.000120415874900184
-0.00012184375245381102
-0.00012338815582031183
-0.0001249389718346542
-0.00012638088564711006
-0.0001275926174141356
-0.00012844624411375433
-0.00012880666305339385
-0.00012853126131997204
-0.00012746986437689803
-0.00012546504627430378
-0.00012235289205974817
-0.0001179643080359994
-0.00011212697530482707
-0.00010466803448472804
-0.0002807738878430029
-0.0003123653667266692
-0.0003382061546002169
-0.00035758176070610666
-0.0003701929151236926
-0.00037613840359093653
-0.00037585982158447285
-0.00037006104394826157
-0.0003596168971327523
-0.0003454841408187245
-0.0003286244450407339
-0.0003099448539460878
-0.0002902573344386104
-0.0002702560749259699
-0.0002505094421539877
-0.00023146280935588842
-0.00021344855218609777
-0.00019670005083970057
-0.0001813672680064691
-0.00016753220709854184
-0.00015522318966756585
-0.00014442738417340417
-0.00013510136949339713
-0.00012717974576994
-0.00012058193975837943
-0.00011521741866257502
-0.0001109895482679737
-0.00010779832546832296
-0.00010554219451867474
-0.00010411912891587988
-0.00010342713198944727
-0.00010336428216626507
-0.00010382842507040534
-0.00010471659482639596
-0.00010592423129649788
-0.00010734424835589108
-0.00010886600042777327
-0.00011037419007874083
-0.00011174775827268481
-0.00011285880073122912
-0.00011357155865046164
-0.00011374153969371213
-0.00011321483553745036
-0.00011182771483081791
-0.00010940658426032181
-0.00010576842375601553
-0.00010072181212428949
-9.406866320270206e-05
-8.560678646695775e-05
-0.0003125585306789887
-0.00034649410287550123
-0.00037348791986871466
-0.0003927290001734438
-0.0004039484813705436
-0.0004073852858484245
-0.00040370017309546125
-0.0003938586404978316
-0.00037900450889727247
-0.0003603426447854231
-0.00033904314483525135
-0.0003161726197172897
-0.0002926525953407032
-0.0002692413034944518
-0.0002465333213967524
-0.00022497124042954294
-0.00020486423266769107
-0.00018640951885075978
-0.00016971394697219266
-0.00015481394948217643
-0.00014169296935305888
-0.00013029602327232527
-0.00012054143871764234
-0.0001123300100338261
-0.00010555191512174591
-0.00010009175892852339
-9.583209245757861e-05
-9.265571711958949e-05
-9.044703719364965e-05
-8.909267588239587e-05
-8.848152720957901e-05
-8.850437878685875e-05
-8.905320984542008e-05
-9.002024470481425e-05
-9.129682349379858e-05
-9.277213878510979e-05
-9.433187822180562e-05
-9.585680866655479e-05
-9.722133652002429e-05
-9.829208143458893e-05
-9.892650668102965e-05
-9.897165903231461e-05
-9.82630843403276e-05
-9.662400188124691e-05
-9.386484027796866e-05
-8.978325851034547e-05
-8.416479383504226e-05
-7.678428945795922e-05
-6.740825270498511e-05
-0.0003467387073929568
-0.0003834687739088182
-0.0004117421983565717
-0.00043064554235066124
-0.0004399811988499468
-0.0004402035177864213
-0.00043228485016592313
-0.0004175445640130094
-0.00039747405766598016
-0.000373583449398442
-0.0003472848600677734
-0.00031981672573104416
-0.00029220574086595574
-0.0002652586246122168
-0.0002395745262292791
-0.00021556957854416416
-0.00019350685346295962
-0.00017352698927490355
-0.00015567657545695356
-0.00013993279294541674
-0.0001262237875961172
-0.00011444486326671376
-0.00010447091075233093
-9.61656290640418e-05
-8.938811861959389e-05
-8.399738418604901e-05
-7.98552136322358e-05
-7.682781799586182e-05
-7.478654092630578e-05
-7.360787702122241e-05
-7.317298104906993e-05
-7.336680361211181e-05
-7.407695251889466e-05
-7.51923516747327e-05
-7.660174929167724e-05
-7.81921134253901e-05
-7.984694423525916e-05
-8.14445281535469e-05
-8.285615882652059e-05
-8.394435303941006e-05
-8.456109696672841e-05
-8.454616942915518e-05
-8.372560503336259e-05
-8.191038168653235e-05
-7.889544392119304e-05
-7.445920415714673e-05
-6.836369449674494e-05
-6.03555650221365e-05
-5.016813153230909e-05
-0.0003838400734447098
-0.00042389300857508796
-0.00045354034383390026
-0.0004717677568590009
-0.00047851745618784653
-0.00047457342467579523
-0.00046135175624031606
-0.000440650029676489
-0.00041440568385325187
-0.00038449833488221673
-0.0003526123894280435
-0.0003201602890820554
-0.0002882563887916335
-0.0002577270853253457
-0.0002291428992919715
-0.00020286080413244652
-0.00017906852142580813
-0.00015782570933112736
-0.0001390994786838977
-0.00012279338807759453
-0.00010877010586795785
-9.686846157887208e-05
-8.691581330714463e-05
-7.873666679035062e-05
-7.215839022466303e-05
-6.701473648938099e-05
-6.314774562172836e-05
-6.040847285774956e-05
-5.8656878698432405e-05
-5.776112886974943e-05
-5.7596482390623576e-05
-5.804389269137636e-05
-5.898840700664827e-05
-6.0317420464096536e-05
-6.191882115525078e-05
-6.367904919913053e-05
-6.548108500149807e-05
-6.720237856399497e-05
-6.871273216654122e-05
-6.987215278555538e-05
-7.052869844602263e-05
-7.051635513054093e-05
-6.96529992549209e-05
-6.773852677189468e-05
-6.455326499072572e-05
-5.985682677743347e-05
-5.3387614982892094e-05
-4.4863228687643496e-05
-3.398204780470475e-05
-0.0004245410552932349
-0.00046853614154978
-0.0004995859437787386
-0.0005165930557304004
-0.0005197542442213466
-0.000510357510644218
-0.0004904519883596654
-0.0004624795686687304
-0.0004289434643856584
-0.00039215924534121923
-0.00035410239077355123
-0.0003163428423976659
-0.0002800447551191091
-0.0002460070798548785
-0.00021472407779314195
-0.00018645074658595143
-0.00016126398290531945
-0.00013911492741973906
-0.00011987106223460627
-0.00010334845817521008
-8.933545857938308e-05
-7.760938077618919e-05
-6.794777879024047e-05
-6.0135616362871555e-05
-5.396945310340035e-05
-4.92595046306687e-05
-4.5830225551906755e-05
-4.351989023867629e-05
-4.217950981799581e-05
-4.1671319886704e-05
-4.186699629695704e-05
-4.264570027748705e-05
-4.3892014267144994e-05
-4.549380221347335e-05
-4.7340009700186717e-05
-4.9318407850558466e-05
-5.131327886010329e-05
-5.3203039075688796e-05
-5.485779700323268e-05
-5.6136848167984664e-05
-5.688611662213114e-05
-5.693556518823837e-05
-5.609661545947012e-05
-5.415964750599394e-05
-5.0891691971124454e-05
-4.603448615528045e-05
-3.9303138518978487e-05
-3.038572217742893e-05
-1.894417628053001e-05
-0.0004697293924472018
-0.000518389116338263
-0.0005507465288952678
-0.0005656720412556032
-0.0005638095753852058
-0.0005472192725725822
-0.0005188541900651266
-0.00048201863250970246
-0.00043991967299052766
-0.00039536621250496477
-0.00035061797403408734
-0.00030735439918101157
-0.00026672189896815283
-0.0002294210976198147
-0.00019580575160957006
-0.00016597601607539722
-0.00013985761010086714
-0.00011726436773445363
-9.794501324030848e-05
-8.161652195258907e-05
-6.798684100907848e-05
-5.6769577956909244e-05
-4.769285605313875e-05
-4.050407100037595e-05
-3.4971856086351075e-05
-3.0886206144549715e-05
-2.8057430920071496e-05
-2.631439748695518e-05
-2.550236694988427e-05
-2.5480620186352828e-05
-2.6119989870714705e-05
-2.73003626481195e-05
-2.89081793582828e-05
-3.083393768859265e-05
-3.2969687018008335e-05
-3.520649701395807e-05
-3.743187804047289e-05
-3.9527131425712465e-05
-4.136461028528358e-05
-4.280487641841486e-05
-4.3693745846791476e-05
-4.3859225944530705e-05
-4.310836369205134e-05
-4.1224052734032714e-05
-3.796189433931483e-05
-3.3047281973151016e-05
-2.6172984035066627e-05
-1.6997624912752987e-05
-5.145581921512515e-06
-0.000520585041966551
-0.0005747427450559779
-0.0006080895317719277
-0.0006195806801874595
-0.0006106328723305043
-0.0005844932258007602
-0.0005454040141262956
-0.0004978093223079586
-0.0004457637071326562
-0.00039259509692341334
-0.0003407920355527736
-0.00029204625444278695
-0.0002473784894745619
-0.0002072918907737244
-0.0001719186621572296
-0.0001411434347334246
-0.00011469873196406411
-9.223432118326018e-05
-7.336494008229188e-05
-5.770142212662842e-05
-4.4869746030435026e-05
-3.452166911738501e-05
-2.633971496132973e-05
-2.003851736280017e-05
-1.536391588872945e-05
-1.2090744713633833e-05
-1.0019930232399357e-05
-8.975284731755576e-06
-8.800227423143032e-06
-9.354559624156957e-06
-1.0511352197815124e-05
-1.2153959197818386e-05
-1.4173144072119823e-05
-1.6464288308019707e-05
-1.8924643433338752e-05
-2.1450583454874807e-05
-2.3934814579888546e-05
-2.6263501373789168e-05
-2.8313272524031416e-05
-2.994807437051942e-05
-3.1015845843048936e-05
-3.1344994852097394e-05
-3.074066625228383e-05
-2.8980812254403125e-05
-2.5812120434993632e-05
-2.094593977222843e-05
-1.4054486713991482e-05
-4.767810254980437e-06
7.327787046512713e-06
-0.0005787046032289279
-0.0006392981532536905
-0.0006729172926224405
-0.0006788510878984032
-0.0006598451221146132
-0.0006209780089867756
-0.0005683209627992752
-0.0005077896748367121
-0.00044440204980287265
-0.0003819577694056189
-0.00032303557494376236
-0.0002691711793591702
-0.0002211016566891803
-0.00017900429721758615
-0.00014269573982872205
-0.00011178227274397004
-8.576525036332839e-05
-6.411051457613228e-05
-4.629125135247676e-05
-3.181236817863535e-05
-2.0222620948767527e-05
-1.1118980211053666e-05
-4.146323838278036e-06
1.005500913375118e-06
4.605941218668516e-06
6.888526889949672e-06
8.055714901997711e-06
8.283537626287227e-06
7.725938104115315e-06
6.518759249836241e-06
4.783403647225844e-06
2.630208991922286e-06
1.6159933364720547e-07
-2.5249207785248834e-06
-5.3338601948985445e-06
-8.168855259830209e-06
-1.0929739569811442e-05
-1.3509509625263955e-05
-1.5791132155924467e-05
-1.7644144252839528e-05
-1.8921001192910222e-05
-1.9453127738515083e-05
-1.9046627539443146e-05
-1.747760874934272e-05
-1.4487109767222749e-05
-9.775688700757075e-06
-2.9979130845838795e-06
6.242722640149162e-06
1.839754282453171e-05
-0.0006462929628788337
-0.0007143231144319563
-0.0007467857302600146
-0.0007438180022110588
-0.0007104558763529039
-0.0006546103260785016
-0.0005849131959627905
-0.0005091001872095824
-0.00043316827982111143
-0.0003611993866241077
-0.0002955939138618801
-0.00023747045166547064
-0.00018707112329591625
-0.00014409658087828335
-0.00010795140330244253
-7.790891463535943e-05
-5.321389023344326e-05
-3.314159222136373e-05
-1.7028054814765235e-05
-4.282465268397578e-06
5.610987902196539e-06
1.3097029841758513e-05
1.8556018818619924e-05
2.2311712491333412e-05
2.4639091169146796e-05
2.5771724343768947e-05
2.590845302041572e-05
2.5219326553223634e-05
2.38508248076876e-05
2.1930444093634562e-05
1.957074702450259e-05
1.6872983705252045e-05
1.393039129294043e-05
1.0831274958704451e-05
7.661967708910353e-06
4.5097603376762635e-06
1.4658862413632553e-06
-1.3713610846361607e-06
-3.89330714110122e-06
-5.977307682761106e-06
-7.482830777296411e-06
-8.247144097110401e-06
-8.080526343424294e-06
-6.7608963026282234e-06
-4.027735582470132e-06
4.247811019944536e-07
6.955361108644184e-06
1.5983394049251358e-05
2.799586490437496e-05
-0.0007264672691707635
-0.0008028714909470128
-0.0008314660569300053
-0.0008142943541512664
-0.0007603654249947222
-0.0006819610244549847
-0.0005911986392272493
-0.0004978833561137053
-0.00040876639647643737
-0.00032777591226616884
-0.00025668412888530203
-0.00019582875505767927
-0.00014470511988601747
-0.0001023844357865191
-6.777980964007218e-05
-3.980062360404361e-05
-1.7433063210212205e-05
2.2469700872520832e-07
1.3953339505850875e-05
2.4417072385761983e-05
3.21748031484226e-05
3.769364797446585e-05
4.136254007587972e-05
4.350484259226916e-05
4.43895208038776e-05
4.424078100721731e-05
4.324626249741035e-05
4.156394993503655e-05
3.932800076044806e-05
3.665368237231077e-05
3.3641601358118736e-05
3.038139031620677e-05
2.6955000984148908e-05
2.3439737440698015e-05
1.99111506784767e-05
1.6445905632415762e-05
1.3124723075848103e-05
1.003549072825169e-05
7.27662974606743e-06
4.9607948332799565e-06
3.218981320817285e-06
2.2051178134863125e-06
2.1012504395493195e-06
3.123486694506586e-06
5.528959170726655e-06
9.624139199846705e-06
1.5774742757523538e-05
2.4417020402732123e-05
3.606924983291446e-05
-0.0008237542842815834
-0.0009090805754721188
-0.0009287460698137288
-0.0008889003825771076
-0.0008054983467772625
-0.0006974863451617991
-0.0005814556821941502
-0.0004691518283963136
-0.00036737218263488
-0.0002790789988489598
-0.0002047553615567137
-0.000143516590998838
-9.386090815371172e-05
-5.411426874551326e-05
-2.26651296248587e-05
1.929287068225922e-06
2.0908711057348022e-05
3.531247794288082e-05
4.5998909914175476e-05
5.3670476106047185e-05
5.889920780512972e-05
6.214986615207655e-05
6.37999660149035e-05
6.41565636493634e-05
6.347008156697967e-05
6.194557983722022e-05
5.9751904531253966e-05
5.7029113692342974e-05
5.3894531778312e-05
5.0447731262271995e-05
4.677469249929735e-05
4.295135297775754e-05
3.9046725270059333e-05
3.5125738848438594e-05
3.125194335441665e-05
2.749019849935825e-05
2.3909466849251007e-05
2.0585818377737153e-05
1.7605747872988763e-05
1.5069896778622215e-05
1.3097261237120586e-05
1.1829966017435842e-05
1.1438710121600311e-05
1.2129079948083356e-05
1.4149116214970565e-05
1.7798792704290523e-05
2.3442244220054156e-05
3.152326356501648e-05
4.2583259492563405e-05
-0.0009449357134218134
-0.0010385303887481497
-0.001039809618497171
-0.0009636909023586729
-0.0008383313446025994
-0.0006925047206476401
-0.0005478285945268498
-0.0004168987298570892
-0.0003050165523141488
-0.00021289615837114851
-0.0001389105592401459
-8.052715304010909e-05
-3.5080807107580974e-05
-1.3084929884097876e-07
2.641135238545285e-05
4.626795717504957e-05
6.082911207790434e-05
7.120352885569485e-05
7.826984724217394e-05
8.272249532591865e-05
8.511017041524919e-05
8.586705231384043e-05
8.533763795286957e-05
8.379628903761385e-05
8.146253643136507e-05
7.851304463269305e-05
7.50909803058919e-05
7.131338152902792e-05
6.727700004926368e-05
6.306298898587368e-05
5.8740730947272595e-05
5.437104310486397e-05
5.000895302606414e-05
4.5706209010676346e-05
4.15136687094966e-05
3.7483697604218796e-05
3.367270215835338e-05
3.0143918429163287e-05
2.6970572363080834e-05
2.4239519134130333e-05
2.2055453104162688e-05
2.0545760856170887e-05
1.9866088812495013e-05
2.0206773845540642e-05
2.1800549551604514e-05
2.493249863042609e-05
2.9953975090827624e-05
3.730254355741123e-05
4.752862842912625e-05
-0.0011005187401121118
-0.0011985124521523096
-0.0011635248163663263
-0.0010293827828664823
-0.0008455281781095747
-0.0006540631876173792
-0.0004803561867651473
-0.00033478244415427634
-0.0002184514863219709
-0.00012818594945155834
-5.949752840929916e-05
-7.983012146203376e-06
3.0149726913968575e-05
5.797178341091892e-05
7.789220771177351e-05
9.176948276535548e-05
0.00010102582331107039
0.00010674639963837319
0.00010975941936489889
0.00011069841412282783
0.00011004974591895516
0.00010818847957399331
0.00010540535420232441
0.00010192704902918558
9.793143872027831e-05
9.355912014157594e-05
8.892216987055942e-05
8.411084770739959e-05
7.919878023766131e-05
7.424702574960248e-05
6.930732572174103e-05
6.442477960477916e-05
5.964013199716723e-05
5.4991829659820773e-05
5.051798656890722e-05
4.625838564080616e-05
4.2256643458491415e-05
3.8562666507981416e-05
3.5235530125291535e-05
3.2346908475023445e-05
2.9985166977603353e-05
2.8260189765158886e-05
2.730895957247549e-05
2.730189164476711e-05
2.8450129050537794e-05
3.1014791781545925e-05
3.532084471431253e-05
4.178027379387987e-05
5.0929226441094946e-05
-0.0013074527627412419
-0.0013974889254547433
-0.0012919410033650164
-0.0010659143066261408
-0.000804659017625365
-0.0005644812793047062
-0.0003682593796079691
-0.00021789137869956477
-0.00010667192046949871
-2.6166846521179102e-05
3.11996956896864e-05
7.146595400170556e-05
9.919796719623099e-05
0.0001177646648991245
0.00012962590878443905
0.00013657270689173374
0.00013991097213483079
0.00014059662820583435
0.0001393331205771553
0.00013664125657885046
0.00013290914789434874
0.0001284279949948573
0.0001234178329417399
0.00011804615594849469
0.00011244147630037416
0.00010670326582318864
0.000100909303410742
9.512115614268178e-05
8.938831545057509e-05
8.375136645297774e-05
7.824446924030448e-05
7.289736275444296e-05
6.773705633290016e-05
6.278934521136877e-05
5.8080270521045085e-05
5.363763908757674e-05
4.9492721802588124e-05
4.568225953801436e-05
4.225091922148774e-05
3.925435319071611e-05
3.676300939908263e-05
3.486679624189245e-05
3.3680595052092144e-05
3.3350431717540756e-05
3.4060005020613085e-05
3.603782963967732e-05
3.956776323467588e-05
4.5010982007778755e-05
5.285251981366687e-05
-0.0015935479564188003
-0.0016410242032984565
-0.0013985919851002937
-0.001032779835360917
-0.0006815205546214294
-0.0004038893123658987
-0.0002039410931402373
-6.597569394334172e-05
2.6969526482572225e-05
8.848356176630056e-05
0.0001283629738071807
0.00015339827435587546
0.00016822988215939864
0.0001760228790218507
0.00017894463583953627
0.000178489495856955
0.00017569613346638967
0.0001712926500255891
0.000165793755396139
0.0001595662889846924
0.00015287376020194543
0.0001459068993036603
0.00013880480593380577
0.00013166972325522226
0.00012457745197099
0.00011758475636042699
0.00011073467889675774
0.00010406039141217177
9.758801824227489e-05
9.13387377103887e-05
8.533038174025464e-05
7.957869582220526e-05
7.409838436613775e-05
6.890404423403815e-05
6.401107871668345e-05
5.943668366726815e-05
5.520100617026347e-05
5.1328593618915966e-05
4.7850276315978234e-05
4.480565566639897e-05
4.22463909148553e-05
4.024046115526543e-05
3.8877464140991795e-05
3.827469232168569e-05
3.8583106178932854e-05
3.9991711293113456e-05
4.273051956446734e-05
4.708131501619372e-05
5.34232462415761e-05
-0.0020062373037011685
-0.00191256563617521
-0.001410450251554764
-0.0008562585236889151
-0.00043519388195703687
-0.00016073136147709641
9.506372420907318e-06
0.00011222939588112425
0.00017269411730139737
0.00020682029949316792
0.00022446227023794035
0.00023172107800439382
0.00023241010433390025
0.0002289419881518347
0.0002228624074887673
0.00021517316676951192
0.0002065301322738449
0.00019736621867552987
0.00018796893515180717
0.00017852998286380767
0.0001691774060033934
0.00015999669262273274
0.00015104477867992298
0.00014235943475465035
0.00013396561255405413
0.00012587976804464066
0.00011811282540941668
0.00011067222129909236
0.0001035633240767434
9.679042875939932e-05
9.035746718892958e-05
8.426853352368419e-05
7.852830061414948e-05
7.314238915495132e-05
6.811774651897026e-05
6.346309509558563e-05
5.918952111361522e-05
5.531129558047909e-05
5.1847050833631406e-05
4.882148012344458e-05
4.626777962042552e-05
4.4231092498758263e-05
4.277317998847667e-05
4.197826388805618e-05
4.1959067048380136e-05
4.2859890983096456e-05
4.485045472501885e-05
4.811023175190811e-05
5.284076873380422e-05
-0.002600144199465241
-0.0021039626297466906
-0.0011470750487313378
-0.0004380020105326718
-5.1746205724662e-05
0.0001491360707432639
0.0002491684200527386
0.0002957410016890548
0.0003136180758351113
0.0003159541627316372
0.0003098632667193657
0.0002992804844622894
0.0002864220155754802
0.0002725516054846323
0.00025839323266367223
0.00024435935050940626
0.00023068016461526227
0.00021747841440610417
0.00020481340607168526
0.00019270731421228366
0.00018116106017953887
0.00017016396036348522
0.00015969959813889878
0.00014974938060335874
0.0001402946636711402
0.00013131798700630757
0.00012280375444104858
0.00011473856994801898
0.00010711136175233556
9.991337899889182e-05
9.313811542959426e-05
8.678119617064068e-05
8.08402530988895e-05
7.531480918778009e-05
7.020619175765203e-05
6.551749866194438e-05
6.125365106194897e-05
5.7421583610200305e-05
5.4030650967241967e-05
5.1093373478150635e-05
4.862670985844239e-05
4.6654131262798514e-05
4.520885388113738e-05
4.433854522105721e-05
4.41112123759687e-05
4.4619433073609174e-05
4.597201032780114e-05
4.8245861497999386e-05
5.1399738455271474e-05
-0.0034066927410975256
-0.0017176340950714629
-0.00032076715016124565
0.00020750634713278377
0.0004043109247849675
0.00046394132273064044
0.00046924505697416657
0.00045272980490028284
0.00042806548579423865
0.00040111407660145624
0.0003744119829998646
0.00034900996432973976
0.00032528067149935694
0.00030328645479462497
0.00028295245123354467
0.0002641494205898574
0.00024673341416870054
0.00023056430227194624
0.0002155138155132257
0.0002014683860397839
0.00018832945911947127
0.00017601263743437126
0.0001644463526884899
0.00015357041324133916
0.00014333459582398494
0.00013369735501482082
0.00012462467536160891
0.00011608906648989063
0.00010806868987956386
0.00010054660112127816
9.351009009655759e-05
8.695010190973643e-05
8.086072264781169e-05
7.523871578420539e-05
7.008309726508691e-05
6.539474035213797e-05
6.117600591069687e-05
5.7430401484082766e-05
5.416228581525337e-05
5.137665910869265e-05
4.90791211590607e-05
4.7276151695687003e-05
4.597598332045302e-05
4.5190484911922756e-05
4.493847714943759e-05
4.524976589988846e-05
4.616245590310236e-05
4.7673863437682276e-05
4.9515199565057164e-05
-0.002969186800786008
0.00022969652516988863
0.0007624653342855198
0.0008279912376921265
0.0007653593756091694
0.0006862791690506684
0.0006128232158386674
0.0005493852325540879
0.000495389993012633
0.00044934445671651103
0.00040976581037764507
0.0003754099155612768
0.0003452834416775607
0.00031860620249665815
0.00029476717327688674
0.0002732865128961561
0.0002537854946056843
0.00023596346976590527
0.00021958041612618454
0.00020444373691246302
0.00019039824239938555
0.00017731850316680606
0.00016510297304585578
0.00015366943822686533
0.00014295146585912698
0.00013289561061166025
0.00012345919944347196
0.00011460855965165096
0.0001063175878158293
9.856658089963354e-05
9.134126788224676e-05
8.463199254121409e-05
7.843300653911141e-05
7.27418375499056e-05
6.755870028073933e-05
6.288591917059244e-05
5.8727330386539045e-05
5.5087627505438774e-05
5.197161000539564e-05
4.9383286741690353e-05
4.732477921971703e-05
4.5794965277454365e-05
4.478781117305333e-05
4.429037423994437e-05
4.428051892269979e-05
4.47242564988919e-05
4.5570192465350934e-05
4.672035504880642e-05
4.780521446889896e-05

SCALARS STRAIN_YY float 1
LOOKUP_TABLE default
-0.0002497082637836212
-0.01007792150604645
-0.00014259258674985398
0.0002658800272508366
-0.00024965304329046395
-0.00024948738788928976
-0.00024921131585958767
-0.00024882485781586167
-0.00024832805693046633
-0.00024772096924535053
-0.0002470036640727369
-0.00024617622448387666
-0.0002452387478859286
-0.0002441913466863163
-0.00024303414904292692
-0.00024176729970019212
-0.00024039096090901213
-0.0002389053134286001
-0.0002373105576083459
-0.00023560691454690974
-0.00023379462732504158
-0.0002318739623075189
-0.00022984521051034462
-0.00022770868902673852
-0.0002254647425047815
-0.0002231137446689485
-0.00022065609987634988
-0.00021809224469623162
-0.0002154226495001063
-0.00021264782004914995
-0.00020976829906130257
-0.0002067846677400384
-0.00020369754724404443
-0.00020050760007344487
-0.0001972155313466964
-0.00019382208993831002
-0.00019032806944445368
-0.00018673430893917375
-0.0001830416934808371
-0.0001792511543239686
-0.00017536366878603826
-0.00017138025971421417
-0.00016730199449172672
-0.00016312998351668967
-0.00015886537807979773
-0.00015450936756036815
-0.0001500631758507981
-0.00014552805691152304
-0.0001409052893478202
-0.00013619616988753275
-0.00013140200562686277
-0.00012652410489530364
-0.0001215637665731295
-0.00011652226767473045
-0.0001114008489865731
-0.000106200698520173
-0.00010092293250513196
-9.556857360672882e-05
-9.01385260024673e-05
-8.46335468897702e-05
-7.905421392157691e-05
-7.340088797425787e-05
-6.76736705371439e-05
-6.187235486837528e-05
-5.599636988211365e-05
-5.004471550716649e-05
-4.401588797098288e-05
-3.7907793100519505e-05
-3.171764527224591e-05
-2.5441849051989485e-05
-1.907585980596982e-05
-1.2614018582997322e-05
-6.049355287682245e-06
6.26647510292011e-07
7.424339995336371e-06
1.4356252554387217e-05
2.1437521989124686e-05
2.8686418543762138e-05
3.612500305350333e-05
4.3779953519795106e-05
5.16836143604274e-05
5.9875341255809233e-05
6.840324264069039e-05
7.732645968425156e-05
8.671818669042305e-05
9.666972386685249e-05
0.00010729599175681934
0.00011874315053539419
0.00013119930750066233
0.00014490985261184086
0.0001601998840619033
0.00017750782967266426
0.00019743700599282946
0.00022083829646857636
0.000248940711493173
0.0002836014323192512
0.00032758965863135744
0.00038596691712744664
0.0004634333876733839
0.00058665436951961
0.0006578530973472621
0.0011284249698686449
-0.004235363912044126
-0.00893194855963106
-0.006507424816789463
-0.004582578817423669
-0.0035257903327669017
-0.0028439237932834736
-0.0023791106958718257
-0.002041151552822633
-0.0017843451714601756
-0.0015820971056246108
-0.0014182172416566906
-0.0012822668827564172
-0.0011672401364969526
-0.001068270062293996
-0.000981879493743976
-0.0009055249798742403
-0.000837308894983655
-0.0007757916237085376
-0.0007198655622974795
-0.000668668489443091
-0.000621522706864594
-0.0005778914582596877
-0.0005373471843579149
-0.000499548042847079
-0.0004642202994511978
-0.00043114495431867406
-0.00040014746561183034
-0.0003710897649858054
-0.0003438639856612885
-0.00031838747927744743
-0.00029459880563836166
-0.000272454454597542
-0.0002519261111899318
-0.00023299830981361389
-0.00021566634450441782
-0.00019993431208078366
-0.00018581316358686623
-0.0001733186258922187
-0.00016246882647193844
-0.000153281404527153
-0.00014576981074580775
-0.00013993836935845966
-0.00013577547171078966
-0.00013324394458308353
-0.00013226711863323012
-0.0001327083303549019
-0.0001343405563982679
-0.00013680233910738637
-0.0001395406830965902
-0.0001417442695227332
-0.00014291232793711
-0.00014379798061384466
-0.0001448958309137431
-0.00014582265440403475
-0.00014641079043669833
-0.00014655423792809055
-0.0001461864552575326
-0.0001452690107745895
-0.00014378389912715617
-0.00014172807387951777
-0.00013910952545828983
-0.0001359444280022229
-0.00013225502103758613
-0.00012806800082112643
-0.00012341327101764166
-0.00011832295245032404
-0.00011283058464730406
-0.0001069704736196414
-0.00010077715461176764
-9.428494800875487e-05
-8.7527592817091e-05
-8.053794624082386e-05
-7.334774057389873e-05
-6.598739039266263e-05
-5.84858441875849e-05
-5.0870475337215504e-05
-4.316700784418731e-05
-3.539947262435478e-05
-2.7590190428271322e-05
-1.9759777722686e-05
-1.1927172092307536e-05
-4.109673954554027e-06
3.6769983827456e-06
1.1418643046511023e-05
1.9102500780660003e-05
2.671717520753153e-05
3.425254913829584e-05
4.1699698654945605e-05
4.9050806449076056e-05
5.6299075677460064e-05
6.343864538293359e-05
7.046450833445711e-05
7.73724319644356e-05
8.415888292295087e-05
9.082095562709669e-05
9.73563050625792e-05
0.00010376308398995365
0.00011003988461653208
0.00011618568472260976
0.00012219979816951304
0.0001280818296672953
0.00013383163364293765
0.00013944927702058685
0.00014493500570597617
0.00015028921455299826
0.00015551242058239878
0.0001606052392214008
0.0001655683633325633
0.00017040254480590877
0.0001751085784951062
0.00017968728828592767
0.0001841395150970898
0.00018846610662438118
0.00019266790864960748
0.00019674575774857733
0.00020070047524485546
0.00020453286226675138
0.00020824369577761986
0.00021183372546002693
0.00021530367134496575
0.0002186542220878468
0.00022188603380199345
0.00022499972936986662
0.0002279958981598676
0.00023087509608404194
0.00023363784593949388
0.00023628463798322508
0.00023881593069502438
0.00024123215168842665
0.00024353369873535147
0.0002457209408735367
0.0002477942195706073
0.00024975384992191596
0.0002516001218609565
0.00025333330136673854
0.0002549536316533013
0.00025646133432719737
0.00025785661050396064
0.0002591396418744202
0.0002603105917128798
0.0002613696058209533
0.0002623168134021081
0.0002631523278625869
0.0002638762475351414
0.0002644886563232529
0.00026498962426267647
0.00026537920799941245
0.0002656574511826146
0.00026582438477071313
0.0002584721104713916
0.00024392497469128555
0.00022990396820839892
0.000216386508956945
0.00020334991956332676
0.00019077143524760115
0.0001786282123224861
0.0001668973371453525
0.00015555583538681694
0.00014458068148481135
0.00013394880816413463
0.00012363711590830662
0.00011362248227828747
0.00010388177098228507
9.439184060724276e-05
8.51295529320853e-05
7.607178074950371e-05
6.719541512986704e-05
5.847737207012593e-05
4.9894598474646557e-05
4.1424077423461714e-05
3.304283268944219e-05
2.472793247052657e-05
1.645649231175883e-05
8.205677195956274e-06
-4.729721311824697e-08
-8.32516418298318e-06
-1.6650606383082633e-05
-2.5046257214077217e-05
-3.353470298557426e-05
-4.2138485926393465e-05
-5.088010800952114e-05
-5.978203556401135e-05
-6.886670463868844e-05
-7.815652707796744e-05
-8.767389726160868e-05
-9.744119945345742e-05
-0.0001074808156961704
-0.00011781513418215872
-0.00012846655802235818
-0.00013945751432593856
-0.00015081046349847
-0.00016254790865652402
-0.00017469240504890127
-0.0001872665693681136
-0.00020029308882905245
-0.00021379472988343473
-0.00022779434643438456
-0.00024231488740953516
-0.00024226080526610141
-0.0002277425264399259
-0.0002137451438971212
-0.00020024571077955494
-0.00018722137552630233
-0.0001746493742502027
-0.00016250702247454923
-0.00015077170637194798
-0.00013942087364140002
-0.00012843202415478358
-0.00011778270049632097
-0.00010745047851144426
-9.741295797501687e-05
-8.764775348036116e-05
-7.813248564253472e-05
-6.884477270195297e-05
-5.9762222607114696e-05
-5.086242564599289e-05
-4.212294768874553e-05
-3.3521324097098015e-05
-2.5035054348164498e-05
-1.6641597412391657e-05
-8.31836792047555e-06
-4.273314698280406e-08
8.207989171501312e-06
1.645653216740886e-05
2.4725680313451154e-05
3.303826903362089e-05
4.141718345641518e-05
4.988535631952895e-05
5.846576504114562e-05
6.71814279791065e-05
7.605539990381688e-05
8.51107667175291e-05
9.437063945924584e-05
0.00010385814763969395
0.00011359643195886504
0.00012360863646323356
0.00013391790020908165
0.00014454734850501139
0.0001555200838133687
0.0001668591763998445
0.0001785876548270164
0.00019072849639732367
0.00020330461765822802
0.00021633886509001
0.0002298540061074425
0.0002438727205114309
0.00025841759253549673
-0.00024209856468607877
-0.00022758707175338233
-0.0002135963905013638
-0.00020010358030891212
-0.00018708579666936592
-0.0001745202834156391
-0.00016238436431057976
-0.0001506554341458126
-0.00013931094948562914
-0.00012832841918740748
-0.00011768539482333307
-0.00010735946111948766
-9.732822652288795e-05
-8.756931399744872e-05
-7.806035214289256e-05
-6.877896672252345e-05
-5.9702772678197485e-05
-5.080936670205649e-05
-4.207632042709311e-05
-3.348117429212427e-05
-2.5001432127982892e-05
-1.661455650552382e-05
-8.297964878098418e-06
-2.9026546582988644e-08
8.214939533873755e-06
1.6456666091024114e-05
2.471893800828906e-05
3.302459193153806e-05
4.1396515012372126e-05
4.9857642798280255e-05
5.843095628407097e-05
6.713947814568008e-05
7.600626818250397e-05
8.50544180002119e-05
9.430704497282241e-05
0.00010378728552916383
0.00011351828781496279
0.0001235232037871195
0.00013382518080721703
0.00014444735280591536
0.0001554128310980868
0.00016674469493763514
0.00017846598190742954
0.0001905996782494701
0.00020316870924805275
0.00021619592978713506
0.00022970411521214956
0.0002437159526337343
0.0002582540328183412
-0.0002418281832619884
-0.00022732799830141315
-0.00021334848341659704
-0.0001998667084768084
-0.00018685984082473378
-0.00017430513724822627
-0.0001621799353263391
-0.00015046164429430992
-0.00013912773556492772
-0.00012815573303884276
-0.00011752320332977795
-0.00010720774602075017
-9.718698406205664e-05
-8.743855441277482e-05
-7.79400990190797e-05
-6.866925621577466e-05
-5.960365262870984e-05
-5.072089564710572e-05
-4.1998566528023834e-05
-3.341421418758678e-05
-2.494534972481352e-05
-1.6569441719446742e-05
-8.26391233451143e-06
-6.134251183398387e-09
8.226571543645811e-06
1.6456937105231717e-05
2.4707748005461938e-05
3.3001842932027514e-05
4.1362112416152425e-05
4.9811496698044105e-05
5.8372982745288904e-05
6.706960044480792e-05
7.592441799400898e-05
8.496053652333468e-05
9.420108398778063e-05
0.0001036692083724311
0.00011338807026225681
0.00012338083483253576
0.0001336706633260111
0.0001442807040876841
0.00015523408323651552
0.0001665538950625621
0.0001782631922444683
0.00019038497599168508
0.000202942186224922
0.00021595769191564557
0.00022945428171454452
0.00024345465500839533
0.0002579814135505766
-0.00024144969045375442
-0.00022696533274870964
-0.00021300144561292936
-0.00019953511380300937
-0.0001865435214446383
-0.0001740039436480753
-0.0001618937375109479
-0.00015019033265447138
-0.0001388712214327216
-0.00012791394894856936
-0.00011729610300312276
-0.00010699530409588598
-9.698919558621608e-05
-8.725543411880823e-05
-7.777168040580193e-05
-6.851559045170999e-05
-5.9464807299028366e-05
-5.059695336223982e-05
-4.188962341237362e-05
-3.3320378265547235e-05
-2.4866739220748973e-05
-1.650618328760331e-05
-8.216139233737513e-06
2.6015521081140802e-08
8.242957144646845e-06
1.6457416754663e-05
2.469218089479544e-05
3.2970091123379897e-05
4.1314042719002575e-05
4.974698251189111e-05
5.82919058561282e-05
6.697185276314382e-05
7.580990322207659e-05
8.482917173806628e-05
9.405280112624939e-05
0.00010350395560461412
0.0001132058132352308
0.0001231815577707497
0.0001334543699690223
0.0001440474184474759
0.00015498385015517285
0.00016628678054955368
0.00017797928357300707
0.00019008438153284707
0.0002026250349980302
0.00021562413283297485
0.00022910448249968685
0.00024308880076790232
0.0002575997049800924
-0.0002409631277969955
-0.0002264991126779796
-0.00021255530946390558
-0.00019910882239752847
-0.00018613685751594708
-0.00017361671380544327
-0.0001615257737607248
-0.00014984149349664758
-0.0001385413925548938
-0.0001276030435407756
-0.0001170040617176557
-0.00010672209467733895
-9.673481219800092e-05
-8.701989639217297e-05
-7.755503223721635e-05
-6.831789857457068e-05
-5.9286159654264176e-05
-5.043745729264165e-05
-4.1749403703966737e-05
-3.3199575058002334e-05
-2.4765505808731214e-05
-1.642468383353593e-05
-8.154546410597124e-06
6.752293849748847e-08
8.264196722434364e-06
1.6458204860177877e-05
2.467233515858827e-05
3.2929432887695426e-05
4.125239945727832e-05
4.9664190204658926e-05
5.818781130811565e-05
6.684631584585182e-05
7.56627990259641e-05
8.466039261796274e-05
9.386225862207873e-05
0.00010329158221870569
0.00011297156404644834
0.0001229254118643927
0.00013317633165999682
0.00014374751827273685
0.00015466214561083227
0.00016594335654614156
0.00017761425258207286
0.00018969788339716007
0.00020221723637681155
0.000215195226254513
0.00022865468499368505
0.00024261835205057966
0.00025710886516742276
-0.0002403685491943891
-0.00022592938684173197
-0.0002120101169614426
-0.00019858786814258567
-0.0001856398737137381
-0.0001731434623309623
-0.000161076047991527
-0.0001494151196243798
-0.00013813823040272066
-0.00012722298691606598
-0.00011664703832998946
-0.00010638806565339831
-9.642377122577941e-05
-8.673186852660789e-05
-7.729007239955579e-05
-6.807608977729349e-05
-5.9067610982007496e-05
-5.0242301669362055e-05
-4.1577795475134655e-05
-3.3051687415110165e-05
-2.4641528082822856e-05
-1.6324818681176523e-05
-8.079006917346282e-06
1.1851621577879667e-07
8.290418754278855e-06
1.6459429162826722e-05
2.464833681384282e-05
3.287999154553273e-05
4.117730230321359e-05
4.956323487369935e-05
5.8060808727354585e-05
6.669309298743334e-05
7.548320155070787e-05
8.445428739015451e-05
9.362953607369717e-05
0.0001030321585405447
0.00011268538318251822
0.00012261244728317341
0.00013283658787579047
0.00014338103208758404
0.00015426898704621467
0.0001655236294326838
0.00017716809477365952
0.00018922546657483552
0.0002017187654072862
0.0002146709380688519
0.00022810484695123812
0.000242043259754441
0.0002565088397004124
-0.00023966602128982703
-0.00022525621548520267
-0.00021136591999160181
-0.0001979722929261532
-0.0001850526005985169
-0.00017258420742321742
-0.00016054456528394323
-0.00014891120250459453
-0.00013766171257532933
-0.00012677374277309666
-0.00011622498280675422
-0.00010599315360814571
-9.605599638134663e-05
-8.639126201327382e-05
-7.697670093775172e-05
-6.77900535375163e-05
-5.8809041159426506e-05
-5.0011357808403545e-05
-4.1374662578173155e-05
-3.2876572868177634e-05
-2.4494658429255467e-05
-1.6206436271287705e-05
-7.98936646286691e-06
1.7915115682609617e-07
8.321779338769236e-06
1.646124484568426e-05
2.4620338931510832e-05
3.2821916878322116e-05
4.1088896595833924e-05
4.944425629310398e-05
5.7911031236822924e-05
6.651230961632337e-05
7.527122753719917e-05
8.42109631734797e-05
9.335473011180123e-05
0.00010272576992631857
0.0001123473440305979
0.00012224272485712728
0.00013243518642320345
0.00014294799434865293
0.0001538043953993283
0.00016502760663859167
0.00017664080427825385
0.00018866711232899333
0.00020112959116160706
0.00021405122610099192
0.00022745491618379743
0.00024136346322222932
0.00025579956132856796
-0.000238855623924724
-0.00022447967073985914
-0.00021062278067037615
-0.00019726214692657174
-0.00018437507485711407
-0.000171938971074221
-0.00015993133206231025
-0.00014832973242954323
-0.00013711181295361294
-0.00012625526856321553
-0.0001157378363884215
-0.00010553728400204687
-9.5631397964379e-05
-8.59979727750454e-05
-7.66148003239174e-05
-6.745965992383668e-05
-5.851030899984774e-05
-4.974447449861141e-05
-4.113984507414167e-05
-3.26740640977409e-05
-2.432472353188289e-05
-1.6069358700028513e-05
-7.885443979220585e-06
2.4961056523109537e-07
8.358461589710875e-06
1.6463833917599452e-05
2.4588521017072235e-05
3.27553845126706e-05
4.0987352736120836e-05
4.9307418326312996e-05
5.773863489236947e-05
6.630411275962769e-05
7.502701381958618e-05
8.39305455119059e-05
9.303795397089948e-05
0.00010237251637251754
0.00011195753252618915
0.00012181631575965829
0.0001319721831531187
0.00014244844518527394
0.00015326839486256433
0.0001644552964118924
0.00017603237362567858
0.00018802279795770982
0.00020044967648035622
0.00021333603982385402
0.000226704830229206
0.00024057888985834497
0.0002549809495180702
-0.00023793745067625036
-0.00022359983708690467
-0.00020978077173874551
-0.00019645748894732418
-0.0001836073395867291
-0.00017120777931303732
-0.00015923635630869099
-0.0001476706987121358
-0.0001364885018879554
-0.00012566751568153858
-0.00011518553179385924
-0.00010502037139944326
-9.514987312081447e-05
-8.555188146264908e-05
-7.620423579734678e-05
-6.708475998366825e-05
-5.8171252691037456e-05
-4.9441478491566576e-05
-4.0873159773739676e-05
-3.2443969523295035e-05
-2.41315250079574e-05
-1.5913382396270243e-05
-7.767032334109886e-06
3.301035035700728e-07
8.400674874807501e-06
1.6467404439467204e-05
2.455308823295574e-05
3.2680595147664e-05
4.087286542782745e-05
4.9152908188861144e-05
5.7543797974624056e-05
6.606867037046993e-05
7.475071669388322e-05
8.36131777884469e-05
9.267933695097236e-05
0.000101972512026368
0.00011151604671107498
0.00012133330111052665
0.00013144764160415157
0.0001418824300769804
0.00015266101258601047
0.00016380670753856838
0.00017534279346896955
0.0001872924965099533
0.00019967897766744527
0.00021252532001846125
0.00022585451596365824
0.00023968945467969446
0.00025405290992956686
-0.00023691160947641662
-0.0002226168118895297
-0.00020883997701617169
-0.00019555838680149554
-0.000182749444621811
-0.0001703906624876926
-0.00015845964781262267
-0.0001469340899165096
-0.00013579174642307928
-0.0001250104296988755
-0.00011456799347117977
-0.00010444231974932744
-9.461130616340505e-05
-8.505285382312197e-05
-7.574485578741574e-05
-6.666518622552159e-05
-5.7791690339797225e-05
-4.910217510957493e-05
-4.0574400908120756e-05
-3.2186074034674245e-05
-2.3914840194899645e-05
-1.5738278958093987e-05
-7.633899210685025e-06
4.208643790207245e-07
8.44865387607946e-06
1.6472189569776557e-05
2.4514270439830038e-05
3.2597773602257435e-05
4.074565274119965e-05
4.898093553853261e-05
5.732672011484266e-05
6.580617049763149e-05
7.444251113821604e-05
8.32590205010579e-05
9.227902375247288e-05
0.0001015258845814028
0.00011102299618873795
0.00012079377148797518
0.00013086163256615171
0.00014124999946108635
0.00015198227831935904
0.0001630818490071656
0.0001745720522585599
0.00018647617645444967
0.00019881744413776867
0.0002116189983838966
0.00022490388915755166
0.00023869505980190359
0.00025301533381985597
-0.00023577822331082368
-0.00022153070599277916
-0.0002078004919112246
-0.0001945649177452248
-0.00018180144690355116
-0.00016948765558514114
-0.0001576012184572699
-0.00014611989412625925
-0.00013502151056362863
-0.00012428395063943456
-0.00011388513790162175
-0.00010380302272792324
-9.401556896439581e-05
-8.450074115225539e-05
-7.523649243311795e-05
-6.620075321120064e-05
-5.7371420640113524e-05
-4.872634899093231e-05
-4.0243340950138484e-05
-3.1900139885722434e-05
-2.3674423111502002e-05
-1.554379617434501e-05
-7.485788180400937e-06
5.221518291215199e-07
8.502657445473571e-06
1.6478446402054536e-05
2.4472321028586735e-05
3.250716765486328e-05
4.060595497260358e-05
4.879173136674089e-05
5.7087621229547775e-05
6.551682027355205e-05
7.410258986223148e-05
8.286825037989026e-05
9.183717366568686e-05
0.00010103277454083168
0.00011047850146162635
0.00012019782633657453
0.0001302142335524968
0.0001405512082611124
0.00015123222398528632
0.0001622807296137417
0.00017372013586340954
0.00018557380129960097
0.00019786501801713485
0.00021061699709806758
0.00022385285397742358
0.0002375955938629902
0.0002518680973699512
-0.00023453743099620394
-0.00022034164438950246
-0.00020666242398792445
-0.0001934771689584107
-0.000180763410890971
-0.00016849879858995068
-0.00015666108254364444
-0.00014522809925260338
-0.00013417775558427839
-0.00012348801330984774
-0.00011313687396359226
-0.00010310236415266016
-9.336252143199442e-05
-8.389538084439124e-05
-7.46789622148962e-05
-6.569125827563665e-05
-5.6910223684671774e-05
-4.831376499394788e-05
-3.987973160914787e-05
-3.1585907776049416e-05
-2.3410005620193297e-05
-1.532965925901339e-05
-7.322419999011842e-06
6.342473765318102e-07
8.562967223919166e-06
1.6486454562650993e-05
2.4427515511571407e-05
3.2409046643464e-05
4.04540332690044e-05
4.858554666153925e-05
5.682674023520587e-05
6.520084469264706e-05
7.373116215922057e-05
8.244105932128307e-05
9.135395959198114e-05
0.00010049333432895005
0.00010988269313207816
0.00011954557325470974
0.0001295055281681709
0.00013978611532521404
0.00015041088317609835
0.00016140335750154666
0.00017278702713524954
0.0001845853291625628
0.0001968216336946972
0.00020951922833049863
0.0002227013024360472
0.0002363909313880183
0.00025061106094277294
-0.0002331893880350329
-0.00021904976695062
-0.0002054258935857249
-0.00019229523807124532
-0.0001796354090128835
-0.00016742413688202243
-0.00015563925715471327
-0.00014425869338537123
-0.0001332604403882845
-0.0001226225476856531
-0.00011232310336552198
-0.0001023402184779365
-9.265201208368684e-05
-8.323659705528758e-05
-7.407206671666833e-05
-6.513648239459685e-05
-5.640786194204342e-05
-4.786416928454981e-05
-3.9483305026885573e-05
-3.1243098150206955e-05
-2.31212988219473e-05
-1.5095572331393775e-05
-7.143494159155689e-06
7.574538182855695e-07
8.629885988271913e-06
1.6496514532528955e-05
2.4380149837299747e-05
3.2303699790972584e-05
4.029016798167903e-05
4.836265080713359e-05
5.654433350921195e-05
6.485848514806158e-05
7.332845253096854e-05
8.1977653110403e-05
9.08295668712554e-05
9.990772722694163e-05
0.00010923571094690471
0.00011883712714458664
0.00012873560535815384
0.00013895478276300388
0.0001495182905646604
0.00016044973962833428
0.00017177270541225698
0.0001835107122861064
0.00019568721732787786
0.0002083255937088968
0.0002214491137933136
0.00023508093209762687
0.0002492440682737851
-0.00023173426754494533
-0.00021765522921716324
-0.0002040910344910038
-0.0001910192337349556
-0.00017841752215972534
-0.00016626372167259998
-0.00015453576255964122
-0.00014321166518994205
-0.00013226952192049377
-0.0001216874793626907
-0.0001114437211568696
-0.0001015164513845021
-9.188387873053372e-05
-8.252420149512663e-05
-7.341559353779559e-05
-6.453619122322174e-05
-5.586408142561894e-05
-4.737729063607893e-05
-3.9053775205442204e-05
-3.087141274757052e-05
-2.2807994718428842e-05
-1.4841220178033604e-05
-6.948690737734048e-06
8.920933100182993e-07
8.703735685927638e-06
1.6508945652343038e-05
2.4330538387035833e-05
3.219143421463386e-05
4.0114656709066415e-05
4.812332968056124e-05
5.624067305962793e-05
6.448999769112507e-05
7.289469905151155e-05
8.147824990117208e-05
9.026419188661386e-05
9.92761261069397e-05
0.0001085377026620836
0.00011807260920456905
0.00012790455851990554
0.0001380572751668585
0.00014855448121875794
0.00015941988115432404
0.00017067714595754915
0.00018234989650101757
0.00019446168629988145
0.00020703598374120086
0.00022009615391126863
0.00023366544016477364
0.0002477669455990053
-0.0002301722612605625
-0.0002161582032514063
-0.00020265799465752146
-0.00018964927623442776
-0.00017710984021369544
-0.00016501761047866756
-0.0001533506226599618
-0.00014208700435295804
-0.0001312049556397507
-0.00012068273008124242
-0.00011049861632743754
-0.00010063092047560979
-9.105794928866359e-05
-8.175799437057721e-05
-7.270931737757974e-05
-6.389013633099558e-05
-5.5278613083010325e-05
-4.6852841972921944e-05
-3.859083970126492e-05
-3.0470536439137358e-05
-2.2469768180315153e-05
-1.4566270338165627e-05
-6.737672581351439e-06
1.0385051003140855e-06
8.784855111472478e-06
1.6524083764960645e-05
2.4279011607418466e-05
3.2072572573496605e-05
3.992781198398562e-05
4.7867883402191724e-05
5.5916044361021405e-05
6.409565097268907e-05
7.243015143144557e-05
8.094307841768553e-05
8.965804041307507e-05
9.85987119349642e-05
0.00010778882270158496
0.00011725214574107717
0.0001270124844610747
0.0001370936587023648
0.000147519489807256
0.0001583137847423026
0.00016950031932677287
0.0001811028206318982
0.00019314494863056225
0.00020565027719601087
0.0002186422745677971
0.0002321442834244264
0.00024617950072511677
-0.00022850358060488157
-0.00021455887854349154
-0.00020112693697180162
-0.00018818549813968966
-0.0001757124626154613
-0.0001636858676355088
-0.00015208386547961236
-0.00014088470208048487
-0.0001300666960556071
-0.00011960821833106525
-0.00010948767250719416
-9.968347609527403e-05
-9.017404273666332e-05
-8.093776549811596e-05
-7.195300131758106e-05
-6.319805666131148e-05
-5.4651174436887856e-05
-4.629052219257482e-05
-3.8094181623447854e-05
-3.0040139392360776e-05
-2.2106279265906442e-05
-1.4270375559673892e-05
-6.510087878150439e-06
1.1970428664860588e-06
8.873597175166476e-06
1.6542278444008768e-05
2.4225913227551854e-05
3.1947450303201896e-05
3.972995855482109e-05
4.759662369070369e-05
5.557074380903304e-05
6.367572382126596e-05
7.193506874009908e-05
8.037237583724197e-05
8.901132567447692e-05
9.787567200972638e-05
0.00010698923058129542
0.00011637586677499048
0.00012605948218050167
0.00013606400005091238
0.00014641334968508793
0.00015713144976062243
0.0001682421906601117
0.00017976941584407768
0.00019173690234053353
0.00020416834044399007
0.00021708731273317045
0.00023051727254234933
0.00024448152204839535
-0.0002267284578260781
-0.00021285746296939231
-0.00019949804006051675
-0.00018662804499331928
-0.00017422549896493542
-0.0001622685648463157
-0.00015073552369892704
-0.00013960475165227665
-0.00012885469733708854
-0.00011846386004684892
-0.00010841076877887365
-9.867396228482872e-05
-8.923197023873522e-05
-8.006329561247721e-05
-7.11463983291312e-05
-6.245968024721008e-05
-5.398147151325708e-05
-4.56900183053964e-05
-3.756347197869658e-05
-2.9579879610722865e-05
-2.171717593918779e-05
-1.3953176675116086e-05
-6.265573168715705e-06
1.3680715961368606e-06
8.970325706618432e-06
1.656388975138784e-05
2.4171597003616596e-05
3.181641238115748e-05
3.952143020420629e-05
4.730987076764087e-05
5.5205075741412285e-05
6.323050240778644e-05
7.140971673819455e-05
7.976638531116687e-05
8.832426606810578e-05
9.710719790082672e-05
0.00010613908906517353
0.00011544390441457081
0.00012504565144967617
0.00013496836518540195
0.00014523609184250233
0.0001558728713790987
0.00016690271889196334
0.00017834960492869867
0.00019023743477002142
0.00020259002676439875
0.00021543108981533082
0.00022878420015037468
0.00024267277753050112
-0.00022484714719544704
-0.00021105418379609858
-0.00019777149913497924
-0.00018497707602981722
-0.0001726490696539705
-0.00016076578176812614
-0.0001493056352344195
-0.00013824714903574314
-0.00012756891399980444
-0.00011724956940458234
-0.00010726778061710684
-9.760221789485019e-05
-8.823153645490592e-05
-7.913435789585338e-05
-7.028925303680447e-05
-6.167472621877029e-05
-5.3269201096689534e-05
-4.505100793556274e-05
-3.699837241039061e-05
-2.908940589784262e-05
-2.1302097240442214e-05
-1.361430595529095e-05
-6.003756855148951e-06
1.551963953554808e-06
9.075411731569727e-06
1.6589284461184656e-05
2.4116422927947245e-05
3.167980955921801e-05
3.9302566043848686e-05
4.700794975169911e-05
5.481934896680099e-05
6.276027694114214e-05
7.08543647685543e-05
7.9125353074503e-05
8.759708251148551e-05
9.629348304563898e-05
0.00010523856201831439
0.00011445639096393373
0.00012397109116885421
0.00013380681795820484
0.00014398774370246586
0.000154538039546067
0.00016548185587113642
0.00017684330152455824
0.00018864642185410785
0.00020091517562099287
0.00021367341088129876
0.0002269448399557332
0.00024075301363916252
-0.00022285992626201387
-0.00020914928872808533
-0.00019594752686622266
-0.00018323276492149265
-0.00017098330652744187
-0.00015917760663290356
-0.00014779424386566695
-0.00013681189356359175
-0.00012620930167800068
-0.00011596525972963276
-0.00010605858096965001
-9.646807787240183e-05
-8.717254106283684e-05
-7.815071975684346e-05
-6.938130377126192e-05
-6.08429071402225e-05
-5.251405335511897e-05
-4.437316223059387e-05
-3.639853838364668e-05
-2.8568361301953282e-05
-2.0860676968766784e-05
-1.3253391003303916e-05
-5.724263273870073e-06
1.7490960645127895e-06
9.189229153667988e-06
1.6618831680578067e-05
2.4060752832632398e-05
3.153799399480475e-05
3.9073706217557236e-05
4.6691186476398305e-05
5.4413872737447966e-05
6.226533783345797e-05
7.026928214710557e-05
7.844952509052441e-05
8.682999536258756e-05
9.543471996058261e-05
0.00010428781191735431
0.00011341345673257855
0.00012283589746811888
0.00013257941847804114
0.00014266832774878502
0.0001531269378351255
0.0001639795453861441
0.00017525040927418578
0.00018696372735512584
0.00019914361191191582
0.00021181406386188914
0.0002249989458345536
0.0002387219542639117
-0.00022076709715674117
-0.00020714304698831593
-0.00019402635428628426
-0.000181395300546644
-0.00016922835356795313
-0.00015750413690100024
-0.00014620139990934727
-0.00013529898867919998
-0.00012477581799000964
-0.0001146108445281395
-0.00010478304149665746
-9.527137474517333e-05
-8.605478051782259e-05
-7.711214489105125e-05
-6.84222849484141e-05
-5.996393171852146e-05
-5.171571488135282e-05
-4.365614923178274e-05
-3.5763622873104944e-05
-2.8016387102747925e-05
-2.0392547942432032e-05
-1.2870059256552685e-05
-5.4267174029141996e-06
1.959842645355564e-06
9.3121497653538e-06
1.665289779093776e-05
2.400494531143091e-05
3.1391314204615856e-05
3.883518693734503e-05
4.635990265800319e-05
5.398895209571958e-05
6.174597126808873e-05
6.965473399084265e-05
7.77391431714923e-05
8.602322085943248e-05
9.453109701775333e-05
0.00010328699697469135
0.00011231522750923886
0.0001216401615230546
0.00013128622125066491
0.00014127785996561476
0.000151639542148016
0.0001623957220868999
0.00017357082091074352
0.0001851892020549098
0.00019727514520077524
0.00020985281874907197
0.0002229462509210009
0.00023657929962053043
-0.00021856898793882681
-0.0002050357504259602
-0.00019200823170718515
-0.00017946488777322023
-0.0001673843676006856
-0.00015574547994529064
-0.00014452716094100204
-0.0001337084427535662
-0.00012326842350515038
-0.00011318623865463548
-0.00010344103398588281
-9.401194032523236e-05
-8.487805007943716e-05
-7.601839565788554e-05
-6.741192981562019e-05
-5.903750793013335e-05
-5.087387220349682e-05
-4.289963776288319e-05
-3.5093280616012995e-05
-2.7433127407008873e-05
-1.989734690788572e-05
-1.2463943172804498e-05
-5.110750282564386e-06
2.1845713954471435e-06
9.444537505592931e-06
1.6691840626227583e-05
2.3949349876387083e-05
3.124010925776438e-05
3.858733477102999e-05
4.60144103340554e-05
5.354488251736039e-05
6.12024540970757e-05
6.901097641360404e-05
7.699444051098916e-05
8.517696701942565e-05
9.358279473362097e-05
0.00010223626782972575
0.00011116182165906222
0.00012038396705099652
0.00012992727305627394
0.00013981634806779428
0.0001500758192593335
0.00016073031029439563
0.00017180441727415036
0.00018332268291006149
0.0001953095689353479
0.00020778942679698306
0.0002207864667051751
0.0002343247251581186
-0.00021626595397627318
-0.00020282771464220917
-0.00018989342964851122
-0.00017744174824983402
-0.00016545151901237176
-0.0001539017537630881
-0.0001427715925652745
-0.0001320402699779115
-0.00012168708282021823
-0.00011169135962974669
-0.00010203243196318587
-9.268960765756659e-05
-8.364214613595933e-05
-7.486923581070601e-05
-6.634997360872169e-05
-5.806334661667689e-05
-4.9988215821372e-05
-4.210330190007258e-05
-3.4387172999261056e-05
-2.681823442716655e-05
-1.9374720175973498e-05
-1.2034686182545856e-05
-4.7760052350673265e-06
2.4236365648265534e-06
9.586741874553772e-06
1.6736002797772265e-05
2.3894300257815138e-05
3.1084702117625124e-05
3.833046009226945e-05
4.5655005485811806e-05
5.308194376767855e-05
6.06350479880613e-05
6.833825101469279e-05
7.621563655768257e-05
8.429142893421476e-05
9.258998151179254e-05
0.00010113576375555752
0.0001099533467992693
0.00011906738744962148
0.00012850261053356377
0.00013828378949983997
0.00014843572518769693
0.00015898322269049248
0.00016995106625468034
0.0001813639921734063
0.000193246659662763
0.0002056236197395256
0.00021851928215510172
0.00023195788048468308
-0.00021385837935096116
-0.00020051928012388906
-0.0001876822397647998
-0.0001753261211962405
-0.00016342999247671852
-0.0001519730877108938
-0.00014093476923403986
-0.00013029449133650228
-0.00012003176575524355
-0.00011012612912267988
-0.00010055711251896055
-9.130421324069285e-05
-8.234686886104264e-05
-7.366443362193109e-05
-6.523615716819489e-05
-5.704116560434694e-05
-4.905844483065261e-05
-4.1266826091717473e-05
-3.364497365520788e-05
-2.617137452345583e-05
-1.8824330071193218e-05
-1.1581949497432159e-05
-4.42214497655552e-06
2.6773716010897175e-06
9.739090406749723e-06
1.678570406553684e-05
2.3840106748301837e-05
3.0925392033937654e-05
3.806484959599163e-05
4.528196075039015e-05
5.2600392880002705e-05
6.0043992733960216e-05
6.763677857814926e-05
7.540293115478394e-05
8.336678339069745e-05
9.155280877657518e-05
9.998560832530368e-05
0.00010868989600581677
0.0001176904825387591
0.00012701225743797992
0.0001366801691787059
0.0001467192033772699
0.00015715435887882212
0.0001680106216614373
0.00017931293648636853
0.00019108617625159321
0.00020335510903840906
0.00021614436288054303
0.00022947838833187878
-0.00021134667827653678
-0.00019811081337330408
-0.00018537497576085957
-0.00017311826418271378
-0.00016131998767968808
-0.00014995962325837706
-0.00013901677511113722
-0.0001284711356630379
-0.00011830244867787679
-0.00010849047461392036
-9.901495837308372e-05
-8.985559954917052e-05
-8.099202523980178e-05
-7.240376544816879e-05
-6.407023106721685e-05
-5.597069440750613e-05
-4.8084272202746775e-05
-4.038991100299011e-05
-3.286637484790564e-05
-2.5492235097308164e-05
-1.824586228709249e-05
-1.1105419872901173e-05
-4.0488597233684365e-06
2.9460807702726133e-06
9.901880095971455e-06
1.6841232648393684e-05
2.378704748273036e-05
3.076244587823726e-05
3.779075777424895e-05
4.4895517120252526e-05
5.2100456158096775e-05
5.942949863160796e-05
6.69067518942433e-05
7.4556497862803e-05
8.240318274262831e-05
9.04714054299656e-05
9.878590447812835e-05
0.00010737154349913305
0.00011625329486208286
0.00012545622153996988
0.00013500545695465174
0.0001449261826721726
0.0001552436038078711
0.00016598292201444945
0.00017716930594778926
0.00018882785913188968
0.00020098358517822018
0.0002136613503588361
0.00022688584358086794
-0.00020873129651597516
-0.00019560270802078741
-0.00018297197428228384
-0.00017081845388722955
-0.0001591217200355155
-0.00014786151475595227
-0.0001370177049836406
-0.00012657024078493312
-0.00011649911596576037
-0.00010678433125476533
-9.740586020229314e-05
-8.834361789001113e-05
-7.957743250441157e-05
-7.108701978352644e-05
-6.285196030905715e-05
-5.485167958274931e-05
-4.7065430794770297e-05
-3.9472280167655166e-05
-3.2051094739134894e-05
-2.4780532431913083e-05
-1.7639034249481572e-05
-1.0604818431396434e-05
-3.6558764034376467e-06
3.230029637805998e-06
1.0075367656011552e-05
1.690283535654008e-05
2.3735358537481377e-05
3.059608830682445e-05
3.7508397239191527e-05
4.449587451978848e-05
5.158232009581584e-05
5.879173782828359e-05
6.614832760864706e-05
7.367647637695346e-05
8.140074795175492e-05
8.93458715587915e-05
9.753672892064483e-05
0.0001059983397536518
0.0001147558455019855
0.00012383449112646217
0.0001332596047631529
0.0001430565750651508
0.00015325082604632223
0.00016386778925987083
0.00017493287316583742
0.0001864714295667924
0.00019850871702816603
0.0002110698612460514
0.0002241798123747661
-0.00020601271278430922
-0.00019299538590419885
-0.00018047359576660663
-0.0001684269868176512
-0.00015683542138236056
-0.00014567893020828865
-0.00013493766521700118
-0.00012459185475970427
-0.00011462176161832274
-0.00010500764394210868
-9.572971925637594e-05
-8.676813162772704e-05
-7.810292202345068e-05
-6.971400185524709e-05
-6.158112965654744e-05
-5.368389080508823e-05
-4.600168017010811e-05
-3.851368753579609e-05
-3.119888563151568e-05
-2.403602058435525e-05
-1.700360459845618e-05
-1.007991066296482e-05
-3.2429690930771415e-06
3.5294342864561346e-06
1.0259758491337756e-05
1.6970706419216358e-05
2.368522272287732e-05
3.0426490626511704e-05
3.721792777054006e-05
4.408318114023507e-05
5.104612110044815e-05
5.8130834527821834e-05
6.536161699687709e-05
7.276296394519502e-05
8.035956071192688e-05
8.817627131355033e-05
9.623812579492158e-05
0.00010457030597162131
0.0001131981293585535
0.00012214703106613184
0.00013144254343824824
0.00014111027320166947
0.0001511758759012785
0.0001616650274073976
0.00017260339230123697
0.00018401658897135645
0.0001959301512917573
0.0002083694868001522
0.0002213598313476721
-0.00020319144011944276
-0.00019028929809850395
-0.00017788022523788222
-0.00016594417998310948
-0.00015446134064602685
-0.00014341205204688318
-0.0001327767747509312
-0.00012253603720602246
-0.0001126703910289649
-0.00010316036962805183
-9.398645029169012e-05
-8.512901981640522e-05
-7.656834369314247e-05
-6.828453881973368e-05
-6.025754966202876e-05
-5.2467127744787456e-05
-4.4892814318180096e-05
-3.751392601542003e-05
-3.0309543294745195e-05
-2.3258501443343405e-05
-1.633938390963041e-05
-9.530517728676552e-06
-2.8099708098382192e-06
3.844449136904127e-06
1.0455194242298821e-05
1.7044974871521096e-05
2.3636756932465114e-05
3.0253758228779293e-05
3.691944395622926e-05
4.3657521405508076e-05
5.049193389762563e-05
5.744685394036206e-05
6.454667555503071e-05
7.18160056852081e-05
7.927965456348829e-05
8.696262487679213e-05
9.489009953977251e-05
0.00010308742785811523
0.00011158010984021333
0.0001203937783968434
0.00012955417915664832
0.00013908714761937113
0.00014901858337049503
0.00015937442109056899
0.000170180598111129
0.00018146301829655848
0.0001932475120694846
0.00020555979244588768
0.0002184254070033871
-0.00020026802720221962
-0.0001874849258758568
-0.00017519227302571078
-0.0001633703714978424
-0.00015199974445787717
-0.00014106107789201364
-0.00013053516613370855
-0.0001204028607341423
-0.00011064502292871745
-0.00010124247988477567
-9.217598485286582e-05
-8.342618128006143e-05
-7.49735708827394e-05
-6.679848562201468e-05
-5.888106347264749e-05
-5.120122783109152e-05
-4.3738670370111615e-05
-3.647283711483845e-05
-2.9382917490522464e-05
-2.2447836075759064e-05
-1.564624678512816e-05
-8.956529203844876e-06
-2.3567868028193106e-06
4.175153226645273e-06
1.066173875847315e-05
1.712569035330555e-05
2.3589997902823817e-05
3.0077916448104786e-05
3.661296128567096e-05
4.321890243343812e-05
4.991975848710889e-05
5.673978985169456e-05
6.370349129123168e-05
7.083558369283885e-05
7.816100490011177e-05
8.570489943256557e-05
9.349260686780658e-05
0.00010154964863129043
0.00010990171291123257
0.00011857463739183699
0.00012759438948119206
0.00013698704370316075
0.0001467787559188867
0.00015699573405145162
0.00016766420500548967
0.00017881037749880105
0.00019046040056258998
0.00020264031751599312
0.00021537601528231337
-0.00019724305960396385
-0.00018458278157379437
-0.00017241017538786527
-0.00016070592109869442
-0.00014945091771122881
-0.00013862622129291388
-0.0001282129865898471
-0.0001181924124791546
-0.00010854569151444102
-9.925396374718676e-05
-9.029827493614237e-05
-8.165953918642596e-05
-7.3318505991158e-05
-6.525573158905687e-05
-5.745155449336792e-05
-4.988607499670922e-05
-4.2539138415422645e-05
-3.539032180131449e-05
-2.84189238224479e-05
-2.160395749728483e-05
-1.492414545670867e-05
-8.357917409430177e-06
-1.8834094932321244e-06
4.5215347912151704e-06
1.0879362341884025e-05
1.7212807162107074e-05
2.354488622799064e-05
2.989889469089818e-05
3.629840054548625e-05
4.2767238846826844e-05
4.932950551092205e-05
5.600955068116309e-05
6.283197159476922e-05
6.982160482975688e-05
7.700351776530889e-05
8.440299904387272e-05
9.20455477767812e-05
9.995686119819783e-05
0.00010816282043876052
0.00011668947405995417
0.0001255630189706397
0.000134809778334688
0.00014445617607096103
0.00015452870755280554
0.00016505390612965576
0.00017605830511822212
0.00018756839494944375
0.00019961057520714864
0.00021221110136001448
-0.00019411716093670206
-0.00018158340934636488
-0.00016953439501215042
-0.00015795121055399777
-0.00014681516403816305
-0.0001361077124346806
-0.00012581039911615383
-0.00011590479573969636
-0.00010637244877501756
-9.719483085816882e-05
-8.835329707036071e-05
-7.982904616347583e-05
-7.160308667839357e-05
-6.365620783344017e-05
-5.596895499742488e-05
-4.852160950630929e-05
-4.129417253570522e-05
-3.426635270336806e-05
-2.741755704824267e-05
-2.0726885013980928e-05
-1.4173125055836483e-05
-7.734753491989849e-06
-1.3899352303975432e-06
4.8834739792627535e-06
1.110792409074468e-05
1.730616639066679e-05
2.350124846044188e-05
2.971650867081982e-05
3.597557035847285e-05
4.2302335780796535e-05
4.872097988761065e-05
5.525594389066413e-05
6.193192855406815e-05
6.877388707026907e-05
7.580701732995063e-05
8.305675334244547e-05
9.054875551113561e-05
9.83088994239989e-05
0.00010636326277961225
0.00011473811003307258
0.0001234598743223396
0.00013255513621575343
0.00014205059881152934
0.00015197305872229755
0.0001623493724889867
0.00017320641799275366
0.00018457105047093095
0.00019647005279380125
0.00020893007972561453
-0.00019089099387965477
-0.00017848738577082301
-0.0001665654213702794
-0.00015510664393943857
-0.0001440928061866957
-0.00013350579879729124
-0.00012332758359989357
-0.00011354013172590327
-0.00010412536702943814
-9.506511494329281e-05
-8.634105685702623e-05
-7.793469001377354e-05
-6.982729284081557e-05
-6.199989555126517e-05
-5.443325578308178e-05
-4.71078389818573e-05
-4.000380318159094e-05
-3.3100987796085696e-05
-2.6378906004372732e-05
-1.9816740293974316e-05
-1.3393340718176328e-05
-7.087225426572613e-06
-8.76583041868606e-07
5.260723520566363e-06
1.134715216191684e-05
1.740547596792985e-05
2.345877711956712e-05
2.9530440575339933e-05
3.564414769669649e-05
4.1823869925669555e-05
4.809386255935286e-05
5.447865859942863e-05
6.100306258898999e-05
6.769214428371112e-05
7.457123193824189e-05
8.166590493026427e-05
8.900198538644086e-05
9.660552842012671e-05
0.00010450281054575142
0.00011272031579330835
0.00012128471901439244
0.00013022286584645285
0.0001395617487880904
0.000149328478835066
0.0001595502521346548
0.00017025431113789832
0.00018146789976469443
0.00019321821214872414
0.00020553233459497805
-0.00018756526105145194
-0.00017529532027875383
-0.00016350377089341742
-0.0001521726477533812
-0.00014128418627593758
-0.00013082074575080163
-0.00012076473795171253
-0.00011109856142004285
-0.00010180454169256975
-9.2864877643907e-05
-8.426159401370148e-05
-7.59765000871021e-05
-6.799115440670606e-05
-6.028683530751727e-05
-5.284451698612733e-05
-4.5644850749662624e-05
-3.8668151032181936e-05
-3.189438572151482e-05
-2.5303170307737488e-05
-1.887376534396093e-05
-1.258507670459652e-05
-6.415658130733137e-06
-3.437155700544703e-07
5.652887152141767e-06
1.1596621757193476e-05
1.7510288411036468e-05
2.341700841917288e-05
2.9340216979773653e-05
3.5303656190657784e-05
4.133136843414639e-05
4.744769019022349e-05
5.367724625394629e-05
6.004494425776094e-05
6.657596932494597e-05
7.329577860705136e-05
8.023009538976611e-05
8.74049023864426e-05
9.484643377573321e-05
0.00010258116548761062
0.00011063580319307584
0.00011903726741391632
0.00012781267513867905
0.00013698931731047012
0.00014659463154389693
0.00015665616943246266
0.00016720155782647128
0.00017825845349334762
0.0001898544906248495
0.00020201722072062459
-0.0001841407056935064
-0.00017200785537593855
-0.00016034998693572125
-0.00014914967084081465
-0.00013838966590306798
-0.0001280528370689593
-0.00011812207924540019
-0.00010858024755321799
-9.941009428651032e-05
-9.059421274216356e-05
-8.211498796948866e-05
-7.395455437779128e-05
-6.609476003758413e-05
-5.851713741208617e-05
-5.120288016892058e-05
-4.4132825647143215e-05
-3.728744249057586e-05
-3.064682291152587e-05
-2.4190679013408323e-05
-1.789834258020609e-05
-1.174876773706729e-05
-5.720535893549011e-06
2.0813759715743174e-07
6.05939559382776e-06
1.1855730625193878e-05
1.7619976082326044e-05
2.337529751292658e-05
2.914518431458915e-05
3.495344204873865e-05
4.0824185515774686e-05
4.678183264851532e-05
5.2851099197288864e-05
5.90569940944162e-05
6.542481530132094e-05
7.198014586102044e-05
7.874884979921365e-05
8.575706744295628e-05
9.30312096567576e-05
0.00010059795043347586
0.0001084842172210318
0.00011671717831978137
0.00012532422664799162
0.0001343329591450733
0.00014377115106883886
0.0001536667244407229
0.00016404770990755685
0.00017494220131785213
0.000186378302358646
0.00019838406466633762
-0.00018061811212704074
-0.00016862566661263526
-0.0001571046394881863
-0.00014603818409169786
-0.0001354096260736612
-0.0001252023753407043
-0.00011539984485494856
-0.00010598537670251235
-9.694217571700608e-05
-8.825325081490004e-05
-7.99013640688552e-05
-7.186898742218145e-05
-6.413826683004595e-05
-5.669099350116141e-05
-4.95085818198078e-05
-4.25720534410895e-05
-3.586202698435681e-05
-2.935871269739085e-05
-2.304191142553369e-05
-1.6891017201061537e-05
-1.088502276432382e-05
-5.002527340442625e-06
7.782539779774278e-07
6.479479849212655e-06
1.2123671857211527e-05
1.773370373389302e-05
2.3332791045795748e-05
2.8944481681857093e-05
3.4592647392063525e-05
4.030147653541136e-05
4.609546810184842e-05
5.199942697811308e-05
5.8038460330478436e-05
6.423797488353672e-05
7.062367478413017e-05
7.722155964881572e-05
8.405792230994913e-05
9.115934569799145e-05
9.85526982247957e-05
0.00010626512696926618
0.00011432404791059808
0.00012275713240976135
0.00013159228910438608
0.00014085764036183765
0.00015058149242692595
0.00016079229840784692
0.0001715186132716512
0.0001827890400623658
0.0001946321666229274
-0.00017699830594213387
-0.00016514946226131588
-0.00015376832460019946
-0.0001428386798748328
-0.00013234446692364163
-0.0001222696822573109
-0.0001125982935791664
-0.00010331416151367762
-9.440096983693788e-05
-8.584216435732206e-05
-7.762090044621806e-05
-6.971999908061619e-05
-6.212191112452484e-05
-5.4808689452612996e-05
-4.776196841265942e-05
-4.0962950026951495e-05
-3.4392396258471625e-05
-2.8030626609120562e-05
-2.1857520277921566e-05
-1.5852522088299903e-05
-9.994651391832116e-06
-4.262513172481608e-06
1.3656893903223055e-06
6.912141592464727e-06
1.2399403740960546e-05
1.785039811005515e-05
2.328839679021852e-05
2.873701080887206e-05
3.422018080365824e-05
3.976216942642302e-05
4.538755554919435e-05
5.112123023834694e-05
5.698839435420294e-05
6.301455752838817e-05
6.922553817058016e-05
7.564746405496273e-05
8.230677294355712e-05
8.923021261578873e-05
9.64448395913177e-05
0.00010397801576051552
0.00011185740207145939
0.0001201109483689386
0.0001287668784367771
0.00013785366926635442
0.0001474000235582723
0.0001574348344643428
0.00016798714159804717
0.00017908607738028118
0.00019076080285020114
-0.00017328215387208204
-0.00016157998265339119
-0.0001503416634619642
-0.0001395516711646845
-0.0001291946071975865
-0.0001192550987506244
-0.000109717706742965
-0.00010056684305546557
-9.178669732310893e-05
-8.336117342484448e-05
-7.527383564231993e-05
-6.750786429932792e-05
-6.004602054159036e-05
-5.2870619779637335e-05
-4.5963513194188094e-05
-3.930607659841795e-05
-3.287920586841908e-05
-2.6663318088968047e-05
-2.0638357521991085e-05
-1.4783805485245327e-05
-9.078693231270168e-06
-3.501616938843266e-06
1.9692460286116487e-06
7.356120385451637e-06
1.2681616421941766e-05
1.796871436501868e-05
2.3240750134444904e-05
2.8521402918726263e-05
3.383468488589447e-05
3.920493322734711e-05
4.465680461290117e-05
5.0215272017723606e-05
5.590562376167965e-05
6.175346448389699e-05
6.77847176619277e-05
7.40256291750091e-05
8.050277130558156e-05
8.724304647456452e-05
9.42736899142288e-05
0.00010162227039874766
0.00010931668807818637
0.00011738516839707169
0.00012585625102599918
0.00013475877269684966
0.00014412184280598178
0.00015397481064385182
0.0001643472231205416
0.0001752687718907034
0.00018676922883789637
-0.0001694705633013202
-0.0001579179991215776
-0.00014682530109610611
-0.0001361776903139357
-0.0001259604834441784
-0.00011615898495537583
-0.00010675838926412634
-9.774369331357752e-05
-8.909961989659806e-05
-8.08105518481407e-05
-7.286047704406148e-05
-6.523294396143173e-05
-5.7911027381864905e-05
-5.087730366596516e-05
-4.4113834887501285e-05
-3.760216099860797e-05
-3.132329910590648e-05
-2.525774886833962e-05
-1.938550298511213e-05
-1.3686061724003246e-05
-8.138450447295331e-06
-2.7212391223614685e-06
2.5874371455472667e-06
7.809857451721719e-06
1.296869510773041e-05
1.8086999042106477e-05
2.318817718221372e-05
2.829598229186353e-05
3.3434500615572155e-05
3.8628143548168764e-05
4.390164241529354e-05
4.9280046317452114e-05
5.478872285899147e-05
6.045336145253655e-05
6.62999787625837e-05
7.235492573176572e-05
7.864489551644843e-05
8.519693154774438e-05
9.20384348324782e-05
9.919716951363108e-05
0.00010670126562482146
0.0001145792178972524
0.00012285987941543924
0.00013157244886886216
0.00014074645010958564
0.00015041170271083704
0.00016059828222234757
0.00017133646884391965
0.0001826566832887344
-0.00016556448135012294
-0.0001541643124891197
-0.0001432199046004362
-0.000132717287418746
-0.00012264254888532528
-0.00011298171996636588
-0.000103720670674632
-9.48450178351358e-05
-8.634004492325334e-05
-7.819063408587637e-05
-7.038121024207852e-05
-6.289569695190622e-05
-5.5717483545325575e-05
-4.882940282809056e-05
-4.221371852507899e-05
-3.5852121491090905e-05
-2.9725733616835226e-05
-2.3815118285530623e-05
-1.810029618944803e-05
-1.2560765300831389e-05
-7.17552380493508e-06
-1.9230948412989057e-06
3.218448039989802e-06
8.271455716843401e-06
1.3258679535783913e-05
1.8203249349396655e-05
2.312865421574828e-05
2.8058726288675978e-05
3.3017628285864076e-05
3.802984477473126e-05
4.312017736778431e-05
4.831374377092454e-05
5.363598048262891e-05
5.911264879866068e-05
6.47698436373606e-05
7.063400456745056e-05
7.673192829257477e-05
8.309078172354101e-05
8.973811465787587e-05
9.670187097872429e-05
0.00010401039718849897
0.00011169244700603292
0.0001197771806809439
0.00012829415761788504
0.00013727332085483948
0.00014674497191228056
0.00015673973451899373
0.00016728850573539608
0.00017842239303657303
-0.00016156489347361747
-0.00015031975104039252
-0.00013952616087728117
-0.00012917102821871987
-0.00011924127191219325
-0.00010972370135885548
-0.0001006049060859257
-9.187115853906413e-05
-8.350833043807918e-05
-7.550182279091738e-05
-6.783650941589656e-05
-6.0496693581043454e-05
-5.3466077149268154e-05
-4.672774141631017e-05
-4.026413865323292e-05
-3.405709322002251e-05
-2.808781100321206e-05
-2.2336895853753563e-05
-1.6784371653661562e-05
-1.1409708629280674e-05
-6.191852549325416e-06
-1.1092554958805345e-06
3.860093030022549e-06
8.73863580648157e-06
1.3549219412014452e-05
1.831506845732453e-05
2.305976326744813e-05
2.7807221600329585e-05
3.258168482580051e-05
3.7407708825498015e-05
4.2310159709173234e-05
4.731421427978111e-05
5.244536501793767e-05
5.772942919950175e-05
6.319256160850634e-05
6.886127016149379e-05
7.476243361830351e-05
8.092332042093295e-05
8.737160757844864e-05
9.413539839590868e-05
0.0001012432377368068
0.00010872412341023097
0.00011660751218432394
0.00012492331885360572
0.00013370190672625307
0.00014297406785584998
0.00015277099131654967
0.00016312421782258696
0.0001740655790224907
-0.00015747282150506067
-0.00014638516789982486
-0.0001357447737788467
-0.0001255394914674579
-0.00011575713415614211
-0.00010638534443902989
-9.741147708885664e-05
-8.882249671213205e-05
-8.060489064702636e-05
-7.274459718015908e-05
-6.522694887577465e-05
-5.8036630535072964e-05
-5.115765105152478e-05
-4.457332819803039e-05
-3.8266285184797993e-05
-3.221845766468098e-05
-2.641110973804553e-05
-2.0824857426111898e-05
-1.5439698036079363e-05
-1.023504383525567e-05
-5.1897584807669705e-06
-2.8219471557081044e-07
4.509768067567643e-06
9.208687674615301e-06
1.383752551290321e-05
1.8419616534936373e-05
2.2978643542764104e-05
2.7538616497197604e-05
3.21238572936651e-05
3.675899028439747e-05
4.146893864335338e-05
4.627892649010368e-05
5.12144865127441e-05
5.630147265764038e-05
6.156607728957653e-05
6.703485206686205e-05
7.273473162270824e-05
7.86930589995044e-05
8.493761164568223e-05
9.149662665398559e-05
9.839882379764076e-05
0.00010567342481023617
0.00011335016725066982
0.00012145931120542686
0.0001300316370042437
0.0001390984320668101
0.00014869146495658653
0.0001588429447023712
0.00016958546346278539
-0.0001532893210668615
-0.0001423614377393176
-0.00013187646058977417
-0.0001218232657022103
-0.00011219062807789337
-0.00010296708119000159
-9.414079258169769e-05
-8.569945621733632e-05
-7.763020197255888e-05
-6.991952231686152e-05
-6.255321591380411e-05
-5.5516347550892825e-05
-4.8793223519614376e-05
-4.2367381304267426e-05
-3.622159221710816e-05
-3.0337875436305117e-05
-2.4697521765638247e-05
-1.9281125347707373e-05
-1.4068621519095631e-05
-9.03932899602028e-06
-4.171994622676617e-06
5.551610064540025e-07
5.164398625877309e-06
9.678417516062465e-06
1.4120316131550903e-05
1.8513557234561828e-05
2.2881938436480204e-05
2.72495688500643e-05
3.1640852351497856e-05
3.6080477748060696e-05
4.0593415944818745e-05
4.520492400501494e-05
4.9940555807634346e-05
5.4826178819574606e-05
5.988799632029862e-05
6.5152574245924e-05
7.064687165630676e-05
7.639827367000515e-05
8.243462556349265e-05
8.878426658901623e-05
9.547606192843866e-05
0.00010253943107627755
0.00011000437082598138
0.0001179014709269087
0.0001262619203871336
0.00013511750231787883
0.00014450057515755926
0.0001544440380759765
0.00016498127835356743
-0.00014901547826508266
-0.00013824945272462863
-0.0001279219477588675
-0.0001180229453345838
-0.00010854225401442028
-9.946935887727992e-05
-9.079328952332766e-05
-8.250250695194389e-05
-7.458480972413056e-05
-6.702725943543222e-05
-5.9816125145356613e-05
-5.29368460469859e-05
-4.637401132680588e-05
-4.011135586559286e-05
-3.413177018166125e-05
-2.8417322816404883e-05
-2.294929321120312e-05
-1.770821303517453e-05
-1.267391388259237e-05
-7.825579269218896e-06
-3.141798918571831e-06
1.3993765731017127e-06
5.820382465077101e-06
1.0144089598679296e-05
1.4393758538042839e-05
1.8592999332416732e-05
2.2765737887720655e-05
2.6936189708507557e-05
3.1128841544447033e-05
3.5368441247855126e-05
3.9679995926519135e-05
4.408877825985008e-05
4.862034063713577e-05
5.330053657762179e-05
5.8155548699138915e-05
6.321192231880865e-05
6.849660359397117e-05
7.403698094316999e-05
7.986092832503594e-05
8.599684879900468e-05
9.247371664304616e-05
9.932111616205164e-05
0.0001065692751869192
0.00011424909113989801
0.00012239214742938362
0.0001310307178358297
0.00014019775647185553
0.0001499268708385279
0.00016025227546790158
-0.0001446524055732784
-0.00013405011760153976
-0.00012388196578368496
-0.00011413912597687398
-0.00010481251661783458
-9.589263827754907e-05
-8.736943361412758e-05
-7.923216860440327e-05
-7.146933549532358e-05
-6.40685774668942e-05
-5.7016634557947865e-05
-5.029930998568313e-05
-4.3901455605545314e-05
-3.7806974918504904e-05
-3.19988417492624e-05
-2.6459132495219168e-05
-2.1169069683663055e-05
-1.6109074481480273e-05
-1.1258825768224734e-05
-6.597323407832312e-06
-2.1029534376104664e-06
2.246446983288075e-06
6.473526854441913e-06
1.060136263243347e-05
1.4653405114473106e-05
1.865343323197502e-05
2.2625515828340187e-05
2.659398223829601e-05
3.0583402232414736e-05
3.461857563748921e-05
3.872453169984774e-05
4.292653802447435e-05
4.7250118695947585e-05
5.172108097398556e-05
5.6365549753040894e-05
6.12100087790772e-05
6.628134743005137e-05
7.160691169058597e-05
7.721455777583153e-05
8.31327066947371e-05
8.939039788105965e-05
9.601733986324551e-05
0.00010304395579362885
0.00011050142151384709
0.00011842169369929989
0.00012683752549965885
0.0001357824669874809
0.0001452908476393608
0.0001553977380124201
-0.00014020123680243482
-0.00012976434381244475
-0.0001197572431406134
-0.00011017239890904335
-0.00010100192061564608
-9.223739149613955e-05
-8.386971991520761e-05
-7.588901477475693e-05
-6.82844854152688e-05
-6.104436595882196e-05
-5.41558635285648e-05
-4.760512929439034e-05
-4.137725084840671e-05
-3.545626402791033e-05
-2.9825181983408194e-05
-2.446603903970973e-05
-1.9359946725472366e-05
-1.448715925213978e-05
-9.827145699862344e-06
-5.358666212890856e-06
-1.0598496159516801e-06
3.0917299790426955e-06
7.118979801844227e-06
1.104522027576757e-05
1.489412381917507e-05
1.8689662041698057e-05
2.2456062494624618e-05
2.6217775844484398e-05
2.9999454053915298e-05
3.382593987599075e-05
3.772226770160786e-05
4.171367554564598e-05
4.582562771554555e-05
5.008384747947486e-05
5.4514358836230126e-05
5.914353628275193e-05
6.399816128057484e-05
6.910548393583571e-05
7.449328822270798e-05
8.01899589050678e-05
8.622454813485281e-05
9.262683953379161e-05
9.942740739730255e-05
0.00010665766849364197
0.00011434992377380021
0.0001225373871561082
0.00013125419841313046
0.00014053541706910214
0.0001504169941211192
-0.0001356631210417715
-0.00012539304252001324
-0.00011554849914066634
-0.00010612334458248024
-9.711096581773229e-05
-8.850409934087547e-05
-8.029467342846042e-05
-7.247367754576947e-05
-6.503105941295731e-05
-5.7955649625907046e-05
-5.123511312449605e-05
-4.4855926237454685e-05
-3.880337751912752e-05
-3.3061590150706976e-05
-2.7613563318491796e-05
-2.244122970502041e-05
-1.7525526046523188e-05
-1.2846473617867532e-05
-8.383265497780706e-06
-4.114357539612007e-06
-1.7560114484033162e-08
3.929872106143983e-06
7.751154812742772e-06
1.1469895364619315e-05
1.5110022633438996e-05
1.869572695016239e-05
2.2251411394655363e-05
2.5801655340162988e-05
2.93711908460198e-05
3.29848921873481e-05
3.6667778519780536e-05
4.044502940444422e-05
4.434201266163493e-05
4.8384323784043254e-05
5.25978359143045e-05
5.700875917822451e-05
6.164370796493679e-05
6.652977454881318e-05
7.169460725658938e-05
7.71664911976104e-05
8.29744293869665e-05
8.91482219033922e-05
9.571854053899362e-05
0.00010271699620864258
0.00011017619620314056
0.00011812978819014316
0.00012661248769509775
0.000135660085639068
0.00014530943237388988
-0.00013103921544267705
-0.00012093711640162944
-0.00011125643557859805
-0.00010199252504749026
-9.314014129173723e-05
-8.469324822363289e-05
-7.66448496740818e-05
-6.898685261920792e-05
-6.170996169440474e-05
-5.480360482169183e-05
-4.8255889069953595e-05
-4.205358520877403e-05
-3.618213882454133e-05
-3.062570536084552e-05
-2.536720603778589e-05
-2.038840130327499e-05
-1.566997827679925e-05
-1.1191648560428258e-05
-6.93225280748791e-06
-2.8698685451758466e-06
1.018082067125864e-06
4.754727610249004e-06
8.363648672692764e-06
1.1868787437172706e-05
1.5294367647324808e-05
1.8664826640580473e-05
2.2004760757105696e-05
2.5338885066457373e-05
2.8692008000163333e-05
3.208902114298917e-05
3.555490412194412e-05
3.9114744241387084e-05
4.279377024205694e-05
4.661739931505551e-05
5.061129626734648e-05
5.480144351942273e-05
5.921422040998034e-05
6.387649008016139e-05
6.881569201530255e-05
7.405993812616488e-05
7.963811005336219e-05
8.55799551765582e-05
9.191617860557569e-05
9.867852821771744e-05
0.00010589986959495118
0.00011361424750040358
0.00012185693032350925
0.00013066443372602987
0.00014007451953704578
-0.00012633067670405826
-0.00011639745006226249
-0.00010688172702739626
-9.778047517954025e-05
-8.908991862475318e-05
-8.080532656952813e-05
-7.292083532272481e-05
-6.542930516613074e-05
-5.832221268461599e-05
-5.158957828992755e-05
-4.521992784338111e-05
-3.920028651167168e-05
-3.351620230535382e-05
-2.815179617062305e-05
-2.308983504525214e-05
-1.8311823962550988e-05
-1.3798113087302305e-05
-9.528015495887526e-06
-5.479931560390533e-06
-1.6314759474153617e-06
2.0403965161099047e-06
5.559269543358586e-06
8.949151718867787e-06
1.2234373119111852e-05
1.5439494452561264e-05
1.8589230515810712e-05
2.170838933289801e-05
2.482182792988563e-05
2.7954425306002395e-05
3.11310727956933e-05
3.437668167947244e-05
3.771620759390054e-05
4.1174691010028436e-05
4.4777312795733076e-05
4.854946363884796e-05
5.2516825893557384e-05
5.670546620312189e-05
6.11419370489738e-05
6.58533851804928e-05
7.086766467584438e-05
7.621345217794645e-05
8.192036163391647e-05
8.801905564150003e-05
9.454135027039956e-05
0.00010152030998480249
0.00010899032904261585
0.00011698719549505313
0.0001255481336630039
0.00013471182073065274
-0.00012153865109914772
-0.00011177489889316675
-0.00010242500961368459
-9.348769256862025e-05
-8.496074418685995e-05
-7.684082072383774e-05
-6.912324896742386e-05
-6.18018765859013e-05
-5.48689627492549e-05
-4.831510863747765e-05
-4.212922647272091e-05
-3.629854481104061e-05
-3.080864703441932e-05
-2.5643539322398046e-05
-2.0785743868472623e-05
-1.621641275054153e-05
-1.1915457664775364e-05
-7.8616906842785e-06
-4.032971292821513e-06
-4.063551558748657e-07
3.0417595961659827e-06
6.335492407433946e-06
9.499350041831944e-06
1.2558108932463063e-05
1.553671253062827e-05
1.8460185546083363e-05
2.13535664818007e-05
2.424185940033685e-05
2.71500054266037e-05
3.010287409513021e-05
3.312527429016193e-05
3.624198420535199e-05
3.94777994624021e-05
4.285759826990615e-05
4.640642226920455e-05
5.014957150066557e-05
5.4112711718797e-05
5.832199208652758e-05
6.280417108209951e-05
6.758674824611233e-05
7.269809918299466e-05
7.816761100367178e-05
8.402581515112861e-05
9.03045142917995e-05
9.703689968063034e-05
0.00010425765511642635
0.00011200304330742997
0.00012031097016341336
0.00012922102223370327
-0.0001166642628648712
-0.0001070702761835525
-9.788686808999761e-05
-8.91146259237724e-05
-8.075303031233882e-05
-7.280021036169121e-05
-6.525274215416974e-05
-5.8105492426657745e-05
-5.135150809425573e-05
-4.4981951076095844e-05
-3.898607672224094e-05
-3.335125308695508e-05
-2.806301737006897e-05
-2.3105165092709296e-05
-1.84598670006364e-05
-1.4107808305723751e-05
-1.0028344684491486e-05
-6.199669439557742e-06
-2.5989863767506005e-06
7.973167595494435e-07
4.013499047165331e-06
7.074305611910053e-06
1.0004819037560952e-05
1.2830326097747896e-05
1.5576202357592273e-05
1.826781661011523e-05
2.09304565555353e-05
2.3589276610905263e-05
2.626926826171036e-05
2.8995252940113708e-05
3.179189703438404e-05
3.468374830233739e-05
3.7695292671779956e-05
4.085103015545599e-05
4.417556838289677e-05
4.7693732045446524e-05
5.143068635665715e-05
5.541207244159213e-05
5.966415237575878e-05
6.421396139073832e-05
6.908946454554227e-05
7.431971492576073e-05
7.99350101688065e-05
8.59670438292312e-05
9.24490477891178e-05
9.94159215841374e-05
0.00010690434416735575
0.00011495286326890924
0.00012360195714227612
-0.00011170860075252614
-0.00010228433826729028
-9.326782099685835e-05
-8.466166182990315e-05
-7.646714531509696e-05
-6.868396342908992e-05
-6.131000083856031e-05
-5.434117179409226e-05
-4.777130934330992e-05
-4.1592106110953375e-05
-3.579310452097792e-05
-3.03617330967218e-05
-2.5283384405772047e-05
-2.054152935379236e-05
-1.611786189428116e-05
-1.199246781800889e-05
-8.14401111283447e-06
-4.5499314225115606e-06
-1.186646359493948e-06
1.9702471831563317e-06
4.945778059504968e-06
7.76541697212682e-06
1.0454907713369765e-05
1.3040116916940292e-05
1.5546904996829175e-05
1.800102027818898e-05
2.0428017692027817e-05
2.285320282508288e-05
2.530160159637876e-05
2.7797955375271494e-05
3.0366740960154764e-05
3.303221450015256e-05
3.581847815564698e-05
3.874956804954255e-05
4.1849561851124706e-05
4.514270414526442e-05
4.8653547562470256e-05
5.2407107472604575e-05
5.642902786281989e-05
6.0745755823130715e-05
6.538472184476965e-05
7.037452289115897e-05
7.574510492082756e-05
8.152794123203813e-05
8.775620265308662e-05
9.4464915222945e-05
0.00010169110060105971
0.0001094738940130846
0.00011785463409535665
-0.00010667270251080857
-9.74177674559068e-05
-8.856830368307242e-05
-8.012910968206374e-05
-7.210340226010761e-05
-6.449253067269609e-05
-5.7295747494835736e-05
-5.051003866905768e-05
-4.413001342212092e-05
-3.814785301634385e-05
-3.255331567654507e-05
-2.733379357226437e-05
-2.2474416494201732e-05
-1.7958195883120698e-05
-1.3766202166049651e-05
-9.87776793861736e-06
-6.270709391801438e-06
-2.921558493993587e-06
1.9420122769966963e-07
3.101901944250335e-06
5.827467799437991e-06
8.397205430069055e-06
1.083761314640136e-05
1.317521235860361e-05
1.5436404020845174e-05
1.7647352088288187e-05
1.9833895266677115e-05
2.2021487691013114e-05
2.4235168604305052e-05
2.649956062492423e-05
2.8838895785688462e-05
3.1277068192409746e-05
3.383771187687873e-05
3.65443021940956e-05
3.942027893048469e-05
4.248918912501051e-05
4.5774847454813083e-05
4.930151188837356e-05
5.309407214264955e-05
5.717824829816129e-05
6.158079671040456e-05
6.632972010540278e-05
7.145447845258168e-05
7.698619687244307e-05
8.295786645328915e-05
8.940453342358087e-05
9.636347165831172e-05
0.00010387433299212379
0.00011197926928177906
-0.00010155753704007425
-9.24711524751369e-05
-8.378864892355856e-05
-7.551718460720863e-05
-6.766204642132123e-05
-6.0226339855536104e-05
-5.321074418103422e-05
-4.6613335674395434e-05
-4.0429479543011015e-05
-3.465178914427436e-05
-2.9270149157538394e-05
-2.427179764665638e-05
-1.9641460510932268e-05
-1.536153070812521e-05
-1.1412283865832457e-05
-7.772121480030536e-06
-4.417832814310185e-06
-1.3248668301428512e-06
1.5323940471059783e-06
4.1803658379045705e-06
6.646007270585952e-06
8.956582137759073e-06
1.1139444502442086e-05
1.3221850521577538e-05
1.5230799700907682e-05
1.7192907501711874e-05
1.9134310412914635e-05
2.1080603894080285e-05
2.3056812985613323e-05
2.508739487944514e-05
2.719627233592828e-05
2.940689650927919e-05
3.174233749623015e-05
3.422540072839722e-05
3.687876718288727e-05
3.9725155258733824e-05
4.2787502052651916e-05
4.608916165175017e-05
4.965411792045085e-05
5.350720909532217e-05
5.767436129496678e-05
6.218282779969775e-05
6.706143065047382e-05
7.234080075268698e-05
7.80536122504602e-05
8.423480645858294e-05
9.092180010156561e-05
9.815467202716963e-05
0.00010597632193319953
-9.636398391847656e-05
-8.744496608134936e-05
-7.892906483937534e-05
-7.082598816657293e-05
-6.314324137036281e-05
-5.5885789811964404e-05
-4.905579696969781e-05
-4.265244098607124e-05
-3.667181028635738e-05
-3.1106876364813546e-05
-2.594753952508619e-05
-2.118074133329248e-05
-1.6790635873259463e-05
-1.2758810632087364e-05
-9.064547016365831e-06
-5.685110099178103e-06
-2.5960571999744664e-06
2.2844474021829764e-07
2.815302366065975e-06
5.192188180649232e-06
7.3872493080995305e-06
9.42883901313557e-06
1.1345276049925385e-05
1.3164635736383212e-05
1.4914575535079216e-05
1.662219689871694e-05
1.8313944233169788e-05
2.0015541054813762e-05
2.175196277345165e-05
2.3547445015124208e-05
2.54255260005061e-05
2.7409121197956993e-05
2.9520628259775694e-05
3.17820601052933e-05
3.4215203915735626e-05
3.684180373381141e-05
3.968376429356463e-05
4.2763373633313007e-05
4.610354194248267e-05
4.972805395287577e-05
5.366183199543087e-05
5.793120659330214e-05
6.256419114772024e-05
6.759075688386046e-05
7.304310376518228e-05
7.895592255183215e-05
8.536664257040305e-05
9.231565909352535e-05
9.984653349425637e-05
-9.109280995494087e-05
-8.233953948379516e-05
-7.398960978514946e-05
-6.605548661885521e-05
-5.854705366535942e-05
-5.147124456758925e-05
-4.4831762281472703e-05
-3.862888927811531e-05
-3.285938903591773e-05
-2.751649625465022e-05
-2.2589990461785447e-05
-1.8066345288666324e-05
-1.3928943759816681e-05
-1.0158348520760557e-05
-6.7326150505787885e-06
-3.6276355503510327e-06
-8.175013306715995e-07
1.7251279226249139e-06
4.028658722166761e-06
6.122211746274059e-06
8.035291415738749e-06
9.797483866591516e-06
1.1438188661335585e-05
1.2986388183460623e-05
1.4470457360731687e-05
1.5918015196660085e-05
1.735581858094623e-05
1.880969800697671e-05
2.0304534150583642e-05
2.1864273745848817e-05
2.351198281957262e-05
2.5269935093115425e-05
2.7159733205387587e-05
2.9202460332548863e-05
3.141885974701844e-05
3.382953985531928e-05
3.645520225011023e-05
3.931689029345112e-05
4.243625569462853e-05
4.583584043937883e-05
4.9539371260350074e-05
5.357206359610234e-05
5.796093166422073e-05
6.273510086294426e-05
6.792611821621747e-05
7.356825598708525e-05
7.969880290354531e-05
8.635833667611226e-05
9.359097064277552e-05
-8.574464236780696e-05
-7.715503313952474e-05
-6.897016382354654e-05
-6.120548650902224e-05
-5.387343614180612e-05
-4.69830278462674e-05
-4.053955582970087e-05
-3.454439783881838e-05
-2.899492535189327e-05
-2.3884516049888643e-05
-1.920266180371888e-05
-1.4935162588360085e-05
-1.1064394497953267e-05
-7.569638452796512e-06
-4.427455276925091e-06
-1.612092556578515e-06
9.040909902113814e-07
3.1501970821773417e-06
5.156367610573143e-06
6.953383264330509e-06
8.572290082387024e-06
1.0044061209354277e-05
1.1399299389022732e-05
1.266798407480521e-05
1.387926552829169e-05
1.506130695583946e-05
1.624117461767119e-05
1.744477494202215e-05
1.869683698552463e-05
2.002093807996347e-05
2.1439570175908057e-05
2.2974244206493827e-05
2.46456297184304e-05
2.6473727025896898e-05
2.847806919872853e-05
3.067795127827816e-05
3.309268419081357e-05
3.574187087915584e-05
3.864570217818747e-05
4.1825269897335926e-05
4.530289443628252e-05
4.910246403029908e-05
5.324978239571246e-05
5.777292111466478e-05
6.270257255775596e-05
6.807239849523569e-05
7.391936878838393e-05
8.028408368798354e-05
8.721107230436065e-05
-8.031993811976126e-05
-7.18914034175816e-05
-6.387039635331188e-05
-5.627560733348705e-05
-4.9122209855017446e-05
-4.2421418414793216e-05
-3.6180165106827755e-05
-3.0400899315254082e-05
-2.5081510277930735e-05
-2.021536787754838e-05
-1.5791473050006527e-05
-1.179470586083406e-05
-8.206156721767693e-06
-5.0035244682361535e-06
-2.1615641032646238e-06
3.4743310828658225e-07
2.553143924988871e-06
4.486717347370467e-06
6.180292692427314e-06
7.66654350370724e-06
8.978257162853276e-06
1.0147957905666527e-05
1.1207578848052013e-05
1.2188186676080626e-05
1.3119760913990475e-05
1.403102819570734e-05
1.4949350746331497e-05
1.5900667330683016e-05
1.690948423589342e-05
1.799891339557616e-05
1.9190754504811586e-05
2.0505617881333427e-05
2.1963084859504683e-05
2.3581902623241724e-05
2.5380210553302418e-05
2.7375795353598575e-05
2.9586372394450194e-05
3.2029890848009335e-05
3.472486026706925e-05
3.7690696249481626e-05
4.0948082731664254e-05
4.4519348243777374e-05
4.8428853132088945e-05
5.270338430411747e-05
5.737255347115083e-05
6.246919415564892e-05
6.802975188909682e-05
7.409466105867679e-05
8.070870077003106e-05
-7.481894885683071e-05
-6.654836454281915e-05
-5.868972939493053e-05
-5.126525102359253e-05
-4.429304479428367e-05
-3.778664688573047e-05
-3.175466662687712e-05
-2.620058294950864e-05
-2.1122684103563882e-05
-1.65141444067457e-05
-1.2363227030503382e-05
-8.653597882424952e-06
-5.36473268145099e-06
-2.472397410413496e-06
5.081853827679228e-08
2.23493709960651e-06
4.112013772285955e-06
5.7155653199574e-06
7.080018740671795e-06
8.240194813945861e-06
9.230836889601718e-06
1.0086192937155264e-05
1.0839656355950827e-05
1.1523468757615452e-05
1.2168485937602558e-05
1.2804006590736577e-05
1.3457662011492205e-05
1.4155364044421415e-05
1.4921307887112711e-05
1.5778025963260334e-05
1.6746488931740355e-05
1.7846249930720398e-05
1.9095628328802405e-05
2.0511929515406452e-05
2.2111697573188455e-05
2.3910997996375027e-05
2.5925727908458762e-05
2.8171951472904383e-05
3.066625835152978e-05
3.342614312092096e-05
3.647040350305067e-05
3.981955508113727e-05
4.349625984739064e-05
4.752576546136755e-05
5.193635147835579e-05
5.675977803806104e-05
6.203173157778505e-05
6.779226106019137e-05
7.40861969791215e-05
-6.924168079710386e-05
-6.112534512404608e-05
-5.342729596473014e-05
-4.6173567984086894e-05
-3.938543958485405e-05
-3.3078894824439126e-05
-2.7264249509811184e-05
-2.1945946691498408e-05
-1.7122519767553274e-05
-1.2786714848455477e-05
-8.925758292959579e-06
-5.521750672296544e-06
-2.5521650324177025e-06
9.574726306943449e-09
2.193460277966075e-06
4.032234579495753e-06
5.560719854677543e-06
6.815158567756441e-06
7.832585252304236e-06
8.650243875522878e-06
9.30506211877652e-06
9.833190728784219e-06
1.026961308747687e-05
1.0647827477030386e-05
1.09996022488075e-05
1.1354802272489639e-05
1.1741283650622963e-05
1.218485271295422e-05
1.270928470823926e-05
1.3336397343469836e-05
1.408617431935058e-05
1.4976934214865067e-05
1.6025540424860485e-05
1.7247648295231482e-05
1.8657986081523775e-05
2.0270666833643175e-05
2.2099528741315738e-05
2.415850183316859e-05
2.6461999181225798e-05
2.902533089611456e-05
3.186513919488029e-05
3.499985266900915e-05
3.845015756295117e-05
4.223948338913375e-05
4.6394499548799845e-05
5.094561879412027e-05
5.5927502357673575e-05
6.137956038878081e-05
6.734643997113182e-05
-6.358784878819634e-05
-5.562143844427617e-05
-4.808189288373413e-05
-4.099941942612914e-05
-3.439870052772062e-05
-2.8298297304555492e-05
-2.271024747682593e-05
-1.7639863244392484e-05
-1.3085725932941716e-05
-9.039866224979515e-06
-5.4881118692722e-06
-2.410579279441688e-06
2.1771841312093199e-07
2.42617642943338e-06
4.2478466205468635e-06
5.718658073226163e-06
6.876636980242268e-06
7.761149597940165e-06
8.412188381531904e-06
8.869717337045557e-06
9.173088530028267e-06
9.360537771504335e-06
9.468763932304891e-06
9.532593242333326e-06
9.584727378549734e-06
9.655572156274522e-06
9.77314220481501e-06
9.9630360841374e-06
1.0248475824599368e-05
1.0650404776015726e-05
1.1187637855541999e-05
1.1877058711955851e-05
1.2733858898866107e-05
1.3771814811412014e-05
1.5003598827802861e-05
1.6441121756961136e-05
1.8095904290912207e-05
1.9979475656590334e-05
2.21037980293326e-05
2.448171549293554e-05
2.7127426386476527e-05
3.0056977757611514e-05
3.328878033655516e-05
3.684414194599778e-05
4.074781656629098e-05
4.5028565379672675e-05
4.971972502074498e-05
5.485977695958433e-05
6.0492910440180375e-05
-5.785682359623831e-05
-5.003534553553457e-05
-4.2651927268367446e-05
-3.574133575180022e-05
-2.933192051402661e-05
-2.3444950452290725e-05
-1.8094181953746957e-05
-1.3285663961432742e-05
-9.017774843893961e-06
-5.281476084202652e-06
-2.0607594524088557e-06
6.667421219158642e-07
2.9290140832125e-06
4.758826447740644e-06
6.1928430229903075e-06
7.270708308606405e-06
8.03414358832577e-06
8.526079512374135e-06
8.789847608031004e-06
8.868448022211761e-06
8.803905729805328e-06
8.636722703757316e-06
8.405429332232484e-06
8.146234817145437e-06
7.892773451850105e-06
7.675941562094307e-06
7.523818468656296e-06
7.461664017764658e-06
7.511984942889377e-06
7.694662468537422e-06
8.027134043114142e-06
8.524622799720855e-06
9.200409199001947e-06
1.0066140234552684e-05
1.113217251183865e-05
1.2407946386197577e-05
1.3902389127816439e-05
1.5624345734724376e-05
1.758303650445381e-05
1.9788540793156534e-05
2.2252306512787756e-05
2.498768483385691e-05
2.801048926998062e-05
3.1339577807074775e-05
3.499745600574547e-05
3.9010898049300635e-05
4.341158152321514e-05
4.823673029747538e-05
5.352975824022416e-05
-5.2047571293716705e-05
-4.436530986815651e-05
-3.713535583528896e-05
-3.0397470784902098e-05
-2.4183958607818662e-05
-1.8518926046845463e-05
-1.3417819802574726e-05
-8.887245629921742e-06
-4.925061452696472e-06
-1.5207244182351143e-06
1.3441382684317715e-06
3.694972451985523e-06
5.563396589712555e-06
6.986202303688183e-06
8.00429990566523e-06
8.661650134175747e-06
9.004218883716664e-06
9.078986058525668e-06
8.933033382074046e-06
8.612729515994344e-06
8.163024599723567e-06
7.626860628995313e-06
7.04469916700326e-06
6.45416385118211e-06
5.889792062493959e-06
5.382887943005538e-06
4.961467604411296e-06
4.650286761918171e-06
4.470941028563574e-06
4.4420295840022495e-06
4.579373765051242e-06
4.896283191131029e-06
5.403863234981071e-06
6.1113588909304795e-06
7.02653130286654e-06
8.156064336097696e-06
9.505999566679357e-06
1.108219888395004e-05
1.2890834528947459e-05
1.4938906808925623e-05
1.723478992147684e-05
1.9788806279587984e-05
2.2613829450891104e-05
2.5725915298306645e-05
2.9144960137995196e-05
3.289538371104711e-05
3.70068334906333e-05
4.151490531952712e-05
4.6461873589174335e-05
-4.61585833691526e-05
-3.860904224879669e-05
-3.1529616020480045e-05
-2.4965551710415257e-05
-1.8953421445359886e-05
-1.3520295947779676e-05
-8.683250282089106e-06
-4.449206625792984e-06
-8.151020732989622e-07
2.2316454444740175e-06
4.712412217954681e-06
6.656432710944182e-06
8.099705535807855e-06
9.083796243713332e-06
9.65459017217285e-06
9.861044372748429e-06
9.753981415696472e-06
9.384960346064258e-06
8.805251936184338e-06
8.064937244395276e-06
7.212140845900411e-06
6.292403312260081e-06
5.3481918124050065e-06
4.418543201139408e-06
3.538830661023451e-06
2.740642803849419e-06
2.0517629909337642e-06
1.4962363459256056e-06
1.0945123373046206e-06
8.63651730208248e-07
8.17587992897606e-07
9.674347475445433e-07
1.3218324613484267e-06
1.8873291827911642e-06
2.668791657431391e-06
3.669844555412999e-06
4.893336757880867e-06
6.341834653957046e-06
8.018143170904213e-06
9.925855781946213e-06
1.2069935002270021e-05
1.4457324882959782e-05
1.709759674709682e-05
2.000362887445359e-05
2.3192320031346914e-05
2.6685335659224624e-05
3.0509884175383695e-05
3.469951920026526e-05
3.929496160381962e-05
-4.0187795874616766e-05
-3.27636342305343e-05
-2.5831547760906542e-05
-1.9442824699927863e-05
-1.363864809042839e-05
-8.449170062051897e-06
-3.892987260858266e-06
2.2979195390265827e-08
3.3032169077795714e-06
5.963004649389703e-06
8.0274948986922e-06
9.530557497194891e-06
1.051345098145029e-05
1.1023389101177256e-05
1.111206698180614e-05
1.0834205107723704e-05
1.024616070699133e-05
9.404646156622315e-06
8.365583589992065e-06
7.183114723755685e-06
5.908775621992629e-06
4.5908380920701986e-06
3.2738128822248913e-06
1.9981049111245097e-06
7.998073561985009e-07
-2.893805742844313e-07
-1.2421281535245077e-06
-2.0353557059551997e-06
-2.650040051201813e-06
-3.0709561378190753e-06
-3.2863663313384417e-06
-3.2876667847049623e-06
-3.0689982323285625e-06
-2.6268265218773457e-06
-1.959496308052977e-06
-1.0667596379264344e-06
5.072029927652433e-08
1.3918911802336675e-06
2.9558611513332e-06
4.7424784955195365e-06
6.7529441639506416e-06
8.990460014807883e-06
1.146091534666091e-05
1.4173613761998827e-05
1.714204154782198e-05
2.0384677613696084e-05
2.3925843583801065e-05
2.7796590890631634e-05
3.203561966319546e-05
-3.413249553943509e-05
-2.682545797710878e-05
-2.0037304616533913e-05
-1.3825996385538608e-05
-8.237700664496389e-06
-3.3057528296964733e-06
9.498954117344305e-07
4.5227400448134836e-06
7.4193267989991485e-06
9.658439752327497e-06
1.1269942733795058e-05
1.2293351511399875e-05
1.2776220308076403e-05
1.2772425920046931e-05
1.2340427441023122e-05
1.1541570447960031e-05
1.0438492741158406e-05
9.093675614829655e-06
7.568171297742815e-06
5.9205245807464335e-06
4.205895424932299e-06
2.4753799632466766e-06
7.755199722611628e-07
-8.520143829869598e-07
-2.3705870693321862e-06
-3.748624152071639e-06
-4.9595276165465e-06
-5.981494570594936e-06
-6.797259659550164e-06
-7.393776287029086e-06
-7.761849686493266e-06
-7.895732221326057e-06
-7.792688651211965e-06
-7.452536604765636e-06
-6.877165218681369e-06
-6.070032893865096e-06
-5.035643412931029e-06
-3.7789982776890996e-06
-2.3050220670159383e-06
-6.179568846423344e-07
1.27927843232567e-06
3.3857687502351907e-06
5.703326879546999e-06
8.23726520937651e-06
1.0997217436973378e-05
1.3998011884230888e-05
1.7260596366610453e-05
2.081301272443062e-05
2.4691416946883565e-05
-2.7989210287526073e-05
-2.0790050075211036e-05
-1.4142252722556398e-05
-8.111171632119857e-06
-2.7483640126502173e-06
1.9095750841829906e-06
5.841584969603492e-06
9.042121132268183e-06
1.152058358771385e-05
1.3300257053736747e-05
1.4416849562250145e-05
1.4916729413231439e-05
1.4854965546966942e-05
1.4293274119329957e-05
1.3297965565300246e-05
1.1937973330017337e-05
1.0283029468139554e-05
8.402035133397295e-06
6.361657035110213e-06
4.225165370616568e-06
2.051515329493797e-06
-1.0533654852193375e-07
-2.196897948007065e-06
-4.180410490505632e-06
-6.01894881585574e-06
-7.681375262701823e-06
-9.142175758477394e-06
-1.0381200698825893e-05
-1.1383331937338953e-05
-1.213809384743511e-05
-1.2639223029645152e-05
-1.2884207835711647e-05
-1.2873805618363737e-05
-1.2611542603735426e-05
-1.2103198593252373e-05
-1.1356276369282187e-05
-1.037945372811891e-05
-9.182014494655416e-06
-7.773253682938353e-06
-6.161851147084424e-06
-4.355207611363154e-06
-2.3587368635294426e-06
-1.7510814050852863e-07
2.196566676042344e-06
4.761605506640315e-06
7.5306913443727586e-06
1.052087192182291e-05
1.3756623389697686e-05
1.727097532534111e-05
-2.1753580969417763e-05
-1.4651976230999758e-05
-8.140855860473e-06
-2.293788498454463e-06
2.831841020851933e-06
7.196140884162955e-06
1.077729348317874e-05
1.3571418685142528e-05
1.5591771946564525e-05
1.6867365290128278e-05
1.7441124716136708e-05
1.736771236803339e-05
1.6711145829594043e-05
1.5542341438804647e-05
1.3936695344485966e-05
1.1971797487669161e-05
9.725352129570652e-06
7.2733561657691015e-06
4.688565077910767e-06
2.0392573333548325e-06
-6.117077939356286e-07
-3.2075562410409375e-06
-5.698014881146823e-06
-8.039508074295793e-06
-1.0195168497158236e-05
-1.2134695672932905e-05
-1.3834093787291196e-05
-1.5275317276807615e-05
-1.644584878511199e-05
-1.7338229794772175e-05
-1.7949559865636233e-05
-1.828097617189231e-05
-1.833712108494437e-05
-1.812560199680735e-05
-1.7656444470652566e-05
-1.6941537160617554e-05
-1.5994064763338867e-05
-1.4827923532814702e-05
-1.3457112587867553e-05
-1.1895093349829217e-05
-1.015410895012503e-05
-8.244455324192546e-06
-6.173695956880609e-06
-3.945812855971759e-06
-1.5602873024780917e-06
9.888947412155236e-07
3.714315994416545e-06
6.636281368745112e-06
9.784050592605287e-06
-1.5420210319472272e-05
-8.40467309058679e-06
-2.0265447338921327e-06
3.6314480538202076e-06
8.505624298070502e-06
1.2552817356705631e-05
1.5750946076465572e-05
1.809870913966477e-05
1.9614477642738992e-05
2.0334504834702144e-05
2.0310602391031968e-05
1.9607448446850445e-05
1.829969437826609e-05
1.6469026886328092e-05
1.4201322109112097e-05
1.1584002506448421e-05
8.703678346540927e-06
5.644126635902247e-06
2.4846335357313343e-06
-7.012967366652745e-07
-3.846881929812224e-06
-6.892679608867108e-06
-9.786920522860537e-06
-1.2485599766780958e-05
-1.4952369130145221e-05
-1.7158272439220246e-05
-1.908136218453302e-05
-2.070623096711577e-05
-2.2023485869136078e-05
-2.302918821643629e-05
-2.3724275685765156e-05
-2.4113978547471437e-05
-2.4207237166701256e-05
-2.4016123788203614e-05
-2.355526812211975e-05
-2.2841283320865907e-05
-2.1892186564807792e-05
-2.0726806617018395e-05
-1.9364169323278502e-05
-1.782285109583337e-05
-1.6120289895508316e-05
-1.427204309771904e-05
-1.2290981885990787e-05
-1.01864124520748e-05
-7.963115296737155e-06
-5.620295316012547e-06
-3.1504371280494103e-06
-5.380622397840873e-07
2.2416128290063397e-06
-8.982484119134798e-06
-2.0402625547678854e-06
4.208431649339872e-06
9.670631139532815e-06
1.4275864086588097e-05
1.797779769503738e-05
2.0754769341397444e-05
2.2609242129080498e-05
2.356629132956728e-05
2.3671282819170275e-05
2.2986940579786813e-05
2.159001649723602e-05
1.956777328761261e-05
1.7014473445566697e-05
1.4028037797087639e-05
1.0707001134167837e-05
7.147853862278508e-06
3.442821300981419e-06
-3.219009981313137e-07
-4.067465070218407e-06
-7.723271601391829e-06
-1.1227498718551637e-05
-1.4527311321163583e-05
-1.757880697934866e-05
-2.034675357705934e-05
-2.2804170067020763e-05
-2.4931795933443024e-05
-2.6717488085074848e-05
-2.81555766026044e-05
-2.9246203550679917e-05
-2.9994662279195228e-05
-3.041074849422301e-05
-3.050812898255581e-05
-3.030372925815275e-05
-2.9817137541267996e-05
-2.9070019328905627e-05
-2.8085534307970006e-05
-2.6887745429853005e-05
-2.550100854312523e-05
-2.3949330028520677e-05
-2.2255679351473184e-05
-2.0441243324280378e-05
-1.85246091410525e-05
-1.652086390711502e-05
-1.4440599438694107e-05
-1.228881255485939e-05
-1.0063692929947188e-05
-7.755292812237913e-06
-5.34407553726135e-06
-2.4323582143888356e-06
4.450667130808522e-06
1.0573174715120676e-05
1.583071154414792e-05
2.0145503124274072e-05
2.346828495193576e-05
2.577874749175313e-05
2.7084655940340374e-05
2.7419795685112297e-05
2.6840962355303283e-05
2.5424257253464644e-05
2.3260963934856188e-05
2.045327219234519e-05
1.711008652209925e-05
1.3343113428720271e-05
9.26337211321071e-06
4.9782220287800105e-06
5.889531941236092e-07
-3.811055699416699e-06
-8.137638643823664e-06
-1.2316653571459169e-05
-1.6284368450879272e-05
-1.9987494077566142e-05
-2.3382936201681026e-05
-2.6437335842673798e-05
-2.912645974569028e-05
-3.1434494219981235e-05
-3.335328609859606e-05
-3.488156504214551e-05
-3.602417241363107e-05
-3.6791313800958736e-05
-3.719784512400126e-05
-3.7262596182179725e-05
-3.700773044008204e-05
-3.645813573155063e-05
-3.564083727894754e-05
-3.458442186450583e-05
-3.331846005474176e-05
-3.187291197414774e-05
-3.0277501193286954e-05
-2.8561040786238834e-05
-2.6750695503036104e-05
-2.487116428624009e-05
-2.2943768035112166e-05
-2.0985428604819445e-05
-1.900752652275739e-05
-1.70146268214863e-05
-1.5003064721873238e-05
-1.2959385631120673e-05
4.239896697424278e-06
1.107932059342745e-05
1.7078327415244454e-05
2.2119545596450962e-05
2.6117385250094827e-05
2.9020065336709394e-05
3.080990262992536e-05
3.150196077065723e-05
3.11412733760251e-05
2.9798939587936252e-05
2.7567438234080144e-05
2.4555517868132815e-05
2.088299878880498e-05
1.6675777256735386e-05
1.2061260558193787e-05
7.164393303071143e-06
2.104368189429634e-06
-3.00794569419241e-06
-8.07187338853696e-06
-1.2998156782163817e-05
-1.770960749995082e-05
-2.2141281293349552e-05
-2.6240269305092406e-05
-2.9965198503244944e-05
-3.3285525556151635e-05
-3.618069739020138e-05
-3.86392392206919e-05
-4.065781817348679e-05
-4.224031855166316e-05
-4.3396953867892024e-05
-4.414343122176659e-05
-4.450017552586755e-05
-4.449161443114899e-05
-4.414551943896644e-05
-4.349239445160247e-05
-4.25648997292756e-05
-4.1397296724345056e-05
-4.002489741361179e-05
-3.848350042737203e-05
-3.6808795407395484e-05
-3.503571655415899e-05
-3.3197726230633356e-05
-3.132600977626826e-05
-2.9448563357986624e-05
-2.758915777957907e-05
-2.5766162700578688e-05
-2.3991217698422773e-05
-2.2267739041296336e-05
-2.0589253895690607e-05
1.1046002863973614e-05
1.785900365034246e-05
2.373628968692712e-05
2.8545921589451934e-05
3.219400740976999e-05
3.4626922978300834e-05
3.583134018068576e-05
3.583221715570614e-05
3.4689054224233684e-05
3.2490823734663415e-05
2.9350034722808865e-05
2.5396395846782882e-05
2.0770500233673744e-05
1.5617885388660713e-05
1.0083733377051068e-05
4.308383601856619e-06
-1.5762570936446452e-06
-7.449397388007567e-06
-1.3203186560437064e-05
-1.8743771787239905e-05
-2.3991702189224418e-05
-2.8881804367116015e-05
-3.336265322037221e-05
-3.7395752965491136e-05
-4.0954529395505895e-05
-4.4023218015266236e-05
-4.659571563288625e-05
-4.867444661073653e-05
-5.0269280108372616e-05
-5.139652171916309e-05
-5.207799204842711e-05
-5.234019593421471e-05
-5.2213578989882686e-05
-5.17318626940301e-05
-5.0931445101418116e-05
-4.9850851141199776e-05
-4.853021417922446e-05
-4.701076886576977e-05
-4.533433412545404e-05
-4.354276438537849e-05
-4.167734671862294e-05
-3.977812149574822e-05
-3.788310439948803e-05
-3.6027388299452595e-05
-3.424210455472976e-05
-3.2553224851388646e-05
-3.098018671992067e-05
-2.9534328417610278e-05
-2.8217121870028478e-05
1.800004919804213e-05
2.48054916528323e-05
3.0561459657012235e-05
3.51195499104541e-05
3.8377151206477056e-05
4.027983746932376e-05
4.082097941381785e-05
4.003881265824891e-05
3.8011394719913993e-05
3.485001141715141e-05
3.0691648080814066e-05
2.5691127218160914e-05
2.0013445084933468e-05
1.3826733116437118e-05
7.296145577886937e-06
5.788493506915515e-07
-6.179821306243755e-06
-1.2849074490912243e-05
-1.9314332142632284e-05
-2.5478003841790386e-05
-3.125952504089147e-05
-3.659482583375645e-05
-4.143538751425965e-05
-4.574702697724212e-05
-4.950852732111405e-05
-5.2710209832707716e-05
-5.5352520003919964e-05
-5.744467970261735e-05
-5.9003439818957476e-05
-6.005195287901721e-05
-6.06187731842546e-05
-6.073698271987643e-05
-6.044343400436747e-05
-5.977809581226082e-05
-5.8783483904874256e-05
-5.750415619667354e-05
-5.598624987612072e-05
-5.42770366647391e-05
-5.242447147007709e-05
-5.047670906855456e-05
-4.8481563091562485e-05
-4.6485881486067054e-05
-4.453481281334673e-05
-4.2670938304067985e-05
-4.093324558113176e-05
-3.935592146687983e-05
-3.796694336396719e-05
-3.678645135575878e-05
-3.582488637578207e-05
2.5118948226151433e-05
3.19374714477412e-05
3.7570500611785324e-05
4.185099432156558e-05
4.4667342740049854e-05
4.596588240376662e-05
4.5749859647881835e-05
4.407520693703107e-05
4.104374964015653e-05
3.679461606035522e-05
3.14946745651537e-05
2.5328778721963457e-05
1.8490486502573816e-05
1.1173760713571734e-05
3.5659826700638886e-06
-4.1575567826870885e-06
-1.183766885472573e-05
-1.9333871964993116e-05
-2.6525756777039805e-05
-3.331331951357888e-05
-3.961648623528741e-05
-4.537404411009485e-05
-5.0542174989575556e-05
-5.509275794006105e-05
-5.90115755918115e-05
-6.229652776463049e-05
-6.49559270526276e-05
-6.700692612746084e-05
-6.847410589920153e-05
-6.938823727976537e-05
-6.97852167255951e-05
-6.97051664285582e-05
-6.91916833607184e-05
-6.829121675913305e-05
-6.705255053377976e-05
-6.552636504295051e-05
-6.376485135192733e-05
-6.182135020995141e-05
-5.974998736412232e-05
-5.7605276377315634e-05
-5.544165979185986e-05
-5.331295930961072e-05
-5.1271705707588155e-05
-4.936831958530369e-05
-4.765011487073076e-05
-4.6160098412541956e-05
-4.493554105660172e-05
-4.400629838521852e-05
-4.339286275601567e-05
3.242299886905414e-05
3.9277073843629884e-05
4.478263116299702e-05
4.8751510105176504e-05
5.106306693159965e-05
5.166671014684987e-05
5.057987177554957e-05
4.788197038711403e-05
4.370525135571207e-05
3.8223574268660826e-05
3.164025278724544e-05
2.4175959157431842e-05
1.605752041001704e-05
7.508198639843977e-06
-1.2601964207957506e-06
-1.0053236618613043e-05
-1.8697900805175055e-05
-2.7044880365825752e-05
-3.4969427609412435e-05
-4.237104450900003e-05
-4.917230961468122e-05
-5.5317117450139064e-05
-6.0768567047991134e-05
-6.550669238486462e-05
-6.952618315246226e-05
-7.283420333457566e-05
-7.544837955714492e-05
-7.739500196863106e-05
-7.870745744308072e-05
-7.942489759680399e-05
-7.959113162102696e-05
-7.925372531821656e-05
-7.846328208314934e-05
-7.727287808236005e-05
-7.573762188096272e-05
-7.391430770101876e-05
-7.186113096162988e-05
-6.96374344571482e-05
-6.730345329040294e-05
-6.492002639956959e-05
-6.254824218549643e-05
-6.024898541987303e-05
-5.8082352404210946e-05
-5.610690141891195e-05
-5.4378706037458424e-05
-5.295018006771027e-05
-5.1868644883771436e-05
-5.11746128151018e-05
-5.089976404970553e-05
3.993658479501533e-05
4.685051750215677e-05
5.221993135503568e-05
5.5832736856156404e-05
5.755962929508175e-05
5.735646064650331e-05
5.5260707232027834e-05
5.1382880120461744e-05
4.589415401727408e-05
3.901170203837734e-05
3.098322156921442e-05
2.2071959169877448e-05
1.2543249866457662e-05
2.6532428704061084e-06
-7.35985143863159e-06
-1.7281948558085444e-05
-2.692688655660594e-05
-3.613815231567723e-05
-4.478893142809137e-05
-5.2780893252692834e-05
-6.004209921255284e-05
-6.652437374468981e-05
-7.220041642790401e-05
-7.706087051387832e-05
-8.11115038680827e-05
-8.437060687203554e-05
-8.686666967383169e-05
-8.863636835246963e-05
-8.972286523753481e-05
-9.017441149681421e-05
-9.004322873321265e-05
-8.938463932868165e-05
-8.825641140746202e-05
-8.671828254024072e-05
-8.483162586007606e-05
-8.265922249414345e-05
-8.026510468964881e-05
-7.771443442505799e-05
-7.507338247687498e-05
-7.24089727841791e-05
-6.97888565356665e-05
-6.728097979406475e-05
-6.495310783846339e-05
-6.28721689797905e-05
-6.110338065097934e-05
-5.970912137898826e-05
-5.8747514064188405e-05
-5.827068899224436e-05
-5.832269921713512e-05
4.7689047782207075e-05
5.468889001324605e-05
5.9907649231224006e-05
6.310616606369258e-05
6.414750867863098e-05
6.299886332947376e-05
5.97257352712207e-05
5.4479752889450075e-05
4.748192288624338e-05
3.900341262077188e-05
2.9345856380440585e-05
1.8822866353962464e-05
7.743973417996541e-06
-3.5982747896706746e-06
-1.4937791283866145e-05
-2.6041106804658085e-05
-3.67105705966677e-05
-4.678510816823883e-05
-5.613910428396533e-05
-6.467996405559728e-05
-7.234484414574659e-05
-7.909696161237899e-05
-8.492179656005225e-05
-8.982341786061346e-05
-9.382108531737383e-05
-9.694621962167728e-05
-9.923978359067942e-05
-0.00010075008323746741
-0.00010153097319851034
-0.00010164043567873794
-0.00010113949321743053
-0.00010009141133626026
-9.856114594774916e-05
-9.661499105999456e-05
-9.43203838936306e-05
-9.17458263745164e-05
-8.896088363775749e-05
-8.603622138834109e-05
-8.304364456726901e-05
-8.005609973634441e-05
-7.714760296703531e-05
-7.439305395176045e-05
-7.186789577513092e-05
-6.964757859811294e-05
-6.780678479459054e-05
-6.641837324833713e-05
-6.55520019628951e-05
-6.52723911583001e-05
-6.563719375445726e-05
5.5715788812710915e-05
6.282909751576839e-05
6.787447815174291e-05
7.058226064777726e-05
7.080997024852195e-05
6.85432006079529e-05
6.388640399948228e-05
5.704557909779612e-05
4.8305548370900994e-05
3.800473352970693e-05
2.6510111141729922e-05
1.4194488382711368e-05
1.4175378126105032e-06
-1.148868394834461e-05
-2.4229627338053644e-05
-3.6553907050001014e-05
-4.82553718317031e-05
-5.917236726992424e-05
-6.918498355068525e-05
-7.82110093157113e-05
-8.620119618812754e-05
-9.313430546712374e-05
-9.901227904930872e-05
-0.00010385576271510107
-0.00010770011691011577
-0.00011059197893611636
-0.00011258638921519612
-0.00011374445982810337
-0.00011413154227956496
-0.00011381584000137203
-0.0001128674065145295
-0.00011135747004217128
-0.00010935802785263724
-0.00010694165736471403
-0.00010418149511077189
-0.00010115133838732235
-9.792582742795472e-05
-9.458066798010561e-05
-9.119285515812349e-05
-8.784085939529673e-05
-8.46047343163684e-05
-8.156610460038384e-05
-7.880798968586296e-05
-7.641441688117055e-05
-7.44697755885957e-05
-7.30578635056555e-05
-7.226057642652217e-05
-7.215619614449331e-05
-7.281723625171196e-05
6.405966799182157e-05
7.131502029337523e-05
7.615275072692454e-05
7.826903611536998e-05
7.751959533196066e-05
7.391865337909309e-05
6.762459589049717e-05
5.891536377424303e-05
4.8157533940581046e-05
3.577317289740409e-05
2.2208054658265017e-05
7.903927295925886e-06
-6.723554545114835e-06
-2.130062555586419e-05
-3.5505142295040246e-05
-4.907101360759718e-05
-6.178838518089945e-05
-7.350071596405432e-05
-8.409981468894892e-05
-9.351974666348822e-05
-0.00010173032586227419
-0.00010873071167638929
-0.0001145434555420155
-0.00011920920040908028
-0.00012278212784237914
-0.00012532617075928024
-0.0001269119592964517
-0.00012761443725396726
-0.00012751107149058978
-0.00012668057183858744
-0.00012520204083143506
-0.0001231544779833442
-0.00012061657050535003
-0.00011766670981656208
-0.0001143831801185876
-0.00011084447109923831
-0.00010712967122249693
-0.00010331890091214505
-9.94937462220763e-05
-9.573765337261841e-05
-9.213624295638552e-05
-8.877749990578859e-05
-8.575179180318054e-05
-8.315166428211028e-05
-8.107135875459401e-05
-7.96059952935229e-05
-7.885036308035408e-05
-7.889726323353184e-05
-7.983535466614226e-05
7.27728000268664e-05
8.019891744508005e-05
8.477845331161978e-05
8.61698057991623e-05
8.423321196261539e-05
7.902632876493655e-05
7.078213247940085e-05
5.987386417576589e-05
4.677284134054632e-05
3.2004889070211956e-05
1.6110168941863706e-05
-3.9030736297303303e-07
-1.7019798258513172e-05
-3.336231472612569e-05
-4.907123154003143e-05
-6.38714125765702e-05
-7.755648097758881e-05
-8.998283164891006e-05
-0.00010106177729833285
-0.00011075093222129642
-0.00011904563798813966
-0.00012597096391236615
-0.00013157459302348858
-0.0001359207363987036
-0.0001390851011590557
-0.00014115086180493952
-0.0001422055412008405
-0.0001423386873433321
-0.00014164022742534262
-0.00014019938569144116
-0.000138104061804473
-0.00013544057888472717
-0.00013229372304246652
-0.0001287470078782122
-0.0001248831073710696
-0.00012078440846653021
-0.0001165336403839163
-0.00011221454119522169
-0.0001079125236523211
-0.0001037153016794929
-9.97134365673634e-05
-9.600075793291495e-05
-9.267460929934107e-05
-8.983586223193334e-05
-8.758863711565493e-05
-8.603966391503709e-05
-8.529721388687156e-05
-8.546953454421045e-05
-8.666272631608317e-05
8.191887812623172e-05
8.954312694012083e-05
9.379089279905155e-05
9.42796202810011e-05
9.088444201579143e-05
8.372794061102702e-05
7.314628392363076e-05
5.963912056563235e-05
4.3811872229940554e-05
2.6318523504988492e-05
7.811192146630133e-06
-1.1099653466727435e-05
-2.9872846874185593e-05
-4.805248248195525e-05
-6.527387931304536e-05
-8.12618605659475e-05
-9.582375446325585e-05
-0.00010883927535805873
-0.00012024902366863932
-0.00013004287679786904
-0.00013824911216138262
-0.00014492474873195778
-0.00015014732696552215
-0.00015400816291093883
-0.0001566069966030103
-0.00015804789102481613
-0.00015843621065188274
-0.00015787650516721312
-0.0001564711347026293
-0.00015431949103853274
-0.00015151768997479463
-0.00014815863067367714
-0.00014433233649503024
-0.00014012650783457037
-0.00013562723039256194
-0.00013091979210492002
-0.0001260895687740099
-0.000121222942423789
-0.00011640821775764539
-0.00011173650098878982
-0.00010730250190151176
-0.00010320521447913789
-9.954842409982782e-05
-9.644098067641306e-05
-9.399676806778022e-05
-9.233429192739666e-05
-9.157580264587337e-05
-9.184586923759695e-05
-9.326932587847697e-05
9.15762105542714e-05
9.942210355608043e-05
0.00010323172212915385
0.00010257965023441687
9.737266036342375e-05
8.782961567583084e-05
7.442965210789285e-05
5.7840284927669974e-05
3.8838326855450064e-05
1.8234991898631592e-05
-3.186718817852971e-06
-2.4718117108506882e-05
-4.575365843884592e-05
-6.58042704649274e-05
-8.449836055006432e-05
-0.00010157413174491196
-0.0001168666061819399
-0.00013029214953540202
-0.00014183255664078354
-0.00015152005918495082
-0.00015942403624662205
-0.00016563977460001302
-0.0001702793304067217
-0.00017346436287201013
-0.00017532071477641305
-0.0001759744778370275
-0.00017554928098441162
-0.00017416456084073245
-0.00017193460490846565
-0.00016896819213100232
-0.00016536868835060475
-0.00016123448351283536
-0.0001566596822671941
-0.0001517349796593872
-0.00014654866908673549
-0.00014118774096916024
-0.0001357390380910383
-0.0001302904376818976
-0.00012493203133153406
-0.00011975727198394737
-0.00011486405264030976
-0.00011035567410535088
-0.00010634164927911943
-0.00010293827951420205
-0.00010026892527651571
-9.846388031308113e-05
-9.76597481077892e-05
-9.799821467757278e-05
-9.962411603219208e-05
0.00010184172777392801
0.00010992481661979518
0.0001131428110531605
0.00011102829749895168
0.00010354649378979501
9.105854265884124e-05
7.424209874157088e-05
5.398774185418759e-05
3.129053008520122e-05
7.152545834233567e-06
-1.7493493428565737e-05
-4.183557782768549e-05
-6.520966179318285e-05
-8.710692794603944e-05
-0.00010716649485337584
-0.0001251589857797393
-0.0001409655426258781
-0.00015455570643997663
-0.0001659664272317951
-0.00017528349194299506
-0.00018262593361039262
-0.00018813349823239983
-0.00019195695559924217
-0.00019425089423872124
-0.0001951685909544719
-0.00019485855436310318
-0.00019346238216672203
-0.0001911136255892086
-0.00018793741041057445
-0.0001840506162187807
-0.00017956246094398033
-0.00017457537547781524
-0.00016918608334353692
-0.00016348682363605607
-0.00015756667266059177
-0.00015151293173307212
-0.0001454125562239967
-0.0001393536047389985
-0.00013342668775446521
-0.0001277263922871124
-0.0001223526533009802
-0.00011741203342526853
-0.00011301886001620007
-0.00010929615269394434
-0.00010637625582885467
-0.00010440107065992459
-0.00010352176380723152
-0.00010389781736078185
-0.00010569528589162575
0.00011283632460452192
0.00012115747150947404
0.00012356205759779353
0.0001195470390394169
0.00010917891423724985
9.302902772944169e-05
7.205140089503945e-05
4.74328805785771e-05
2.044461477283474e-05
-7.683379291556144e-06
-3.5852810795374696e-05
-6.315054774969943e-05
-8.886931092346936e-05
-0.00011250356566661936
-0.00013372931220705098
-0.00015237545594127926
-0.000168392596276927
-0.00018182311085369884
-0.0001927747299499353
-0.00020139854418368096
-0.00020787156281639428
-0.00021238346203539434
-0.00021512693514909656
-0.0002162909915394591
-0.00021605658034117708
-0.0002145939908290359
-0.00021206157437260974
-0.00020860542522623503
-0.0002043597405410498
-0.00019944765027362504
-0.00019398236459813346
-0.00018806853101498155
-0.00018180372723716233
-0.0001752800409003403
-0.00016858570482248918
-0.00016180676832546446
-0.0001550287921222599
-0.00014833855728519849
-0.00014182577836349686
-0.00013558480703593744
-0.00012971630567263498
-0.00012432885943250427
-0.00011954048040357587
-0.00011547993720610258
-0.00011228781837937032
-0.0001101172090542512
-0.00010913383135610112
-0.00010951547589154245
-0.00011145054310406945
0.00012471205643529472
0.00013324637988076232
0.00013451552838173765
0.00012799767548650996
0.00011392923555922016
9.319275634426562e-05
6.712794018798318e-05
3.7314155275173025e-05
5.367944098595354e-06
-2.721543375192384e-05
-5.9164469943551526e-05
-8.9480094156838e-05
-0.00011744140922568223
-0.0001425824269969591
-0.00016465293134993765
-0.00018357372373033198
-0.0001993931172673824
-0.00021224854937758157
-0.00022233494947095436
-0.00022988004895485234
-0.00023512600978471167
-0.00023831638662729845
-0.0002396873574850144
-0.00023946223164614602
-0.000237848387569942
-0.0002350359559283744
-0.000231197717212318
-0.00022648981674234028
-0.0002210530089894868
-0.00021501422876561357
-0.00020848835207114627
-0.00020158005777134308
-0.00019438573624787348
-0.00018699541570862607
-0.0001794946933354382
-0.00017196666876736003
-0.0001644938829315351
-0.00015716026691588517
-0.0001500531040260246
-0.0001432650036074061
-0.0001368958774307493
-0.00013105489769572008
-0.0001258623987138944
-0.00012145166044444551
-0.0001179704799140896
-0.00011558239629691144
-0.00011446739038455112
-0.0001148218373879014
-0.00011685746655316041
0.00013766193285626692
0.00014634049007325282
0.00014600301176260523
0.00013614533710185235
0.0001172844529369367
9.076537186073277e-05
5.846688718132674e-05
2.2485412738059915e-05
-1.5138362170362754e-05
-5.2613348783446534e-05
-8.850434590095858e-05
-0.00012176298013566976
-0.00015170520519870202
-0.00017795814625381698
-0.00020039485328412175
-0.00021906957620413878
-0.00023416065752893296
-0.0002459239985303126
-0.0002546574119377098
-0.00026067475052650967
-0.0002642881152225291
-0.000265796362026385
-0.00026547829990896006
-0.00026358924665940454
-0.0002603598989234235
-0.0002559967335721749
-0.0002506833739907722
-0.0002445825250921834
-0.00023783820972807755
-0.00023057813390943427
-0.0002229160761996682
-0.00021495424424933934
-0.00020678557394923462
-0.00019849596813355935
-0.0001901664851748676
-0.00018187549534449086
-0.0001737008259882402
-0.00016572191642027362
-0.00015802200060690587
-0.00015069033045184838
-0.00014382444455112754
-0.00013753247566417395
-0.00013193547282958074
-0.00012716968792633558
-0.00012338873789872334
-0.00012076550031388765
-0.00011949353298131536
-0.0001197877372321951
-0.00012188392817709393
0.00015193337406877935
0.00016061239719278655
0.0001579716090599828
0.0001435974889124076
0.0001184676017558714
8.461742814036381e-05
4.467905140354521e-05
1.422281711271553e-06
-4.260736173116071e-05
-8.531268554866009e-05
-0.0001251360036368769
-0.0001610496241290678
-0.00019248545454080002
-0.00021923835570084906
-0.00024136736177142286
-0.0002591083664543921
-0.0002728038637697782
-0.00028285029717483104
-0.00028966097129616043
-0.0002936415098534033
-0.0002951747985822997
-0.00029461274344002274
-0.00029227270854495155
-0.00028843702237279535
-0.0002833543891216997
-0.00027724239725476253
-0.0002702905844970318
-0.00026266371242629136
-0.0002545050403458225
-0.0002459394818946706
-0.00023707659069069874
-0.00022801336231025905
-0.00021883686578066594
-0.0002096267332565918
-0.00020045754495805375
-0.00019140114997265832
-0.00018252896362767543
-0.00017391427977266928
-0.0001656346321002207
-0.00015777423290877328
-0.00015042651036970348
-0.00014369675543267693
-0.00013770487446064343
-0.00013258821872414069
-0.00012850441990540536
-0.00012563409415052712
-0.00012418318242087695
-0.00012438457960025837
-0.0001264985946623446
0.00016784684172192234
0.0001762551258300861
0.00017026723514627744
0.00014970174612710663
0.00011629286599291848
7.311183136864477e-05
2.3839193282408633e-05
-2.7896320864384885e-05
-7.89804640935702e-05
-0.00012704459349772643
-0.00017050358284528833
-0.00020846908258975207
-0.0002406045206714228
-0.00026697000612625754
-0.00028788454785554606
-0.00030381672679190806
-0.00031530487072163604
-0.0003229028125109213
-0.0003271456685078507
-0.00032853020665371026
-0.00032750525671698845
-0.0003244686751794901
-0.0003197683461983059
-0.0003137054830940206
-0.0003065390835218385
-0.0002984908129149925
-0.00028974988148779135
-0.00028047767446418015
-0.0002708120214517523
-0.0002608710704339375
-0.00025075678021537276
-0.00024055807316433406
-0.00023035370510930166
-0.00022021491610906864
-0.00021020792761949209
-0.00020039635022003552
-0.0001908435626640989
-0.00018161511826523917
-0.00017278122902263278
-0.00016441937188285162
-0.00015661705545189086
-0.0001494747789552598
-0.00014310920603442454
-0.00013765655803776172
-0.0001332761933846103
-0.00013015426519277958
-0.0001285072236843158
-0.00012858475194478698
-0.0001306715229407989
0.00018582172365260927
0.00019346856281474319
0.00018254444913582205
0.0001533716159234609
0.00010893393055755665
5.386168956487969e-05
-6.7205568414357986e-06
-6.812967449567296e-05
-0.00012667561676599215
-0.00017983957038166486
-0.00022618896659293113
-0.00026515903627717663
-0.00029680156648605356
-0.0003215593660001164
-0.00034009005050567725
-0.000353141313473802
-0.0003614698217166059
-0.000365793035448439
-0.00036676397263152825
-0.000364960952815286
-0.00036088651254025453
-0.00035497151458866415
-0.0003475818619116111
-0.00033902621095814774
-0.00032956374342349784
-0.0003194114868519983
-0.0003087509448758616
-0.0002977339609764977
-0.0002864878335860875
-0.00027511975097177684
-0.0002637206387243584
-0.00025236852176024893
-0.0002411315033830127
-0.00023007046024932712
-0.00021924154638003693
-0.0002086985928446087
-0.00019849548292835174
-0.0001886885756535988
-0.00017933924365967809
-0.00017051658517301845
-0.00016230036512174598
-0.00015478423847064757
-0.00014807930920211765
-0.00014231807578135233
-0.00013765879337189653
-0.00013429021629606658
-0.00013243653446252598
-0.00013236205916489913
-0.00013437486772943305
0.00020641206567692874
0.00021242159191600316
0.00019409563570356968
0.00015278362425133994
9.355033366097859e-05
2.3372775007112975e-05
-5.0680826113919455e-05
-0.00012272502906362885
-0.00018862175801784807
-0.0002459749378881243
-0.0002938074770767844
-0.00033214048806769723
-0.00036160796462225697
-0.00038316071374961194
-0.0003978645257818273
-0.00040677594046346736
-0.00041087400519625693
-0.0004110289393658897
-0.0004079933327837716
-0.0004024060212159033
-0.00039480231602979574
-0.000385626759982903
-0.00037524623049382116
-0.00036396224949312994
-0.00035202198395265123
-0.00033962778051338516
-0.00032694527226333724
-0.00031411019178369075
-0.0003012340639214177
-0.0002884089600847274
-0.0002757114885900483
-0.0002632061816391848
-0.0002509484238163648
-0.00023898705208278553
-0.00022736674416351174
-0.00021613030113040547
-0.00020532092053193382
-0.00019498454805952706
-0.00018517238808050257
-0.00017594364671194053
-0.00016736857708377247
-0.0001595318983564631
-0.0001525366718494823
-0.0001465087392965997
-0.00014160184601734113
-0.00013800354522823
-0.00013594183649169415
-0.00013569215003230058
-0.00013758372493100773
0.0002303545755136839
0.0002331573575809938
0.0002035194939999669
0.00014484044277422205
6.568259009846929e-05
-2.3471914023085252e-05
-0.00011305957500264661
-0.0001960319014957159
-0.00026820411411239593
-0.0003278166433170679
-0.00037480682781444036
-0.0004101166804122147
-0.000435170071836119
-0.00045153249554842796
-0.0004607158225408397
-0.00046408188832566984
-0.0004628067455370987
-0.0004578788296826213
-0.0004501140381842142
-0.0004401776914975293
-0.00042860786540622683
-0.00041583733016012717
-0.0004022129128163406
-0.00038801195901534344
-0.0003734560047086409
-0.00035872196169151396
-0.00034395118400892474
-0.0003292567797183992
-0.0003147295002417193
-0.0003004424971487264
-0.0002864551937003211
-0.0002728164805122467
-0.0002595674130628136
-0.0002467435636886537
-0.0002343771616137736
-0.0002224991404104204
-0.0002111412017969435
-0.00020033799641436603
-0.0001901295149010756
-0.000180563775698913
-0.00017169989106269844
-0.0001636115950081167
-0.0001563913367916489
-0.00015015509336194048
-0.00014504813453183017
-0.0001412520442430551
-0.00013899324340109834
-0.00013855288506571875
-0.0001402771413304381
0.00025862710741617403
0.00025536318455052047
0.00020805796641206777
0.00012420240101396196
1.8279007537933337e-05
-9.411460211944042e-05
-0.00020052981319343584
-0.0002932774924168744
-0.00036902103783337074
-0.00042748348355487083
-0.00047012862557166933
-0.0004991798797194351
-0.0005170182859884302
-0.0005258676483953072
-0.0005276614030942043
-0.0005240109997625853
-0.0005162244495865876
-0.0005053454632106148
-0.0004921975770645921
-0.00047742583949248775
-0.0004615330862115623
-0.00044491010408959433
-0.0004278600352893829
-0.000410617784996346
-0.0003933652880736497
-0.00037624343721254574
-0.00035936136748822463
-0.0003428036737648573
-0.00032663602787813203
-0.00031090956934337263
-0.0002956643679171856
-0.00028093219747717287
-0.00026673881622423304
-0.0002531059158176613
-0.00024005287948612036
-0.00022759847430942927
-0.00021576259364313767
-0.00020456815984230305
-0.00019404329267227842
-0.00018422384300754296
-0.00017515638432144716
-0.00016690175095350306
-0.00015953922796920622
-0.00015317156397536523
-0.00014793113292507938
-0.00014398781063203019
-0.00014155931756927587
-0.00014092455374911834
-0.00014243932745993705
0.0002925005721819973
0.0002778042881576726
0.00020222769763802127
8.151455303812873e-05
-5.98224194887885e-05
-0.00019916167374011036
-0.0003215373995499454
-0.000420193214004598
-0.0004942956684250779
-0.0005462477247251615
-0.0005797009184706388
-0.0005984268308241742
-0.0006057980099020976
-0.0006046178712500652
-0.0005971215973595932
-0.0005850468858187314
-0.0005697235204708967
-0.0005521589449168796
-0.0005331114436352563
-0.0005131492997074959
-0.0004926971162787699
-0.0004720714054185591
-0.00045150761862447486
-0.00043118053552641637
-0.00041121958100306596
-0.0003917203076141667
-0.00037275299619935615
-0.00035436909965557047
-0.0003366060784741158
-0.0003194910431246409
-0.00030304351918634953
-0.00028727757876735593
-0.000272203530217615
-0.0002578293228039461
-0.0002441618003470019
-0.0002312079250389107
-0.00021897608732698165
-0.00020747761728780005
-0.00019672861416140247
-0.00018675220967329098
-0.00017758137341997507
-0.00016926235455674322
-0.00016185884645319483
-0.00015545700561966393
-0.00015017165033754526
-0.00014615442132822135
-0.00014360536453238149
-0.00014278977781578134
-0.0001440611132056454
0.00033348031216898395
0.00029689403982590366
0.0001748754933096324
1.8332263748872812e-07
-0.00018608947005530757
-0.00035301646326084055
-0.0004857531760900889
-0.0005819211913379845
-0.0006457467813778903
-0.0006836087779916577
-0.0007017711559708234
-0.0007055210389757833
-0.0006990054081788197
-0.0006853490771079225
-0.000666852358528992
-0.0006451847905632035
-0.0006215471519852196
-0.0005967975884025225
-0.0005715461994357102
-0.0005462245284751852
-0.0005211360338321092
-0.0004964925210411177
-0.000472440359815798
-0.00044907932363435
-0.00042647611989571517
-0.0004046741027918799
-0.0003837002407890682
-0.00036357010812551604
-0.0003442914538621059
-0.00032586674892988617
-0.00030829500381017623
-0.0002915730744448893
-0.0002756966229281021
-0.00026066086643138434
-0.00024646122855934323
-0.00023309399910815404
-0.00022055710889412258
-0.00020885113381361071
-0.00019798065356693532
-0.00018795610041424417
-0.00017879623367279135
-0.00017053135592883656
-0.0001632073429623255
-0.00015689052272498116
-0.00015167354570470339
-0.00014768296261276175
-0.00014509061432657448
-0.00014413282302548971
-0.00014514167622779045
0.00038282733143272987
0.0003027969396543961
0.00010276106765248587
-0.0001493815602841746
-0.0003866844255120674
-0.0005732480687482425
-0.0007018804641081098
-0.0007807156283860181
-0.0008217869969320037
-0.0008360830539344815
-0.0008321780957106385
-0.0008162994271854775
-0.0007928052195777021
-0.0007646828693747589
-0.0007339538892947167
-0.0007019730519248722
-0.0006696398430439763
-0.0006375446998272988
-0.0006060690842984544
-0.0005754536531429755
-0.0005458446284235929
-0.0005173253397365157
-0.0004899376851870245
-0.00046369672756150365
-0.0004386006028540487
-0.00041463721730368615
-0.00039178873702551756
-0.00037003455615214516
-0.0003493532145945333
-0.000329723591353942
-0.000311125601395958
-0.0002935405586730333
-0.0002769513253072734
-0.0002613423410475317
-0.0002466996141039634
-0.00023301075218917777
-0.00022026511994991706
-0.00020845422523722325
-0.0001975724604684169
-0.00018761835283379047
-0.00017859649875934594
-0.00017052035413133576
-0.00016341599017253433
-0.00015732677764482457
-0.0001523187937700326
-0.00014848698807652314
-0.00014596398441369188
-0.00014493789651805547
-0.00014569053619521016
0.00043849478407862255
0.00026875624054142986
-6.432752285662549e-05
-0.0004180856622925371
-0.0006968170553919642
-0.0008757096497980597
-0.0009724887765330953
-0.0010121651433861057
-0.0010152236989809443
-0.0009959812699887804
-0.0009637958982367731
-0.0009245890016034205
-0.0008820370836282263
-0.0008383880864027277
-0.0007949916064934285
-0.000752635739854653
-0.0007117593203388728
-0.0006725854064641018
-0.0006352053063422847
-0.0005996315309756538
-0.0005658311643384137
-0.0005337468351843001
-0.000503309803167571
-0.00047444800948179787
-0.00044709090306335915
-0.00042117219964579386
-0.00039663131676944373
-0.00037341396364514584
-0.0003514721952335778
-0.00033076413069548817
-0.0003112534660827098
-0.00029290886641759536
-0.00027570329488887935
-0.00025961332184291225
-0.0002446184509014536
-0.00023070050287446464
-0.00021784311042659377
-0.00020603139892637692
-0.0001952519631513265
-0.00018549329599747144
-0.00017674687956865769
-0.00016900919293292085
-0.00016228487575783296
-0.0001565911101329663
-0.00015196279870545795
-0.0001484573905507422
-0.00014615872379215682
-0.00014518600347082113
-0.00014572974283403803
0.00048482442442520073
0.00011536791341054588
-0.00043150394568611857
-0.000886751804200947
-0.0011480219301741416
-0.0012613493139973118
-0.0012853885416679225
-0.0012606523088804396
-0.0012112626806167256
-0.0011507578703700483
-0.0010865137661325965
-0.00102243948139017
-0.0009605192134542855
-0.0009016758214532867
-0.0008462529216655777
-0.0007942845916740059
-0.0007456465935935571
-0.0007001410469175979
-0.0006575434336913554
-0.000617628151541566
-0.000580181812784266
-0.0005450095572005417
-0.0005119374181591606
-0.00048081250439188997
-0.0004515020197247508
-0.00042389171062126585
-0.0003978840770034499
-0.0003733965315719009
-0.0003503596040701912
-0.00032871523473285147
-0.00030841517089835215
-0.00028941946387703484
-0.0002716950546885113
-0.00025521443456915684
-0.00023995436811377266
-0.0002258946737292624
-0.00021301706915156232
-0.00020130411191069016
-0.00019073830026914568
-0.00018130145531519877
-0.00017297458552609918
-0.00016573854052753974
-0.00015957586277083081
-0.0001544742323930752
-0.00015043145033968343
-0.00014746033670041785
-0.00014558876396910357
-0.00014485106228762264
-0.00014529630955952867
0.000414426556809901
-0.0003758011253016096
-0.0012227965586879396
-0.0016239514436295161
-0.0017286561500963298
-0.0016947510056698149
-0.0016046168702678124
-0.0014965712941448035
-0.0013873316488133523
-0.0012837286849162795
-0.0011881316035116324
-0.001100936941771019
-0.00102171037114454
-0.0009497119150147903
-0.0008841346373850093
-0.0008242086794795732
-0.0007692417647035196
-0.0007186300631419132
-0.0006718557468320032
-0.0006284791235353481
-0.0005881291137024517
-0.0005504938036528205
-0.000515311806228531
-0.00048236467206709197
-0.0004514703644190633
-0.00042247770951690626
-0.00039526169755139777
-0.000369719502966508
-0.0003457671000361307
-0.00032333636197261206
-0.0003023725449575569
-0.00028283207058263024
-0.0002646805305525461
-0.0002478908461310877
-0.0002324415221778113
-0.00021831494270084344
-0.00020549566334878908
-0.00019396866912096272
-0.00018371758786519046
-0.00017472289049736724
-0.00016696018144566824
-0.00016039880835794218
-0.00015500122021771222
-0.0001507237632428944
-0.00014751972085552158
-0.00014534446591566753
-0.00014415760444451073
-0.00014390264616254145
-0.00014444734384066495
-0.0001573847731805929
-0.001991738074925731
-0.0025889380258503607
-0.002543932018464482
-0.0023276112475038337
-0.002088340926886893
-0.001869380127369845
-0.0016792377038779525
-0.0015163591921060222
-0.0013767492556306842
-0.001256334989087793
-0.0011516020620438595
-0.0010596847454756404
-0.00097829450754593
-0.0009056153532907086
-0.0008402059613759442
-0.0007809186964754036
-0.0007268356735336129
-0.0006772192451945658
-0.0006314739077919341
-0.0005891169953619914
-0.0005497560588499338
-0.0005130713135944875
-0.00047880193275127124
-0.000446735268209493
-0.00041669830886817937
-0.00038855085565644987
-0.000362180017868894
-0.00033749572758561344
-0.0003144270366664068
-0.00029291901028174507
-0.0002729300666576336
-0.00025442963785923985
-0.00023739604325981496
-0.00022181447739796564
-0.00020767501834470167
-0.00019497056244347812
-0.00018369458756189137
-0.00017383864201976802
-0.00016538945487912932
-0.0001583255756839319
-0.0001526135002790814
-0.00014820336953097306
-0.00014502462314767636
-0.00014298255777074435
-0.00014195743645070182
-0.00014180661934188286
-0.00014235475084149914
-0.00014328842560390812
-0.004786600942858949
-0.004872711555480994
-0.003998818313770412
-0.0032745237314588966
-0.0027268454091435787
-0.002319935195829065
-0.0020101612784283645
-0.001768019228736738
-0.001573856096196092
-0.0014146234571592838
-0.0012814409753858684
-0.0011681179463231836
-0.0010702350055321122
-0.0009845696243727326
-0.0009087273451359491
-0.0008408994915640525
-0.0007797002156899931
-0.0007240545252204609
-0.0006731198059875699
-0.0006262298196999753
-0.0005828540782454577
-0.0005425679275701516
-0.0005050302136807971
-0.00046996639731618044
-0.00043715563740621445
-0.0004064208004382532
-0.0003776206495173691
-0.0003506436710115548
-0.0003254031386430486
-0.00030183311437964426
-0.0002798851553296143
-0.00025952554446787707
-0.00024073289589781818
-0.00022349600592437395
-0.00020781183142261003
-0.00019368347755836443
-0.00018111806745417514
-0.0001701243453189217
-0.00016070982892749282
-0.00015287727260745142
-0.00014662012192047727
-0.00014191652938874005
-0.00013872135480402087
-0.00013695541276007028
-0.0001364911410821762
-0.0001371340940522093
-0.00013860048129266112
-0.0001404894498484542
-0.0001421967547254252

SCALARS STRAIN_XY float 1
LOOKUP_TABLE default
2.2486037573599127e-07
0.02272888140999229
-1.1679177273557495e-06
2.2650531469881052e-07
4.4970832186602694e-07
8.993668319245973e-07
1.348925346984775e-06
1.7983329414633653e-06
2.247537576070824e-06
2.6964857281902566e-06
3.145122021798452e-06
3.593388859773894e-06
4.0412260576758174e-06
4.488570479542486e-06
4.935355677748721e-06
5.381511537262684e-06
5.826963925960327e-06
6.271634351642796e-06
6.71543962924015e-06
7.158291559020147e-06
7.600096619195251e-06
8.040755676820555e-06
8.480163718106726e-06
8.918209603803184e-06
9.354775854134023e-06
9.78973846754716e-06
1.0222966779341314e-05
1.0654323366054985e-05
1.1083664003402882e-05
1.151083768390071e-05
1.1935686703608284e-05
1.2358046827969094e-05
1.2777747544129303e-05
1.319461241261477e-05
1.3608459531924688e-05
1.4019102125013838e-05
1.4426349263567395e-05
1.4830006747276747e-05
1.5229878151418186e-05
1.5625766062184188e-05
1.601747351869659e-05
1.6404805682761203e-05
1.678757175969242e-05
1.7165587193002096e-05
1.7538676163712796e-05
1.79066744202816e-05
1.8269432474189717e-05
1.8626819199119016e-05
1.8978725871157676e-05
1.9325070700737523e-05
1.966580390685979e-05
2.0000913394171982e-05
2.0330431106184432e-05
2.0654440134430796e-05
2.0973082683180266e-05
2.1286569004519418e-05
2.15951874446077e-05
2.1899315770491923e-05
2.2199433979797067e-05
2.2496138848714098e-05
2.2790160526281467e-05
2.3082381557973375e-05
2.3373858818093174e-05
2.3665848946703705e-05
2.3959838040828185e-05
2.425757654488797e-05
2.4561120536871484e-05
2.487288093506318e-05
2.519568256931226e-05
2.5532835618381766e-05
2.5888222641490266e-05
2.6266405395491965e-05
2.6672756914827844e-05
2.7113626055827456e-05
2.759654404683315e-05
2.8130485780528125e-05
2.872620299942258e-05
2.9396652680098445e-05
3.015755261077946e-05
3.102810856774746e-05
3.2031975458625406e-05
3.3198541179536856e-05
3.45646612699875e-05
3.617703210653453e-05
3.80954825269092e-05
4.039760900888256e-05
4.3185413513884e-05
4.6594989419328214e-05
5.0810956259247225e-05
5.608848994245394e-05
6.278786839322009e-05
7.14303555433074e-05
8.279191977128564e-05
9.806724452641677e-05
0.00011917162339889625
0.00014933289230224453
0.00019434973735366762
0.0002655562050655272
0.00038819610068112353
0.0006280408175813219
0.001224880352665594
0.0031151287118106113
0.013649334224731684
0.014596041570838401
0.0046026047559901695
0.0020915361403350714
0.0011662856490892194
0.000749191072923391
0.0005238152425074347
0.00038806788441571316
0.00029993830642827124
0.0002395688237983619
0.00019648248283248015
0.00016470928889030997
0.00014064012705987915
0.00012198801664346608
0.0001072467970935527
9.539191229923812e-05
8.570690284279148e-05
7.767863622840099e-05
7.093182126674882e-05
6.518683152888921e-05
6.023181879009215e-05
5.590384199996232e-05
5.207583074701844e-05
4.864741157777422e-05
4.553834501652004e-05
4.268376057097942e-05
4.00306518919917e-05
3.753527002744311e-05
3.516116746081835e-05
3.287772208318204e-05
3.065902230100018e-05
2.8483030833682116e-05
2.6330971017143184e-05
2.4186899380575916e-05
2.2037444628243003e-05
1.9871708138056304e-05
1.768133681074452e-05
1.546079807418846e-05
1.3207912577882508e-05
1.0924738173351267e-05
8.618958682440891e-06
6.30602985699294e-06
4.0125050848639765e-06
1.781267482004606e-06
-3.200427740462919e-07
-2.185067563560683e-06
-3.6450867547596633e-06
-4.430505476934327e-06
-4.1296666509482716e-06
-2.4070829869222987e-06
-2.4064748597001084e-06
-4.120964033290514e-06
-4.394409362118434e-06
-3.5551711234475813e-06
-2.015250248236372e-06
-5.0531384632179766e-08
2.1600012514132183e-06
4.497289485802525e-06
6.879655989965039e-06
9.249605541373357e-06
1.1565911302913179e-05
1.3798709990190533e-05
1.5926358925111295e-05
1.7933356102468184e-05
1.980891883920921e-05
2.1545979886655742e-05
2.3140453560738933e-05
2.4590679888924355e-05
2.589698849247979e-05
2.7061344912020918e-05
2.808705537932915e-05
2.897851456286349e-05
2.974098632251357e-05
3.038041106049813e-05
3.090323552531332e-05
3.131626235294144e-05
3.162651749764184e-05
3.184113420696966e-05
3.196725245888793e-05
3.201193289758403e-05
3.198208433757149e-05
3.188440389044478e-05
3.172532873942785e-05
3.151099855556311e-05
3.124722752603781e-05
3.0939484960919306e-05
3.05928834562208e-05
3.0212173613639037e-05
2.980174436557209e-05
2.9365628006566835e-05
2.890750909288753e-05
2.8430736448786798e-05
2.793833758753944e-05
2.7433034931800826e-05
2.6917263294123916e-05
2.6393188150793112e-05
2.586272430774722e-05
2.5327554625032e-05
2.4789148524349824e-05
2.4248780054331176e-05
2.3707545339271552e-05
2.3166379276240434e-05
2.262607138557582e-05
2.2087280743099402e-05
2.1550549957109755e-05
2.101631817379851e-05
2.048493310521926e-05
1.9956662098537248e-05
1.9431702271401063e-05
1.891018974684716e-05
1.8392208029391344e-05
1.787779556914476e-05
1.7366952560896043e-05
1.6859647029361657e-05
1.6355820251064135e-05
1.5855391563096566e-05
1.5358262608310136e-05
1.4864321063623454e-05
1.4373443898971217e-05
1.3885500208164758e-05
1.3400353652881503e-05
1.291786455992483e-05
1.2437891704512871e-05
1.1960293813895184e-05
1.1484930823389694e-05
1.1011664909403585e-05
1.0540361326104308e-05
1.0070889070977473e-05
9.603121397770698e-06
9.136936195926204e-06
8.672216255480036e-06
8.208849430070553e-06
7.746728713432793e-06
7.28575224247241e-06
6.825823232976813e-06
6.366849863687074e-06
5.908745113844538e-06
5.4514265590555055e-06
4.9948161366594745e-06
4.538839883758139e-06
4.083427651797866e-06
3.628512803201256e-06
3.174031892670681e-06
2.7199243357103886e-06
2.2661320692174414e-06
1.8125992024137227e-06
1.3592716626154022e-06
9.060968372484601e-07
4.5302321062534734e-07
4.4628361801912764e-07
8.768271614403855e-07
1.2892989840820879e-06
1.6836111322790503e-06
2.0596824684415704e-06
2.41743929284971e-06
2.756815828286463e-06
3.077754575621372e-06
3.3802065468047093e-06
3.664131381940494e-06
3.9294973592993165e-06
4.176281305764973e-06
4.404468414771767e-06
4.614051979393019e-06
4.805033048949081e-06
4.977420015123135e-06
5.131228134773458e-06
5.2664789966169745e-06
5.383199937626648e-06
5.481423415748532e-06
5.56118634410796e-06
5.6225293928596765e-06
5.665496264406489e-06
5.690132946815918e-06
5.696486950951263e-06
5.6846065363477805e-06
5.65453993128795e-06
5.606334552550607e-06
5.540036229108314e-06
5.455688435886119e-06
5.3533315440904006e-06
5.2330020924237775e-06
5.094732085340892e-06
4.938548325630898e-06
4.764471786905533e-06
4.572517032570833e-06
4.362691688575282e-06
4.1349959764569455e-06
3.889422314530544e-06
3.6259549935774293e-06
3.3445699349418656e-06
3.045234538791297e-06
2.727907628299886e-06
2.392539498095869e-06
2.0390720732108014e-06
1.6674391846299708e-06
1.2775669682163482e-06
8.693743918652963e-07
4.4277391546970746e-07
8.855234149007796e-07
1.7387011230426963e-06
2.5550646318428516e-06
3.334789287125911e-06
4.078037373317356e-06
4.7849567947240434e-06
5.455680023122578e-06
6.090323302256756e-06
6.688986098419419e-06
7.251750784940947e-06
7.778682547945198e-06
8.269829499977371e-06
8.725222986734338e-06
9.144878073272938e-06
9.528794194805373e-06
9.876955957173472e-06
1.0189334072933237e-05
1.0465886418255937e-05
1.0706559197010829e-05
1.0911288198193342e-05
1.10800001331679e-05
1.1212614040419233e-05
1.1309042744801767e-05
1.1369194359414636e-05
1.1392973819478874e-05
1.138028443591066e-05
1.1331029457734704e-05
1.1245113633664983e-05
1.1122444761459127e-05
1.096293521505795e-05
1.0766503439375852e-05
1.0533075401508024e-05
1.026258598852553e-05
9.954980340488861e-06
9.610215107039993e-06
9.22825961644988e-06
8.809096944471795e-06
8.352724870458461e-06
7.85915670733009e-06
7.328421991470435e-06
6.760567018489205e-06
6.155655209765659e-06
5.5137672947402905e-06
4.835001293761881e-06
4.119472285884357e-06
3.3673119459350087e-06
2.5786678365322113e-06
1.7537024405434032e-06
8.925919199945231e-07
1.770948988486648e-06
3.4772112702495528e-06
5.109851579386537e-06
6.669221669298314e-06
8.15564698845167e-06
9.569424048866404e-06
1.0910818328387084e-05
1.2180062687602161e-05
1.3377356279570263e-05
1.4502863928327753e-05
1.5556715950201805e-05
1.653900839078057e-05
1.744980364903545e-05
1.8289131459889307e-05
1.9056990205754132e-05
1.9753348527565273e-05
2.0378147206481095e-05
2.0931301287281656e-05
2.1412702415363888e-05
2.182222135997669e-05
2.2159710697144258e-05
2.242500762666272e-05
2.261793689771821e-05
2.2738313820016426e-05
2.278594733770914e-05
2.2760643142567122e-05
2.2662206805221935e-05
2.2490446903888905e-05
2.2245178129084997e-05
2.192622434375041e-05
2.1533421578404793e-05
2.1066620940063396e-05
2.052569141390223e-05
1.9910522535693254e-05
1.9221026912527583e-05
1.84571425682796e-05
1.7618835089404372e-05
1.6706099545599207e-05
1.5718962158715183e-05
1.4657481692475355e-05
1.352175053375912e-05
1.2311895436194903e-05
1.1028077895772898e-05
9.670494127311802e-06
8.239374610721079e-06
6.734983176458209e-06
5.157615600170223e-06
3.5075976770673756e-06
1.7852827490782985e-06
2.6561781724630806e-06
5.215338134571812e-06
7.664081295526842e-06
1.0002937936844786e-05
1.2232398426518382e-05
1.435290928667246e-05
1.6364870064625864e-05
1.826863097828882e-05
2.0064491302769494e-05
2.175269846152461e-05
2.333344778301591e-05
2.480688288138133e-05
2.617309661817266e-05
2.743213260193028e-05
2.8583987180870463e-05
2.9628611884359446e-05
3.0565916269750804e-05
3.139577113098202e-05
3.211801202648509e-05
3.273244308530862e-05
3.323884105153538e-05
3.363695952903964e-05
3.392653338869442e-05
3.410728330188045e-05
3.417892036703535e-05
3.4141150795391484e-05
3.3993680623074785e-05
3.373622041839483e-05
3.33684899533615e-05
3.2890222808491104e-05
3.230117088007939e-05
3.160110875870953e-05
3.078983794751328e-05
2.9867190887392092e-05
2.8833034755666037e-05
2.7687275003174944e-05
2.6429858592934286e-05
2.506077690259817e-05
2.358006825058795e-05
2.198782000430166e-05
2.0284170227480303e-05
1.846930882192302e-05
1.6543478117643506e-05
1.4506972865015177e-05
1.2360139582095336e-05
1.0103375210186727e-05
7.737125031964665e-06
5.261879808211856e-06
2.6781720915101948e-06
3.5411110052563366e-06
6.9528867482002155e-06
1.0217470510807264e-05
1.3335574275900874e-05
1.6307855954657974e-05
1.9134914171409223e-05
2.1817284125206365e-05
2.4355434488188693e-05
2.674976529579154e-05
2.900060677913513e-05
3.110821908658065e-05
3.307279283873421e-05
3.489445045907688e-05
3.657324822135127e-05
3.8109178954037065e-05
3.95021753425151e-05
4.075211377031068e-05
4.185881864072691e-05
4.2822067122583185e-05
4.364159426525904e-05
4.431709842925291e-05
4.484824698106765e-05
4.5234682203073445e-05
4.547602737070902e-05
4.5571892951221105e-05
4.552188287993905e-05
4.532560087099069e-05
4.4982656720749664e-05
4.4492672563095637e-05
4.385528903579072e-05
4.30701713173727e-05
4.213701499329245e-05
4.105555170937428e-05
3.982555456966477e-05
3.844684323403916e-05
3.69192886691648e-05
3.524281750414554e-05
3.341741594023798e-05
3.144313316147396e-05
2.9320084190345014e-05
2.704845213145901e-05
2.462848974292206e-05
2.2060520273786688e-05
1.9344937505366006e-05
1.648220493289873e-05
1.3472854024372538e-05
1.0317481494565711e-05
7.016745534663832e-06
3.5713609405872704e-06
4.425645406411216e-06
8.689658155966451e-06
1.2769730379873917e-05
1.6666759978689605e-05
2.0381575886435632e-05
2.391493159756633e-05
2.7267500048534787e-05
3.0439869802278974e-05
3.343254247812483e-05
3.6245931364180944e-05
3.8880361144064124e-05
4.1336068667439246e-05
4.36132046911647e-05
4.571183651628022e-05
4.763195144582774e-05
4.9373460987930246e-05
5.093620573021554e-05
5.231996081254617e-05
5.352444192674444e-05
5.4549311774388515e-05
5.539418691584419e-05
5.6058644946111597e-05
5.654223193609503e-05
5.68444700802008e-05
5.6964865493037975e-05
5.690291610056797e-05
5.6658119572738225e-05
5.6229981245825567e-05
5.561802198394972e-05
5.482178592942574e-05
5.384084809191558e-05
5.267482172578025e-05
5.1323365443296104e-05
4.978619001125631e-05
4.806306477551578e-05
4.615382365525875e-05
4.405837064743595e-05
4.1776684777831974e-05
3.930882443232628e-05
3.665493099888617e-05
3.3815231747922475e-05
3.0790041875696644e-05
2.7579765633351655e-05
2.4184896462133704e-05
2.0606016054580678e-05
1.684379226171359e-05
1.2898975766867382e-05
8.772395449760384e-06
4.4649523680863334e-06
5.30967647347988e-06
1.0425448093848155e-05
1.532056463696488e-05
1.9996115167807138e-05
2.4453103962655126e-05
2.8692442810757113e-05
3.271494495364277e-05
3.652132059826091e-05
4.0112173932942835e-05
4.348800156874985e-05
4.6649192322514854e-05
4.959602825543169e-05
5.2328686877670116e-05
5.484724442768665e-05
5.7151680135182625e-05
5.924188137619926e-05
6.111764963015812e-05
6.277870715089631e-05
6.422470426549476e-05
6.54552272176187e-05
6.64698064750148e-05
6.726792542457657e-05
6.784902938124227e-05
6.821253483878936e-05
6.835783889594382e-05
6.828432879277604e-05
6.799139149381989e-05
6.747842325709186e-05
6.674483912915904e-05
6.579008230701844e-05
6.461363330746012e-05
6.321501888416695e-05
6.15938206313775e-05
5.974968321120072e-05
5.76823221389057e-05
5.539153105772743e-05
5.287718843155487e-05
5.0139263579673105e-05
4.7177821974126594e-05
4.399302971620084e-05
4.058515710462368e-05
3.695458120467343e-05
3.3101787324039955e-05
2.9027369298894462e-05
2.4732028492527314e-05
2.0216571408163825e-05
1.548190581871639e-05
1.0529035318895819e-05
5.3590522098370674e-06
6.1930957806315134e-06
1.2160045674416281e-05
1.78696677650865e-05
2.3323248542022473e-05
2.852197276210014e-05
3.346691456618256e-05
3.815903052330899e-05
4.2599154525133076e-05
4.678799444491483e-05
5.0726130467932534e-05
5.44140149936409e-05
5.785197400623096e-05
6.104020980712485e-05
6.397880500097139e-05
6.666772762697198e-05
6.910683732759548e-05
7.129589244792706e-05
7.323455796208814e-05
7.492241412538139e-05
7.635896575456172e-05
7.754365204272473e-05
7.847585681845098e-05
7.915491916372225e-05
7.958014430878291e-05
7.97508147250374e-05
7.966620134136973e-05
7.932557481150557e-05
7.872821676221595e-05
7.787343095400079e-05
7.676055428642442e-05
7.538896758036914e-05
7.375810606877198e-05
7.186746952599424e-05
6.971663196358655e-05
6.730525081696109e-05
6.46330755442251e-05
6.169995555414115e-05
5.850584737520509e-05
5.505082097367539e-05
5.133506512268807e-05
4.7358891719966045e-05
4.3122738947635325e-05
3.8627173162348455e-05
3.387288940172317e-05
2.8860710391008515e-05
2.3591583932048438e-05
1.8066578558281754e-05
1.2286877341720348e-05
6.2537697423925565e-06
7.075790681831257e-06
1.3893232082222429e-05
2.0416723183151048e-05
2.6647755150162322e-05
3.2587699151289534e-05
3.82377963377388e-05
4.359915004973139e-05
4.86727201557402e-05
5.345931942307702e-05
5.795961180957154e-05
6.217411255960911e-05
6.610318998289885e-05
6.97470687914016e-05
7.310583486823743e-05
7.61794413424409e-05
7.896771584393197e-05
8.147036881530484e-05
8.36870027607732e-05
8.561712231532417e-05
8.726014502196192e-05
8.861541270977977e-05
8.968220336996735e-05
9.045974343210861e-05
9.094722034784508e-05
9.114379539330517e-05
9.104861660573504e-05
9.066083177320869e-05
8.99796013988409e-05
8.900411156300206e-05
8.773358660822336e-05
8.616730157118974e-05
8.430459428533654e-05
8.214487707593199e-05
7.968764796733793e-05
7.693250131753093e-05
7.387913779095465e-05
7.052737357618466e-05
6.6877148748163e-05
6.292853467025974e-05
5.868174032432408e-05
5.413711745042363e-05
4.9295164373689554e-05
4.4156528389079075e-05
3.872200657087724e-05
3.2992544871421337e-05
2.6969235371179096e-05
2.0653311542405406e-05
1.4046141391509809e-05
7.1492183497182116e-06
7.957643618421856e-06
1.562477928135353e-05
2.2961401455412478e-05
2.9969214199343508e-05
3.6649781782836094e-05
4.3004517590750774e-05
4.9034675558806695e-05
5.474134403271255e-05
6.012544193124275e-05
6.518771708436191e-05
6.992874661068682e-05
7.434893919370036e-05
7.844853911290542e-05
8.222763188430599e-05
8.568615136528637e-05
8.882388818031231e-05
9.16404993264279e-05
9.41355188218071e-05
9.630836926492053e-05
9.815837417737061e-05
9.968477100918971e-05
0.00010088672469104817
0.00010176334162412953
0.0001023136840038949
0.00010253678437937772
0.00010243166035453846
0.00010199732934241743
0.00010123282328593566
0.00010013720326138703
9.870957388214904e-05
9.694909742059485e-05
9.485500756459611e-05
9.24266227230984e-05
8.96633587924231e-05
8.656474129003014e-05
8.313041675792054e-05
7.936016333121368e-05
7.525390036053348e-05
7.081169697062753e-05
6.603377942912547e-05
6.0920537192258456e-05
5.5472527487398365e-05
4.969047828525669e-05
4.357528950936149e-05
3.712803232589629e-05
3.034994635448679e-05
2.3242434639778736e-05
1.580705622547876e-05
8.04551617744273e-06
8.838531433085633e-06
1.735444873945252e-05
2.550335853046884e-05
3.328718690789878e-05
4.070769865464549e-05
4.776648513293846e-05
5.4464955030603807e-05
6.0804327828310745e-05
6.678562984906503e-05
7.240969274162345e-05
7.767715424143729e-05
8.258846104740661e-05
8.714387365021947e-05
9.13434729464882e-05
9.518716847345052e-05
9.86747081017092e-05
0.00010180568902669329
0.00010457956990450948
0.00010699568398376755
0.00010905325309102862
0.0001107514023350499
0.00011208917540168895
0.00011306555031803667
0.00011367945557249487
0.00011392978648311347
0.00011381542171192555
0.0001133352398289475
0.00011248813583271053
0.00011127303753745779
0.0001096889217381998
0.00010773483006540699
0.00010540988444036545
0.00010271330203933879
9.9644409670651e-05
9.620265746427062e-05
9.238763176758549e-05
8.81990671328485e-05
8.363685727437106e-05
7.870106486503048e-05
7.339193003212327e-05
6.770987740380846e-05
6.165552154847528e-05
5.522967064142473e-05
4.84333281855695e-05
4.12676926069902e-05
3.3734154542816586e-05
2.583429163685938e-05
1.7569860658976644e-05
8.942786768949967e-06
9.718324692861713e-06
1.9081990172750002e-05
2.8042234016714684e-05
3.660121441295336e-05
4.476090474377428e-05
5.252308056132721e-05
5.988930973780185e-05
6.686094564330516e-05
7.343912319136142e-05
7.962475758128279e-05
8.541854555906697e-05
9.082096901303835e-05
9.58323007170421e-05
0.00010045261203390707
0.000104681782393274
0.00010851951036021726
0.00011196532611657331
0.00011501860518252707
0.00011767858321322378
0.0001199443717128483
0.00012181497451676376
0.00012328930490164425
0.00012436620319086766
0.00012504445473160777
0.00012532280812767999
0.00012519999361856535
0.00012467474150129956
0.00012374580049619513
0.00012241195596173968
0.00012067204786507871
0.00011852498841484135
0.00011596977926254734
0.00011300552817563453
0.00010963146508058061
0.0001058469573691316
0.00010165152435332239
9.70448507462418e-05
9.202679903584643e-05
8.659742060928774e-05
8.07569654745037e-05
7.450589041378339e-05
6.784486539431964e-05
6.077477805049164e-05
5.329673604254764e-05
4.541206708960632e-05
3.7122316468990446e-05
2.8429241770509817e-05
1.9334804693897645e-05
9.841159681434758e-06
1.0596887022883833e-05
2.0807140316905087e-05
3.057764950242792e-05
3.9910815744500366e-05
4.8808829731308845e-05
5.727365782468019e-05
6.530703172322877e-05
7.291044146904777e-05
8.008513161449765e-05
8.683210035411934e-05
9.315210141847344e-05
9.90456485221898e-05
0.00010451302215550712
0.00010955427850822472
0.00011416926031743505
0.00011835760943415888
0.00012211878091076406
0.00012545205841772364
0.00012835657080688748
0.00013083130964826675
0.00013287514757693436
0.00013448685729725365
0.00013566513110101555
0.00013640860076663194
0.0001367158577154949
0.00013658547330915385
0.0001360160191785087
0.0001350060874817892
0.0001335543109923787
0.00013165938291928234
0.00012932007636405618
0.00012653526331685844
0.0001233039330906724
0.00011962521008803198
0.00011549837078791286
0.00011092285983150749
0.00010589830507594378
0.00010042453147390135
9.450157362480768e-05
8.812968683013025e-05
8.130935647256837e-05
7.404130552579949e-05
6.632649998810844e-05
5.816615202312164e-05
4.956172058009911e-05
4.051490925801454e-05
3.102766117374367e-05
2.1102150591867375e-05
1.0740771075660321e-05
1.1474074454443511e-05
2.2529621730514593e-05
3.310920693129146e-05
4.32154858808452e-05
5.285087583571657e-05
6.20175409235188e-05
7.071738144492218e-05
7.895202684511313e-05
8.672283214468737e-05
9.403087760874451e-05
0.0001008769714248188
0.00010726165515504912
0.00011318521172573939
0.00011864767571845639
0.0001236488457296847
0.000128188298571634
0.00013226540509441234
0.00013587934741827318
0.00013902913737581096
0.0001417136359744553
0.00014393157370153759
0.00014568157150752006
0.00014696216231340278
0.00014777181289990157
0.00014810894604825806
0.0001479719628108625
0.0001473592647981553
0.00014626927637563167
0.00014470046666940906
0.0001426513712811904
0.00014012061361489206
0.0001371069257160122
0.00013360916852002067
0.00012962635140149545
0.00012515765090808512
0.00012020242855221783
0.00011476024752273689
0.00010883088816582287
0.00010241436206994206
9.551092457389665e-05
8.812108550183481e-05
8.024561791336593e-05
7.188556464140031e-05
6.304224237637865e-05
5.371724304252881e-05
4.3912432202038165e-05
3.362994421502591e-05
2.2872173879067564e-05
1.1641764273151445e-05
1.234973478927287e-05
2.4249141637115723e-05
3.5636487043182175e-05
4.6514693899275816e-05
5.688641577426129e-05
6.675402177218348e-05
7.611958561772394e-05
8.498487874720323e-05
9.335136716641726e-05
0.00010122021182460902
0.00010859227224621626
0.0001154681131573694
0.00012184801384159186
0.00012773197996170105
0.0001331197575894609
0.00013801084919106907
0.00014240453132581196
0.0001462998738263159
0.0001496957602417151
0.00015259090933713096
0.0001549838974579075
0.00015687318158184166
0.00015825712289552207
0.00015913401074474018
0.00015950208682224618
0.0001593595694669818
0.00015870467795874726
0.00015753565669981637
0.0001558507991813174
0.00015364847163560832
0.00015092713627682525
0.00014768537403041238
0.0001439219066479841
0.0001396356180984569
0.00013482557511650117
0.00012949104677766055
0.0001236315229573605
0.00011724673151503051
0.00011033665402739035
0.00010290153987796771
9.494191849057643e-05
8.645860947596729e-05
7.745273044275011e-05
6.792570220538752e-05
5.78792511071978e-05
4.73154081624301e-05
3.623650471047679e-05
2.4645164269615494e-05
1.2544290275098846e-05
1.3223706986087436e-05
2.596539081601082e-05
3.815904789526703e-05
4.9807881242387025e-05
6.091479087778559e-05
7.148235825267524e-05
8.151283528384443e-05
9.10081377404233e-05
9.996984271271048e-05
0.00010839918988041555
0.00011629708628923055
0.00012366411434165323
0.00013050054270642014
0.00013680633985355128
0.00014258118992882193
0.00014782451068982155
0.00015253547323706637
0.00015671302328674336
0.00016035590374681094
0.0001634626783733155
0.00016603175630132416
0.00016806141726129556
0.00016954983730729442
0.00017049511490105015
0.0001708952972099831
0.00017074840648945155
0.0001700524664327123
0.00016880552838019827
0.00016700569728714948
0.0001646511573529276
0.00016174019721599056
0.0001582712346180834
0.0001542428404359246
0.00014965376197201286
0.0001445029453850978
0.000138789557128427
0.00013251300424852938
0.00012567295337913287
0.00011826934824550606
0.0001103024254738745
0.0001017727284783887
9.268111917550351e-05
8.302878725425025e-05
7.281725670902142e-05
6.204838932212867e-05
5.072438476656782e-05
3.884777698495365e-05
2.6421426490737254e-05
1.3448508233111084e-05
1.4095820572237322e-05
2.7678042550032672e-05
4.0676423478300944e-05
5.309446012184346e-05
6.4935309386744e-05
7.620177249451077e-05
8.689628415444947e-05
9.702090644635869e-05
0.0001065773271082017
0.00011556686191063065
0.00012399046079300535
0.00013184871743140286
0.00013914188190965182
0.00014586987616956731
0.00015203231192333772
0.00015762851072258569
0.00016265752589231589
0.0001671181660528251
0.00017100901997156928
0.00017432848250483954
0.00017707478140861418
0.00017924600481806705
0.00018084012921418258
0.0001818550477146394
0.00018228859854303725
0.00018213859354676565
0.00018140284664689213
0.00018007920211390513
0.0001781655625720177
0.00017565991663933897
0.00017256036611333972
0.00016886515260969293
0.00016457268355687601
0.00015968155744149407
0.00015419058818731332
0.0001480988285361383
0.00014140559228085353
0.00013411047518049543
0.00012621337436515
0.00011771450601360742
0.00010861442106085972
9.891401866673338e-05
8.86145571505903e-05
7.771766207089262e-05
6.622533110484108e-05
5.4139935362657043e-05
4.1464216751375266e-05
2.820128098895286e-05
1.4354585862966923e-05
1.4965895087773462e-05
2.938675164403798e-05
4.318812244513345e-05
5.6373812079582586e-05
6.894724495446619e-05
8.09114494134365e-05
9.226904726149926e-05
0.00010302224836991614
0.00011317285001674962
0.00012272224060622117
0.00013167140740298275
0.00014002094791412678
0.00014777108455350796
0.0001549216822300213
0.00016147226851040766
0.00016742205602133728
0.00017276996677135018
0.00017751465809210526
0.0001816545499196305
0.00018518785315741956
0.00018811259888694767
0.00019042666821347115
0.00019212782255767155
0.00019321373422589647
0.00019368201711061905
0.00019353025739211188
0.000192756044127447
0.000191356999625341
0.00018933080951556366
0.00018667525242747895
0.00018338822919482245
0.00017946779150190828
0.0001749121698816948
0.00016971980096629896
0.00016388935387753184
0.00015741975562834007
0.00015031021538572734
0.0001425602474221105
0.00013416969255601943
0.0001251387378552564
0.00011546793434492539
0.00010515821243253787
9.4210894731276e-05
8.262770593128743e-05
7.041077934081402e-05
5.7562659691905854e-05
4.408630178145967e-05
2.9985064500755165e-05
1.526269979319761e-05
1.5833739567421012e-05
3.109115352490158e-05
4.569362697316032e-05
5.964528674021197e-05
7.294983539883962e-05
8.561053555542625e-05
9.763019997043043e-05
0.00010901118714058688
0.00011975540195548542
0.000129864301028626
0.00013933890229644863
0.00014817979847732768
0.00015638717398562194
0.00016396082490397618
0.00017090018163009799
0.0001772043338302831
0.0001828720573509475
0.00018790184276261043
0.00019229192523466734
0.00019604031546463854
0.00019914483141309988
0.0002016031306216158
0.00020341274291706124
0.00020457110333164594
0.00020507558509040916
0.0002049235325393313
0.00020411229390544794
0.00020263925379515255
0.00020050186534828138
0.00019769768197299906
0.00019422438858913288
0.00019007983230600808
0.00018526205245620112
0.00017976930989479709
0.00017360011545936374
0.000166753257467199
0.00015922782810305278
0.00015102324852349358
0.00014213929247416587
0.00013257610818441165
0.00012233423826810141
0.00011141463732381243
9.981868689072637e-05
8.754820738118146e-05
7.460546657526643e-05
6.0993184229793385e-05
4.671453232629047e-05
3.177313045723065e-05
1.6173035830985283e-05
1.6699152066038808e-05
3.2790863436733125e-05
4.8192391779576516e-05
6.290820077843942e-05
7.694228173540929e-05
9.029813828958025e-05
0.00010297877740799224
0.00011498670623188642
0.0001263239343440789
0.00013699198100991516
0.0001469918869381956
0.0001563242301090284
0.0001649891452205135
0.00017298634631629506
0.00018031515217229593
0.00018697451403990734
0.00019296304536603817
0.00019827905313713964
0.00020292057052256549
0.00020688539052255914
0.00021017110035727316
0.00021277511636444077
0.00021469471920341002
0.0002159270891921583
0.00021646934163135553
0.00021631856199392369
0.0002154718408789516
0.0002139263086472845
0.0002116791696684002
0.0002087277361171591
0.00020506946126308545
0.0002007019721927232
0.00019562310190060495
0.000189830920671423
0.00018332376666015462
0.00017610027555519867
0.00016815940918301492
0.00015950048288310148
0.000150123191447072
0.00014002763337868374
0.0001292143331913624
0.00011768426141800514
0.0001054388519653171
9.248001640223616e-05
7.881015472989764e-05
6.443216214170253e-05
4.9349431246535624e-05
3.3565849196177944e-05
1.70857891333559e-05
1.7561919238493623e-05
3.448547575243474e-05
5.068384331939624e-05
6.616183713918297e-05
8.092374753657788e-05
9.497332540245318e-05
0.00010831377436553574
0.0001209477492261149
0.00013287736016384666
0.00014410418222055021
0.00015462926955341072
0.0001644531739553312
0.00017357596714665663
0.00018199726635624927
0.0001897162627283247
0.00019673175211495572
0.000203042167841401
0.00020864561506211965
0.00021353990635918085
0.00021772259826902118
0.0002211910284597024
0.00022394235331687704
0.00022597358573162377
0.0002272816329167114
0.00022786333410942244
0.00022771549804731853
0.00022683494012688474
0.00022521851917649965
0.000222863173789601
0.00021976595817438382
0.0002159240774812568
0.00021133492256807107
0.00020599610415640915
0.0001999054863189055
0.0001930612192200462
0.00018546177100761674
0.00017710595872244897
0.00016799297806036062
0.00015812243178067384
0.00014749435651268197
0.00013610924766571664
0.00012396808209984636
0.00011107233816550627
9.742401266929837e-05
8.302563427392898e-05
6.788027279435935e-05
5.19915438070076e-05
3.5363607951286596e-05
1.8001164269441927e-05
1.842181598095058e-05
3.617456341550515e-05
5.316737919290257e-05
6.940544455264971e-05
8.489335867087333e-05
9.963512515521675e-05
0.00011363414574682915
0.0001268932207028617
0.000139414555313834
0.00015119977199871612
0.000162249927416553
0.00017256553403739022
0.00018214658562406769
0.00019099258609425046
0.0001991025812540237
0.00020647519292198505
0.00021310865499551968
0.00021900085104641087
0.00022414935307190145
0.00022855146106759774
0.0002322042431304322
0.00023510457584129119
0.0002372491847171844
0.0002386346845616276
0.0002392576195781454
0.00023911450314434424
0.00023820185717150083
0.0002365162509986099
0.0002340543397877093
0.00023081290239918006
0.00022678887873166242
0.00022197940651025316
0.00021638185749951397
0.00020999387310359843
0.00020281339929490577
0.00019483872078600306
0.00018606849432578967
0.0001765017809618706
0.000166138077067262
0.00015497734387993206
0.00014302003525226703
0.00013026712325088854
0.00011672012119006217
0.00010238110362449301
8.725272276861526e-05
7.133822075347171e-05
5.464143707983177e-05
3.716681057916102e-05
1.89193751509234e-05
1.9278605144688876e-05
3.785767753540156e-05
5.5642367793321684e-05
7.263823738053177e-05
8.885020346958636e-05
0.00010428252686642964
0.00011893880763523546
0.00013282198783451035
0.00014593436075527322
0.00015827758604053735
0.00016985271006226751
0.00018066019093869803
0.00019069992758637133
0.00019997129222240617
0.00020847316575984057
0.00021620397557046284
0.00022316173512805515
0.00022934408508682932
0.0002347483353943719
0.0002393715080850345
0.00024321038044869403
0.000246261528316586
0.0002485213692524392
0.0002499862054827287
0.0002506522664403009
0.00025051575083303787
0.00024957286818207483
0.00024781987980116923
0.000245253139208923
0.0002418691319801998
0.0002376645150506916
0.00023263615548689554
0.000226781168726823
0.00022009695628124465
0.00021258124286177918
0.00020423211287259185
0.00019504804616388496
0.0001850279529028373
0.000174171207366524
0.00016247768040610414
0.00014994777027233994
0.00013658243142796941
0.0001223832009074055
0.00010735222171546349
9.149226269039579e-05
7.480673419030248e-05
5.729969889842895e-05
3.897587698511312e-05
1.984064481263051e-05
2.0132037333583236e-05
3.953434715945475e-05
5.81081482324379e-05
7.585939584669327e-05
9.279333338595153e-05
0.0001089144820949628
0.00012422663906725556
0.0001387328827882131
0.00015243558555283823
0.0001653364320671133
0.0001774364435412762
0.00018873600659118778
0.00019923490627902357
0.0002089323626505539
0.00021782707015793532
0.00022591723939445127
0.0002332006406127428
0.00023967464854583384
0.0002453362881025267
0.0002501822805625539
0.00025420908995252636
0.0002574129693380632
0.0002597900068214143
0.00026133617108489715
0.0002620473563678463
0.00026191942680786964
0.00026094826011403144
0.0002591297905713587
0.00025646005139943334
0.0002529352165049001
0.0002485516416761459
0.00024330590526824847
0.00023719484841793273
0.00023021561481172126
0.0002223656900050587
0.00021364294025594255
0.00020404565079457093
0.00019357256340244225
0.0001822229131163769
0.0001699964638114046
0.00015689354234827216
0.00014291507089811417
0.00012806259698254843
0.00011233832068810803
9.574511843651531e-05
7.828656261476413e-05
5.996693629459898e-05
4.0791242199942485e-05
2.0765205018674626e-05
2.0981850798192092e-05
4.120407924711883e-05
6.056403058232393e-05
7.906806670381072e-05
9.672176421186493e-05
0.0001135299065001677
0.00012949648459953736
0.00014462470603317235
0.00015891701092484584
0.00017237509459149328
0.00018499993585217173
0.00019679183029636116
0.00020775042777432598
0.00021787477340217895
0.0002271633514114163
0.00023561413121740357
0.00024322461513317725
0.00024999188721055304
0.0002559126627503759
0.0002609833380862771
0.0002652000403096863
0.00026855867666657554
0.00027105498341822507
0.0002726845740166281
0.00027344298649934623
0.0002733257300580501
0.00027232833077732096
0.00027044637657625686
0.00026767556141327545
0.00026401172883354015
0.00025945091494864597
0.00025398939093897524
0.0002476237051604428
0.00024035072491896195
0.00023216767794723148
0.0002230721935821342
0.0002130623435930394
0.00020213668255700604
0.00019029428761364875
0.00017753479736115282
0.00016385844957882492
0.00014926611737904952
0.00013375934330513845
0.00011734037080199378
0.00010001217239705845
8.177847383779302e-05
6.264377334500026e-05
4.261335505758093e-05
2.1693295666848356e-05
2.1827771440812577e-05
4.2866358876000876e-05
6.300929647861872e-05
8.226336439596388e-05
0.00010063447792818189
0.00011812768247362188
0.00013474715777959598
0.00015049623067389314
0.00016537739543175112
0.0001793923409242823
0.00019254198369648978
0.00020482650613635328
0.00021624539892216993
0.00022679750696971007
0.0002364810781440678
0.00024529381405459516
0.0002532329223098352
0.00026029516967408795
0.00026647693563666003
0.00027177426597628854
0.00027618292597585484
0.0002796984530148948
0.0002823162083374943
0.00028403142786023045
0.00028483927194673103
0.0002847348741311165
0.00028371338882269073
0.0002817700380641011
0.00027890015744702276
0.00027509924131232863
0.00027036298737358536
0.00026468734090416904
0.00025806853861895865
0.0002505031523617647
0.00024198813267859234
0.0002325208523154161
0.00022209914962656452
0.00021072137181986708
0.00019838641789270486
0.00018509378103378354
0.00017084359017995737
0.00015563665032363935
0.00013947448106854318
0.000122359352829636
0.00010429431996937522
8.52832500580318e-05
6.533084834314806e-05
4.4442676415117066e-05
2.2625163962883277e-05
2.2669512946164178e-05
4.452064971038894e-05
6.54432001321037e-05
8.54443727816949e-05
0.00010453042526976236
0.00012270666263812166
0.00013997744563294667
0.00015634620794131512
0.00017181548144972955
0.00018638692857464098
0.0002000613807214939
0.00021283888194464917
0.0002247187369099693
0.00023569956230375805
0.00024577934088310105
0.0002549554774228316
0.0002632248558829299
0.0002705838971952257
0.0002770286171475053
0.0002825546839250806
0.0002871574749532223
0.000290832132766778
0.00029357361971340395
0.0002953767713726324
0.0002962363486441952
0.0002961470885233172
0.0002951037536360057
0.000293101180654131
0.0002901343277466571
0.0002861983212490496
0.00028128850174720735
0.00027540046977507157
0.00026853013131497225
0.00026067374326750256
0.00025182795902506383
0.0002419898742368927
0.00023115707279503309
0.00021932767300338052
0.00020650037381287137
0.00019267450091707897
0.00017785005240564256
0.00016202774356801827
0.0001452090503292619
0.00012739625068437094
0.00010859246337810782
8.880168295751292e-05
6.8028810205914e-05
4.627967685115128e-05
2.3561063330228282e-05
2.3506777055301575e-05
4.616639476733367e-05
6.78649698028222e-05
8.861014749089735e-05
0.00010840852909706905
0.00012726567432305366
0.0001451861142895694
0.00016217337397743392
0.0001782300030800793
0.00019335761421233888
0.00020755692742838172
0.00022082782002269888
0.00023316938062275042
0.0002445799666304094
0.0002550572641296413
0.00026459834944694144
0.0002731997516309502
0.00028085751520380217
0.00028756726262738064
0.00029332425602191306
0.00029812345776963553
0.00030195958973047374
0.0003048271908886145
0.00030672067333555736
0.0003076343765749251
0.00030756262020882955
0.0003064997551275074
0.0003044402133774958
0.0003013785569261629
0.00029730952556877854
0.00029222808424164
0.0002861294700079592
0.00027900923897380275
0.00027086331336706806
0.00026168802897564084
0.0002514801830906799
0.00024023708303702943
0.00022795659529703527
0.00021463719514671492
0.00020027801662460612
0.00018487890254472936
0.00016844045414811035
0.0001509640798622522
0.00013245204250685386
0.00011290750414943637
9.233456767706802e-05
7.073831401295874e-05
4.8124833771794745e-05
2.4501252018197667e-05
2.4339254002470057e-05
4.780301751974164e-05
7.02738097955978e-05
9.175971899368085e-05
0.00011226768867319062
0.0001318035251379225
0.0001503719158941555
0.00016797645807544587
0.00018461969566993877
0.0002003031643787491
0.00021502744294362927
0.0002287922098077079
0.00024159630401468513
0.000253437789308697
0.0002643140204653914
0.00027422171096638803
0.00028315700122113
0.0002911155266380333
0.0002980924849515544
0.0003040827023195955
0.0003090806978145455
0.00031308074603879354
0.00031607693769951026
0.00031806323807695783
0.00031903354341121515
0.0003189817353157938
0.00031790173339790034
0.0003157875463251844
0.00031263332162749513
0.0003084333945547399
0.00030318233633204114
0.0002968750021576233
0.00028950657927869633
0.00028107263545541425
0.0002715691680816902
0.0002609926541764958
0.00024934010138971327
0.00023660910008261454
0.0002227978764459647
0.00020790534650935721
0.00019193117077435928
0.00017487580907297323
0.0001567405751133448
0.00013752769002661758
0.00011724033407604223
9.588269553319206e-05
7.346001556864448e-05
4.997862784761331e-05
2.5445991370373622e-05
2.516662313360382e-05
4.9429923377662666e-05
7.26689030408692e-05
9.489209646851293e-05
0.00011610678495594523
0.00013631900977290404
0.00015553359694853858
0.00017375419254652552
0.00019098330713544082
0.00020722236815250497
0.0002224717788718994
0.00023673098271951784
0.0002499985317241382
0.0002622721579613324
0.0002735488469265343
0.0002838249118668444
0.00029309606820656156
0.00030135750731487276
0.00030860396898350906
0.0003148298121054445
0.0003200290831697934
0.0003241955823110425
0.0003273229267688228
0.0003294046117267302
0.00033043406860255864
0.0003304047209558847
0.0003293100382601062
0.000327143587854635
0.00032389908544677715
0.000319570444570854
0.0003141518254350002
0.00030763768359185276
0.0003000228188585821
0.00029130242488407607
0.0002814721397165279
0.00027052809766474686
0.0002584669826691914
0.0002452860833059324
0.00023098334944115714
0.00021555745043145766
0.00019900783463103894
0.00018133478982194223
0.00016253950402635164
0.00014262412599468782
0.00012159182449122952
9.9446845321257e-05
7.619456486375117e-05
5.1841538694318706e-05
2.6395543706116825e-05
2.598855372947656e-05
5.104650159325208e-05
7.504941433184378e-05
9.800627256687997e-05
0.00011992468702903131
0.00014081091817727195
0.0001606699082601394
0.00017950532440539832
0.00019731961129769784
0.0002141140519976159
0.00022988883547139793
0.0002446431294368355
0.0002583751571877957
0.0002710822771356883
0.0002827610638995795
0.0002934073898840234
0.0003030165064045742
0.00031158312355118734
0.00031910148811631
0.0003255654590557759
0.00033096858009145844
0.00033530414920453916
0.00033856528490311746
0.00034074498927426367
0.0003418362079488195
0.0003418318872123599
0.0003407250285878266
0.00033850874129284086
0.0003351762930344816
0.0003307211596489043
0.0003251370741180898
0.00031841807550313586
0.00031055855832319915
0.0003015533228788135
0.0002913976269700892
0.00028008723939389885
0.0002676184955204518
0.00025398835514749835
0.00023919446271328595
0.0002232352098159654
0.00020610979983837208
0.00018781831431586432
0.0001683617805103288
0.0001477422394694436
0.00012596281365682624
0.00010302777303820149
7.894259830393269e-05
5.371403970401076e-05
2.7350169765932852e-05
2.6804706060472305e-05
5.265212764208119e-05
7.741449429594233e-05
0.00010110122917842898
0.00012372025980170523
0.00014527804527136867
0.00016577961668016658
0.00018522862908495336
0.00020362742346351215
0.0002209770970434885
0.0002372775804140373
0.00025252771987299
0.0002667253635299169
0.000279867449772684
0.0002919500968120922
0.0003029686921444015
0.0003129179809097486
0.00032179215227337923
0.000329584923113857
0.00033628961846297184
0.0003418992483031763
0.00034640658048682924
0.000349804209694559
0.00035208462249360084
0.0003532402586896473
0.00035326356928486874
0.00035214707145853064
0.0003498834010727883
0.0003464653632743245
0.0003418859818125168
0.0003361385477227488
0.0003292166680324178
0.00032111431513632757
0.0003118258774548327
0.0003013462119362577
0.0002896706988928105
0.00027679529956679133
0.000262716616712972
0.0002474319583541211
0.00023093940472003818
0.00021323787821690698
0.00019432721609534756
0.00017420824529297205
0.00015288285872203447
0.00013035409205614662
0.00010662619984596125
8.170472956135072e-05
5.5596591925312355e-05
2.831012566921476e-05
2.761473269573267e-05
5.4246166133007506e-05
7.97632841840791e-05
0.00010417594431246999
0.0001274923731257628
0.00014971920237113329
0.0001708615188369747
0.00019092292641014613
0.00020990561850447315
0.00022781045907098105
0.00024463707042276725
0.00026038392615763267
0.00027504844753860683
0.00028862710179398607
0.0003011155009229466
0.0003125084997357211
0.00032280029201647506
0.00033198450386855843
0.0003400542834806654
0.00034700238673600337
0.0003528212582702729
0.0003575031077638832
0.0003610399814273149
0.00036342382880079
0.00036464656513847046
0.00036470012978213895
0.0003635765410450291
0.00036126794822329694
0.00035776668142912735
0.00035306529999432415
0.0003471566402256966
0.00034003386330354324
0.00033169050410305004
0.0003221205216825569
0.0003113183521258507
0.0002992789643473069
0.00028599791936724517
0.00027147143344470256
0.0002556964453136086
0.00023867068760721408
0.00022039276237704672
0.00020086222041621957
0.00018007964388442807
0.0001580467315048205
0.00013476638536185845
0.00011024279807884951
8.448153889312193e-05
5.7489636881988965e-05
2.9275659324989184e-05
2.8418280097499554e-05
5.582797430833328e-05
8.209492157212894e-05
0.00010722940022288643
0.00013123991249027953
0.00015413323052030845
0.00017591445709340403
0.00019658709909048735
0.00021615315171955377
0.0002346131915095806
0.00025196647610493256
0.00026821104895247486
0.000283343847062377
0.00029736081014123186
0.0003102569895398928
0.00032202665562290275
0.00033266340234953257
0.0003421602480529022
0.0003505097316083873
0.0003577040033919607
0.0003637349106380104
0.00036859407701017935
0.00037227297639460047
0.0003747630011086793
0.00037605552488559693
0.0003761419611461106
0.0003750138171984309
0.0003726627451147921
0.0003690805901194229
0.00036425943738209454
0.000358191658148585
0.0003508699561508635
0.00034228741522622855
0.00033243754903697353
0.0003213143537200182
0.00030891236421012533
0.0002952267148708457
0.00028025320493611436
0.00026398836911088047
0.00024642955350469634
0.00022757499687678026
0.00020742391695545773
0.00018597660136147887
0.00016323450241470874
0.00013920033483729236
0.00011387817508630091
8.727356075854953e-05
5.9393588210374104e-05
3.024700623176918e-05
2.9214990533790036e-05
5.7396906199956577e-05
8.440854707540343e-05
0.00011026059291547458
0.00013496179147069048
0.00015851901594262502
0.0001809373379754245
0.0002022201140106858
0.000222369082789612
0.00024138447177983816
0.0002592651103352113
0.0002760085474655463
0.00029161117219626484
0.0003060683346343025
0.0003193744660223048
0.0003315231962527747
0.0003425074675250453
0.0003523196430522471
0.0003609516099605109
0.00036839487576161706
0.0003746406580167304
0.0003796799670416143
0.00038350368172444804
0.0003861026187335255
0.00038746759558100363
0.00038758948817712094
0.00038645928365364443
0.00038406812935520493
0.0003804073789918268
0.0003754686370123807
0.0003692438022989894
0.00036172511229511095
0.0003529051886653409
0.00034277708554356426
0.0003313343413585447
0.00031857103513316387
0.0003044818480343256
0.000289062130807944
0.0002723079775660969
0.00025421630620390753
0.00023478494551037662
0.00021401272880320135
0.00019189959366267342
0.0001684466870636725
0.00014365647491301758
0.00011753285468911814
9.008126955577234e-05
6.13088219875435e-05
3.122438460027854e-05
3.0004504340836596e-05
5.8952317511629104e-05
8.670331218757488e-05
0.00011326854319114107
0.00013865696612926082
0.00016287550785371377
0.00018592915335033378
0.00020782104663297218
0.0002285526031683069
0.0002481236313500168
0.00026653246057653165
0.00028377607356625326
0.0002998502406641318
0.0003147496540510941
0.00032846805995954964
0.00034099838721731585
0.000352332870684393
0.0003624631684056301
0.00037138047157063425
0.0003790756066448381
0.0003855391293050292
0.0003907614100754665
0.00039473271181066777
0.0003974432594021776
0.00039888330229837995
0.0003990431706138546
0.0003979133257648905
0.0003954844067008724
0.00039174727290445036
0.0003866930454068246
0.0003803131471077706
0.00037259934370311235
0.0003635437865066246
0.0003531390584080654
0.00034137822413441224
0.00032825488588114626
0.0003137632452515013
0.00029789817228670704
0.000280655282190085
0.0002620310201418806
0.00024202275437089013
0.0002206288773951709
0.00019784891506652302
0.0001736836427516722
0.00014813520766313037
0.00012120725601100224
9.290506328639078e-05
6.323566561421828e-05
3.220798972571742e-05
3.078646257452522e-05
6.049357130722202e-05
8.897838836778235e-05
0.00011625230939429909
0.0001423244515811016
0.00016720173889216497
0.00019088900465921016
0.00021338910885715379
0.00023470306729063417
0.0002548301899162088
0.00027376822556716973
0.00029151351043969764
0.0003080611178386365
0.000323405006864997
0.000337538167947779
0.0003504527633769808
0.0003621402612733818
0.0003725915617272639
0.000381797114145814
0.0003897470251596098
0.00039643115674544566
0.0004018392145195976
0.0004059608264372523
0.0004087856123942933
0.0004103032454629771
0.00041050350570195557
0.00040937632765847623
0.00040691184282568016
0.000403100418431699
0.0003979326940162127
0.00039139961729639863
0.0003834924808378895
0.0003742029610270675
0.0003635231607921133
0.00035144565743881404
0.0003379635568575082
0.0003230705552186644
0.0003067610091074015
0.00028903001485296176
0.0002698734975872738
0.00024928831031828524
0.00022727234302894264
0.00020382464151213683
0.00017894553532473226
0.0001526367738942172
0.0001249016694364717
9.574524494612019e-05
6.517438510630566e-05
3.3197987531197876e-05
3.156051009082367e-05
6.20200445899631e-05
9.123297750922646e-05
0.00011921100205143642
0.00014596334096548397
0.0001714968484620126
0.0001958161305436329
0.0002189236807215375
0.00024082002801976976
0.00026150389415726186
0.00028097235684804503
0.00029922101626651473
0.000316244161886841
0.0003320349371196407
0.0003465854994251609
0.00035988717387565317
0.00037193059846171717
0.00038270585977817975
0.00039220261807744114
0.0004004102210327272
0.0004073178059023075
0.00041291439012194897
0.0004171889506691083
0.00042013049283490256
0.0004217281093018832
0.00042197103065629363
0.0004208486686594036
0.00041835065376105707
0.00041446686846094427
0.0004091874782080028
0.0004025029615772509
0.00039440414147592917
0.00038488221910830747
0.00037392881237336903
0.00036153600028151003
0.0003476963748569005
0.00033240310184195
0.0003156499913411076
0.00029743157933216635
0.0002777432207356108
0.00025658119446544253
0.00023394282059001
0.00020982658940749133
0.00018423230188718137
0.00015716122054789533
0.00012861622943603768
9.860200143077535e-05
6.71251706440383e-05
3.4194507202534724e-05
3.232629909962967e-05
6.353113586627865e-05
9.346632393834181e-05
0.00012214380060773106
0.0001495728270883498
0.00017576010930995742
0.0002007099382448814
0.00022442434637207076
0.00024690327680100196
0.00026814476156528447
0.00028814510565245907
0.00030689907346204484
0.00032440007457448794
0.0003406403459608291
0.0003556111280624899
0.00036930283251002116
0.00038170519962158964
0.0003928074442149203
0.00040259838866949643
0.00041106658258110995
0.0004182004087470957
0.00042398817559986465
0.0004284181965624953
0.00043147885712706627
0.0004331586707472454
0.0004334463248910139
0.00043233071881331603
0.00042980099478124104
0.00042584656461503237
0.0004204571334980589
0.00041362272305861883
0.00040533369573687167
0.0003955807824241597
0.0003843551152986381
0.0003716482676848522
0.000357452302635803
0.00034175983177357067
0.0003245640857328924
0.000305858997327553
0.00028563929830687645
0.0002639006302839579
0.0002406396701018776
0.00021585426955798848
0.00018954360902611114
0.00016170836410607514
0.0001323508839868523
0.00010147537973542731
6.908812021786878e-05
3.519763282712127e-05
3.308349324119067e-05
6.50262737988648e-05
9.567772810992886e-05
0.00012504997249063524
0.000153152227029954
0.00017999095769588233
0.00020557003919553785
0.00022989093477448347
0.0002529528890439295
0.00027475312990919015
0.0002952870757392881
0.0003145485440648743
0.0003325299583154494
0.0003492225493955531
0.00036461654924849207
0.0003787013739509175
0.0003914657943117836
0.00040289809240188004
0.000412986202903292
0.00042171783863026446
0.00042908060002317186
0.0004350620688463487
0.00043964988671991306
0.0004428318194796346
0.0004445958086816172
0.0004449300118480014
0.000443822833281652
0.0004412629474640009
0.00043723931718902057
0.00043174120867943075
0.0004247582059804314
0.0004162802269327276
0.00040629754299451384
0.0003948008051110098
0.00038178107772325956
0.00036722988286774436
0.0003511392561438738
0.0003335018161213753
0.00031431084852067206
0.0002935604062307834
0.00027124542592650916
0.0002473618617112698
0.00022190683584362436
0.00019487880619954365
0.00016627774968207623
0.0001361053603122185
0.0001043652602205139
7.106322120669847e-05
3.620739394817954e-05
3.383177223705708e-05
6.650492706317818e-05
9.786656218064779e-05
0.00012792889475603947
0.00015670101004976872
0.00018418902756215522
0.00021039628927645854
0.0002353235657034103
0.00025896927531679145
0.00028132971295107
0.00030239928281197703
0.00032217073192491313
0.00034063538010793357
0.0003577833428959967
0.00037360374425031775
0.00038808491634668985
0.00040121458423468884
0.000412980033682904
0.00042336826105718317
0.0004323661046064277
0.00043996035704229816
0.00044613785978287607
0.0004508855796786851
0.00045419066944336894
0.000456040513367683
0.0004564227602004596
0.0004553253453304755
0.00045273650460175147
0.00044864478223928875
0.0004430390354569075
0.00043590843836585624
0.00042724248780355925
0.0004170310136599534
0.0004052641961992537
0.0003919325927566955
0.00037702717603580946
0.0003605393860459938
0.00034246119750096227
0.00032278520424571314
0.0003015047219958808
0.00027861391035405997
0.00025410791471365893
0.00022798302827157363
0.00020023687394000664
0.00017086860547926852
0.00013987912666085095
0.00010727132671524767
7.305032972026657e-05
3.7223754942704995e-05
3.457083717675266e-05
6.796661553419917e-05
0.0001000322876640869
0.00013078007860342633
0.00016021882915848856
0.00018835418915420093
0.00021518883426912064
0.00024072270160504713
0.00026495323900437365
0.0002878756631075792
0.0003094832212384539
0.0003297674524114988
0.00034871844306517616
0.00036632507352500274
0.0003825752516776089
0.00039745613087351084
0.00041095430965585114
0.00042305601151658087
0.00043374724349264787
0.00044301393301882444
0.0004508420430343711
0.0004572176658856966
0.0004621270970695257
0.00046555689030839884
0.0004674938958417335
0.0004679252841469847
0.00046683855757287743
0.0004642215525759788
0.0004600624354006294
0.0004543496941349888
0.0004470721301171217
0.00043821885165779006
0.00042777927299309307
0.00041574312128820137
0.00040210045438160424
0.0003868416917923237
0.00036995766131323743
0.0003514396632800232
0.0003312795543399284
0.00030946985224557244
0.00028600386286530347
0.0002608758302306523
0.00023408111003258084
0.0002056163665250868
0.00017547979229929137
0.00014367134984534166
0.00011019303322527471
7.504914753451303e-05
3.824660312984687e-05
3.530041650238666e-05
6.941092294499018e-05
0.00010217447539748875
0.00013360319708282872
0.00016370555677506712
0.00019248659260294454
0.00021994816109994
0.00024608920600537043
0.00027090604116175587
0.00029439264183157843
0.00031654093887034315
0.00033734111044049844
0.00035678186631845493
0.00037485072031929675
0.0003915342469248996
0.0004068183188295632
0.00042068832279190324
0.00043312935188056026
0.0004441263729059765
0.0004536643685206336
0.0004617284541282643
0.00046830397035796736
0.0004733765524190074
0.00047693217814602853
0.00047895719697290187
0.0004794383424300032
0.00047836273104305896
0.0004757178507290259
0.0004714915419335719
0.00046567197484230494
0.0004582476260296814
0.0004492072578894113
0.0004385399041230871
0.00042623486445551514
0.0004122817115980622
0.0003966703133012374
0.0003793908721221456
0.00036043398528570747
0.000339790726741597
0.0003174527532060871
0.00029341243563156885
0.00026766301716166924
0.0002401987982040936
0.00021101534878030861
0.0001801097477917811
0.00014748084826645552
0.00011312956701701668
7.705919645099521e-05
3.9275735516337146e-05
3.602027276569664e-05
7.083751117674744e-05
0.0001042928280770572
0.00013639811635710736
0.0001671613249424296
0.00019658671704996314
0.00022467515555546144
0.0002514244092270586
0.0002768294733925501
0.0003008828985847957
0.0003235751208503501
0.00034489478770334883
0.00036482907414470134
0.0003833639837280099
0.0004004846303153828
0.00041617549690372777
0.00043042066868900775
0.00044320403834706076
0.0004545094823212893
0.00046432100769654497
0.000472622869985978
0.0004793996628497388
0.0004846363813870713
0.0004883184611879782
0.0004904317957961299
0.0004909627356145321
0.0004898980715826902
0.00048722500717573655
0.00048293112242000363
0.0004770043336972882
0.0004694328531279317
0.00046020515128425074
0.0004493099269013562
0.0004367360871247554
0.0004224727416692643
0.00040650921406730836
0.00038883507295359165
0.00036944018607414433
0.0003483147994186135
0.00032544964355156816
0.0003008360688618976
0.0002744662110537033
0.00024633318776326116
0.00021643132669808135
0.00018475642515386123
0.00015130604016268256
0.00011607980785914226
7.907978991578482e-05
4.03108440869028e-05
3.673021023947384e-05
7.224613635991098e-05
0.0001063872056552978
0.00013916493093650908
0.00017058657064419197
0.00020065542597746955
0.0002293711672395858
0.0002567301822793411
0.00028272593968716245
0.0003073493593828275
0.00033058918340643506
0.0003524323400837387
0.00037286429526181206
0.0003918693849797941
0.000409431124723178
0.00042553249127742776
0.00044015617411749877
0.00045328479421221507
0.0004649010890582714
0.0004749880636615855
0.0004835291080319236
0.0004905080825334182
0.0004959093731248358
0.0004997179191211301
0.000501919216608665
0.0005024993010486062
0.0005014447129095372
0.000498742450389885
0.0004943799134246307
0.0004883448432317118
0.00048062526165080013
0.0004712094144651187
0.00046008572278879306
0.00044724274645193893
0.0004326691631300339
0.00041635376674840907
0.00039828548844670145
0.0003784534431172104
0.00035684700423161894
0.00033345590933887836
0.0003082703982555321
0.0002812813855660144
0.00025248066860341853
0.0002218611715841673
0.0001894172260121299
0.00015514488684467004
0.00011904228321673108
8.111000174296223e-05
4.135149955314041e-05
3.74300834727441e-05
7.363666699013519e-05
0.0001084576539354086
0.00014190400336055314
0.00017398208684016314
0.00020469402950001186
0.00023403808265529125
0.00026200901990614325
0.0002885985482833815
0.00031379572602155056
0.00033758737875339007
0.00035995850635800117
0.0003808926733283001
0.00040037237632290987
0.0004183793834985454
0.00043489504124282277
0.0004499005450067442
0.0004633771720327501
0.00047530647485458793
0.0004856704354787855
0.0004944515811188578
0.000501633063223924
0.0005071987023083091
0.0005111330017396713
0.000513421134178578
0.0005140489047826408
0.0005130026955980742
0.00051026939577049
0.0005058363223230077
0.0004996911362858472
0.0004918217589290445
0.0004822162927584396
0.0004708629517964323
0.00045775000549074657
0.0004428657403847576
0.0004261984434468652
0.0004077364106939915
0.0003874679844619762
0.0003653816223693415
0.0003414660006844372
0.00031571015444240014
0.0002881036562535251
0.0002586368352966821
0.0002273010374892366
0.00019408892725877175
0.0001589948307045043
0.00012201511921536637
8.314863180094653e-05
4.239713347887683e-05
3.811980689757272e-05
7.500910429313404e-05
0.00011050443674493274
0.00014461600887260076
0.00017734907993238389
0.00020870435448850852
0.0002386784074242601
0.0002672641339240174
0.00029445121476364203
0.0003202265872420569
0.00034457491236158586
0.0003674790294005692
0.000388920389789809
0.0004088794631647262
0.0004273361095742702
0.00044426991304060207
0.00045966047293032747
0.00047348765087705524
0.00048573177224372696
0.0004963737822952993
0.0005053953583417266
0.0005127789800839534
0.0005185079612385068
0.0005225664462212981
0.0005249393762372864
0.0005256124295538733
0.0005245719410402333
0.0005218048062436281
0.0005172983753620047
0.0005110403424719336
0.000503018635299099
0.0004932213106886678
0.0004816364607561803
0.00046825213448820763
0.0004530562793227978
0.0004360367069816441
0.00041718108754858554
0.00039647697549495195
0.0003739118710414657
0.0003494733199118534
0.00032314905417235584
0.00029492717645263414
0.00026479638940197364
0.0002327462717359348
0.00019876760166218782
0.0001628527278315986
0.00012499598722428076
8.519416854000164e-05
4.3447018709473484e-05
3.8799365605159813e-05
7.636360510729703e-05
0.00011252807213490632
0.0001473019857243761
0.00018068923449267305
0.0002126888235396869
0.00024329535881652611
0.00027249955815013965
0.00030028877777906957
0.0003266475432680341
0.00035155807401950415
0.00037500079126262867
0.00039695480033378333
0.0004173983392218965
0.00043630918667792243
0.00045366502462735117
0.00046944375111753617
0.0004836237415231856
0.0004961840571782207
0.0005071046019550843
0.0005163662285437819
0.0005239507972679795
0.0005298411911995281
0.0005340212920890326
0.0005364759222217068
0.0005371907577401483
0.0005361522192621725
0.0005333473457790616
0.0005287636578641432
0.000522389016173113
0.0005142114810942969
0.0005042191792268974
0.0004924001821425029
0.00047874240263266754
0.00046323351337414914
0.0004458608926600355
0.0004266116015506985
0.00040547239649749156
0.00038242978118046417
0.0003574701009728225
0.00033057968309498434
0.0003017450251368188
0.0002709530341999944
0.00023819131842823388
0.0002034485321376414
0.0001667147751196578
0.0001279820459488719
8.724474826955417e-05
4.450024804917435e-05
3.9468827430864245e-05
7.770050759912245e-05
0.00011452937312372152
0.0001499633918496633
0.00018400478621340144
0.00021665054396525704
0.0002478929699505847
0.00027772026642485653
0.0003061171289986987
0.0003330653453517442
0.0003585443843039729
0.00038253196365497025
0.000405004586343391
0.00042593803588229784
0.00044530782361882834
0.00046308958207834025
0.0004792594004156027
0.0004937940997396598
0.0005066714477498027
0.0005178703136685357
0.0005273707658466076
0.0005351541156212343
0.0005412029120147599
0.0005455008926639089
0.0005480328969777043
0.000548784747942406
0.0005477431092449636
0.0005448953244943759
0.0005402292453045437
0.0005337330548892336
0.0005253950936296992
0.0005152036928321273
0.0005031470226133268
0.0004892129595516319
0.0004733889794313155
0.00045566208009825
0.0004360187391337228
0.0004144449107480533
0.00039092606598867263
0.00036544728004160587
0.0003379933700750383
0.0003085490867142139
0.0002770993618371846
0.0002436296149225664
0.0002081261196490193
0.00017057643182284352
0.00013096987897765963
8.929811112739355e-05
4.55557111464118e-05
4.01283565114631e-05
7.902036017691516e-05
0.00011650949359191809
0.00015260216877611282
0.00018729860421328598
0.00022059340817634498
0.0002524762072499999
0.00028293230547685524
0.0003119433591296031
0.0003394880522013602
0.0003655427582862289
0.0003900821755485513
0.0004130799228828051
0.00043450908706970867
0.00045434271265344314
0.00047255422830817795
0.0004891178055440384
0.0005040086476451495
0.000517203208666453
0.000528679344085823
0.0005384163962720706
0.0005463952192636054
0.00055259814843929
0.0005570089215058104
0.0005596125578343734
0.0005603952035695692
0.0005593439501335208
0.0005564466337839059
0.0005516916237883578
0.0005450676065783082
0.00053656337297164
0.0005261676152318422
0.0005138687403830403
0.0004996547058431222
0.0004835128830838198
0.00046542995468696474
0.0004453918498418634
0.00042338372302109725
0.0003993899802760964
0.00037339435730055284
0.0003453800531097277
0.00031532992286128353
0.000283226732983137
0.0002490534813570332
0.0002127937848132415
0.0001744323356014585
0.00013395542779458258
9.135155372843803e-05
4.66120695667184e-05
4.077822850276705e-05
8.03239540346605e-05
0.0001184699800464463
0.00015522081380258193
0.00019057428403545726
0.00022452220708574916
0.0002570511030159338
0.0002881429446649139
0.00031777592214559183
0.00034592520544766275
0.0003725636885610617
0.0003976626998201463
0.0004211926649025331
0.00044312371099484646
0.0004634262029544964
0.00048207120474173804
0.0004990308618627419
0.0005142787029571057
0.0005277898609024716
0.0005395412158294213
0.0005495114641954867
0.0005576811195345741
0.0005640324516607009
0.0005685493719734258
0.0005712172731019878
0.00057202283146068
0.0005709537814076737
0.0005679986696362944
0.0005631465982237349
0.0005563869644523885
0.0005477092051397632
0.0005371025527954043
0.0005245558104918328
0.0005100571519125324
0.0004935939526381425
0.00047515265836172577
0.0004547186953860402
0.00043227642845237654
0.00040780917067427536
0.0003812992500883579
0.0003527281370774536
0.0003220766366506221
0.0002893251492600453
0.0002544540034764668
0.00021744386340815866
0.00017827621320899364
0.00013693392035484322
9.340187854354684e-05
4.7667730070956316e-05
4.141884768550652e-05
8.161235984286211e-05
0.00012041283011072004
0.00015782246166043054
0.00019383625291497994
0.00022844275843740547
0.00026162490530649493
0.00029336084498968185
0.00032362482021902964
0.00035238802663902294
0.00037961944997759803
0.00040528666110896047
0.0004293565535235626
0.000451796010266816
0.00047257249021443945
0.0004916545264835558
0.0005090121327056656
0.0005246171156934494
0.0005384432956250032
0.0005504666371709752
0.0005606652969542165
0.0005690195943332012
0.0005755119137290619
0.0005801265475887558
0.0005828494896199798
0.0005836681881836274
0.0005825712697329136
0.0005795482419921304
0.0005745891862233253
0.0005676844474803953
0.0005588243312391605
0.0005479988142577698
0.0005351972769926418
0.0005204082643938436
0.0005036192814473275
0.0004848166294289455
0.0004639852884884624
0.00044110885188893695
0.00041616951697966836
0.0003891481377655201
0.00036002434373676173
0.00032877672942073846
0.0002953831188879513
0.0002598209091640054
0.00022206749613924714
0.0001821007861026111
0.00013989979542199799
9.544534012251998e-05
4.8720816144209866e-05
4.205076622703155e-05
8.288696919712957e-05
0.00012234055875731675
0.00016041097711449667
0.00019708988920557127
0.00023236205234250518
0.00026620624771392723
0.0002985962501788654
0.00032950181225798597
0.00035888963863740103
0.00038672432878303006
0.00041296926731207786
0.0004375874444362167
0.0004605421919173132
0.0004817978233869827
0.0005013201714041057
0.000519077017102014
0.0005350384115682394
0.0005491768910973714
0.0005614675910746436
0.0005718882654334109
0.0005804192203607249
0.0005870431722023381
0.0005917450403660311
0.0005945116864803229
0.0005953316111879901
0.000594194619797421
0.0005910914676433843
0.0005860134954833486
0.0005789522646321744
0.0005698992008670058
0.0005588452554592116
0.0005457805910458052
0.0005306942994641219
0.0005135741581570527
0.0004944064313218179
0.00047317572162470026
0.00044986487803023653
0.00042445496508862826
0.0003969252988708927
0.0003672535546183492
0.0003354159510583557
0.00030138751620616133
0.000265142439292574
0.0002266545131983065
0.0001858976714082458
0.00014284662298424608
9.74775883617919e-05
4.9769137864561636e-05
4.2674705924606454e-05
8.41495415667276e-05
0.00012425627351543914
0.0001629910602572171
0.00020034165822709407
0.00023628841673719453
0.0002708053421161434
0.0003038612031592454
0.00033542064945249125
0.00036544531475341674
0.0003938948792918326
0.000420728067453649
0.0004459035606413919
0.00046938080895705253
0.0004911207295064494
0.000511086283366078
0.0005292429273901916
0.0005455589408986973
0.0005600056307475884
0.0005725574212490266
0.0005831918378249069
0.0005918893951263327
0.0005986334016471265
0.0006034096936399953
0.0006062063114674575
0.0006070131314590763
0.0006058214659754868
0.0006026236437804561
0.0005974125820683504
0.0005901813606549663
0.0005809228079745078
0.0005696291076844606
0.000556291433902116
0.0005408996224085631
0.0005234418845765122
0.0005039045703142224
0.0004822719859696109
0.00045852627289688294
0.00043264735223996764
0.0004046129414125889
0.00037439864772906284
0.00034197814463692716
0.00030732343599019704
0.00027040521374959575
0.00023119331436596835
0.00018965727885978875
0.00014576702121524635
9.949360911969823e-05
5.0810160258291104e-05
4.329158282299905e-05
8.540225763939771e-05
0.00012616376014028263
0.00016556836660753388
0.00020359926725117133
0.00024023170601536817
0.00027543419807566846
0.000309169791850257
0.0003413973418370242
0.0003720727595008938
0.00040115021164321973
0.0004285832389960727
0.0004543257719544225
0.00047833302512019504
0.000500562257402852
0.0005209733895380798
0.0005395294758105545
0.0005561970312985727
0.0005709462199487043
0.000583750912133009
0.0005945886229897987
0.000603440344792816
0.0006102902878629413
0.0006151255451922119
0.0006179356960723872
0.0006187123637061698
0.0006174487411258235
0.0006141390988519506
0.0006087782866863733
0.0006013612409294239
0.0005918825072144807
0.0005803357881170972
0.0005667135237653401
0.0005510065128811123
0.0005332035810372872
0.0005132913024260208
0.0004912537810982769
0.0004670724974404107
0.0004407262255814101
0.0004121910274509366
0.000381440329304452
0.0003484450866670895
0.0003131740437836081
0.0002755940937654855
0.00023567074565505192
0.00019336870454014776
0.00014865257061025608
0.00010148766259649236
5.184097034300131e-05
4.39025351813109e-05
8.664778014984623e-05
0.0001280675805490905
0.0001681496445784282
0.0002068718429194226
0.0002442035167620864
0.00028010687328182404
0.0003145384289445566
0.000347450460580212
0.0003787924254863087
0.00040851231472725444
0.0004365579080258253
0.0004628779038819211
0.00048742290445264597
0.000510146240932912
0.0005310046313570689
0.0005499586686079673
0.0005669731417314375
0.0005820171982409174
0.000595064358848145
0.0006060923989254646
0.0006150831130029774
0.0006220219797833104
0.0006268977456086317
0.0006297019441487695
0.0006304283694226441
0.0006290725182450767
0.0006256310169284428
0.0006201010456783965
0.0006124797727002501
0.0006027638086598397
0.0005909486908832022
0.0005770284055767079
0.0005609949554359131
0.000542837979300978
0.0005225444300106727
0.0005000983162984189
0.00047548051444541717
0.0004486686554343554
0.00041963709349968417
0.0003883569622171318
0.00035479632457808066
0.000318920423810317
0.0002806920419987438
0.00024007197378064088
0.0001970196224965956
0.00015149372612188738
0.00010345322003308885
5.285824313352658e-05
4.4508955378438214e-05
8.78893235306405e-05
0.0001299731852360507
0.00017074289344024343
0.0002101701350905455
0.00024821743532644006
0.00028483976032108935
0.0003199861712500536
0.0003536014815729259
0.0003856278717022585
0.0004160064189608348
0.0004446785061507051
0.0004715870786562368
0.0004966777273330281
0.0005198995820426336
0.0005412060081691865
0.0005605551054414064
0.0005779100146005786
0.0005932390427068647
0.0006065156220508086
0.0006177181206997451
0.0006268295246957614
0.0006338370129221269
0.0006387314457954943
0.0006415067883753303
0.0006421594873722014
0.0006406878200438393
0.0006370912312436104
0.0006313696730662795
0.0006235229597324789
0.0006135501486600678
0.0006014489571547557
0.0005872152228626436
0.0005708424150915117
0.0005523212033359363
0.0005316390888331218
0.0005087801047138213
0.0004837245902746881
0.00045644904505406925
0.00042692606870378333
0.00039512439307858374
0.0003610090134685204
0.00032454142643100273
0.000285679982195898
0.0002443803600668121
0.00020059617557812923
0.00015427972833748776
0.00010538289943337956
5.385820696276328e-05
4.511252647614039e-05
8.913073402704377e-05
0.00013188704287991904
0.00017335754560882793
0.0002135067519936501
0.0002522893229889994
0.0002896519161486276
0.00032553508526054
0.0003598751769125566
0.00039260616937945164
0.0004236614042738007
0.00045297516837067633
0.0004804840913534107
0.0005061283343561103
0.0005298525535233287
0.0005516066318576596
0.0005713461809455957
0.0005890328214121117
0.0006046342569373461
0.0006181241612660295
0.0006294819008415761
0.0006386921175758134
0.0006457441969603787
0.0006506316464152187
0.0006533514076582023
0.0006539031251777544
0.0006522883907993833
0.0006485099820424597
0.0006425711096251056
0.0006344746872227955
0.0006242226345249298
0.000611815222832171
0.0005972504709463207
0.0005805235979461504
0.0005616265386218199
0.0005405475268478455
0.0005172707519848115
0.0004917760934826862
0.0004640389391739226
0.00043403009325023584
0.00040171578056399926
0.0003670577546377833
0.0003300135175510581
0.00029053666065233935
0.00024857733576424956
0.00020408286715519613
0.00015699851499110032
0.00010726840119438391
5.483660856596059e-05
4.571526433162429e-05
9.037658230691067e-05
0.00013381679049290565
0.00017600467796790448
0.00021689643266279562
0.0002564376457370142
0.00029456544197430795
0.0003312106669513086
0.00036630006210630617
0.00039975836258710276
0.00043151025943291565
0.00046148217662443994
0.000489603824098437
0.000515809499216334
0.0005400391206727521
0.0005622389897900447
0.0005823622840409812
0.0006003692960922895
0.000616227438430584
0.0006299110386237296
0.0006414009535180322
0.0006506840323012228
0.0006577524585785165
0.0006626030006637897
0.0006652361974461979
0.0006656555047270529
0.0006638664240819353
0.000659875633310901
0.00065369013458327
0.0006453164336106265
0.0006347597607029055
0.0006220233424503174
0.0006071077310735411
0.000590010197211447
0.0005707241910659945
0.0005492388763727978
0.0005255387415829156
0.0004996032928828373
0.0004714068341944329
0.00044091834003738214
0.00040810142804437524
0.00037291443894190215
0.0003353106328904641
0.0002952385121617919
0.00025264228116162954
0.00020746245572636837
0.00015963663437433898
0.00010910044471780164
5.578867847453803e-05
4.63195663716956e-05
9.163227108982888e-05
0.00013577140825992567
0.00017869725804189537
0.00022035636399871453
0.0002606838572201675
0.00029960592292503294
0.000337042325418032
0.0003729089082889353
0.0004071199919798915
0.00043959059968495806
0.00047023845414814747
0.000498985701340611
0.0005257603312478557
0.0005504972801587057
0.0005731392121208767
0.0005936369889791224
0.0006119498482024498
0.000628045315294052
0.0006418988828947106
0.0006534934918340923
0.0006628188505636429
0.0006698706289130878
0.0006746495602905217
0.0006771604836446378
0.0006774113530691531
0.0006754122391613819
0.0006711743424138057
0.0006647090352345994
0.0006560269458242042
0.0006451370941947775
0.0006320460881771503
0.0006167573853536994
0.0005992706254854714
0.0005795810371511528
0.0005576789219474028
0.0005335492196651588
0.000507171158301515
0.0004785179935301899
0.00044755684327410505
0.0004142486242393363
0.0003785480986171659
0.0003404040405818598
0.000299759533645947
0.00025655241131916987
0.0002107158547964283
0.00016217916251312983
0.00011086870728973727
5.670909737756982e-05
4.6928268413563845e-05
9.290416094194509e-05
0.0001377614242331071
0.0001814504322340399
0.0002239065515264177
0.0002650528454064341
0.00030480293888219753
0.00034306394195297504
0.00037973933051198977
0.00041473169149804437
0.0004479452506411796
0.0004792881161788283
0.0005086741889987166
0.0005360247075220648
0.0005612694130989818
0.0005843473377529114
0.000605207230028753
0.0006238076459728382
0.0006401167406676865
0.0006541118012566988
0.0006657785652088681
0.0006751103680189344
0.0006821071630287341
0.0006867744530476734
0.0006891221694013509
0.000689163529373607
0.0006869138981029158
0.0006823896761587699
0.0006756072295002365
0.000666581874480706
0.0006553269271244513
0.0006418528231232137
0.0006261663129029926
0.0006082697346776397
0.0005881603675991012
0.0005658298668780939
0.0005412637830176752
0.0005144411680055652
0.0004853342723763407
0.0004539083384092202
0.00042012149629996887
0.00038392477186820553
0.0003452622161692516
0.00030407116920827884
0.0002602826717399455
0.00021382204082126197
0.00016460962630458764
0.00011256176674967477
5.75919642352464e-05
4.7544711273533186e-05
9.419971818315498e-05
0.00013979915533958442
0.00018428186511714947
0.0002275702550910176
0.0002695734558948691
0.000310190660415155
0.0003493145185607775
0.0003868344652619149
0.0004226398694488036
0.00045662290733368416
0.0004886810828438094
0.0005187193398531083
0.0005466517332745058
0.0005724026476090008
0.0005959075709705171
0.0006171134490240947
0.0006359786561483741
0.0006524726302619722
0.0006665752232334066
0.000678275820950227
0.0006875722864443379
0.0006944697765342532
0.0006989794778582935
0.000701117302521502
0.0007009025773908502
0.0006983567547953935
0.0006935021663763939
0.0006863608363523906
0.000676953365693473
0.0006652978947409814
0.0006514091487067435
0.0006352975682325547
0.0006169685257461296
0.000596421627647812
0.0005736501023237417
0.0005486402745213462
0.0005213711276496578
0.000491813956996049
0.00045993211859837735
0.0004256808804961876
0.00038900738523488937
0.00034985073473969494
0.0003081422109466013
0.00026380564781155677
0.00021675797245281417
0.0001669099351548145
0.00011416704971181288
5.843076705485534e-05
4.8172819356224333e-05
9.552768987062046e-05
0.0001418989928072857
0.00018721214101547964
0.00023137450347687424
0.00027427910789105253
0.0003158085468532128
0.0003558389328551931
0.0003942437528694949
0.0004308974872491225
0.0004656788784127251
0.0004984737602140819
0.0005291773867807589
0.0005576962277831742
0.0005839492236580923
0.0006078685177451498
0.0006293997015610862
0.0006485016239694864
0.0006651458246865888
0.0006793156576512006
0.0006910051708079352
0.0007002178065195451
0.0007069649819280086
0.0007112646019220049
0.0007131395496856423
0.0007126161917408447
0.0007097229264807735
0.0007044887978227207
0.0006969421890637879
0.0006871096064737896
0.0006750145576846951
0.0006606765265470202
0.0006441100437781094
0.0006253238513467645
0.0006043201580245225
0.0005810939837787646
0.0005556325915731693
0.0005279150065671846
0.0004979116245702742
0.000465583913809315
0.00043088421652272973
0.00039375565952638747
0.00035413218562339865
0.0003119387204907169
0.0002670914924028586
0.0002194985247804017
0.00016906032402553423
0.00011567078736238884
5.921835737789094e-05
4.881719400213341e-05
9.689831213938183e-05
0.0001440777422349708
0.00019026524199796183
0.00023535070541981853
0.0002792085226898458
0.00032170216741952973
0.00036268881986378787
0.00040202384344413533
0.00043956495120007
0.00047517592647532483
0.0005087297953552013
0.0005401113841204813
0.0005692192304430459
0.0005959668497969341
0.0006202833867473001
0.0006421137032213559
0.0006614179720156113
0.000678170853689871
0.0006923603391417593
0.0007039863393696263
0.00071305909922912
0.0007195975044437253
0.0007236273417773539
0.0007251795620481158
0.0007242885853279805
0.0007209906778374749
0.0007153224211411541
0.0007073192865528072
0.0006970143213165941
0.0006844369481770057
0.0006696118763501076
0.0006525581195672703
0.0006332881156528199
0.0006118069418807361
0.0005881116209855604
0.0005621905140397211
0.0005340227983235482
0.0005035780306876791
0.00047081579963429224
0.0004356854723297811
0.0003981260459268582
0.00035806611583651116
0.0003154239768866883
0.0002701078765691735
0.00022201644274251822
0.00017103931117599253
0.00011705798112535137
5.994692967028342e-05
4.9483225128332115e-05
9.832355988023678e-05
0.00014635503126474853
0.0001934691200991892
0.00023953537892452276
0.0002844065893564847
0.00032792417118079203
0.00036992360564071236
0.0004102396484738195
0.00044871113497575027
0.0004851852164144792
0.0005195209106069291
0.0005515918953948318
0.0005812885184163924
0.000608519036894458
0.0006332101349209689
0.0006553067915940868
0.0006747715909149084
0.0006915835738803312
0.0007057367355866942
0.0007172382666292346
0.0007261066300630892
0.0007323695541187059
0.0007360620080689717
0.0007372242152683985
0.0007358997443379922
0.0007321337074251734
0.0007259710838737506
0.0007174551787431822
0.0007066262185130637
0.0006935200809675655
0.0006781671525659255
0.0006605913044088613
0.00064080897701662
0.000618828364351582
0.0005946486886606525
0.0005682595596076256
0.0005396404136622304
0.0005087600326787421
0.0004755761439167519
0.0004400351073347783
0.0004020716997383822
0.00036160900921003783
0.00031855845712499414
0.00027281996889960344
0.00022428231836586765
0.0001728236742658852
0.00011831238075576608
6.060800695053756e-05
5.017722567670496e-05
9.981744794056516e-05
0.00014875380135260033
0.00019685638634834787
0.0002439710264807611
0.00028992539842791903
0.0003345354375855619
0.00037761172291459616
0.0004189655643407446
0.0004584145529936967
0.000495787384294212
0.0005309278210048132
0.0005636977224669909
0.0005939791225111068
0.0006216753880718823
0.0006467115307188104
0.0006690337727345251
0.0006886084878276119
0.0007054206447927765
0.0007194718818541827
0.0007307783318666536
0.0007393683059706453
0.0007452799275930178
0.0007485587915384076
0.0007492557057074169
0.0007474245567512874
0.0007431203264497976
0.0007363972732048023
0.0007273072829643151
0.0007158983861333089
0.0007022134314576545
0.0006862889042798075
0.0006681538747066729
0.0006478290608390343
0.0006253259930322844
0.0006006462669603356
0.0005737808758331207
0.0005447096152994199
0.0005134005582098991
0.0004798096003976425
0.0004438800828592826
0.0004055425001055664
0.0003647143089233959
0.0003212998562877288
0.0002751904496216817
0.00022626459696899193
0.00017438844886106392
0.00011941647768345248
6.119243412673961e-05
5.0906594676145e-05
0.00010139639692947552
0.00015130090475748426
0.00020046514537351914
0.00024870719108425685
0.0002958254822491742
0.00034160644687890665
0.00038583204547088315
0.0004282868987650554
0.0004687647073950245
0.0005070737393500432
0.0005430412363624203
0.0005765166665328697
0.0006073738213661015
0.0006355118160639474
0.0006608550993222641
0.000683352611675507
0.0007029762498540794
0.0007197188000965214
0.0007335914981213519
0.0007446213601315504
0.0007528484104768647
0.0007583229098995503
0.0007611026657265846
0.0007612504835778459
0.0007588318002903355
0.0007539125205395514
0.0007465570654230994
0.0007368266301273768
0.0007247776395895335
0.0007104603855210695
0.0006939178249394384
0.0006751845190931492
0.0006542856920116955
0.0006312363895392449
0.0006060407223409288
0.0005786911797682204
0.000549168005443499
0.0005174386298245209
0.00048345715971793296
0.0004471639296354246
0.0004084851249481665
0.00036733249193261416
0.0003236031549530803
0.0002771795661386488
0.00022792961793044117
0.00017570695374590287
0.00012035151668531724
6.169038065277632e-05
5.168001641656095e-05
0.00010307968050560917
0.00015402783392149885
0.00020434001240397792
0.0002538017374072027
0.00030217731049067206
0.0003492189190756126
0.00039467558581245815
0.00043830153662665836
0.0004798636338031424
0.0005191476108924106
0.0005559629455152496
0.0005901463044992727
0.0006215635849295791
0.0006501106486290417
0.0006757129028237899
0.000698323915257832
0.0007179232688029127
0.0007345138611621997
0.0007481188429728225
0.0007587783661871274
0.0007665462876477527
0.0007714869434232198
0.0007736720802823949
0.0007731780035225636
0.0007700829764449996
0.0007644648867479141
0.0007563991791826631
0.0007459570418675496
0.0007332038253354059
0.0007181976682402863
0.0007009883011588024
0.0006816159995903445
0.0006601106586280811
0.0006364909644431468
0.0006107636413684898
0.0005829227577246292
0.0005529490783982259
0.0005208094574168688
0.0004864562692488035
0.0004498268832171179
0.00041084319118841334
0.0003694112045254175
0.0003254207421309503
0.0002787452372063695
0.0002292416960497888
0.00017675084777469402
0.00012109752919213165
6.20913542320363e-05
5.250770548111475e-05
0.00010488997606709904
0.00015697161841511653
0.00020853336006936354
0.0002593224147271929
0.00030906310209891444
0.0003574677819233145
0.00040424751009534785
0.00044912188768643155
0.0004918276730247022
0.0005321258495762995
0.0005698069738251897
0.0006046947544136004
0.0006366479257284459
0.0006655605685611417
0.0006913610937353647
0.0007140101413408186
0.0007334976607420128
0.0007498394289559111
0.0007630732423311512
0.0007732549838860257
0.0007804547309223087
0.000784753028589779
0.0007862374179411109
0.0007849992737352755
0.000781130978997898
0.0007747234405952978
0.0007658639327649264
0.0007546342432447305
0.0007411090887329483
0.0007253547621694847
0.0007074279730446345
0.0006873748429492184
0.0006652300213066398
0.0006410158902022192
0.0006147418320772841
0.0005864035395063485
0.0005559823521289302
0.0005234446119269064
0.0004887410343337381
0.00045180609907903915
0.0004125574711660203
0.00037089546891814346
0.00032670260257607747
0.00027984321343313065
0.00023016324991609327
0.00017749022328969466
0.00012163339173680565
6.238422739974006e-05
5.3401710385182766e-05
0.00010685404748896066
0.0001601759352572174
0.00021310685634770912
0.0002653487742202247
0.00031657903123393644
0.00036646354297753883
0.0004146695356390048
0.0004608771652710869
0.0005047894968523738
0.0005461404878117915
0.000584700795150616
0.000620281389486662
0.0006527350993666171
0.0006819563162858908
0.0007078791614899896
0.000730474450830413
0.0007497457981369138
0.0007657251772401792
0.0007784682252363895
0.0007880495219138271
0.0007945580286254708
0.0007980928191457896
0.0007987591886265757
0.0007966651867650845
0.0007919185886891104
0.000784624291954375
0.0007748821099562396
0.0007627849201311751
0.0007484171185567594
0.0007318533299158457
0.0007131573223060003
0.0006923810792123543
0.0006695639854277444
0.0006447320892603234
0.0006178974096192058
0.0005890572632336055
0.0005581935941620063
0.0005252722947810227
0.0004902425145536238
0.00045303596004317784
0.00041356619685194856
0.0003717279714127511
0.0003273965778279077
0.00028042730219363793
0.00023065498401884238
0.00017789374137273245
0.00012193691321366051
6.255727890191673e-05
5.4376292609476656e-05
0.00010900359759679484
0.00016369249266320537
0.00021813337355953283
0.0002719745342229102
0.0003248379257410998
0.0003763351592695405
0.0004260827896778348
0.00047371605164364325
0.0005189004152253221
0.000561340555700892
0.0006007865645176053
0.000637037440226855
0.0006699420724972718
0.000699398058629945
0.0007253487678257654
0.0007477790972939408
0.0007667103538986746
0.000782194655398822
0.0007943091868680557
0.0008031505801280696
0.0008088296148090306
0.0008114663747275513
0.0008111859363518319
0.000808114619119879
0.0008023767907926783
0.0007940921943590286
0.0007833737451450988
0.0007703257362900104
0.0007550423861276273
0.0007376066608461261
0.0007180893088354241
0.000696548048358548
0.0006730268567953952
0.0006475553171209902
0.0006201479850956454
0.0005908037486049983
0.0005595051585598199
0.0005262177186960183
0.000490889129503274
0.00045344848938606505
0.00041380546405792376
0.0003718494431146045
0.0003274487107230613
0.00028044966537087157
0.00023067613158709796
0.00017792881437855845
0.00012198495473386695
6.259825184188814e-05
5.544840330270681e-05
0.00011137634033876395
0.00016758276650980647
0.00022369937312056304
0.000279310514772306
0.00033397258380895786
0.0003872335209244848
0.000438651223548938
0.0004878098118498153
0.0005343329877800576
0.0005778940348434292
0.0006182223154494251
0.0006551063960424618
0.0006883941451814937
0.0007179902955307786
0.0007438520369773896
0.0007659832226338641
0.0007844277352129884
0.0007992624931571594
0.0008105904885814738
0.000818534155120159
0.0008232292728017516
0.0008248195356451125
0.0008234518394293552
0.0008192722933812735
0.0008124229199855948
0.0008030389803092425
0.0007912468461296583
0.0007771623325733036
0.0007608894037971353
0.000742519167628377
0.0007221290814761888
0.0006997823000514762
0.0006755271045994111
0.0006493963628662787
0.0006214069785177648
0.000591559298006257
0.0005598364518885589
0.0005262036163459667
0.0004906071892348506
0.0004529738834937319
0.00041320974924708223
0.00037119914454637054
0.0003268036834015581
0.0002798611985600011
0.00023018476531109708
0.00017756184131487163
0.0001217535859283983
6.249443059208257e-05
5.66382874458253e-05
0.00011401735941533528
0.00017192019499306585
0.0002299079042137539
0.0002874882994833225
0.0003441398695379107
0.0003993356934638981
0.0004525656940682944
0.0005033559220257583
0.0005512839530161309
0.0005959899097388553
0.0006371830331452326
0.0006746440783118764
0.0007082240724551776
0.0007378401352470393
0.0007634691292494299
0.0007851398959046185
0.000802924760782777
0.0008169308827158973
0.000827291895112315
0.0008341601603052522
0.0008376998406930021
0.0008380808905705216
0.0008354739929644014
0.0008300464066043171
0.00082195864762033
0.0008113619058150758
0.0007983960832049809
0.0007831883397994774
0.0007658520354837904
0.0007464859650651717
0.0007251737942189536
0.0007019836159067282
0.0006769675589329421
0.0006501613921012193
0.000621584078641553
0.000591237246116337
0.0005591045469227444
0.0005251508939270663
0.000489321564871345
0.000451541178169472
0.00041171255173175214
0.0003697154656461289
0.00032540535896505296
0.00027861200048733686
0.0002291381831892661
0.00017675850168548737
0.0001212182815701103
6.223273847058217e-05
5.7970255675603155e-05
0.00011698084334300918
0.00017679297293914445
0.0002368823999925676
0.0002966648318736137
0.00035552579362387385
0.0004128500984649855
0.00046804884283384654
0.0005205822782543071
0.0005699774693929266
0.0006158402410311077
0.0006578614669766683
0.0006958182022835241
0.000729570473796199
0.0007590547157888781
0.0007842748806521707
0.0008052921957297579
0.0008222144087578764
0.0008351851976044176
0.0008443742420732037
0.0008499682865013639
0.0008521633745706032
0.0008511583185907175
0.000847149375927593
0.0008403260432646546
0.0008308678410699558
0.0008189419412391388
0.0008047014856292743
0.0007882844477991556
0.0007698129011610398
0.0007493925711527342
0.0007271125649314022
0.0007030451881022658
0.0006772457732842456
0.0006497524594432785
0.0006205858737589297
0.0005897486793980701
0.0005572249631503948
0.000522979446715182
0.00048695651481803215
0.0004490790625819724
0.00040924717394284077
0.0003673366525787543
0.0003231974369291152
0.0002766519414091652
0.00022749337676403886
0.00017548411342124814
0.00012035416237019328
6.179985815549238e-05
5.947367851636895e-05
0.00012033231934828123
0.00018230763713360243
0.0002447715171672929
0.0003070282190486516
0.0003683518443453569
0.0004280228547214708
0.00048536092312557663
0.0005397520442946661
0.0005906686292065505
0.0006376821302059958
0.0006804684768635348
0.0007188071698502434
0.0007525752449729362
0.0007817374833747753
0.0008063342359807442
0.000826468095393329
0.0008422904356389822
0.0008539885940117391
0.000861774224831198
0.0008658731359980423
0.0008665167388813323
0.0008639351047276325
0.0008583515247537095
0.000849978411007108
0.0008390143439105276
0.0008256420628632716
0.000810027201717408
0.0007923175858365571
0.0007726429274766307
0.0007511147782796566
0.0007278266196385635
0.0007028539922920296
0.0006762545850855957
0.0006480682191750721
0.0006183166781460712
0.0005870033468653862
0.000554112632765124
0.0005196091531416876
0.00048343668138652734
0.00044551685428754
0.0004057476520226977
0.000364001672500662
0.00032012423245514343
0.0002739313391931196
0.00022520758899057663
0.0001737040605052642
0.00011913628376956226
6.118237677257138e-05
6.118427835980801e-05
0.00012415155426744387
0.00018859370396627148
0.0002537553507986779
0.00031880510443076625
0.0003828829104765303
0.00044514555265750926
0.0005048067398770624
0.0005611691745994601
0.000613647149641924
0.0006617793623570917
0.0007052326093736523
0.0007437977322514826
0.0007773795897112589
0.0008059829553895403
0.00082969613786457
0.0008486738651354957
0.0008631206415946509
0.0008732754328405843
0.0008793982063086975
0.0008817585797989535
0.0008806266165815278
0.0008762656547705704
0.0008689269630372237
0.0008588459640445981
0.0008462397499773427
0.0008313056207888449
0.0008142203965620844
0.0007951402839058777
0.000774201107705515
0.0007515187505605161
0.0007271896709145197
0.0007012913962189705
0.0006738829091610075
0.0006450048631641107
0.0006146795784520154
0.0005829107825202837
0.000549683069524208
0.0005149610625223879
0.0004786882713448404
0.0004407856476668498
0.0004011498481716856
0.00035965122687957665
0.0003161315890584035
0.0002704017516794027
0.00022223896897944836
0.00017138429592011492
0.00011753997654281867
6.036695756608812e-05
6.314582402537801e-05
0.00012853635604115343
0.0001958097197381839
0.00026405347591033565
0.0003322700915606245
0.00039943723644399014
0.00046456479304917905
0.0005267438749771685
0.0005851846026400463
0.0006392410530489719
0.0006884233889818611
0.0007323984591210697
0.0007709810222830647
0.0008041181635174439
0.0008318694938833672
0.0008543854612038989
0.0008718856619225595
0.0008846385396113939
0.0008929433643815963
0.0008971149611263062
0.000897471318367711
0.0008943239682784286
0.0008879708736982839
0.0008786914742372146
0.0008667435132738658
0.0008523612742170287
0.0008357548837854174
0.0008171103814473175
0.0007965902997980091
0.0007743345454444203
0.00075046141089616
0.0007250685835470238
0.0006982340476315869
0.0006700167992906517
0.0006404573142051746
0.0006095777224846902
0.0005773816575318814
0.000543853755357513
0.000508958789164125
0.0004726404317738943
0.0004348196463914676
0.00039539271492566343
0.00035422892318848036
0.0003111679341140615
0.0002660168938435469
0.0002185473309465353
0.00016849192567733144
0.00011554124311352436
5.934054007492029e-05
6.541237553961063e-05
0.00013360760405334987
0.00020415122587145833
0.00027593543593440115
0.0003477578648469707
0.00041839897656329936
0.00048669388438729935
0.0005515923571007015
0.0006122029968250956
0.0006678200005668464
0.0007179331273648101
0.0007622231735207353
0.0008005462690404246
0.0008329106638228518
0.0008594494961647915
0.0008803925049882099
0.0008960389393887457
0.0009067331821975971
0.0009128439397809197
0.0009147473134688468
0.0009128136762532671
0.0009073980233996592
0.0008988333248442643
0.0008874263529768424
0.0008734554647179885
0.0008571698587932098
0.0008387898901171496
0.0008185080907153544
0.0007964906125187427
0.0007728788669859772
0.0007477911876241188
0.0007213243835188614
0.0006935550853948199
0.0006645408115050766
0.0006343207000530302
0.0006029158691945626
0.0005703293762378409
0.0005365457556429434
0.0005015301219140449
0.00046522682947898464
0.00042755768807272755
0.00038841973981068936
0.0003476826137762904
0.0003051854860875291
0.0002607336883471544
0.00021409502502328127
0.00016499588006163753
0.00011311721375226354
5.809057084944086e-05
6.805128980014868e-05
0.000139515975432377
0.00021386134701590828
0.00028973453694492064
0.0003656788769318374
0.0004402340752222827
0.00051202715404681
0.0005798458829730357
0.000642689829891201
0.0006997977099157844
0.0007506527799470818
0.0007949701838506785
0.0008326712627661943
0.0008638500060122629
0.0008887362751227451
0.0009076594801679244
0.000921015290658184
0.0009292369213758818
0.0009327716648289235
0.0009320626947743535
0.0009275357369694648
0.0009195899620280876
0.00090859235690606
0.0008948748316966702
0.0008787333788774412
0.0008604286934754991
0.0008401877641649007
0.0008182060439377165
0.0007946498973322065
0.0007696590959498355
0.0007433491944805019
0.0007158136665661782
0.0006871257152499359
0.0006573396984664321
0.0006264921280290311
0.0005946022127169531
0.0005616719240217217
0.0005276855683299265
0.0004926088530809551
0.0004563874379002464
0.0004189449659299689
0.0003801805765659468
0.00033996590949483124
0.0002981416220895327
0.0002545134584050323
0.0002088479282995135
0.00016086767900992498
0.00011024666742775156
5.660526702998096e-05
7.114729203651013e-05
0.00014645104116998119
0.0002252450122472039
0.0003058661487872639
0.0003865397784403764
0.0004655103975806825
0.00054115737018527
0.0006120845713500026
0.0006771782386143788
0.0007356325248289441
0.0007869464787693594
0.0008308988677423277
0.0008675083216854278
0.0008969859949387142
0.0009196867638432658
0.000936063378657077
0.0009466263517892669
0.0009519109419905501
0.0009524515060539817
0.0009487627555398379
0.0009413270338011533
0.0009305865477640674
0.0009169394748926429
0.0009007389533234583
0.0008822941020454316
0.0008618723733587463
0.0008397026899316339
0.000815978951790362
0.000790863609589243
0.0007644910888836981
0.000736970917660314
0.0007083904589875855
0.0006788171856000353
0.000648300456657579
0.0006168727716314507
0.0005845504846494314
0.0005513339666779055
0.000517207204282227
0.00048213682379735605
0.0004460705298055083
0.00040893494803156266
0.00037063286630355415
0.00033103987426670936
0.00029000041422177526
0.00024732327271962014
0.0002027765658365547
0.00015608229999699436
0.00010691062321607075
5.487391568356412e-05
7.480806128981957e-05
0.0001546537185863582
0.0002386882694633552
0.00032485220863601866
0.00041097018398926835
0.0004949232693484476
0.000574796759636436
0.0006489889726859661
0.0007162746987862297
0.0007758246441557093
0.0008271879863804479
0.0008702483390867558
0.0009051641198785827
0.0009323031467642212
0.000952179058641367
0.0009653946013818068
0.0009725944701775915
0.0009744285379380633
0.0009715250144773646
0.0009644723255048011
0.000953808162135061
0.0009400141031592688
0.000923514339573786
0.0009046772457901812
0.0008838187840982809
0.0008612069614543239
0.0008370667612777015
0.0008115851402748422
0.0007849158111642406
0.0007571836301613032
0.0007284884784094208
0.0006989085747110355
0.00066850318799732
0.0006373147363371197
0.0006053702684892838
0.000572682326883232
0.0005392491896884857
0.0005050544860522293
0.00047006617406779305
0.000434234866830795
0.00039749148925990324
0.0003597442485087435
0.0003208749052395158
0.00028073434337711096
0.00023913745378197765
0.00019585737372333246
0.00015061915925914174
0.00010309301013023894
5.288721282880812e-05
7.91720000597948e-05
0.00016443354769781968
0.00025468483257957975
0.0003473543432041034
0.0004397579360545644
0.0005293278388158566
0.0006138019742583638
0.0006913545641554636
0.0007606617944382055
0.0008209076674621715
0.000871742871417407
0.0009132128936019928
0.0009456712707033091
0.0009696910649764912
0.0009859837523857294
0.000995330805423916
0.0009985300187735375
0.0009963563260362764
0.000989535469763568
0.0009787282408666546
0.0009645228752970005
0.0009474333808015198
0.0009279019056572108
0.0009063036466550652
0.0008829531609810884
0.000858111263941785
0.0008319919506641366
0.0008047689761587762
0.0007765818717411326
0.0007475412762256613
0.0007177335270110892
0.0006872244975560955
0.000656062690739161
0.0006242816076678891
0.0005919014128081147
0.0005589299119349404
0.0005253628516322245
0.0004911835395595542
0.0004563617747560221
0.0004208520679634571
0.00038459112446223576
0.00034749455756794174
0.000309452801482063
0.00027032619982401973
0.0002299392634029021
0.00018807411996703445
0.00014446322111626164
9.878142641572309e-05
5.063764780520105e-05
8.441920884809558e-05
0.00017619301287098536
0.00027387304294785447
0.0003742190845099514
0.0004738957886682611
0.0005697799006797715
0.0006592029738986989
0.0007401050563422724
0.0008110951466122705
0.0008714308368253411
0.0009209394497437847
0.000959905797528228
0.000988949056632736
0.001008905587603413
0.0010207280755712717
0.0010254056667189908
0.0010239055657793733
0.001017133949828922
0.0010059127891890764
0.0009909688563682646
0.0009729314704783852
0.0009523360713076696
0.0009296313451383886
0.0009051882179950295
0.0008793095364504795
0.0008522396550255367
0.0008241734475332458
0.0007952644721305087
0.0007656321638346703
0.0007353680204541888
0.0007045408023987048
0.0006732007949025731
0.0006413831913226944
0.0006091106545744462
0.0005763951048568996
0.0005432387686466703
0.0005096345085778883
0.0004755654376710373
0.00044100380540142495
0.0004059091280996189
0.0003702255230207223
0.0003338781953391417
0.0002967690222485213
0.0002587711811337101
0.00021972278323709876
0.00017941950463346186
0.00013760625618243656
9.396800434973047e-05
4.811994141538413e-05
9.078725234470432e-05
0.00019046233636447855
0.00029708804923303175
0.0004065402188124477
0.0005146434233001661
0.0006175868977816162
0.0007122349117124963
0.0007963012278978717
0.0008683896198451238
0.0009279264732984915
0.0009750232696070903
0.001010307116320202
0.0010347502394137155
0.0010495189130336133
0.001055852167682272
0.00105497273808133
0.0010480276569160805
0.0010360533560371307
0.0010199594107935701
0.0010005254376126288
0.0009784065580313236
0.0009541438931562618
0.0009281775361694427
0.0009008602706660814
0.0008724709355600255
0.0008432267972972047
0.0008132946071056218
0.0007828002278603228
0.0007518368415126413
0.0007204718180741521
0.0006887523592731572
0.000656710037605146
0.000624364343945168
0.0005917253405199798
0.0005587954949991501
0.0005255707483841684
0.0004920408458335412
0.0004581889364569415
0.0004239904259125994
0.0003894110446271519
0.00035440407499151387
0.0003189066638078341
0.0002828351334196299
0.00024607919977911834
0.00020849501359788622
0.00016989696880702516
0.00013004827820773876
8.865040416935338e-05
4.5331550580172617e-05
9.85942400700962e-05
0.00020795013968301183
0.0003254365795839261
0.00044574562801865183
0.0005636099280251529
0.0006743704670742704
0.0007743702656264149
0.0008611391915701455
0.0009333868507126874
0.0009908544074672884
0.0010340879924795494
0.0010641902488594361
0.0010825906557047089
0.0010908572739186991
0.0010905575135394807
0.0010831654348184838
0.0010700078084977145
0.0010522394651686449
0.001030838955418745
0.0010066170744192499
0.000980232616999796
0.0009522114065058616
0.0009229660083601241
0.0008928145647482226
0.0008619979072216483
0.0008306945810841616
0.0007990337122123405
0.0007671058173375211
0.0007349717446534943
0.0007026699634347707
0.0006702224203525668
0.00063763916048876
0.0006049218817189561
0.0005720665577221683
0.0005390652306115074
0.0005059070408101815
0.00047257853011523077
0.00043906322409347637
0.0004053404718470776
0.0003713834943505027
0.00033715656657893993
0.00030261123353934535
0.00026768143730518563
0.00023227741478238674
0.00019627822121352778
0.00015952275333298675
0.00012179920227995723
8.283297210698488e-05
4.2273258859375565e-05
0.00010827333399016092
0.00022961866384116868
0.00036040581754718214
0.0004937194136711634
0.0006228631889518069
0.0007421405181346485
0.0008473448040350658
0.0009359271655153198
0.0010068913931111471
0.0010605114848991817
0.0010979732788795257
0.0011210210427574745
0.0011316586443825688
0.0011319257723570748
0.0011237489303968264
0.0011088555459107374
0.001088735513162303
0.0010646350196985201
0.0010375701799998013
0.0010083512354392022
0.000977611033802176
0.000945833847782504
0.0009133822921014029
0.0008805212455079738
0.0008474384071521443
0.0008142615399801684
0.0007810726765363728
0.0007479196583972617
0.0007148254003783404
0.0006817952482300865
0.0006488227549159477
0.0006158941484113844
0.0005829917104166159
0.0005500962341165629
0.0005171886817512718
0.0004842511196900198
0.0004512669696889616
0.0004182205794242607
0.0003850960823080663
0.00035187548480100986
0.00031853588747366747
0.0002850457125837397
0.0002513597755970289
0.00021741300338603414
0.00018311257562904013
0.00014832826364009725
0.00011288078555125348
7.65281142643473e-05
3.8949882230491714e-05
0.00012042557642184294
0.00025679789796795305
0.0004040246677590228
0.0005529751042442511
0.00069507358079717
0.0008233771490602539
0.0009331639426282488
0.0010220216882766819
0.001089555665079775
0.0011368894410037581
0.001166118133823859
0.0011798234179810994
0.0011807028489818367
0.00117132216838013
0.001153973767338022
0.0011306146851478988
0.001102857657145108
0.0010719935456609837
0.001039029492290974
0.0010047325283823374
0.0009696725358798539
0.0009342613414580585
0.000898786582276807
0.0008634400828385191
0.0008283410762555624
0.0007935548773698453
0.0007591077002232025
0.0007249982937184377
0.0006912069998030596
0.0006577027491487669
0.0006244484170971221
0.0005914048760399422
0.0005585340028395613
0.0005258008320565503
0.0004931749869485427
0.00046063146916136555
0.0004281508433163182
0.0003957188128492512
0.00036332514691872486
0.0003309618830564659
0.00029862069389946684
0.0002662892655190194
0.0002339464863121421
0.00020155618837767487
0.00016905912394880873
0.00013636281671404633
0.00010332893730506665
6.975796255436449e-05
3.537113470001782e-05
0.00013590295964934287
0.00029136296202853483
0.0004591069645411665
0.0006269028253298448
0.0007836985271562104
0.0009211080476080359
0.0010340628424536941
0.0011206908533482572
0.0011816837751638578
0.00121945903612437
0.0012373571369457374
0.001239007451698521
0.001227900508733665
0.0012071453162646201
0.0011793654644427307
0.0011466858305594664
0.0011107706774253715
0.0010728855887464674
0.0010339659765906308
0.0009946825239317593
0.0009554989758065336
0.0009167207421675021
0.0008785344487907722
0.0008410393767064473
0.0008042720250367712
0.0007682250507592692
0.0007328617242568867
0.0006981268731971052
0.0006639551128419362
0.0006302769992496769
0.0005970236011397061
0.0005641298678338152
0.0005315370727742869
0.0004991945314634424
0.00046706072584660856
0.000435103911038813
0.0004033022322468584
0.0003716433376273285
0.00034012343474257994
0.0003087457020079752
0.00027751792867523363
0.0002464492120050517
0.00021554548068826972
0.00018480353168581765
0.00015420316254966503
0.00012369687034054916
9.319652012393202e-05
6.255644460933206e-05
3.155272136872063e-05
0.00015594309726506272
0.0003360173018716571
0.0005296251622154448
0.0007201225257744085
0.0008932083404837553
0.0010389499004275337
0.0011523693636200042
0.001232851036661986
0.0012829112273967293
0.001306854015176358
0.0013096492977946027
0.0012961617958972636
0.001270715258437513
0.0012369101876553781
0.0011976034640572234
0.0011549754323325924
0.0011106338169935871
0.0010657244366348746
0.0010210332661860274
0.0009770734790227262
0.0009341561764446803
0.0008924460169405304
0.000852003960726367
0.0008128195458013011
0.0007748349300238221
0.0007379626037057139
0.0007020983197748125
0.000667130459468205
0.0006329467714535613
0.0005994391942438487
0.0005665072907962612
0.0005340606824276017
0.0005020207584413572
0.000470321850727224
0.000438911992848472
0.0004077533258613434
0.00037682216465235487
0.0003461086963786209
0.0003156162448584906
0.000285359999712383
0.0002553650735142854
0.00022566370734277384
0.00019629138207237495
0.00016728149068350427
0.00013865806801886468
0.00011042586125518603
8.255681014269871e-05
5.497192122356359e-05
2.751776177497417e-05
0.0001823953404117562
0.00039475859657261275
0.0006212952356200521
0.0008389848060422894
0.0010293332626170118
0.0011810416289532773
0.0012901758629025161
0.0013585924650374604
0.0013917037821463002
0.0013964295706649418
0.0013797391062233804
0.0013478249554600627
0.0013057651069494879
0.001257490350788159
0.0012059074228680314
0.0011530800209377245
0.0011004134717964055
0.0010488180013023003
0.0009988423850761825
0.0009507782501063412
0.0009047388859959645
0.0008607174213869275
0.0008186290020252961
0.0007783409184282247
0.0007396938434211398
0.0007025166157606684
0.0006666364020553265
0.0006318855914805299
0.0005981064118869613
0.0005651539811187926
0.0005328983032524513
0.0005012255683496114
0.0004700390018314467
0.0004392594244924785
0.0004088256179214534
0.000378694536352836
0.000348841360318361
0.00031925934719442134
0.0002899593976186318
0.000260969224427237
0.00023233198111262746
0.00020410417424791827
0.00017635263278464527
0.00014915020369445954
0.00012256963984980454
9.667480240866874e-05
7.150784267421356e-05
4.707062925113359e-05
2.329870063672891e-05
0.00021811623081197974
0.0004736713149126968
0.0007425077463314844
0.0009922617296411074
0.0011992548531093456
0.0013517133142454119
0.0014486527784495305
0.001496369095847213
0.0015046127229048564
0.0014836859404431836
0.0014427734347269659
0.001389272732617861
0.001328738485706112
0.0012651198454428844
0.001201089702947222
0.0011383637840003229
0.0010779690369176372
0.0010204528277603184
0.0009660384997058156
0.0009147374059839761
0.0008664277042545864
0.000820908710573191
0.0007779377363281593
0.0007372546043687145
0.0006985976309431124
0.0006617137796668549
0.0006263648957073563
0.0005923313524408783
0.0005594140333726478
0.0005274352836853666
0.0004962392634992024
0.0004656919928541798
0.000435681277619197
0.0004061166322519849
0.00037692925964755673
0.00034807210311067587
0.00031951994592909795
0.0002912694973661416
0.00026333936960556796
0.00023576982003623188
0.00020862211040007482
0.00018197731936798675
0.00015593442613982822
0.00013060741759728448
0.00010612097059424855
8.26037973639445e-05
6.01779365260631e-05
3.8941273387107025e-05
1.8939947821764586e-05
0.00026769481563035206
0.0005823264718982351
0.0009058271137912591
0.001192031173600833
0.001411519394468739
0.0015545677921656367
0.0016267248788921877
0.0016416937973303802
0.001615247347875921
0.001561595487386198
0.0014919450191020513
0.0014143941399639235
0.0013344177530931738
0.0012554972118711278
0.0011796939551472936
0.001108103488251919
0.0010411887211695496
0.0009790136505699598
0.0009214020198749055
0.0008680423786154631
0.0008185560853561265
0.0007725402691162904
0.0007295941654055192
0.0006893345889429775
0.0006514044278029523
0.0006154767490886091
0.0005812562279081512
0.0005484790221045137
0.000516911822888615
0.00048635055187057526
0.0004566190037160363
0.000427567620601638
0.00039907250923029713
0.0003710347592410009
0.00034338008351153526
0.0003160587690649568
0.0002890458971260834
0.0002623417594189749
0.00023597236471550181
0.00020998989841977157
0.00018447297713639066
0.00015952654217223083
0.00013528126736987722
0.00011189238857340147
8.953777478699562e-05
6.841459490035395e-05
4.87327511312554e-05
3.070125513927706e-05
1.4501622871908662e-05
0.0003388621187866928
0.0007363541400718897
0.0011304030743292635
0.0014545791206576758
0.0016750947481469127
0.0017903432958041865
0.0018186935233657636
0.0017852028849794956
0.0017130237247759087
0.0016199756012571006
0.001518308844091822
0.0014157719144652862
0.0013168894122238088
0.0012240397598923258
0.0011382455513231204
0.0010597121445382138
0.0009881782945712122
0.0009231369793238891
0.0008639704805361702
0.0008100304302899024
0.0007606832795954786
0.0007153344509042061
0.0006734396207937112
0.000634508442431049
0.0005981040084546609
0.0005638400826753279
0.0005313773302678369
0.0005004192786923715
0.00047070843458791624
0.0004420227945856857
0.00041417287543427973
0.00038699932238946307
0.00036037111612074145
0.0003341843753650667
0.0003083617369647549
0.00028285228074898493
0.0002576319493180334
0.00023270438876402642
0.000208102104365903
0.00018388778835090776
0.00016015564659352388
0.00013703255341886503
0.00011467893885678225
9.328949049685134e-05
7.309395469888395e-05
5.435817825745308e-05
3.7384241165089316e-05
2.2505210752324367e-05
1.0064990638301158e-05
0.0004454163955003518
0.0009623875963774113
0.0014457033652831488
0.001800515163677352
0.0019961719250742097
0.0020524239187877918
0.002010347836019135
0.0019101609796270246
0.0017819987538984436
0.001645225186981486
0.0015110121220239352
0.0013851207238381267
0.0012700257375062463
0.0011663277047214218
0.0010736270875544678
0.0009910407801384073
0.0009174958616806374
0.0008518897431565725
0.0007931722986698128
0.0007403835310569838
0.0006926666068863812
0.0006492678058646097
0.0006095300029763107
0.0005728834069690207
0.0005388355941640163
0.0005069619065322783
0.00047689673255048304
0.0004483258841105186
0.0004209801199144339
0.0003946297849018055
0.0003690805008101129
0.0003441698340570197
0.0003197648713284349
0.00029576064291695486
0.0002720793438613419
0.00024867030925072517
0.00022551069883123762
0.0002026068332619032
0.00017999609632120446
0.00015774927309152031
0.00013597314162472514
0.00011481310486212253
9.445571389334918e-05
7.513122412387829e-05
5.711696752851679e-05
4.074308078524935e-05
2.6401721901627567e-05
1.4556711618920679e-05
5.740504209081343e-06
0.00061387903567097
0.0013078496370681949
0.0018965135715197888
0.0022513151866038333
0.002369542390472437
0.0023184233704731747
0.0021735258016530572
0.0019901499842900003
0.0018005406701925419
0.0016209578031684112
0.0014582459811089358
0.0013142330227746048
0.00118829421397193
0.0010787462067482385
0.0009835655232004505
0.0009007377680079285
0.0008284118723066603
0.0007649547834144409
0.0007089575584941169
0.0006592195358071182
0.0006147242160486118
0.0005746135696843395
0.0005381638664165907
0.0005047642648620346
0.000473898477576163
0.00044512939526061314
0.0004180863771607729
0.0003924548660035037
0.00036796799863626425
0.00034439992310675294
0.00032156058166880365
0.0002992917685621238
0.0002774643174701767
0.00025597631456510464
0.0002347522679741667
0.00021374319206242387
0.00019292758278249833
0.00017231326439135115
0.0001519400717970073
0.00013188328899773998
0.00011225768808161007
9.322191887562413e-05
7.498295736051673e-05
5.780053936844942e-05
4.199243215191953e-05
2.7943575078194158e-05
1.612469402959872e-05
7.123984002963685e-06
1.6798522720230108e-06
0.0008997600829379502
0.0018609605026842623
0.0025455641058861377
0.002813548800810829
0.002758859275012661
0.0025368402583186792
0.002261203846086057
0.001988906340983124
0.0017431070482530906
0.0015301731826165097
0.0013491763843282469
0.0011964932835114416
0.0010678707517727641
0.0009592736236343196
0.0008671772333379204
0.000788619537252391
0.0007211579590144391
0.0006627958024053339
0.0006119057869736037
0.0005671612580768585
0.0005274780956505149
0.0004919672016339693
0.0004598962944975301
0.00043065946378379426
0.0004037530207875364
0.00037875638876747747
0.0003553170053390807
0.00033313842040988244
0.0003119709525162932
0.00029160441401285264
0.00027186253516127586
0.0002525988139489496
0.000233693597443475
0.00021505226590272548
0.00019660444588628229
0.00017830422509180523
0.0001601313795691582
0.000142093650609805
0.0001242301170381148
0.00010661568582424029
8.93666498783946e-05
7.264711535196096e-05
5.6675890550901206e-05
4.1733302866628005e-05
2.8167958089568568e-05
1.6406310423197623e-05
6.9756435911207115e-06
5.597258868512978e-07
-1.9060595777848494e-06
0.001434865237125286
0.002785801430429698
0.0034532236043847385
0.0034290966283910948
0.003058164034446033
0.00261598445050771
0.002208880910450563
0.0018655781759773574
0.0015854795434440102
0.0013593501070655878
0.0011768337510792174
0.0010288142363746432
0.0009078984300142645
0.0008082837855202234
0.0007254714410603307
0.0006559815694860156
0.0005971152969975677
0.0005467681648915219
0.0005032880582842951
0.00046536826142596667
0.00043196721853490383
0.00040224825597318277
0.0003755341315650352
0.0003512725940305519
0.0003290101451404615
0.0003083719481113134
0.00028904637674892833
0.00027077310243443613
0.0002533339107626577
0.00023654565688857772
0.00022025493073246118
0.00020433412641178775
0.0001886787065012909
0.00017320552973137948
0.00015785217699474177
0.00014257726970414407
0.00012736182949577533
0.00011221177943248478
9.716173046799698e-05
8.228022134906116e-05
6.767655910395326e-05
5.350928998340554e-05
3.999603629044682e-05
2.7423893710954578e-05
1.615901066294792e-05
6.654957179936041e-06
-5.315072100758184e-07
-4.678258207947358e-06
-4.721563045807092e-06
0.00255119852093485
0.004360610169281955
0.004548099333172177
0.0038383699531873436
0.00306715769728987
0.002434301386093762
0.0019512377814587794
0.0015880444860062104
0.001313686503717458
0.0011039760697331112
0.0009414074263721746
0.0008135527132083148
0.0007115798930318121
0.0006291548213291451
0.000561678097426464
0.0005057646131094301
0.0004588889390273222
0.0004191420272242983
0.0003850625226333275
0.00035551839127850003
0.00032962281650119295
0.0003066737030877915
0.0002861096449216904
0.00026747751729638315
0.00025040838001789273
0.00023459939685243833
0.00021980016637716468
0.00020580233158014674
0.00019243166356347312
0.0001795420461445426
0.00016701095467050973
0.0001547361453179824
0.00014263336531320642
0.00013063497044654357
0.00011868940191081707
0.00010676153620741043
9.483398496721966e-05
8.290949042982602e-05
7.101463966363922e-05
5.920520447803834e-05
4.7573490516518435e-05
3.625810476007643e-05
2.5456413503573486e-05
1.543940931781479e-05
6.5672745604341415e-06
-6.986261956581918e-07
-5.791785921105755e-06
-8.018831786315433e-06
-6.357125589632681e-06
0.005284912659239178
0.0066703558235442694
0.005015136926746843
0.0035442582768693562
0.0025511152817901533
0.00189701182142246
0.0014573485881141822
0.0011523468037704663
0.0009341604845172231
0.000773696800213837
0.0006527821948484275
0.0005597055565312262
0.0004866943603042623
0.000428448564739072
0.0003812649797860935
0.00034249894946637195
0.0003102243096599327
0.0002830131220816455
0.00025978967569021544
0.00023973166321314583
0.0002222019990860101
0.00020670095241842254
0.00019283200614859594
0.00018027715482323362
0.00016877880027456153
0.00015812633208138992
0.00014814608554794204
0.00013869377277783528
0.00012964875514958132
0.00012090971374466471
0.00011239140721159245
0.000104022303278389
9.574294358915061e-05
8.750496094655537e-05
7.927072048002394e-05
7.10136078557206e-05
6.271904448735231e-05
5.438637864645622e-05
4.603189070403503e-05
3.769327032247978e-05
2.9436082766525276e-05
2.136294094493181e-05
1.3626299714025389e-05
6.445811613828983e-06
1.304192477086935e-07
-4.898003717883348e-06
-8.092667913160018e-06
-8.810451425162596e-06
-6.293247139082733e-06
0.010925834855472067
0.006294925097063329
0.0035017270376580673
0.0021573152265930776
0.0014416324022902645
0.0010279028129134248
0.0007695278315983413
0.0005984108916775813
0.0004797081710375545
0.00039426954369022396
0.00033088840877406375
0.0002826676060405948
0.00024518004695517695
0.00021548210015815642
0.00019155671461161452
0.00017198537281234473
0.00015574758304220775
0.00014209434063944086
0.0001304659975356788
0.00012043761635780088
0.00011168180007986757
0.00010394290451233405
9.70188280914868e-05
9.07479464649346e-05
8.499960441382681e-05
7.966710971297683e-05
7.466251566414818e-05
6.991270348151446e-05
6.535642588227815e-05
6.09420758363316e-05
5.662601626897808e-05
5.237135847035827e-05
4.814711636173634e-05
4.392769583439621e-05
3.969270724144512e-05
3.542711858656178e-05
3.11218012026826e-05
2.677456417203225e-05
2.239183630329579e-05
1.799124736615379e-05
1.3605502836720046e-05
9.288168692951626e-06
5.1223267168824804e-06
1.2335602613648688e-06
-2.190715274455121e-06
-4.873845356532028e-06
-6.41838588619735e-06
-6.307090852711306e-06
-4.0864288130982446e-06

