# vtk DataFile Version 2.0
mesh vtk view
ASCII
DATASET UNSTRUCTURED_GRID
POINTS 5151 double
0.0 -0.16065434230936632 0.0
200.0 0.0 0.0
199.95583678785147 99.95175534024845 0.0
0.0 99.83961589892913 0.0
2.000519697303318 -0.16063884728129163 0.0
4.001039166861184 -0.16059236685819628 0.0
6.001558180953045 -0.16051491502299342 0.0
8.002076511908847 -0.16040651507894635 0.0
10.002593932135673 -0.16026719964724015 0.0
12.003110214143788 -0.16009701066349602 0.0
14.003625130573678 -0.15989599937314408 0.0
16.00413845422317 -0.15966422632554564 0.0
18.00464995807715 -0.15940176136672482 0.0
20.00515941533926 -0.1591086836305492 0.0
22.005666599463368 -0.158785081528167 0.0
24.00617128418724 -0.15843105273547956 0.0
26.006673243567516 -0.1580467041783977 0.0
28.007172252019828 -0.1576321520155993 0.0
30.007668084358993 -0.15718752161847038 0.0
32.008160515839265 -0.15671294754787898 0.0
34.00864932220026 -0.15620857352738762 0.0
36.009134279715255 -0.15567455241247902 0.0
38.00961516524196 -0.15511104615531607 0.0
40.01009175627663 -0.15451822576452703 0.0
42.010563831011176 -0.15389627125944552 0.0
44.01103116839374 -0.1532453716181948 0.0
46.01149354819262 -0.15256572471894653 0.0
48.01195075106381 -0.1518575372736317 0.0
50.01240255862202 -0.15112102475332065 0.0
52.01284875351543 -0.15035641130442265 0.0
54.01328911950397 -0.14956392965479612 0.0
56.01372344154129 -0.14874382100877956 0.0
58.01415150586023 -0.1478963349300847 0.0
60.014573100061696 -0.14702172921141346 0.0
62.01498801320685 -0.1461202697295682 0.0
64.01539603591502 -0.14519223028473927 0.0
66.01579696045813 -0.14423789242256022 0.0
68.01619058085616 -0.14325754523741197 0.0
70.01657669298991 -0.14225148515533623 0.0
72.01695509470086 -0.14122001569482756 0.0
74.01732558589626 -0.1401634472036161 0.0
76.01768796865436 -0.13908209656942905 0.0
78.01804204732926 -0.1379762869025589 0.0
80.01838762865422 -0.13684634718790545 0.0
82.01872452184246 -0.1356926119039733 0.0
84.01905253868438 -0.13451542060609753 0.0
86.01937149363945 -0.1333151174709564 0.0
88.01968120392186 -0.13209205079915995 0.0
90.01998148957746 -0.13084657247242654 0.0
92.02027217355061 -0.12957903736152956 0.0
94.0205530817386 -0.12828980268081758 0.0
96.02082404303104 -0.12697922728468497 0.0
98.02108488933182 -0.1256476709008698 0.0
100.02133545556012 -0.1242954932948665 0.0
102.02157557962772 -0.1229230533590702 0.0
104.02180510238827 -0.12153070811945392 0.0
106.0220238675546 -0.12011881165164558 0.0
108.02223172157917 -0.11868771389713176 0.0
110.0224285134921 -0.11723775936898721 0.0
112.02261409469179 -0.11576928573491858 0.0
114.02278831867974 -0.11428262226349475 0.0
116.02295104073322 -0.11277808811712074 0.0
118.02310211750623 -0.11125599047252581 0.0
120.02324140654851 -0.10971662244615481 0.0
122.02336876573209 -0.10816026079775279 0.0
124.02348405257005 -0.10658716338043187 0.0
126.02358712341237 -0.10499756629939795 0.0
128.02367783250602 -0.10339168073400945 0.0
130.02375603087845 -0.10176968936861516 0.0
132.02382156502696 -0.10013174236616895 0.0
134.02387427541558 -0.0984779528043858 0.0
136.02391399468158 -0.09680839147653335 0.0
138.02394054554074 -0.09512308093659795 0.0
140.0239537383221 -0.09342198864045598 0.0
142.02395336806177 -0.09170501899890895 0.0
144.02393921106056 -0.08997200411266894 0.0
146.02391102079216 -0.08822269290035885 0.0
148.02386852301223 -0.08645673825387523 0.0
150.0238114098787 -0.08467368175484839 0.0
152.02373933284005 -0.08287293535271832 0.0
154.02365189396946 -0.08105375922672409 0.0
156.02354863532395 -0.07921523481296418 0.0
158.0234290257668 -0.07735623164738979 0.0
160.0232924444987 -0.07547536621711302 0.0
162.02313816026526 -0.07357095036667326 0.0
164.02296530482235 -0.07164092588182477 0.0
166.0227728386636 -0.0696827805277377 0.0
168.02255950617604 -0.0676934388207635 0.0
170.02232377610463 -0.06566911778337896 0.0
172.02206376123752 -0.06360513322624092 0.0
174.02177710807663 -0.061495634599967076 0.0
176.02146084214164 -0.059333234106745465 0.0
178.02111114585298 -0.05710847486632652 0.0
180.020723030858 -0.05480904529645956 0.0
182.02028983783626 -0.05241858063056138 0.0
184.01980244648536 -0.04991474324600986 0.0
186.01924794130352 -0.04726606939093456 0.0
188.01860733963036 -0.04442599481319824 0.0
190.0178506073448 -0.04132326640087348 0.0
192.0169285802739 -0.0378297378785218 0.0
194.0157308220282 -0.033749725393419354 0.0
196.0140362246455 -0.028362116150367322 0.0
198.01048431793947 -0.021649670805374645 0.0
200.00828717990842 1.9847683739749433 0.0
200.008856851702 3.978083410231524 0.0
200.00935497461117 5.974322220685638 0.0
200.00919538798212 7.971636046847996 0.0
200.008780406032 9.969551980700174 0.0
200.0081882034232 11.967843159434176 0.0
200.00748028955852 13.966396052611122 0.0
200.0066888312122 15.965142090603164 0.0
200.00583495432463 17.964037259686627 0.0
200.00493271733066 19.963051486115283 0.0
200.00399199103168 21.962163364771495 0.0
200.0030198956128 23.961357134190298 0.0
200.0020216851064 25.960620867316596 0.0
200.00100129548355 27.959945327750194 0.0
199.99996170438095 29.959323218919767 0.0
199.99890517497673 31.958748674313124 0.0
199.9978334267318 33.958216901550095 0.0
199.9967477581635 35.9577239277324 0.0
199.9956491372702 37.957266413376914 0.0
199.9945382695838 39.95684151384152 0.0
199.99341565041735 41.956446774383245 0.0
199.99228160574208 43.95608004945887 0.0
199.9911363247615 45.95573943979171 0.0
199.98997988634824 47.955423242651506 0.0
199.98881228090767 49.955129912092055 0.0
199.9876334288198 51.95485802678367 0.0
199.98644319632535 53.954606263703404 0.0
199.9852414095226 55.954373376390436 0.0
199.98402786700115 57.95415817679685 0.0
199.9828023515404 59.95395952000104 0.0
199.98156464123127 61.95377629123001 0.0
199.98031452033544 63.95360739477635 0.0
199.97905179016794 65.95345174450284 0.0
199.97777628027492 67.95330825568729 0.0
199.97648786017703 69.95317583816441 0.0
199.97518645195868 71.95305339061193 0.0
199.97387204400113 73.95293979606791 0.0
199.9725447061861 75.95283391880432 0.0
199.97120460693102 77.95273460282503 0.0
199.96985203245305 79.95264067243845 0.0
199.96848740868967 81.9525509356231 0.0
199.96711132629716 83.95246419131539 0.0
199.9657245690545 85.95237924240536 0.0
199.9643281456704 87.9522949173277 0.0
199.96292332406904 89.95221010506752 0.0
199.96151166472657 91.95212381197506 0.0
199.96009504248187 93.9520352557132 0.0
199.95867562364188 95.95194402449759 0.0
199.95725568744473 97.9518503429234 0.0
197.95580512386908 99.95033710114275 0.0
195.95577213889692 99.94891989710021 0.0
193.95573670767158 99.94750216717706 0.0
191.95569862030231 99.94608162215025 0.0
189.9556583183876 99.94465609180206 0.0
187.9556166292281 99.94322371449454 0.0
185.9555746032769 99.94178297026053 0.0
183.95553341472697 99.94033266742404 0.0
181.95549429796057 99.93887191572661 0.0
179.95545850514026 99.93740009662079 0.0
177.95542727695783 99.93591683435734 0.0
175.95540182199062 99.93442196903487 0.0
173.95538330194734 99.93291553187022 0.0
171.95537282111204 99.93139772261796 0.0
169.95537141888758 99.92986888896314 0.0
167.9553800647045 99.92832950769713 0.0
165.95539965478076 99.92678016750341 0.0
163.9554310103625 99.92522155320708 0.0
161.95547487716692 99.92365443136727 0.0
159.95553192580817 99.92207963711361 0.0
157.955602753032 99.92049806214484 0.0
155.9556878836093 99.91891064381903 0.0
153.9557877727663 99.91731835527438 0.0
151.95590280903784 99.9157221965236 0.0
149.95603331745014 99.914123186469 0.0
147.95617956294643 99.91252235578595 0.0
145.9563417539802 99.9109207406237 0.0
143.95652004620948 99.90931937707205 0.0
141.95671454623306 99.90771929634266 0.0
139.95692531531992 99.90612152061304 0.0
137.95715237308673 99.90452705948223 0.0
135.9573957010883 99.9029369069873 0.0
133.95765524629076 99.90135203913036 0.0
131.95793092440394 99.8997734118678 0.0
129.95822262305364 99.89820195951462 0.0
127.95853020478081 99.89663859351874 0.0
125.958853509851 99.89508420156274 0.0
123.95919235890327 99.89353964695277 0.0
121.95954655537905 99.89200576825705 0.0
119.95991588776577 99.89048337915918 0.0
117.96030013166613 99.88897326849438 0.0
115.96069905168139 99.88747620043954 0.0
113.96111240312005 99.88599291483041 0.0
111.96153993354095 99.88452412758267 0.0
109.96198138413763 99.88307053119534 0.0
107.96243649097474 99.88163279531821 0.0
105.96290498608553 99.88021156736643 0.0
103.96338659844044 99.87880747316842 0.0
101.96388105479643 99.87742111763458 0.0
99.964388080437 99.87605308543621 0.0
97.9649073998121 99.87470394168587 0.0
95.96543873708698 99.87337423261167 0.0
93.96598181660899 99.87206448621944 0.0
91.9665363633001 99.87077521293782 0.0
89.96710210298315 99.86950690624214 0.0
87.96767876264889 99.86826004325448 0.0
85.96826607067077 99.8670350853172 0.0
83.96886375697312 99.86583247853869 0.0
81.96947155315915 99.86465265431028 0.0
79.97008919260333 99.86349602979357 0.0
77.9707164105132 99.86236300837851 0.0
75.97135294396473 99.86125398011201 0.0
73.9719985319153 99.86016932209795 0.0
71.97265291519251 99.85910939886904 0.0
69.97331583647865 99.85807456273176 0.0
67.97398704028572 99.85706515408513 0.0
65.97466627288979 99.85608150171458 0.0
63.97535328228371 99.85512392306217 0.0
61.97604781811618 99.85419272447437 0.0
59.97674963162513 99.85328820142873 0.0
57.977458475567765 99.85241063874052 0.0
55.97817410414779 99.85156031075111 0.0
53.97889627294145 99.85073748149856 0.0
51.979624738823176 99.84994240487251 0.0
49.98035925989107 99.84917532475386 0.0
47.98109959539362 99.84843647514073 0.0
45.981845505657745 99.8477260802617 0.0
43.98259675201833 99.84704435467732 0.0
41.983353096750164 99.84639150337095 0.0
39.98411430300216 99.84576772182974 0.0
37.98488013473391 99.84517319611672 0.0
35.98565035665509 99.84460810293479 0.0
33.98642473416758 99.84407260968327 0.0
31.987203033310106 99.84356687450786 0.0
29.98798502070575 99.84309104634458 0.0
27.98877046351225 99.84264526495829 0.0
25.989559129374815 99.84222966097633 0.0
23.990350786381317 99.84184435591787 0.0
21.991145203020103 99.84148946221933 0.0
19.991942148140122 99.84116508325643 0.0
17.992741390912904 99.84087131336301 0.0
15.993542700796858 99.84060823784733 0.0
13.994345847503249 99.84037593300572 0.0
11.995150600963802 99.84017446613421 0.0
9.99595673129984 99.84000389553835 0.0
7.996764008792895 99.83986427054097 0.0
5.997572203855987 99.8397556314889 0.0
3.9983810870064564 99.83967800975792 0.0
1.9991904288390654 99.83963142775661 0.0
0.0 97.83943862704484 0.0
0.0 95.8392712331326 0.0
0.0 93.83911335893845 0.0
0.0 91.83896466122947 0.0
0.0 89.83882481185965 0.0
0.0 87.83869349783099 0.0
0.0 85.83857042134878 0.0
0.0 83.83845529987138 0.0
0.0 81.83834786615371 0.0
0.0 79.83824786828457 0.0
0.0 77.83815506971764 0.0
0.0 75.83806924929608 0.0
0.0 73.83799020127096 0.0
0.0 71.83791773531344 0.0
0.0 69.83785167652118 0.0
0.0 67.8377918654188 0.0
0.0 65.83773815795323 0.0
0.0 63.83769042548364 0.0
0.0 61.837648554756235 0.0
0.0 59.8376124479167 0.0
0.0 57.837582022461355 0.0
0.0 55.837557211215255 0.0
0.0 53.83753796230635 0.0
0.0 51.837524239134844 0.0
0.0 49.83751602034079 0.0
0.0 47.83751329977083 0.0
0.0 45.83751608644407 0.0
0.0 43.83752440451822 0.0
0.0 41.837538293256245 0.0
0.0 39.837557806994155 0.0
0.0 37.83758301511064 0.0
0.0 35.837614001996265 0.0
0.0 33.83765086702437 0.0
0.0 31.837693724555578 0.0
0.0 29.83774270388838 0.0
0.0 27.837797949256018 0.0
0.0 25.837859619817465 0.0
0.0 23.837927889653322 0.0
0.0 21.838002947767105 0.0
0.0 19.838084998092157 0.0
0.0 17.8381742595047 0.0
0.0 15.838270965842934 0.0
0.0 13.838375365932224 0.0
0.0 11.838487723616899 0.0
0.0 9.838608317797975 0.0
0.0 7.838737442477277 0.0
0.0 5.838875406807294 0.0
0.0 3.8390225351467855 0.0
0.0 1.839179167121665 0.0
2.000488970246771 1.839194698964192 0.0
2.000458752181527 3.8390381022858886 0.0
2.000429021519691 5.83889100774446 0.0
2.000399756756728 7.838753075732106 0.0
2.000370936466012 9.838623981906679 0.0
2.0003425392927863 11.838503417130646 0.0
2.0003145439476095 13.838391087415394 0.0
2.000286929199444 15.838286713871236 0.0
2.0002596738684413 17.83819003266327 0.0
2.0002327568185687 19.838100794973503 0.0
2.000206156950145 21.838018766969203 0.0
2.000179853192386 23.837943729777564 0.0
2.000153824496053 25.837875479466707 0.0
2.0001280498262624 27.837813827032722 0.0
2.000102508155555 29.837758598392803 0.0
2.0000771784572673 31.837709634383984 0.0
2.0000520396992916 33.83766679076757 0.0
2.000027070838251 35.8376299382379 0.0
2.000002250814176 37.83759896242613 0.0
1.9999775585456778 39.83757376394917 0.0
1.9999529729257128 41.8375542584058 0.0
1.999928472817919 43.83754037640579 0.0
1.999904037053581 45.837532063600854 0.0
1.999879644429242 47.83752928071527 0.0
1.999855273704971 49.83753200357815 0.0
1.9998309036033026 51.83754022315702 0.0
1.9998065128088511 53.83755394559198 0.0
1.9997820799686126 55.83757319222976 0.0
1.99975758369294 57.837597999657426 0.0
1.9997330025571838 59.8376284197347 0.0
1.9997083151040058 61.83766451962506 0.0
1.99968349984632 63.83770638182149 0.0
1.9996585352708616 65.83775410416891 0.0
1.9996333998423568 67.83780779991243 0.0
1.9996080720082468 69.83786759768576 0.0
1.9995825302039512 71.83793364153637 0.0
1.9995567528586062 73.8380060909356 0.0
1.9995307184012676 75.83808512078349 0.0
1.9995044052674817 77.83817092140832 0.0
1.999477791906197 79.83826369856035 0.0
1.9994508567869547 81.83836367339984 0.0
1.9994235784072674 83.83847108247824 0.0
1.9993959353001247 85.83858617771412 0.0
1.9993679060415477 87.83870922636183 0.0
1.9993394692580968 89.83884051097424 0.0
1.9993106036342363 91.83898032935917 0.0
1.999281287919458 93.83912899452964 0.0
1.9992515009350638 95.83928683464823 0.0
1.999221221580496 97.83945419296606 0.0
4.000977722041247 1.8392412898270418 0.0
4.0009172951477705 3.8390847990351658 0.0
4.000857843008119 5.838937805885075 0.0
4.000799322616896 7.83879997082337 0.0
4.000741691124976 9.838670969557839 0.0
4.0006849058273195 11.838550492995974 0.0
4.000628924149818 13.83843824718878 0.0
4.000573703635361 15.838333953280687 0.0
4.000519201929354 17.83823734746495 0.0
4.000465376764897 19.838148180945904 0.0
4.000412185947785 21.838066219907 0.0
4.000359587341553 23.837991245485735 0.0
4.000307538852692 25.837923053754693 0.0
4.000255998416247 27.83786145570868 0.0
4.0002049239818795 29.837806277258128 0.0
4.000154273500589 31.837757359228256 0.0
4.0001040049121706 33.83771455736362 0.0
4.000054076133569 35.83767774233734 0.0
4.000004445048153 37.83764679975539 0.0
3.9999550694960795 39.83762163020566 0.0
3.9999059072657728 41.837602149254934 0.0
3.9998569160865896 43.83758828747822 0.0
3.9998080536227416 45.837579990490454 0.0
3.9997592774684927 47.837577218977444 0.0
3.9997105451447004 49.83757994872874 0.0
3.999661814096676 51.83758817067185 0.0
3.9996130416934315 53.83760189090672 0.0
3.9995641852282713 55.83762113074062 0.0
3.9995152019207456 57.83764592672208 0.0
3.9994660489199565 59.83767633067409 0.0
3.9994166833091764 61.83771240972536 0.0
3.999367062111762 63.8377542463369 0.0
3.9993171422982985 65.83780193832474 0.0
3.999266880794965 67.83785559890853 0.0
3.9992162344930033 69.83791535670055 0.0
3.999165160259277 71.83798135573136 0.0
3.999113614947785 73.83805375546017 0.0
3.999061555412086 75.83813273077998 0.0
3.9990089385184953 77.83821847201752 0.0
3.9989557211599513 79.83831118492704 0.0
3.9989018602704367 81.8384110906787 0.0
3.9988473128397994 83.83851842583981 0.0
3.998792035928809 85.83863344235081 0.0
3.998735986684352 87.83875640749378 0.0
3.998679122354481 89.83888760385545 0.0
3.9986214003032456 91.83902732928308 0.0
3.9985627780250033 93.83917589683466 0.0
3.998503213158077 95.83933363472273 0.0
3.998442663497467 97.83950088625309 0.0
6.001466036954866 1.8393189257151374 0.0
6.0013754197056315 3.839162611388293 0.0
6.001286264454317 5.839015787212862 0.0
6.001198506702071 7.83887811372648 0.0
6.001112082185557 9.838749266720479 0.0
6.0010269268584855 11.838628937177592 0.0
6.000942976871643 13.838516831215152 0.0
6.00086016855184 15.83841267003446 0.0
6.0007784383799825 17.83831618987591 0.0
6.000697722968663 19.838227141980916 0.0
6.000617959039518 21.838145292560075 0.0
6.000539083400626 23.83807042276793 0.0
6.000461032924198 25.838002328684354 0.0
6.0003837445248385 27.83794082130197 0.0
6.000307155138524 29.83788572651988 0.0
6.000231201702581 31.837836885143286 0.0
6.000155821136779 33.837794152888705 0.0
6.000080950325753 35.83775740039368 0.0
6.0000065261028706 37.837726513221924 0.0
5.999932485235703 39.8377013919129 0.0
5.999858764413179 41.8376819519797 0.0
5.999785300234544 43.837668123939274 0.0
5.999712029200219 45.83765985334492 0.0
5.999638887704555 47.83765710081811 0.0
5.99956581203063 49.837659842082275 0.0
5.999492738347026 51.8376680679978 0.0
5.999419602706714 53.83768178459768 0.0
5.99934634104792 55.83770101312297 0.0
5.999272889197088 57.83772579005793 0.0
5.999199182873858 59.83775616716389 0.0
5.999125157698013 61.83779221151148 0.0
5.999050749198387 63.8378340055081 0.0
5.998975892823643 65.83788164692152 0.0
5.998900523954844 67.83793524892866 0.0
5.99882457791975 69.83799494010604 0.0
5.998747990008692 71.83806086445583 0.0
5.998670695491957 73.83813318141684 0.0
5.998592629638489 75.83821206587021 0.0
5.9985137277357925 77.83829770813995 0.0
5.998433925110845 79.83839031398706 0.0
5.9983531571518425 81.838490104598 0.0
5.998271359330572 83.83859731656653 0.0
5.998188467225151 85.8387122018695 0.0
5.99810441654294 87.83883502783553 0.0
5.998019143143336 89.83896607710766 0.0
5.997932583060158 91.83910564759918 0.0
5.997844672523331 93.83925405244308 0.0
5.997755347979554 95.83941161993565 0.0
5.997664546111618 97.83957869347411 0.0
8.001953696607217 1.839427583304842 0.0
8.00183291670703 3.8392715160027944 0.0
8.00171408588853 5.839124928368693 0.0
8.001597118170656 7.838987481068386 0.0
8.001481927888443 9.838858850010801 0.0
8.001368429667988 11.838738726284564 0.0
8.001256538399476 13.83862681610022 0.0
8.001146169208715 15.838522840738987 0.0
8.001037237427594 17.838426536507416 0.0
8.000929658563857 19.83833765469896 0.0
8.000823348270597 21.838255961562076 0.0
8.000718222315871 23.838181238275183 0.0
8.000614196552663 25.83811328092821 0.0
8.000511186889655 27.838051900510393 0.0
8.000409109263003 29.837996922904708 0.0
8.000307879609402 31.837948188888003 0.0
8.000207413840732 33.83790555413719 0.0
8.000107627820444 35.83786888923948 0.0
8.00000843734192 37.837838079699026 0.0
7.999909758108963 39.837813025986954 0.0
7.999811505718593 41.83779364354074 0.0
7.99971359564623 43.837779862795635 0.0
7.999615943233421 45.83777162921802 0.0
7.9995184636781635 47.83776890333879 0.0
7.999421072027909 49.83777166078824 0.0
7.99932368317527 51.8377798923324 0.0
7.99922621185648 53.83779360390981 0.0
7.9991285726526264 55.837812816668496 0.0
7.9990306799935755 57.83783756700209 0.0
7.998932448164656 59.837867906585195 0.0
7.998833791315999 61.83790390240665 0.0
7.998734623474451 63.83794563679829 0.0
7.9986348585580505 65.8379932074598 0.0
7.998534410392875 67.83804672750792 0.0
7.998433192732215 69.83810632546876 0.0
7.998331119277893 71.83817214530437 0.0
7.998228103703553 73.83824434642464 0.0
7.99812405967979 75.83832310369405 0.0
7.99801890090087 77.83840860743247 0.0
7.997912541112813 79.83850106340998 0.0
7.997804894142614 81.838600692836 0.0
7.997695873928321 83.83870773234122 0.0
7.997585394549632 85.83882243395355 0.0
7.997473370258732 87.83894506506692 0.0
7.997359715510997 89.83907590840347 0.0
7.997244344995186 91.83921526196914 0.0
7.997127173662711 93.83936343900265 0.0
7.997008116755572 95.839520767918 0.0
7.996887089832517 97.83968759224118 0.0
10.002440482691428 1.839567229946242 0.0
10.002289577072641 3.8394114802022012 0.0
10.002141107403963 5.8392651966526286 0.0
10.001994966237385 7.839128040129527 0.0
10.00185104652332 9.838999686694123 0.0
10.001709241578688 11.838879827572068 0.0
10.001569445052606 13.838768169094415 0.0
10.001431550890228 15.83866443264564 0.0
10.001295453295242 17.838568354617585 0.0
10.001161046691601 19.838479686370757 0.0
10.001028225684886 21.838398194202316 0.0
10.000896885023838 23.838323659321162 0.0
10.000766919562434 25.838255877829802 0.0
10.000638224222934 27.83819466071282 0.0
10.000510693960242 29.838139833831843 0.0
10.000384223727941 31.838091237926793 0.0
10.000258708446287 33.838048728622816 0.0
10.000134042972446 35.83801217644184 0.0
10.00001012207323 37.83798146681054 0.0
9.9998868404005 39.83795650011151 0.0
9.999764092469514 41.8379371916841 0.0
9.999641772640262 43.8379234718575 0.0
9.999519775102028 45.83791528598565 0.0
9.99939799386122 47.837912594482006 0.0
9.999276322732507 49.83791537285626 0.0
9.999154655333559 51.837923611752124 0.0
9.999032885082958 53.83793731698592 0.0
9.998910905201855 55.83795650958511 0.0
9.998788608718893 57.83798122582604 0.0
9.998665888478621 59.838011517270814 0.0
9.998542637153234 61.83804745080237 0.0
9.998418747257613 63.83808910865457 0.0
9.99829411116752 65.83813658843877 0.0
9.998168621140803 67.8381900031937 0.0
9.99804216934159 69.83824948137995 0.0
9.99791464786711 71.8383151669074 0.0
9.997785948777057 73.83838721914836 0.0
9.997655964125263 75.83846581294517 0.0
9.997524585993393 77.83855113861208 0.0
9.997391706526377 79.83864340193067 0.0
9.997257217969322 81.83874282413967 0.0
9.997121012705465 83.83884964191722 0.0
9.996982983294897 85.83896410735693 0.0
9.99684302251357 87.83908648793691 0.0
9.99670102339214 89.8392170664815 0.0
9.99655687925431 91.83935614111645 0.0
9.996410483753973 93.83950402521712 0.0
9.996261730910748 95.83966104734986 0.0
9.99611051514329 97.83982755120749 0.0
12.002926176998887 1.8397378236664192 0.0
12.00274519181494 3.839582461979151 0.0
12.002567129177828 5.839436550026855 0.0
12.00239186019208 7.839299748846638 0.0
12.002219256445116 9.839171734687541 0.0
12.002049189968123 11.83905219894399 0.0
12.00188153319394 13.83894084809539 0.0
12.00171615891283 15.838837403653118 0.0
12.00155294022664 17.838741602113707 0.0
12.001391750502155 19.838653194919814 0.0
12.001232463323959 21.838571948428005 0.0
12.001074952447658 23.838497643884203 0.0
12.000919091753714 25.838430077405878 0.0
12.000764755202548 27.838369059971228 0.0
12.00061181679121 29.838314417415067 0.0
12.00046015051222 31.83826599043116 0.0
12.0003096303147 33.8382236345805 0.0
12.000160130068261 35.83818722030402 0.0
12.000011523530015 37.83815663293256 0.0
11.999863684314766 39.83813177273914 0.0
11.999716485868735 41.838112554942036 0.0
11.999569801447054 43.838098909739465 0.0
11.999423504095034 45.838090782346484 0.0
11.999277466633416 47.83808813303176 0.0
11.999131561647777 49.83809093715608 0.0
11.998985661481996 51.83809918521243 0.0
11.998839638235927 53.83811288286632 0.0
11.998693363767245 55.8381320509965 0.0
11.998546709697541 57.838156725734585 0.0
11.998399547422405 59.8381869585041 0.0
11.998251748125732 61.83822281605714 0.0
11.998103182797855 63.838264380506644 0.0
11.997953722257611 65.83831174935477 0.0
11.997803237178003 67.83836503554402 0.0
11.99765159811549 69.83842436745377 0.0
11.9974986755425 71.8384898889292 0.0
11.997344339882957 73.83856175929596 0.0
11.99718846155077 75.83864015336854 0.0
11.997030910990587 77.83872526145373 0.0
11.99687155872091 79.83881728934685 0.0
11.996710275378842 81.83891645832209 0.0
11.996546931766227 83.83902300511545 0.0
11.996381398896782 85.83913718190122 0.0
11.996213548043562 87.83925925626055 0.0
11.996043250786338 89.83938951114342 0.0
11.995870379058434 91.83952824482293 0.0
11.995694805192052 93.83967577084265 0.0
11.995516401961892 95.83983241795683 0.0
11.995335042626088 97.839998530064 0.0
14.003410561444921 1.839939313173821 0.0
14.003199552062032 3.839784409999501 0.0
14.002991951493035 5.83963893711962 0.0
14.002787609418894 7.839502555816512 0.0
14.002586376090656 9.83937494256354 0.0
14.002388102282412 11.839255788956466 0.0
14.002192639241022 13.839144801651459 0.0
14.00199983863324 15.839041702310848 0.0
14.001809552491206 17.83894622755553 0.0
14.001621633156903 19.838858128925423 0.0
14.001435933226198 21.838777172847323 0.0
14.00125230549329 23.838703140610416 0.0
14.001070602896085 25.83863582834922 0.0
14.000890678462918 27.83857504703349 0.0
14.000712385261398 29.838520622465232 0.0
14.00053557634964 31.838472395282363 0.0
14.000360104730383 33.83843022096856 0.0
14.000185823308415 35.83839396986754 0.0
14.000012584851502 37.8383635271951 0.0
13.999840241955345 39.83833879309306 0.0
13.999668647012562 41.838319682634754 0.0
13.99949765218614 43.83830612586171 0.0
13.9993271093874 45.838298067823004 0.0
13.999156870258652 47.838295468614135 0.0
13.998986786160676 49.838298303418114 0.0
13.998816708165089 51.83830656254775 0.0
13.998646487051579 53.838320251488476 0.0
13.998475973310134 55.83833939094133 0.0
13.998305017148201 57.838364016865164 0.0
13.998133468502598 59.83839418051773 0.0
13.997961177056338 61.83842994849485 0.0
13.997787992260022 63.838471402764874 0.0
13.997613763357869 65.83851864069919 0.0
13.997438339417933 67.83857177512508 0.0
13.997261569366659 69.83863093432451 0.0
13.997083302027177 71.83869626206506 0.0
13.996903386161335 73.8387679176157 0.0
13.996721670514994 75.83884607575732 0.0
13.99653800386631 77.83893092678699 0.0
13.996352235076563 79.83902267651555 0.0
13.996164213143206 81.83912154625878 0.0
13.995973787254428 83.83922777282106 0.0
13.995780806845046 85.83934160847191 0.0
13.995585121652757 87.83946332091509 0.0
13.995386581774618 89.83959319324984 0.0
13.995185037722527 91.83973152392467 0.0
13.994980340477515 93.83987862668373 0.0
13.994772341541783 95.84003483050552 0.0
13.994560892987735 97.84020047953437 0.0
16.003893418094325 1.8401716378637978 0.0
16.003652449081418 3.840017263607616 0.0
16.003415374759708 5.839872297230257 0.0
16.003182023415416 7.839736400300823 0.0
16.00295222399503 9.83960924955465 0.0
16.002725806049767 11.839490536822348 0.0
16.00250259967652 13.839379968965915 0.0
16.002282435455953 15.839277267823183 0.0
16.002065144388556 17.839182170159347 0.0
16.0018505578299 19.83909442762686 0.0
16.001638507425316 21.83901380673337 0.0
16.001428825045195 23.838940088817477 0.0
16.001221342721387 25.83887307003242 0.0
16.001015892585333 27.838812561336972 0.0
16.000812306808655 29.838758388493773 0.0
16.00061041754653 31.838710392074564 0.0
16.000410056884526 33.838668427471816 0.0
16.00021105678924 35.83863236491496 0.0
16.00001324906312 37.83860208948474 0.0
15.999816465303866 39.838577501169276 0.0
15.999620536868592 41.8385585148721 0.0
15.999425294843089 43.83854506045153 0.0
15.999230570016445 45.83853708276245 0.0
15.999036192860958 47.83853454169807 0.0
15.998841993517733 49.838537412233634 0.0
15.99864780178779 51.83854568447143 0.0
15.998453447129048 53.838559363686585 0.0
15.998258758658803 55.83857847037259 0.0
15.998063565162004 57.83860304028641 0.0
15.997867695105128 59.83863312449214 0.0
15.997670976655535 61.83866878940292 0.0
15.997473237706286 63.83871011681798 0.0
15.99727430590612 65.83875720395568 0.0
15.997074008694515 67.83881016350819 0.0
15.996872173341567 69.8388691236434 0.0
15.99666862699235 71.83893422803736 0.0
15.996463196715547 73.83900563589226 0.0
15.996255709555944 75.83908352194874 0.0
15.996045992590345 77.83916807649152 0.0
15.995833872986559 79.83925950534854 0.0
15.995619178064945 81.8393580298831 0.0
15.995401735361902 83.8394638869781 0.0
15.995181372694779 85.83957732901347 0.0
15.99495791822756 87.83969862383483 0.0
15.99473120053661 89.83982805471496 0.0
15.994501048675652 91.83996592030657 0.0
15.994267292239298 93.84011253458742 0.0
15.99402976142418 95.84026822679763 0.0
15.993788287086762 97.84043334136904 0.0
18.00437452918951 1.8404347278255009 0.0
18.00410367430592 3.8402809528329103 0.0
18.003837199538783 5.840136560335449 0.0
18.00357491181361 7.840001212232152 0.0
18.003316618809695 9.839874585559299 0.0
18.00306212889553 11.839756372416856 0.0
18.002811251060283 13.839646279902551 0.0
18.002563794842033 15.8395440300548 0.0
18.002319570254127 17.83944935980327 0.0
18.00207838771033 19.839362020928395 0.0
18.001840057949817 21.839281780029147 0.0
18.001604391962776 23.839208418499425 0.0
18.001371200917383 25.839141732512466 0.0
18.001140296088934 27.839081533012962 0.0
18.000911488791758 29.83902764571695 0.0
18.000684590314464 31.838979911118873 0.0
18.000459411859165 33.838938184505295 0.0
18.00023576448513 35.83890233597331 0.0
18.000013459057122 37.83887225044771 0.0
17.999792306199197 39.83884782773929 0.0
17.99957211625381 41.838828982556 0.0
17.999352699246806 43.8388156445452 0.0
17.999133864858504 45.83880775833847 0.0
17.99891542240091 47.83880528359634 0.0
17.998697180801255 49.83880819505528 0.0
17.998478948591977 51.83881648257571 0.0
17.998260533907278 53.83883015119103 0.0
17.998041744485935 55.83884922115637 0.0
17.997822387680866 57.8388737279966 0.0
17.99760227047481 59.838903722553326 0.0
17.99738119950247 61.83893927102957 0.0
17.99715898107874 63.838980455029954 0.0
17.996935421232898 65.83902737159666 0.0
17.996710325748563 67.83908013326611 0.0
17.996483500209127 69.83913886807436 0.0
17.996254750048372 71.83920371959145 0.0
17.996023880605982 73.83927484694193 0.0
17.995790697187388 75.83935242481897 0.0
17.995555005127752 77.83943664349191 0.0
17.995316609859437 79.83952770880693 0.0
17.995075316982344 81.83962584218035 0.0
17.994830932336768 83.83973128058399 0.0
17.994583262077896 85.83984427652301 0.0
17.994332112751202 87.83996509800488 0.0
17.994077291368185 89.84009402850025 0.0
17.99381860548136 91.84023136689547 0.0
17.993555863257637 93.8403774274362 0.0
17.993288873549275 95.84053253966276 0.0
17.993017445961044 97.84069704833733 0.0
20.004853677180176 1.8407285038502468 0.0
20.004553019361207 3.840575398397841 0.0
20.004257226566946 5.840431647096903 0.0
20.003966084401856 7.840296912221359 0.0
20.00367937932152 9.840170871148896 0.0
20.003396898558204 11.840053216284549 0.0
20.003118430041976 13.83994365499243 0.0
20.002843762318655 15.839841909537263 0.0
20.002572684465406 17.839747717033728 0.0
20.002304986005512 19.83966082940563 0.0
20.00204045682284 21.839581013353737 0.0
20.00177888707726 23.839508050332743 0.0
20.00152006712173 25.83944173653663 0.0
20.001263787421912 27.839381882892308 0.0
20.001009838479014 29.8393283150612 0.0
20.000758010756517 31.839280873448416 0.0
20.000508094611515 33.83923941321892 0.0
20.000259880230942 35.83920380431847 0.0
20.000013157573374 37.839173931493754 0.0
19.999767716316885 39.83914969435359 0.0
19.999523345812882 41.8391310073833 0.0
19.999279835046856 43.83911779999043 0.0
19.999036972605666 45.83911001655278 0.0
19.99879454665193 47.83910761646677 0.0
19.99855234490564 49.83911057419769 0.0
19.998310154632858 51.83911887933166 0.0
19.99806776264181 53.83913253662776 0.0
19.997824955286227 55.839151566070605 0.0
19.997581518475997 57.839176002921825 0.0
19.997337237694975 59.83920589777036 0.0
19.99709189802585 61.83924131658073 0.0
19.99684528418196 63.83928234073646 0.0
19.996597180545876 65.8393290670791 0.0
19.996347371214313 67.83938160796801 0.0
19.99609564004945 69.83944009128857 0.0
19.995841770736018 71.83950466048972 0.0
19.995585546843767 73.83957547460652 0.0
19.995326751895316 75.83965270827683 0.0
19.995065169438252 77.83973655175097 0.0
19.99480058312148 79.83982721089401 0.0
19.99453277677496 81.83992490718073 0.0
19.99426153449221 83.84002987768191 0.0
19.993986640714905 85.8401423750429 0.0
19.9937078803187 87.84026266745298 0.0
19.993425038699417 89.84039103860601 0.0
19.993137901858674 91.84052778765201 0.0
19.992846256488004 93.84067322913953 0.0
19.99254989005015 95.84082769294926 0.0
19.992248590856622 97.84099152421837 0.0
22.005330644752895 1.8410528774415893 0.0
22.005000276092918 3.840900511727533 0.0
22.004675256781006 5.840757468870594 0.0
22.004355351146454 7.840623411566555 0.0
22.004040324471188 9.840498017576595 0.0
22.00372994290442 11.840380979647726 0.0
22.00342397337289 13.840272005442179 0.0
22.003122183487346 15.840170817477171 0.0
22.00282434144694 17.84007715307331 0.0
22.00253021594264 19.839990764313256 0.0
22.002239576060685 21.839911418009805 0.0
22.001952191187158 23.839838895683553 0.0
22.00166783091454 25.83977299354947 0.0
22.001386264951407 27.83971352251215 0.0
22.001107263035653 29.839660308169506 0.0
22.00083059485239 31.839613190824345 0.0
22.000556029956844 33.83957202550324 0.0
22.000283337703078 35.83953668198027 0.0
22.000012287178865 37.83950704480085 0.0
21.999742647147258 39.83948301334571 0.0
21.999474185995258 41.83946450184933 0.0
21.999206671689837 43.839451439449114 0.0
21.99893987174149 45.839443770237395 0.0
21.9986735531758 47.83944145331354 0.0
21.998407482512818 49.839444462838195 0.0
21.99814142575461 51.83945278808912 0.0
21.997875148380956 53.83946643351729 0.0
21.997608415353085 55.839485418803484 0.0
21.997340991125597 57.83950977891345 0.0
21.99707263966637 59.83953956415229 0.0
21.99680312448437 61.83957484021629 0.0
21.99653220866512 63.83961568824005 0.0
21.996259654913782 65.83966220483947 0.0
21.995985225605406 67.83971450217389 0.0
21.99570868284215 69.83977270795859 0.0
21.9954297885171 71.83983696550494 0.0
21.995148304384276 73.83990743374603 0.0
21.99486399213432 75.83998428725596 0.0
21.99457661347547 77.84006771626156 0.0
21.99428593021909 79.84015792664704 0.0
21.99399170436919 81.84025513995053 0.0
21.99369369821519 83.8403595933517 0.0
21.993391674427095 85.84047153965125 0.0
21.99308539615237 87.84059124724045 0.0
21.99277462711332 89.84071900006194 0.0
21.992459131704035 91.84085509756032 0.0
21.992138675085968 93.84099985462345 0.0
21.991813023280546 95.84115360151377 0.0
21.99148194325791 97.84131668379 0.0
24.005805214862395 1.8414077508272855 0.0
24.00544523659528 3.8412561949612876 0.0
24.005091091343623 5.84111392771787 0.0
24.004742522214183 7.840980612263823 0.0
24.004399273372254 9.84085592678765 0.0
24.004061089944738 11.840739564416689 0.0
24.003727717918093 13.84063123314388 0.0
24.00339890403278 15.84053065576587 0.0
24.00307439567553 17.840437569830353 0.0
24.002753940770592 19.840351727594367 0.0
24.002437287671416 21.84027289599275 0.0
24.002124185053674 23.84020085661662 0.0
24.00181438181085 25.840135405701453 0.0
24.001507626953174 27.840076354124214 0.0
24.00120366951098 29.840023527409397 0.0
24.000902258443126 31.839976765743344 0.0
24.000603142551242 33.8399359239962 0.0
24.000306070400427 35.839900871748924 0.0
24.000010790246954 37.83987149332088 0.0
23.99971704997348 39.83984768783733 0.0
23.999424597032036 41.839829369252115 0.0
23.99913317839535 43.83981646640086 0.0
23.998842540516588 45.83980892305723 0.0
23.998552429297824 47.83980669798915 0.0
23.998262590067313 49.839809765017606 0.0
23.997972767565763 51.839818113076596 0.0
23.997682705941624 53.83983174627385 0.0
23.997392148755313 55.83985068395141 0.0
23.997100838992456 57.83987496074537 0.0
23.996808519085963 59.83990462664427 0.0
23.996514930946876 61.83993974704524 0.0
23.996219816003684 63.839980402805054 0.0
23.995922915250098 65.84002669028732 0.0
23.995623969300677 67.84007872142753 0.0
23.995322718454357 69.84013662375013 0.0
23.99501890276525 71.84020054041173 0.0
23.99471226212032 73.84027063022998 0.0
23.994402536323577 75.8403470677055 0.0
23.994089465186047 77.84043004303679 0.0
23.993772788621005 79.84051976212682 0.0
23.99345224674379 81.84061644658156 0.0
23.99312757997535 83.84072033369932 0.0
23.992798529148708 85.84083167645095 0.0
23.992464835617426 87.84095074345043 0.0
23.99212624136492 89.84107781891518 0.0
23.991782489113646 91.84121320261625 0.0
23.991433322432826 93.84135720981824 0.0
23.991078485843502 95.84151017120836 0.0
23.990717724919215 97.84167243281536 0.0
26.006277170763997 1.841793016973422 0.0
26.00588769324072 3.8416423409661626 0.0
26.005504531669704 5.8415009164185845 0.0
26.005127407995204 7.8413684070199965 0.0
26.004756045330772 9.841244491431963 0.0
26.004390167849465 11.84112886320187 0.0
26.004029500668636 13.84102123068705 0.0
26.00367376973131 15.840921316991132 0.0
26.00332270168527 17.840828859910363 0.0
26.00297602376145 19.840743611891686 0.0
26.002633463652913 21.8406653400016 0.0
26.002294749395674 23.84059382590587 0.0
26.00195960925251 25.84052886585921 0.0
26.001627771600692 27.840470270704635 0.0
26.001298964824855 29.840417865882205 0.0
26.000972917215382 31.84037149144641 0.0
26.000649356873694 33.84033100209156 0.0
26.000328011624532 35.8402962671825 0.0
26.00000860893617 37.84026717078641 0.0
25.999690875848884 39.840243611744114 0.0
25.999374538912292 41.840225503697496 0.0
25.999059324131643 43.840212775147165 0.0
25.99874495692363 45.840205369513214 0.0
25.9984311620817 47.840203245196335 0.0
25.998117663751195 49.84020637564121 0.0
25.997804185414275 51.84021474940126 0.0
25.997490449884843 53.840228370204045 0.0
25.99717617931329 55.84024725701676 0.0
25.996861095201115 57.840271444110456 0.0
25.996544918425286 59.84030098112313 0.0
25.996227369272198 61.84033593312031 0.0
25.995908167481073 63.84037638065077 0.0
25.99558703229645 65.84042241979776 0.0
25.995263682529618 67.84047416224801 0.0
25.99493783662856 69.84053173531322 0.0
25.994609212756018 71.84059528197683 0.0
25.994277528875227 73.84066496092635 0.0
25.993942502842902 75.8407409465788 0.0
25.993603852508663 77.84082342909839 0.0
25.993261295820506 79.84091261440571 0.0
25.992914550935357 81.84100872417865 0.0
25.99256333633403 83.84111199584346 0.0
25.992207370939582 85.84122268255626 0.0
25.991846374238147 87.8413410531743 0.0
25.991480066400978 89.84146739221649 0.0
25.99110816840671 91.84160199981298 0.0
25.990730402162292 93.84174519164368 0.0
25.990346490621235 95.84189729886539 0.0
25.989956157897737 97.84205866802745 0.0
28.006746296050895 1.842208559600997 0.0
28.00632743871387 3.8420588333529935 0.0
28.00591537945691 5.841918318486632 0.0
28.005509819129976 7.841786679267767 0.0
28.005110459868163 9.841663594878737 0.0
28.004717004967727 11.841548759328266 0.0
28.00432915875675 13.841441881372795 0.0
28.003946626462216 15.841342684451101 0.0
28.00356911407499 17.841250906629735 0.0
28.003196328214287 19.841166300560893 0.0
28.002827975993224 21.8410886334521 0.0
28.002463764886574 23.841017687047135 0.0
28.002103402602017 25.840953257617794 0.0
28.00174659695614 27.840895155965782 0.0
28.001393055755972 29.840843207434382 0.0
28.00104248668723 31.840797251929427 0.0
28.000694597209847 33.84075714394862 0.0
28.000349094461576 35.84072275261606 0.0
28.000005685170372 37.84069396171891 0.0
27.999664075575943 39.84067066978302 0.0
27.999323971361022 41.84065279010525 0.0
27.998985077592685 43.84064025081624 0.0
27.99864709867391 45.8406329949461 0.0
27.998309738305743 47.840630980490666 0.0
27.997972699460206 49.84063418048004 0.0
27.99763568436394 51.8406425830486 0.0
27.997298394492685 53.84065619150547 0.0
27.99696053057663 55.84067502440508 0.0
27.996621792616466 57.840699115616594 0.0
27.99628187991017 59.84072851439194 0.0
27.995940491090238 61.840763285431265 0.0
27.995597324171165 63.840803508943594 0.0
27.99525207660708 65.84084928070266 0.0
27.994904445358973 67.84090071211993 0.0
27.994554126971426 69.84095793027126 0.0
27.99420081765828 71.8410210779472 0.0
27.99384421339672 73.8410903136896 0.0
27.99348401002938 75.84116581182035 0.0
27.993119903373803 77.84124776246266 0.0
27.99275158933847 79.84133637155293 0.0
27.99237876404483 81.84143186084447 0.0
27.992001123954164 83.84153446790043 0.0
27.991618365998587 85.84164444607701 0.0
27.991230187715015 87.8417620644956 0.0
27.99083628738083 89.84188760800367 0.0
27.99043636415008 91.842021377124 0.0
27.990030118188646 93.8421636879918 0.0
27.989617250806955 95.84231487227976 0.0
27.989197464588482 97.8424752771108 0.0
30.007212374691118 1.84265425320525 0.0
30.00676426604497 3.842505546495104 0.0
30.006323436715338 5.842366008188141 0.0
30.005889566535004 7.842235303183444 0.0
30.00546233674301 9.842113111233962 0.0
30.00504142984518 11.841999126852551 0.0
30.004626529469444 13.841893059230548 0.0
30.004217320217347 15.841794632170727 0.0
30.003813487513888 17.8417035840318 0.0
30.003414717457066 19.841619667686523 0.0
30.0030206966689 21.84154265049216 0.0
30.00263111214941 23.8414723142732 0.0
30.002245651134437 25.841408455315293 0.0
30.00186400095927 27.84135088437016 0.0
30.001485848928276 29.841299426670698 0.0
30.001110882192265 31.841253921955794 0.0
30.000738787633946 33.8412142245039 0.0
30.000369251762425 35.8411802031722 0.0
30.00000196061741 37.84115174143832 0.0
29.999636599683562 39.84112873748059 0.0
29.999272853815484 41.84111110421618 0.0
29.998910407173806 43.84109876936893 0.0
29.998548943172494 45.841091675540746 0.0
29.9981881444378 47.84108978028332 0.0
29.997827692778774 49.84109305617218 0.0
29.997467269169647 51.841101490882494 0.0
29.997106553743976 53.8411150872649 0.0
29.996745225800563 55.84113386342169 0.0
29.99638296382109 57.841157852781706 0.0
29.996019445499375 59.84118710417368 0.0
29.995654347781983 61.84122168189711 0.0
29.995287346920115 63.84126166578802 0.0
29.994918118532386 65.84130715127996 0.0
29.994546337678226 67.84135824948144 0.0
29.994171678941623 69.8414150872078 0.0
29.993793816524576 71.841477807036 0.0
29.993412424350044 73.84154656734515 0.0
29.99302717617352 75.84162154234971 0.0
29.992637745702915 77.84170292212397 0.0
29.992243806725835 79.8417909126176 0.0
29.991845033243376 81.84188573566203 0.0
29.991441099609837 83.84198762896587 0.0
29.99103168067698 85.84209684609998 0.0
29.99061645194197 87.84221365647088 0.0
29.990195089697558 89.84233834528222 0.0
29.989767271183236 91.8424712134835 0.0
29.989332674735792 93.84261257770657 0.0
29.988890979937576 95.84276277018827 0.0
29.988441867760805 97.84292213868014 0.0
32.00767519106431 1.843129963078122 0.0
32.007197968642934 3.8429823455501086 0.0
32.00672850579651 5.842843850562716 0.0
32.00626646142756 7.842714143707728 0.0
32.00581149597144 9.842592905360688 0.0
32.005363271240064 11.842479830583024 0.0
32.00492145026031 13.84237462903781 0.0
32.00448569710883 15.842277024921147 0.0
32.004055676745416 17.84218675690598 0.0
32.003631054846615 19.842103578100552 0.0
32.00321149764129 21.842027256020085 0.0
32.00279667174963 23.84195757257144 0.0
32.002386244027065 25.84189432404982 0.0
32.0019798814144 27.84183732114694 0.0
32.00157725079519 29.841786388970018 0.0
32.00117801886146 31.841741367071013 0.0
32.00078185198871 33.84170210948489 0.0
32.00038841612086 35.84166848477377 0.0
31.999997376665913 37.84164037607423 0.0
31.999608398402795 39.841617681182946 0.0
31.999221145399883 41.84160031260052 0.0
31.99883528094575 43.84158819760548 0.0
31.99845046749201 45.8415812783314 0.0
31.99806636660895 47.84157951184463 0.0
31.997682638953762 49.8415828702245 0.0
31.997298944251508 51.841591340644925 0.0
31.99691494128906 53.84160492545638 0.0
31.996530287921576 55.84162364226796 0.0
31.996144641091913 57.84164752402813 0.0
31.995757656862313 59.84167661910376 0.0
31.99536899045874 61.841710991356834 0.0
31.994978296327133 63.8417507202156 0.0
31.99458522820169 65.84179590074137 0.0
31.994189439184574 67.84184664371045 0.0
31.993790581836972 69.84190307565169 0.0
31.993388308280746 71.84196533890615 0.0
31.992982270310353 73.84203359167226 0.0
31.99257211951458 75.84210800804313 0.0
31.992157507407107 77.84218877803538 0.0
31.9917380855656 79.84227610760843 0.0
31.99131350577803 81.84237021867366 0.0
31.990883420195754 83.84247134909322 0.0
31.990447481491834 85.84257975266699 0.0
31.990005343023885 87.84269569910752 0.0
31.989556658999657 89.84281947400237 0.0
31.989101084644272 91.84295137876306 0.0
31.988638276367343 93.8430917305604 0.0
31.988167891928068 95.84324086224535 0.0
31.98768959059674 97.84339912225568 0.0
34.00813453000367 1.8436355453342106 0.0
34.007628340333014 3.8434890864851803 0.0
34.00713038942656 5.843351701448121 0.0
34.00664031535434 7.843223056569906 0.0
34.00615775785132 9.843102832902886 0.0
34.00568235814284 11.842990726103054 0.0
34.00521375876464 13.842886446343103 0.0
34.00475160337961 15.842789718242324 0.0
34.004295536593396 17.842700280809957 0.0
34.003845203770844 19.84261788740431 0.0
34.003400250854945 21.84254230570594 0.0
34.002960324190134 23.842473317704744 0.0
34.002525070351155 25.84241071969977 0.0
34.002094135979114 27.84235432231118 0.0
34.00166716762573 29.84230395050357 0.0
34.00124381160701 31.842259443620115 0.0
34.000823713867206 33.84222065542609 0.0
34.00040651985368 35.842187454158456 0.0
33.999991874403854 37.84215972257935 0.0
33.99957942164416 39.842137358067376 0.0
33.99916880490198 41.842120272667934 0.0
33.99875966663068 43.84210839317365 0.0
33.998351648348155 45.8421016612077 0.0
33.99794439058891 47.84210003330812 0.0
33.99753753287001 49.84210348101448 0.0
33.99713071367072 51.84211199095571 0.0
33.99672357042612 53.84212556493876 0.0
33.99631573953448 55.84214422003671 0.0
33.99590685637818 57.84216798867591 0.0
33.99549655535836 59.842196918721214 0.0
33.99508446994276 61.8422310735586 0.0
33.99467023272674 63.84227053217236 0.0
33.99425347550717 65.84231538921782 0.0
33.993833829368846 67.84236575510829 0.0
33.993410924782786 69.84242175605891 0.0
33.99298439171672 71.84248353415113 0.0
33.992553859756256 73.84255124738311 0.0
33.99211895823698 75.84262506971177 0.0
33.99167931638654 77.84270519108598 0.0
33.99123456347573 79.84279181747009 0.0
33.99078432897821 81.84288517085685 0.0
33.99032824273751 83.84298548926907 0.0
33.989865935140315 85.84309302674946 0.0
33.989397037295014 87.84320805333745 0.0
33.988921181213804 89.84333085503279 0.0
33.98843799999709 91.84346173374472 0.0
33.987947128018355 93.84360100722657 0.0
33.98744820110763 95.84374900899516 0.0
33.98694085673152 97.84390608823449 0.0
36.00859017683986 1.8441708469406857 0.0
36.00805517539594 3.844025616106227 0.0
36.00752889074066 5.8438894075088585 0.0
36.00701094022096 7.843761888315894 0.0
36.00650094298662 9.843642740312971 0.0
36.00599851979559 11.843531659798266 0.0
36.00550329281408 13.843428357492876 0.0
36.0050148854137 15.843332558469537 0.0
36.00453292196796 17.843244002095773 0.0
36.00405702765037 19.843162441993943 0.0
36.00358682823549 21.843087646016482 0.0
36.00312194990545 23.843019396235665 0.0
36.00266201906291 25.842957488947192 0.0
36.00220666215224 27.84290173468638 0.0
36.0017555054899 29.842851958256425 0.0
36.001308175105464 31.84280799876783 0.0
36.00086429659385 33.84276970968788 0.0
36.000423494980076 35.842736958896204 0.0
35.99998539459666 37.84270962874484 0.0
35.99954961897481 39.84268761615595 0.0
35.9991157907493 41.842670832679 0.0
35.99868353157786 43.84265920457799 0.0
35.99825246207519 45.84265267292181 0.0
35.997822201761444 47.8426511936752 0.0
35.99739236902592 49.84265473779255 0.0
35.996962581105464 51.842663291312384 0.0
35.996532454077794 53.842676855452915 0.0
35.996101602869686 55.842695446706855 0.0
35.995669641279825 57.84271909693511 0.0
35.99523618201622 59.842747853458654 0.0
35.994800836747956 61.842781779147366 0.0
35.99436321617103 63.842820952503935 0.0
35.993922930088075 65.84286546774241 0.0
35.99347958750156 67.84291543488095 0.0
35.99303279672002 69.84297097979203 0.0
35.99258216547715 71.84303224427245 0.0
35.99212730106292 73.84309938609914 0.0
35.99166781046644 75.84317257907648 0.0
35.99120330052977 77.8432520130743 0.0
35.99073337811186 79.84333789405603 0.0
35.99025765026208 81.84343044409582 0.0
35.98977572440194 83.84352990138369 0.0
35.98928720851418 85.84363652021852 0.0
35.9887917113379 87.8437505709872 0.0
35.98828884256834 89.84387234012988 0.0
35.98777821305952 91.84400213008978 0.0
35.98725943502827 93.84414025924757 0.0
35.98673212225744 95.84428706183944 0.0
35.98619589029623 97.84444288785774 0.0
38.009041917447036 1.8447357057516145 0.0
38.008478268609 3.844591772091457 0.0
38.007923813318676 5.844456806269076 0.0
38.00737814832232 7.844330476340643 0.0
38.006840872312615 9.844212464883796 0.0
38.00631158571208 11.844102468888025 0.0
38.005789890451574 13.84400019966254 0.0
38.00527538974613 15.84390538276402 0.0
38.004767687871016 17.843817757939995 0.0
38.00426638993983 19.84373707909017 0.0
38.003771101686795 21.843663114244173 0.0
38.00328142925525 23.843595645554682 0.0
38.0027969789937 25.843534469305126 0.0
38.00231735726127 27.843479395930768 0.0
38.00184217024355 29.84343025005242 0.0
38.00137102378016 31.84338687052198 0.0
38.000903523205174 33.8433491104782 0.0
38.00043927320071 35.8433168374089 0.0
37.99997787766503 37.84328993321824 0.0
37.99951893959525 39.843268294331224 0.0
37.999062060985295 41.84325183175851 0.0
37.9986068427394 43.84324047119079 0.0
37.99815288460138 45.84323415309656 0.0
37.99769978509975 47.8432328328206 0.0
37.997247141509064 49.84323648068468 0.0
37.99679454982705 51.84324508208985 0.0
37.99634160476776 53.843258637618675 0.0
37.99588789977076 55.843277163137444 0.0
37.99543302702587 57.84330068989672 0.0
37.994976577513604 59.84332926463017 0.0
37.99451814106098 61.84336294965018 0.0
37.994057306412216 63.843401822938354 0.0
37.9935936613147 65.84344597823085 0.0
37.99312679261904 67.84349552511694 0.0
37.99265628639345 69.84355058909605 0.0
37.9921817280519 71.84361131165366 0.0
37.991702702495424 73.84367785032312 0.0
37.99121879426604 75.84375037873836 0.0
37.99072958771304 77.84382908667762 0.0
37.99023466717001 79.84391418009628 0.0
37.98973361714297 81.84400588114865 0.0
37.98922602250747 83.84410442819765 0.0
37.98871146871437 85.84421007581084 0.0
37.98818954200251 87.84432309474272 0.0
37.98765982961715 89.84444377190202 0.0
37.987121920032216 91.8445724103028 0.0
37.98657540317486 93.84470932899872 0.0
37.98601987064992 95.84485486300017 0.0
37.985454915962166 97.84500936317274 0.0
40.00948953829133 1.8453299505472172 0.0
40.00889741528882 3.845187383029849 0.0
40.0083149612224 5.845053726150403 0.0
40.007741752374095 7.844928648925393 0.0
40.00717736712167 9.84481183478543 0.0
40.006621385698104 11.844702981461847 0.0
40.006073389946465 13.84460180089243 0.0
40.00553296307313 15.844508019148433 0.0
40.00499968940144 17.844421376378612 0.0
40.00447315412859 19.84434162677243 0.0
40.0039529430878 21.84426853854075 0.0
40.00343864251757 23.84420189391289 0.0
40.00292983883997 25.844141489149163 0.0
40.00242611844924 27.844087134567438 0.0
40.001927067512575 29.84403865458301 0.0
40.00143227178363 31.843995887760766 0.0
40.00094131643021 33.84395868687799 0.0
40.00045378587682 35.843926918993795 0.0
39.999969263662805 37.84390046552434 0.0
39.999487332316455 39.84387922235455 0.0
39.99900757324585 41.84386309991109 0.0
39.9985295666463 43.84385202326453 0.0
39.99805289142505 45.843845932235084 0.0
39.997577125142826 47.843844781498596 0.0
39.99710184397286 49.84384854069546 0.0
39.99662662267695 51.843857194540085 0.0
39.99615103459853 53.843870742931024 0.0
39.99567465167283 55.84388920106052 0.0
39.995197044453825 57.8439125995224 0.0
39.994717782157686 59.84394098441808 0.0
39.99423643272279 61.84397441745947 0.0
39.99375256288574 63.844012976066395 0.0
39.993265738273315 65.84405675345887 0.0
39.99277552350995 67.84410585876209 0.0
39.99228148234035 69.84416041707054 0.0
39.991783177767026 71.84422056953026 0.0
39.991280172202046 73.844286473407 0.0
39.99077202763253 75.84435830214501 0.0
39.9902583057996 77.84443624541665 0.0
39.9897385683893 79.84452050916067 0.0
39.989212377235816 81.84461131560944 0.0
39.988679294534684 83.84470890330279 0.0
39.98813888306604 85.84481352708879 0.0
39.9875907064259 87.84492545810907 0.0
39.987034329264326 89.84504498376899 0.0
39.986469317528616 91.84517240769019 0.0
39.98589523870973 93.845308049646 0.0
39.985311662089714 95.84545224547749 0.0
39.984718158987725 97.8456053469901 0.0
42.00993282648213 1.8459534010786496 0.0
42.009312411336616 3.8458122684651155 0.0
42.00870213903453 5.845679986515241 0.0
42.0081015655456 7.845556225280421 0.0
42.00751024909007 9.845440669107363 0.0
42.00692774987222 11.84533301652114 0.0
42.006353629809716 13.845232980129117 0.0
42.005787452262 15.845140286547673 0.0
42.00522878176025 17.84505467634737 0.0
42.00467718374144 19.844975904018604 0.0
42.004132224288995 21.84490373795589 0.0
42.00359346988162 23.8448379604596 0.0
42.003060487152695 25.84477836775387 0.0
42.002532842661424 27.844724770019475 0.0
42.002010102677396 29.84467699144053 0.0
42.00149183297963 31.84463487026394 0.0
42.000977598671014 33.84459825887008 0.0
42.000466964009334 35.84456702384999 0.0
41.999959492255186 37.844541046089105 0.0
41.999454745537335 39.84452022088699 0.0
41.998952284736255 41.84450445803894 0.0
41.99845166938545 43.84449368194654 0.0
41.997952457591545 45.84448783173155 0.0
41.997454205972396 47.84448686135053 0.0
41.99695646961385 49.84449073971151 0.0
41.99645880204471 51.84449945079183 0.0
41.99596075522997 53.84451299375598 0.0
41.995461879582095 55.84453138307307 0.0
41.99496172399013 57.844554648632375 0.0
41.99445983586656 59.84458283585693 0.0
41.993955761211566 61.84461600581372 0.0
41.993449044694415 63.84465423531862 0.0
41.99293922975179 65.84469761703605 0.0
41.99242585870276 67.84474625959031 0.0
41.99190847287987 69.84480028763767 0.0
41.9913866127763 71.84485984195506 0.0
41.990859818208335 73.84492507951506 0.0
41.99032762849286 75.84499617355135 0.0
41.989789582639276 77.84507331361456 0.0
41.98924521955499 79.84515670561679 0.0
41.98869407826397 81.84524657186451 0.0
41.98813569813713 83.84534315107756 0.0
41.98756961913376 85.84544669839501 0.0
41.98699538205231 87.84555748536428 0.0
41.986412528789494 89.84567579991479 0.0
41.98582060260571 91.84580194631289 0.0
41.9852191483949 93.84593624509837 0.0
41.9846077129565 95.84607903300075 0.0
41.98398584526734 97.8462306628343 0.0
44.01037156982611 1.846605868118896 0.0
44.009723053285384 3.8464662389457818 0.0
44.0090851518991 5.846335397716152 0.0
44.0084574014935 7.846213015593867 0.0
44.007839340305374 9.846098777906885 0.0
44.007230508687286 11.84599238402712 0.0
44.00663044880942 13.845893547272832 0.0
44.00603870436112 15.845801994835742 0.0
44.005454820255444 17.84571746772786 0.0
44.004878342338756 19.845639720750253 0.0
44.004308817108374 21.845568522481674 0.0
44.00374579143987 23.845503655285654 0.0
44.00318881232642 25.84544491533468 0.0
44.00263742663153 27.8453921126501 0.0
44.00209118085668 29.845345071156437 0.0
44.001549620925175 31.845303628748976 0.0
44.001012291983066 33.845267637372885 0.0
44.00047873821807 35.845236963109095 0.0
43.999948502697094 37.845211486267175 0.0
43.99942112722265 39.845191101513535 0.0
43.99889615220891 41.84517571796246 0.0
43.99837311657713 43.84516525929547 0.0
43.997851557670934 45.84515966388409 0.0
43.99733101119116 47.845158884913026 0.0
43.996811011150434 49.845162890505705 0.0
43.99629108984725 51.845171663850195 0.0
43.995770777859384 53.84518520332568 0.0
43.99524960405654 55.84520352262773 0.0
43.99472709563182 57.845226650892016 0.0
43.994202778152 59.84525463281569 0.0
43.99367617562632 61.84528752877525 0.0
43.993146810593366 63.84532541493936 0.0
43.992614204225944 65.84536838337583 0.0
43.992077876453635 67.84541654217017 0.0
43.99153734610266 69.84547001550553 0.0
43.990992131052835 71.84552894375852 0.0
43.99044174841101 73.84559348358148 0.0
43.98988571470085 75.84566380797494 0.0
43.989323546068135 77.84574010635029 0.0
43.988754758501216 79.8458225845812 0.0
43.98817886806558 81.84591146504253 0.0
43.98759539115195 83.84600698663586 0.0
43.987003844736726 85.84610940480013 0.0
43.986403746653345 87.84621899150629 0.0
43.985794615873374 89.84633603523437 0.0
43.98517597279555 91.84646084093208 0.0
43.98454733954047 93.84659372995307 0.0
43.983908240249164 95.84673503997384 0.0
43.9832582013824 97.84688512488815 0.0
46.010805556883824 1.8472871535204818 0.0
46.010129138349285 3.8471490960820396 0.0
46.0094638055637 5.847019761152054 0.0
46.00880907439698 7.846898821087358 0.0
46.00816446329455 9.846785962264223 0.0
46.00752949295173 11.846680884955402 0.0
46.00690368598595 13.846583303231558 0.0
46.0062865666094 15.846492944889299 0.0
46.00567766030619 17.84640955140046 0.0
46.00507649351592 19.846332877884752 0.0
46.00448259332671 21.846262693103473 0.0
46.0038954871798 23.84619877947295 0.0
46.00331470258767 25.846140933095793 0.0
46.00273976686744 27.846088963808654 0.0
46.00217020689084 29.846042695245096 0.0
46.00160554885229 31.8460019649121 0.0
46.00104531805583 33.84596662427855 0.0
46.00048903872147 35.84593653887036 0.0
45.999936233812264 37.84591158837335 0.0
45.99938642488164 39.84589166677065 0.0
45.998839131941914 41.84587668244357 0.0
45.99829387335382 43.845866558300536 0.0
45.99775016573712 45.84586123190891 0.0
45.99720752390224 47.84586065562768 0.0
45.996665460802966 49.845864796741644 0.0
45.99612348750962 51.845873637596355 0.0
45.99558111320297 53.845887175733004 0.0
45.995037845188364 55.845905424022256 0.0
45.99449318892976 57.84592841079607 0.0
45.993946648103645 59.845956179977186 0.0
45.99339772467233 61.84598879120515 0.0
45.992845918976606 63.84602631995679 0.0
45.992290729847305 65.84606885766148 0.0
45.99173165473559 67.8461165118266 0.0
45.99116818986164 69.84616940612598 0.0
45.99059983038171 71.84622768050338 0.0
45.99002607057263 73.84629149126204 0.0
45.98944640403421 75.84636101114494 0.0
45.988860323908234 77.8464364294051 0.0
45.98826732311415 79.84651795186397 0.0
45.987666894600366 81.8466058009575 0.0
45.9870585316106 83.8467002157685 0.0
45.98644172796402 85.84680145204341 0.0
45.9858159783483 87.84690978219255 0.0
45.985180778623736 89.84702549527236 0.0
45.98453562613716 91.84714889694786 0.0
45.98388002004327 93.84728030943353 0.0
45.98321346163134 95.8474200714123 0.0
45.982535454654325 97.84756853792955 0.0
48.01123457702933 1.8479970502806913 0.0
48.0105304644751 3.847860632610147 0.0
48.00983790642299 5.847732869331934 0.0
48.009156398993646 7.847613434079174 0.0
48.00848544105254 9.847502014345203 0.0
48.00782453385131 11.84739831135827 0.0
48.007173180667294 13.847302039982743 0.0
48.00653088644565 15.84721292864871 0.0
48.00589715744686 17.84713071930456 0.0
48.00527150090255 19.847055167394412 0.0
48.00465342468243 21.846986041857964 0.0
48.00404243697499 23.846923125151015 0.0
48.00343804598299 25.846866213284883 0.0
48.002839759636714 27.84681511588313 0.0
48.00224708532566 29.846769656253713 0.0
48.00165952965016 31.84672967147546 0.0
48.0010765981936 33.846695012496696 0.0
48.00049779531664 35.8466655442406 0.0
47.999922623972964 37.84664114571861 0.0
47.999350585547866 39.8466217101779 0.0
47.99878117971908 41.84660714521269 0.0
47.99821390434063 43.84659737290312 0.0
47.997648255348786 45.846592329957 0.0
47.99708372669088 47.846591967852 0.0
47.99651981027604 49.84659625297914 0.0
47.995955995948066 51.846605166787015 0.0
47.99539177147971 53.84661870592535 0.0
47.99482662258865 55.846636882387564 0.0
47.99426003297429 57.84665972365101 0.0
47.99369148437542 59.846687272814876 0.0
47.9931204566483 61.84671958873432 0.0
47.99254642786514 63.84675674614916 0.0
47.991968874432395 65.84679883580723 0.0
47.99138727122897 67.84684596459758 0.0
47.990801091763906 69.84689825564726 0.0
47.99020980835343 71.846955848433 0.0
47.98961289231702 73.8470188988787 0.0
47.98900981419216 75.84708757944385 0.0
47.98840004396771 77.84716207920171 0.0
47.98778305133496 79.84724260390571 0.0
47.98715830595614 81.84732937604362 0.0
47.98652527774943 83.84742263487689 0.0
47.985883437189905 85.84752263646489 0.0
47.98523225562467 87.84762965367165 0.0
47.98457120560161 89.8477439761541 0.0
47.983899761209265 91.84786591032915 0.0
47.98321739842635 93.84799577931912 0.0
47.98252359547851 95.8481339228726 0.0
47.98181783319952 97.84828069725995 0.0
50.01165842051235 1.8487353426151418 0.0
50.0109268303959 3.8486006324651547 0.0
50.01020726156383 5.84847450594693 0.0
50.00949919061626 7.848356638055791 0.0
50.00880209707145 9.84824671747229 0.0
50.00811546297086 11.848144446435223 0.0
50.007438772483994 13.84804954064332 0.0
50.006771511517286 15.84796172918738 0.0
50.00611316732998 17.84788075450706 0.0
50.005463228160465 19.847806372374073 0.0
50.004821182865605 21.847738351899217 0.0
50.00418652057557 23.847676475561233 0.0
50.003558730366436 25.847620539255345 0.0
50.00293730095185 27.847570352359938 0.0
50.00232172039573 29.847525737819215 0.0
50.001711475846946 31.847486532240566 0.0
50.001106053296866 33.84745258600421 0.0
50.00050493736036 35.84742376337977 0.0
49.999907611080964 37.847399942650945 0.0
49.99931355576026 39.84738101627378 0.0
49.998722250811454 41.84736689099905 0.0
49.99813317363734 43.84735748802164 0.0
49.99754579953226 45.847352743132774 0.0
49.99695960160804 47.84735260687192 0.0
49.9963740507432 49.847357044680294 0.0
49.99578861555561 51.847366037054144 0.0
49.995202762397774 53.84737957969759 0.0
49.99461595537454 55.84739768367403 0.0
49.994027656383054 57.847420375554925 0.0
49.993437325174284 59.84744769756628 0.0
49.99284441943605 61.84747970773098 0.0
49.992248394897445 63.847516480006036 0.0
49.99164870545395 65.84755810441412 0.0
49.991044803313656 67.8476046871846 0.0
49.99043613916392 69.84765635085945 0.0
49.98982216235851 71.84771323441284 0.0
49.9892023211252 73.84777549335753 0.0
49.98857606279332 75.84784329984149 0.0
49.987942834041206 77.84791684273507 0.0
49.98730208116315 79.84799632770594 0.0
49.9866532503553 81.84808197728165 0.0
49.9859957880202 83.84817403089747 0.0
49.98532914108861 85.84827274492883 0.0
49.98465275735822 87.84837839270548 0.0
49.98396608584746 89.84849126450672 0.0
49.98326857716298 91.84861166753493 0.0
49.982559683879074 93.8487399258656 0.0
49.98183886092611 95.84887638037243 0.0
49.981105565986105 97.84902138862441 0.0
52.012076878523445 1.8495018060405077 0.0
52.01131803568673 3.84936887086282 0.0
52.01057167881167 5.849244445951615 0.0
52.00983726523048 7.849128207752652 0.0
52.00911425536954 9.849019846204921 0.0
52.00840211231566 11.848919064612785 0.0
52.00770030138338 13.848825579548983 0.0
52.00700828968819 15.84873912079038 0.0
52.00632554572867 17.84865943128003 0.0
52.005651538981425 19.84858626711735 0.0
52.00498573951098 21.848519397573554 0.0
52.00432761759786 23.848458605129927 0.0
52.00367664338651 25.848403685536887 0.0
52.003032286554905 27.848354447891662 0.0
52.00239401600751 29.848310714732726 0.0
52.001761299592495 31.848272322148958 0.0
52.001133603844146 33.8482391199016 0.0
52.000510393750865 35.8482109715526 0.0
51.99989113254959 37.848187754601774 0.0
51.99927528154591 39.84816936065638 0.0
51.998662299960806 41.848155695565296 0.0
51.998051644803 43.84814667957957 0.0
51.997442770767115 45.848142247515305 0.0
51.99683513015706 47.84814234891609 0.0
51.99622817283432 49.84814694821634 0.0
51.995621346190525 51.84815602490431 0.0
51.99501409514397 53.84816957368415 0.0
51.9944058621596 55.84818760463623 0.0
51.99379608729222 57.84821014337488 0.0
51.993184208251954 59.84823723120311 0.0
51.9925696604927 61.848268925263746 0.0
51.99195187732218 63.84830529868488 0.0
51.991330290034306 65.84834644072001 0.0
51.990704328063075 67.848392456897 0.0
51.99007341915834 69.84844346913327 0.0
51.98943698958315 71.84849961586409 0.0
51.98879446433267 73.84856105215738 0.0
51.98814526737451 75.84862794982024 0.0
51.98748882191049 77.84870049749459 0.0
51.98682455065948 79.84877890074206 0.0
51.98615187616112 81.84886338211551 0.0
51.985470221099945 83.84895418121658 0.0
51.984779008649035 85.84905155473695 0.0
51.98407766283275 87.84915577648137 0.0
51.98336560890675 89.84926713737121 0.0
51.98264227375444 91.84938594542517 0.0
51.98190708629749 93.84951252571612 0.0
51.98115947791836 95.8496472203008 0.0
51.98039888289196 97.84979038812098 0.0
54.012489743261845 1.8502962074673788 0.0
54.01170388082183 3.8501651143916793 0.0
54.01093096677817 5.850042455655462 0.0
54.010170439472915 7.849927909245167 0.0
54.00942174052073 9.849821166430115 0.0
54.00868431433266 11.849721931634688 0.0
54.007957607643405 13.849629922343762 0.0
54.00724106904589 15.84954486904319 0.0
54.006534148537945 17.849466515188453 0.0
54.005836297083206 19.84939461720319 0.0
54.00514696619052 21.849328944504197 0.0
54.00446560751349 23.849269279550768 0.0
54.00379167247267 25.849215417915353 0.0
54.00312461190238 27.849167168373782 0.0
54.0024638757231 29.849124353012517 0.0
54.001808912641046 31.849086807351014 0.0
54.00115916987491 33.849054380476794 0.0
54.00051409291129 35.84902693518699 0.0
53.999873125287884 37.849004348138386 0.0
53.99923570840512 39.8489865100294 0.0
53.998601281366014 41.84897332574665 0.0
53.997969280843435 43.84896471453718 0.0
53.99733914097488 45.84896061018251 0.0
53.99671029328381 47.84896096117184 0.0
53.996082166627254 49.84896573087566 0.0
53.9954541871689 51.84897489771841 0.0
53.99482577837726 53.848988455350124 0.0
53.99419636104813 55.84900641281566 0.0
53.99356535335128 57.84902879472118 0.0
53.992932170900396 59.84905564139759 0.0
53.99229622684657 61.849087009060014 0.0
53.99165693199456 63.849122969961854 0.0
53.991013694941905 65.84916361254332 0.0
53.99036592224094 67.84920904158878 0.0
53.9897130185832 69.8492593783511 0.0
53.989054387007094 71.84931476068876 0.0
53.988389429127764 73.84937534319056 0.0
53.98771754539032 75.8494412972908 0.0
53.9870381353457 77.84951281137573 0.0
53.986350597949645 79.84959009087788 0.0
53.98565433188394 81.84967335835832 0.0
53.98494873590083 83.8497628535743 0.0
53.984233209188695 85.84985883353075 0.0
53.983507151759355 87.84996157251354 0.0
53.98276996485557 89.85007136210241 0.0
53.982021051377274 91.85018851116072 0.0
53.981259816324965 93.85031334580025 0.0
53.98048566725789 95.85044620931747 0.0
53.97969801476447 97.8505874621 0.0
56.01289680800586 1.851118305304192 0.0
56.012084167234235 3.8509891211162373 0.0
56.0112849349096 5.8508682928255045 0.0
56.010498530689574 7.850755500050944 0.0
56.00972437768355 9.850650435464262 0.0
56.00896190193103 11.850552804663225 0.0
56.00821053188539 13.850462326080793 0.0
56.00746969790765 15.850378730931709 0.0
56.00673883177474 17.8503017631892 0.0
56.00601736620492 19.850231179593223 0.0
56.00530473440444 21.85016674968686 0.0
56.00460036963739 23.85010825587789 0.0
56.00390370482119 25.850055493522863 0.0
56.00321417214955 27.850008271031108 0.0
56.002531202743945 29.849966409986294 0.0
56.00185422633494 31.849929745283195 0.0
56.00118267097378 33.849898125277214 0.0
56.00051596277448 35.84987141193987 0.0
55.99985352568669 37.84984948102307 0.0
55.99919478129897 39.84983222225402 0.0
55.998539148672094 41.849819539494916 0.0
55.99788604420209 43.84981135092739 0.0
55.99723488151172 45.849807589238196 0.0
55.99658507137075 47.849808201803434 0.0
55.995936021643175 49.849813150872535 0.0
55.995287137261464 51.849822413751035 0.0
55.994637820226615 53.849835982981325 0.0
55.99398746963379 55.84985386652115 0.0
55.99333548172249 57.84987608791865 0.0
55.99268124995146 59.849902686484434 0.0
55.99202416509707 61.84993371745923 0.0
55.99136361537594 63.84996925217652 0.0
55.99069898659096 65.85000937821987 0.0
55.990029662300806 67.85005419958792 0.0
55.98935502401343 69.85010383682871 0.0
55.988674451403064 71.85015842718583 0.0
55.98798732255151 73.85021812473246 0.0
55.987293014213606 75.85028310049726 0.0
55.98659090210712 77.85035354258082 0.0
55.98588036122749 79.85042965626106 0.0
55.985160766187015 81.85051166408677 0.0
55.984431491579194 83.85059980595649 0.0
55.98369191236682 85.85069433918186 0.0
55.98294140429474 87.85079553853191 0.0
55.98217934432501 89.85090369625743 0.0
55.98140511109444 91.85101912209102 0.0
55.98061808539213 93.85114214322176 0.0
55.97981765065533 95.8512731042402 0.0
55.97900319348069 97.8514123670511 0.0
58.01329786718581 1.8519678495733598 0.0
58.01245869737643 3.8518406406924033 0.0
58.01163339353638 5.851721706801293 0.0
58.01082135697439 7.8516107292443875 0.0
58.010021992629746 9.851507402167389 0.0
58.00923470850146 11.851411432393085 0.0
58.008458915085505 13.851322539335607 0.0
58.00769402482482 15.85124045495472 0.0
58.00693945157675 17.851164923742154 0.0
58.0061946101009 19.85109570274141 0.0
58.00545891557127 21.851032561597098 0.0
58.0047317831151 23.850975282630603 0.0
58.00401262738049 25.850923660939138 0.0
58.00330086213478 27.85087750451517 0.0
58.002595899894665 29.850836634383807 0.0
58.00189715158918 31.85080088475538 0.0
58.00120402625578 33.850770103190605 0.0
58.00051593076986 35.85074415077131 0.0
57.99983226960728 37.850722902279735 0.0
57.9991524446399 39.85070624640729 0.0
57.99847585496316 41.85069408592804 0.0
57.997801896754964 43.85068633789595 0.0
57.997129963165456 45.85068293384251 0.0
57.99645944423604 47.85068381997224 0.0
57.995789726847526 49.85068895735724 0.0
57.995120194695744 51.8506983221299 0.0
57.99445022829434 53.85071190567303 0.0
57.99377920500369 55.8507297148072 0.0
57.993106499085336 57.850751771974394 0.0
57.99243148178145 59.85077811541824 0.0
57.991753521418985 61.850808799360145 0.0
57.991071983538056 63.8508438941699 0.0
57.99038623104497 65.85088348653159 0.0
57.98969562438915 67.85092767961682 0.0
57.98899952176503 69.85097659322852 0.0
57.988297279338596 71.85103036395648 0.0
57.98758825149928 73.85108914532135 0.0
57.986871791137276 75.85115310791095 0.0
57.98614724994731 77.85122243950815 0.0
57.98541397875859 79.8512973452078 0.0
57.98467132789196 81.85137804752239 0.0
57.98391864754366 83.85146478647376 0.0
57.983155288196606 85.85155781966895 0.0
57.98238060105813 87.85165742235796 0.0
57.981593938524135 89.85176388747048 0.0
57.98079465466849 91.85187752562864 0.0
57.97998210575622 93.85199866513322 0.0
57.979155650778644 95.85212765191918 0.0
57.97831465200795 97.85226484947759 0.0
60.01369271645924 1.8528445820407298 0.0
60.01282727478243 3.852719414496341 0.0
60.01197615392257 5.8526024386233395 0.0
60.011138737207396 7.852493337584863 0.0
60.01031441177187 9.852391807071092 0.0
60.009502567934554 11.852297555178927 0.0
60.008702598584655 13.852210302333114 0.0
60.00791389858567 15.852129781249914 0.0
60.00713586419909 17.852055736935064 0.0
60.0063678925327 19.851987926716976 0.0
60.005609381016455 21.85192612031097 0.0
60.004859726908926 23.851870099910958 0.0
60.004118326835986 25.85181966030528 0.0
60.003384576363935 27.85177460901342 0.0
60.00265786960809 29.85173476644076 0.0
60.00193759887712 31.851699966048518 0.0
60.00122315435399 33.851670054536015 0.0
60.00051392381314 35.8516448920276 0.0
59.99980929237346 37.851624352268395 0.0
59.99910864228666 39.85160832284742 0.0
59.99841135275962 41.85159670538568 0.0
59.997716799810775 43.851589415746695 0.0
59.997024356158 45.85158638424631 0.0
59.99633339113824 47.85158755585986 0.0
59.99564327065656 49.851592890427185 0.0
59.994953357164434 51.851602362855225 0.0
59.99426300966558 53.85161596331737 0.0
59.99357158374886 55.85163369744941 0.0
59.99287843164716 57.85165558654142 0.0
59.99218290232195 59.85168166772603 0.0
59.99148434157292 61.85171199416234 0.0
59.990782092172516 63.851746635214816 0.0
59.99007549402531 65.85178567662705 0.0
59.989363884352436 67.85182922070318 0.0
59.98864659790128 69.85187738646147 0.0
59.98792296718107 71.85193030979872 0.0
59.98719232272469 73.8519881436451 0.0
59.98645399337759 75.85205105811121 0.0
59.985707306614415 77.85211924062752 0.0
59.98495158888407 79.85219289607406 0.0
59.98418616598379 81.85227224689943 0.0
59.98341036346279 83.85235753322598 0.0
59.982623507055905 85.85244901294044 0.0
59.98182492314685 87.8525469617659 0.0
59.98101393926174 89.85265167331347 0.0
59.98018988459086 91.85276345910948 0.0
59.9793520905391 93.85288264859555 0.0
59.97849989130185 95.85300958909704 0.0
59.977632624464896 97.85314464575667 0.0
62.01408115278822 1.8537482363596105 0.0
62.013189704130994 3.8536251757679683 0.0
62.012313028315795 5.853510221176329 0.0
62.01145049109222 7.853403057659717 0.0
62.01060146218978 9.853303382521311 0.0
62.00976531463725 11.853210905177866 0.0
62.00894142409654 13.853125347089494 0.0
62.008129168216215 15.85304644173494 0.0
62.007327926009296 17.852973934623133 0.0
62.006537077259566 19.85290758334205 0.0
62.0057560019596 21.85284715763996 0.0
62.00498407978314 23.85279243953526 0.0
62.00422068959428 25.85274322345117 0.0
62.00346520899477 27.852699316371613 0.0
62.00271701391048 29.852660538015197 0.0
62.0019754782177 31.852626721024208 0.0
62.00123997340901 33.85259771116535 0.0
62.000509868298735 35.85257336753436 0.0
61.999784528767286 37.85255356276886 0.0
61.99906331754299 39.852538183287145 0.0
61.9983455940208 41.85252712949137 0.0
61.99763071411646 43.852520315991775 0.0
61.99691803015429 45.85251767182913 0.0
61.996206890787825 47.852519140693396 0.0
61.995496640951316 49.852524681139414 0.0
61.99478662184107 51.85253426679902 0.0
61.99407617092539 53.85254788658943 0.0
61.99336462198184 55.85256554491724 0.0
61.992651305161154 57.85258726187838 0.0
61.99193554707718 59.85261307345368 0.0
61.991216670921894 61.85264303170044 0.0
61.990493996606055 63.85267720493861 0.0
61.98976684092488 65.85271567793274 0.0
61.98903451774917 67.85275855208097 0.0
61.988296338242634 69.85280594557806 0.0
61.9875516111055 71.8528579935894 0.0
61.98679964284587 73.85291484841588 0.0
61.98603973807892 75.85297667965273 0.0
61.985271199856136 77.85304367434125 0.0
61.98449333002412 79.85311603711173 0.0
61.983705429615426 81.85319399031673 0.0
61.9829067992711 83.85327777415174 0.0
61.98209673969641 85.85336764676138 0.0
61.98127455214983 87.8534638843281 0.0
61.98043953896546 89.85356678114036 0.0
61.979591004108514 91.85367664963688 0.0
61.978728253763286 93.85379382042277 0.0
61.977850596951754 95.85391864225382 0.0
61.97695734618095 97.8540514819845 0.0
64.0144629745211 1.8546785382307265 0.0
64.01354579131183 3.8545576497705003 0.0
64.01264382999916 5.854444779348489 0.0
64.01175643919497 7.854339614043587 0.0
64.01088297165744 9.854241852837607 0.0
64.0100227835495 11.854151206508396 0.0
64.00917523371525 13.854067397570624 0.0
64.00833968298052 15.853990160264782 0.0
64.0075154934819 17.85391924058492 0.0
64.0067020280288 19.85385439634542 0.0
64.00589864950173 21.853795397281857 0.0
64.00510472028972 23.853742025181226 0.0
64.00431960176883 25.853694074037826 0.0
64.00354265382326 27.853651350230408 0.0
64.00277323440987 29.853613672717486 0.0
64.00201069916639 31.853580873246997 0.0
64.00125440106315 33.85355279657721 0.0
64.0005036900976 35.853529300700366 0.0
63.99975791303069 37.85351025707381 0.0
63.99901641316382 39.85349555087526 0.0
63.998278530154785 41.85348508122181 0.0
63.9975435998713 43.85347876140813 0.0
63.996810954279624 45.853476519141914 0.0
63.99607992136789 47.85347829677403 0.0
63.99534982510074 49.85348405152452 0.0
63.99461998540517 51.853493755704186 0.0
63.99388971818503 53.85350739693129 0.0
63.99315833536373 55.8535249783434 0.0
63.99242514495344 57.85354651880433 0.0
63.99168945115047 59.853572053106824 0.0
63.99095055445633 61.853601632170786 0.0
63.99020775182389 63.85363532323654 0.0
63.98946033682899 65.85367321005411 0.0
63.98870759986812 67.85371539307963 0.0
63.98794882838211 69.85376198964728 0.0
63.987183307107344 71.85381313415301 0.0
63.98641031835526 73.85386897822977 0.0
63.985629142321336 75.85392969091795 0.0
63.984839057425184 77.85399545883027 0.0
63.98403934068264 79.85406648630882 0.0
63.98322926811184 81.85414299557371 0.0
63.98240811517412 83.85422522686038 0.0
63.981575157251044 85.85431343854334 0.0
63.98072967015859 87.85440790724337 0.0
63.97987093069856 89.85450892791484 0.0
63.97899821724789 91.85461681390899 0.0
63.978110810385175 93.85473189700943 0.0
63.97720799355301 95.85485452743498 0.0
63.97628905375492 97.85498507380508 0.0
66.01483798146936 1.855635205579505 0.0
66.01389534348623 3.85551655396747 0.0
66.01296837333663 5.855405830208564 0.0
66.01205640297565 7.855302723475437 0.0
66.01115876866238 9.855206934490145 0.0
66.0102748101528 11.855118175427343 0.0
66.00940386991496 13.855036169868473 0.0
66.00854529237311 15.854960652807224 0.0
66.00769842318523 17.854891370696105 0.0
66.00686260855848 19.854828081533917 0.0
66.00603719460607 21.85477055498885 0.0
66.00522152674844 23.854718572551832 0.0
66.00441494916052 25.85467192771606 0.0
66.00361680426619 27.854630426177824 0.0
66.00282643228127 29.854593886055227 0.0
66.00204317080414 31.854562138120606 0.0
66.0012663544539 33.85453502604317 0.0
66.00049531455547 35.854512406633226 0.0
65.99972937886902 37.85449415009262 0.0
65.99896787136366 39.85448014028759 0.0
65.99821011203214 41.854470274983896 0.0
65.99745541674508 43.85446446609978 0.0
65.99670309714246 45.85446263995418 0.0
65.9959524605605 47.85446473750828 0.0
65.99520280999138 49.854470714601845 0.0
65.99445344407427 51.854480542183325 0.0
65.99370365711584 53.854494206534675 0.0
65.99295273913883 55.85451170948988 0.0
65.99219997595719 57.85453306864855 0.0
65.99144464927757 59.854558317584555 0.0
65.99068603682579 61.854587506050215 0.0
65.98992341249878 63.85462070017586 0.0
65.98915604654178 65.85465798266573 0.0
65.98838320575119 67.85469945300109 0.0
65.98760415370451 69.85474522762121 0.0
65.9868181510176 71.8547954401159 0.0
65.98602445563134 73.85485024141137 0.0
65.9852223231288 75.85490979995281 0.0
65.98441100708492 77.85497430188249 0.0
65.98358975945055 79.85504395121212 0.0
65.98275783097243 81.85511896998796 0.0
65.98191447165102 83.855199598446 0.0
65.98105893123812 85.85528609515559 0.0
65.98019045977493 87.85537873714672 0.0
65.97930830817265 89.85547782001917 0.0
65.97841172883525 91.85558365802777 0.0
65.97749997632488 93.85569658414012 0.0
65.97657230806954 95.85581695006148 0.0
65.97562798511066 97.8559451262212 0.0
68.01520597498428 1.8566179487522696 0.0
68.01423816914577 3.8565015982188036 0.0
68.01328647381536 5.856393083202043 0.0
68.01235020481596 7.856292095055021 0.0
68.0114286824203 9.8561983362964 0.0
68.01052123047383 11.856111520526362 0.0
68.00962717554435 13.856031372397123 0.0
68.00874584610627 15.855957627637789 0.0
68.00787657176355 17.855890033122755 0.0
68.00701868251643 19.855828346983053 0.0
68.00617150807524 21.85577233875461 0.0
68.00533437722412 23.855721789557762 0.0
68.00450661723636 25.855676492303076 0.0
68.00368755334264 27.855636251918646 0.0
68.0028765082524 29.855600885594402 0.0
68.00207280172785 31.8555702230395 0.0
68.00127575020993 33.85554410674858 0.0
68.00048466649493 35.8555223922679 0.0
67.9996988594593 37.855504948466624 0.0
67.99891763383131 39.855491657827734 0.0
67.99814029000649 41.85548241670034 0.0
67.99736612390465 43.85547713556727 0.0
67.99659442686587 45.85547573930628 0.0
67.9958244855828 47.85547816744294 0.0
67.9950555820669 49.85548437439628 0.0
67.99428699364624 51.855494329717374 0.0
67.99351799299296 53.85550801832088 0.0
67.99274784817881 55.85552544070985 0.0
67.99197582275694 57.85554661319452 0.0
67.99120117586936 59.85557156810602 0.0
67.99042316237937 61.85560035400556 0.0
67.9896410330287 63.85563303588908 0.0
67.98885403461968 65.85566969538911 0.0
67.98806141022276 67.85571043098378 0.0
67.9872623994111 69.85575535818599 0.0
67.98645623852299 71.85580460974478 0.0
67.98564216095367 73.85585833584167 0.0
67.98481939747958 75.85591670428519 0.0
67.98398717661554 77.85597990070315 0.0
67.98314472500897 79.85604812873073 0.0
67.98229126787199 81.85612161019343 0.0
67.98142602945482 83.85620058528193 0.0
67.98054823356206 85.85628531271678 0.0
67.97965710411425 87.85637606989904 0.0
67.97875186575583 89.85647315304317 0.0
67.97783174451153 91.85657687728782 0.0
67.97689596849091 93.85668757677902 0.0
67.97594376864147 95.85680560472078 0.0
67.9749743795494 97.85693133338656 0.0
70.01556675804868 1.8576264707329788 0.0
70.01457407818476 3.8575124849976334 0.0
70.01359794810062 5.857406240368302 0.0
70.01263766805816 7.857307430460431 0.0
70.01169254290025 9.857215759638954 0.0
70.0107618810979 11.857130942949874 0.0
70.00984499383051 13.857052706110318 0.0
70.00894119410641 15.856980785556201 0.0
70.00804979592807 17.856914928535854 0.0
70.00717011350808 19.856854893248688 0.0
70.00630146053803 21.856800449021996 0.0
70.00544314951392 23.856751376519885 0.0
70.0045944911194 25.85670746797851 0.0
70.00375479366765 27.856668527462645 0.0
70.00292336260212 29.85663437113825 0.0
70.00209950005483 31.856604827557092 0.0
70.00128250446195 33.85657973794853 0.0
70.00047167023351 35.85655895650932 0.0
69.9996662874756 37.85654235069675 0.0
69.99886564176222 39.85652980153885 0.0
69.9980690139539 41.856521203904094 0.0
69.9972756800595 43.85651646678397 0.0
69.99648491113894 45.856515513567196 0.0
69.995695973243 47.85651828230314 0.0
69.99490812738792 49.85652472595658 0.0
69.99412062956154 51.85653481265358 0.0
69.99333273075925 53.85654852591883 0.0
69.99254367704728 55.85656586490544 0.0
69.99175270965186 57.856586844617794 0.0
69.99095906507326 59.85661149612891 0.0
69.99016197522391 61.8566398667934 0.0
69.98936066759055 63.85667202045593 0.0
69.9885543654204 65.85670803765792 0.0
69.98774228793269 67.8567480158515 0.0
69.98692365055635 69.85679206959617 0.0
69.98609766519569 71.85684033076828 0.0
69.9852635405264 73.85689294876764 0.0
69.98442048232369 75.85695009072438 0.0
69.98356769382578 77.85701194170537 0.0
69.98270437613566 79.85707870491926 0.0
69.98182972866329 81.85715060191798 0.0
69.98094294961236 83.85722787279332 0.0
69.98004323651338 85.85731077636463 0.0
69.9791297868068 87.85739959035506 0.0
69.97820179847758 89.85749461155162 0.0
69.97725847074386 91.85759615594422 0.0
69.97629900480044 93.85770455883868 0.0
69.975322604618 95.85782017493675 0.0
69.97432847779754 97.85794337837757 0.0
72.01592013535466 1.8586604673822782 0.0
72.01490288195764 3.858548909629662 0.0
72.01390261407414 5.858444996580531 0.0
72.012918617027 7.85834842418869 0.0
72.011950180832 9.858258898706623 0.0
72.0109965991644 11.858176136636285 0.0
72.0100571683651 13.858099864742288 0.0
72.00913118649335 15.858029820126136 0.0
72.00821795243188 17.857965750349056 0.0
72.00731676504901 19.857907413601676 0.0
72.00642692242182 21.857854578913315 0.0
72.00554772112197 23.857807026393797 0.0
72.00467845556693 25.857764547501663 0.0
72.00381841743587 27.85772694533303 0.0
72.00296689515075 29.857694034925398 0.0
72.00212317342091 31.85766564357181 0.0
72.00128653284949 33.85764161114049 0.0
72.00045624959897 35.857621790389764 0.0
71.99963159511309 37.85760604728464 0.0
71.99881183589154 39.85759426132685 0.0
71.99799623331423 41.85758632584264 0.0
71.9971840435108 43.85758214828051 0.0
71.99637451727253 45.85758165049769 0.0
71.995566900002 47.85758476903413 0.0
71.99476043169818 49.85759145537502 0.0
71.99395434697296 51.857601676202975 0.0
71.99314787509684 53.85761541363997 0.0
71.99234024007141 55.8576326654805 0.0
71.99153066072658 57.857653445416936 0.0
71.99071835084155 59.85767778325912 0.0
71.98990251928869 61.85770572514919 0.0
71.98908237020001 63.85773733377281 0.0
71.9882571031568 65.85777268856884 0.0
71.98742591340365 67.85781188594729 0.0
71.98658799208773 69.85785503949243 0.0
71.98574252652601 71.8579022801798 0.0
71.98488870050265 73.85795375659232 0.0
71.98402569459941 75.85800963513972 0.0
71.98315268656235 77.85807010027942 0.0
71.98226885170848 79.85813535473902 0.0
71.98137336337557 81.85820561973813 0.0
71.98046539341934 83.85828113520755 0.0
71.9795441127614 85.85836216000293 0.0
71.9786086919912 87.85844897210876 0.0
71.97765830202555 89.85854186882878 0.0
71.97669211482825 91.85864116695745 0.0
71.97570930419162 93.85874720292612 0.0
71.97470904658186 95.85886033291804 0.0
71.97369052204766 97.8589809329436 0.0
74.01626591338461 1.8597196277008108 0.0
74.01522439333692 3.859610560557014 0.0
74.01420029087232 5.859509039810434 0.0
74.0131928770501 7.859414763821311 0.0
74.01220142771157 9.859327440760769 0.0
74.01122522235987 11.859246788584683 0.0
74.01026354308735 13.859172535074116 0.0
74.00931567355651 15.859104417940456 0.0
74.00838089804165 17.85904218498167 0.0
74.00745850053534 19.858985594287436 0.0
74.00654776392392 21.858934414485073 0.0
74.00564796923378 23.858888425018208 0.0
74.00475839494995 25.85884741645189 0.0
74.00387831640757 27.858811190797084 0.0
74.00300700525445 29.858779561848856 0.0
74.00214372898375 31.85875235553287 0.0
74.00128775053395 33.85872941025489 0.0
74.00043832795282 35.85871057724292 0.0
73.9995947141221 37.85869572088821 0.0
73.99875615653801 39.85868471909621 0.0
73.99792189714458 41.85867746359284 0.0
73.99709117221369 43.85867386023713 0.0
73.99626321226927 45.858673829319834 0.0
73.99543724204975 47.85867730584682 0.0
73.9946124805059 49.85868423980853 0.0
73.99378814083005 51.8586945964369 0.0
73.99296343051326 53.85870835645021 0.0
73.99213755142827 55.85872551628793 0.0
73.99130969993585 57.85874608833684 0.0
73.99047906701291 59.8587701011505 0.0
73.98964483840211 61.858797599664555 0.0
73.98880619478217 63.858828645408494 0.0
73.98796231196015 65.85886331671688 0.0
73.98711236108586 67.85890170894973 0.0
73.9862555088915 69.85894393470083 0.0
73.98539091795787 71.85899012402105 0.0
73.98451774701059 73.85904042464409 0.0
73.98363515124983 75.85909500221759 0.0
73.9827422827172 77.85915404053884 0.0
73.9818382907041 79.85921774179575 0.0
73.98092232220596 81.85928632680978 0.0
73.97999352242653 83.85936003527986 0.0
73.97905103533748 85.8594391260238 0.0
73.97809400429654 87.85952387721333 0.0
73.97712157272956 89.85961458659831 0.0
73.97613288487874 91.85971157171389 0.0
73.97512708662124 93.85981517006543 0.0
73.97410332635953 95.85992573928229 0.0
73.97306075598507 97.86004365723392 0.0
76.01660390049021 1.8608036341187846 0.0
76.01553842676962 3.8606971196286723 0.0
76.01449079892119 5.860598051419779 0.0
76.0134602744747 7.86050613031706 0.0
76.0124461158024 9.86042106642902 0.0
76.01144758890699 11.860342579149053 0.0
76.01046396226428 13.860270397227824 0.0
76.00949450572891 15.860204258914093 0.0
76.00853848950895 17.86014391214924 0.0
76.00759518321468 19.860089114812773 0.0
76.00666385498525 21.860039635009354 0.0
76.00574377069465 23.859995251389204 0.0
76.00483419323899 25.859955753493896 0.0
76.00393438190372 27.859920942120553 0.0
76.00304359181052 29.859890629697702 0.0
76.00216107343994 31.859864640667038 0.0
76.0012860722281 33.85984281186527 0.0
76.0004178282326 35.859824992895184 0.0
75.99955557586298 37.859811046492624 0.0
75.99869854367142 39.85980084889903 0.0
75.99784595419823 41.85979429018643 0.0
75.99699702386658 43.859791274584815 0.0
75.99615096292216 45.85979172079238 0.0
75.9953069754116 47.85979556226694 0.0
75.99446425919619 49.85980274750113 0.0
75.993622005996 51.859813240282215 0.0
75.99277940146075 53.859827019938024 0.0
75.99193562526467 55.8598440815712 0.0
75.99108985122281 57.85986443628371 0.0
75.99024124742711 59.85988811139439 0.0
75.98938897640119 61.85991515065196 0.0
75.98853219527435 63.85994561444534 0.0
75.9876700559744 65.8599795800145 0.0
75.98680170544195 67.86001714167129 0.0
75.98592628586718 69.86005841101156 0.0
75.9850429349527 71.86010351714383 0.0
75.98415078620577 73.8601526069233 0.0
75.98324896926378 75.86020584519446 0.0
75.98233661025779 77.86026341504245 0.0
75.98141283221867 79.86032551805204 0.0
75.98047675553178 81.86039237457345 0.0
75.97952749844504 83.86046422399279 0.0
75.97856417763552 85.86054132500358 0.0
75.97758590884115 87.86062395587568 0.0
75.97659180756138 89.86071241471683 0.0
75.97558098983183 91.86080701972062 0.0
75.9745525730775 93.86090810939386 0.0
75.97350567704714 95.8610160427559 0.0
75.97243942483125 97.86113119950078 0.0
78.01693390696931 1.861912162814071 0.0
78.01584479832735 3.86180826241976 0.0
78.014773959964 5.861711706481193 0.0
78.01372063667515 7.861622198334247 0.0
78.0126840781266 9.861539450028792 0.0
78.01166353754249 11.861463182362522 0.0
78.01065827045888 13.861393124990489 0.0
78.0096675335493 15.861329016606996 0.0
78.0086905835294 17.861270605183964 0.0
78.00772667614595 19.861217648262063 0.0
78.00677506525322 21.861169913284282 0.0
78.00583500197928 23.861127177962814 0.0
78.00490573398193 25.86108923067034 0.0
78.00398650479445 27.8610558708481 0.0
78.00307655325813 29.861026909423057 0.0
78.00217511303896 31.86100216922819 0.0
78.00128141222417 33.860981485419025 0.0
78.00039467299398 35.860964705875915 0.0
77.99951411136243 37.860951691598 0.0
77.9986389369823 39.86094231709833 0.0
77.9977683530072 41.860936470747504 0.0
77.99690155600541 43.86093405511563 0.0
77.99603773591862 45.86093498729285 0.0
77.99517607606053 47.86093919918798 0.0
77.99431575314944 49.860946637807245 0.0
77.99345593737 51.860957265515005 0.0
77.99259579246036 53.86097106027838 0.0
77.99173447582059 55.8609880158985 0.0
77.99087113863989 57.861008142230666 0.0
77.99000492604114 59.86103146539713 0.0
77.98913497724102 61.86105802799536 0.0
77.98826042572631 63.86108788930426 0.0
77.98738039944654 65.86112112549228 0.0
77.98649402102545 67.86115782983666 0.0
77.9856004079928 69.86119811293727 0.0
77.98469867304081 71.86124210294928 0.0
77.98378792430852 73.86128994582452 0.0
77.98286726569935 75.8613418055652 0.0
77.98193579723679 77.8613978644901 0.0
77.98099261546439 79.86145832351292 0.0
77.98003681389586 81.86152340243193 0.0
77.97906748352196 83.86159334022845 0.0
77.97808371338068 85.8616683953712 0.0
77.97708459119693 87.86174884612235 0.0
77.97606920409832 89.86183499084031 0.0
77.97503663941292 91.86192714827267 0.0
77.97398598555395 93.86202565783223 0.0
77.97291633299598 95.86213087984727 0.0
77.97182677534627 97.86224319577661 0.0
80.01725574513858 1.863044884061151 0.0
80.01614332575194 3.8629436585820747 0.0
80.01504959708166 5.8628496741305725 0.0
80.01397379205281 7.862762636585035 0.0
80.01291514844709 9.862682259923256 0.0
80.01187290748618 11.862608266294291 0.0
80.01084631248968 13.862540386171172 0.0
80.00983460761627 15.862478358579851 0.0
80.00883703669527 17.862421931387594 0.0
80.0078528421537 19.86237086164574 0.0
80.00688126404187 21.862324915975737 0.0
80.00592153915962 23.86228387098796 0.0
80.00497290028312 25.86224751372372 0.0
80.00403457549069 27.862215642111718 0.0
80.00310578758469 29.86218806543066 0.0
80.00218575360547 31.86216460477132 0.0
80.00127368443252 33.862145093490795 0.0
80.00036878446654 35.86212937764765 0.0
79.99947025138573 37.86211731642451 0.0
79.99857727596996 39.86210878254619 0.0
79.99768904198493 41.86210366264211 0.0
79.99680472611921 43.86210185760205 0.0
79.99592349796758 45.86210328290597 0.0
79.99504452005348 47.86210786892782 0.0
79.99416694788447 49.86211556121589 0.0
79.99328993003485 51.86212632075193 0.0
79.99241260825163 53.862140124191654 0.0
79.99153411757824 55.86215696408981 0.0
79.99065358649447 57.862176849113084 0.0
79.98977013706931 59.862199804244895 0.0
79.9888828851265 61.86222587098574 0.0
79.9879909404222 63.86225510755246 0.0
79.98709340683584 65.86228758908076 0.0
79.9861893825762 67.86232340784012 0.0
79.98527796040564 69.86236267344762 0.0
79.98435822788608 71.86240551310253 0.0
79.98342926765197 73.86245207183386 0.0
79.98249015771495 75.86250251276414 0.0
79.98153997180717 77.86255701739063 0.0
79.98057777976955 79.86261578588316 0.0
79.9796026479922 81.86267903739896 0.0
79.97861363991468 83.86274701041076 0.0
79.97760981659397 85.86281996304665 0.0
79.97659023734745 87.86289817343659 0.0
79.97555396047862 89.86298194006056 0.0
79.97450004409346 91.86307158209173 0.0
79.9734275470128 93.86316743972648 0.0
79.97233552978753 95.8632698744924 0.0
79.97122305582117 97.86337926952402 0.0
82.01756922940129 1.8642014626135315 0.0
82.01643382849328 3.8641029722285247 0.0
82.01531753470542 5.864011617953846 0.0
82.0142195700262 7.8639271082245354 0.0
82.01313916124066 9.863849158912313 0.0
82.0120755384007 11.86377749344189 0.0
82.01102793338168 13.863711842993347 0.0
82.00999557853466 15.863651946785234 0.0
82.00897770544158 17.863597552419606 0.0
82.00797354377825 19.863548416283344 0.0
82.00698232028886 21.86350430399319 0.0
82.00600325787288 23.863464990872572 0.0
82.00503557478469 25.863430262450077 0.0
82.00407848394192 27.863399914969307 0.0
82.00313119234116 29.863373755901513 0.0
82.00219290057352 31.863351604452898 0.0
82.00126280243553 33.86333329205959 0.0
82.00034008462704 35.8633186628578 0.0
81.99942392652929 37.86330757413621 0.0
81.99851350005375 39.86329989677776 0.0
81.99760796955427 41.863295515640566 0.0
81.9967064917935 43.86329432992643 0.0
81.9958082159558 45.863296253518584 0.0
81.99491228369828 47.86330121528841 0.0
81.99401782923347 49.86330915937485 0.0
81.99312397943703 51.86332004543887 0.0
81.9922298539745 53.86333384889659 0.0
81.99133456544342 55.86335056113469 0.0
81.99043721952651 57.86337018971233 0.0
81.989536915154 59.86339275855433 0.0
81.98863274467396 61.863418308140126 0.0
81.98772379403034 63.86344689569239 0.0
81.98680914294995 65.86347859537075 0.0
81.98588786514082 67.86351349847978 0.0
81.98495902850495 69.86355171367977 0.0
81.98402169537033 71.86359336722148 0.0
81.98307492274733 73.86363860319797 0.0
81.98211776261563 75.8636875838178 0.0
81.98114926224936 77.86374048970045 0.0
81.98016846458752 79.86379752019442 0.0
81.97917440865882 81.8638588937176 0.0
81.9781661300686 83.86392484811749 0.0
81.97714266155849 85.86399564104885 0.0
81.97610303364597 87.86407155036416 0.0
81.97504627535496 89.86415287451182 0.0
81.97397141504428 91.86423993293442 0.0
81.9728774813435 93.86433306645932 0.0
81.97176350420304 95.86443263767173 0.0
81.97062851606488 97.86453903125846 0.0
84.01787417630919 1.8653815581223667 0.0
84.01671612773943 3.865285862354267 0.0
84.01557759861879 5.865197196410986 0.0
84.01445780101035 7.865115271277617 0.0
84.01335595165851 9.865039804661855 0.0
84.01227127033836 11.864970521161867 0.0
84.0112029783047 13.864907152525962 0.0
84.01015029685047 15.864849437997332 0.0
84.00911244598205 17.86479712472363 0.0
84.00808864321704 19.864749968224466 0.0
84.00707810250681 21.86470773290248 0.0
84.00608003328628 23.864670192585375 0.0
84.00509363964747 25.86463713108692 0.0
84.00411811963566 27.86460834277587 0.0
84.0031526646625 29.864583633143255 0.0
84.00219645902902 31.864562819359236 0.0
84.00124867955257 33.864545730811535 0.0
84.00030849528746 35.864532209612875 0.0
83.99937506733063 37.86452211108444 0.0
83.99844754870331 39.864515304221584 0.0
83.9975250842972 41.86451167209275 0.0
83.99660681087707 43.8645111122197 0.0
83.99569185712906 45.86451353692087 0.0
83.99477934374619 47.86451887361859 0.0
83.99386838354332 49.864527065114494 0.0
83.99295808159313 51.86453806983562 0.0
83.99204753537812 53.86455186205642 0.0
83.99113583495253 55.86456843210036 0.0
83.99022206311093 57.864587786526684 0.0
83.9893052955603 59.864609948307816 0.0
83.98838460109485 61.864634957002416 0.0
83.98745904177298 63.86466286892998 0.0
83.98652767309845 65.86469375735157 0.0
83.98558954420757 67.86472771266756 0.0
83.98464369806695 69.86476484262262 0.0
83.98368917168679 71.86480527253774 0.0
83.98272499635515 73.86484914556488 0.0
83.98175019790162 75.86489662296783 0.0
83.98076379699751 77.86494788443163 0.0
83.97976480950176 79.86500312840082 0.0
83.9787522468627 81.8650625724463 0.0
83.97772511658476 83.8651264536596 0.0
83.97668242277177 85.86519502907085 0.0
83.97562316675666 87.86526857608708 0.0
83.9745463478285 89.86534739294474 0.0
83.97345096406765 91.86543179916906 0.0
83.97233601329854 93.86552213603179 0.0
83.9712004941693 95.86561876699676 0.0
83.97004340736673 97.86572207814125 0.0
86.01817040461599 1.8665848255943114 0.0
86.01699004643591 3.8664919832976596 0.0
86.01582961594741 5.8664060633003725 0.0
86.01468831638184 7.866326779106619 0.0
86.01356535547232 9.866253850174266 0.0
86.0124599436739 11.866187002142297 0.0
86.01137129249817 13.866125967156309 0.0
86.01029861297283 15.866070484283462 0.0
86.00924111423417 17.866020299995437 0.0
86.00819800225743 19.86597516871035 0.0
86.00716847872873 21.865934853378388 0.0
86.00615174005833 23.86589912609635 0.0
86.00514697653247 25.865867768738198 0.0
86.00415337160142 27.86584057358942 0.0
86.00317010129565 29.865817343973955 0.0
86.00219633376332 31.865797894864848 0.0
86.00123122892023 33.86578205346956 0.0
86.00027393820059 35.86576965977669 0.0
85.99932360439942 37.86576056707174 0.0
85.99837936159373 39.86575464242685 0.0
85.99744033513146 41.865751767117004 0.0
85.99650564167733 43.865751837010066 0.0
85.99557438930373 45.86575476291353 0.0
85.9946456776169 47.86576047087913 0.0
85.99371859790945 49.86576890247028 0.0
85.99279223332962 51.86578001499592 0.0
85.99186565906193 53.865793781716754 0.0
85.99093794251182 55.86581019202837 0.0
85.99000814349097 57.86582925162796 0.0
85.98907531439994 59.8658509826711 0.0
85.98813850040679 61.86587542392443 0.0
85.98719673962168 63.86590263092106 0.0
85.98624906326924 65.86593267612469 0.0
85.98529449586177 67.86596564911292 0.0
85.984332055377 69.86600165677294 0.0
85.98336075344746 71.86604082352824 0.0
85.98237959556704 73.86608329159351 0.0
85.98138758132403 75.8661292212618 0.0
85.9803837046694 77.86617879122677 0.0
85.97936695423053 79.86623219894116 0.0
85.97833631368118 81.86628966101141 0.0
85.97729076217989 83.86635141362686 0.0
85.97622927488831 85.86641771302158 0.0
85.97515082358213 87.8664888359638 0.0
85.9740543773668 89.86656508026776 0.0
85.97293890351094 91.86664676532014 0.0
85.9718033684086 93.86673423261225 0.0
85.9706467386824 95.86682784626615 0.0
85.96946798243665 97.8669279935429 0.0
88.01845773532138 1.8678109158918859 0.0
88.01725540929287 3.8677209852443353 0.0
88.01607341513476 5.86763786826695 0.0
88.01491094842865 7.8675612809235105 0.0
88.0137672090043 9.86749094430395 0.0
88.01264139902082 11.86742658492053 0.0
88.01153272118032 13.867367935108447 0.0
88.01044037708272 15.867314733521088 0.0
88.00936356573239 17.867266725695806 0.0
88.0083014822006 19.867223664680044 0.0
88.00725331644668 21.867185311700474 0.0
88.00621825229764 23.86715143685869 0.0
88.00519546658288 25.86712181983901 0.0
88.004184128419 27.867096250614733 0.0
88.0031833986367 29.8670745301408 0.0
88.00219242934017 31.867056471022643 0.0
88.00121036358863 33.86704189815162 0.0
88.00023633518678 35.86703064929344 0.0
87.9992694685724 37.867022575637 0.0
87.99830887878701 39.8670175423082 0.0
87.9973536715164 41.86701542880208 0.0
87.99640294318797 43.86701612938074 0.0
87.99545578111248 45.86701955342027 0.0
87.99451126365794 47.86702562570901 0.0
87.99356846044553 49.86703428670267 0.0
87.99262643255817 51.86704549274119 0.0
87.99168423275283 53.86705921623373 0.0
87.99074090567173 55.86707544581808 0.0
87.98979548804559 57.86709418650175 0.0
87.98884700888756 59.86711545979251 0.0
87.98789448967499 61.867139303825326 0.0
87.98693694451994 63.86716577349352 0.0
87.98597338032997 65.86719494059132 0.0
87.98500279696282 67.86722689397831 0.0
87.98402418738002 69.86726173976191 0.0
87.98303653780559 71.86729960151578 0.0
87.98203882789853 73.8673406205316 0.0
87.98103003094774 75.86738495611115 0.0
87.98000911409967 77.86743278590028 0.0
87.97897503863119 79.86748430626712 0.0
87.97792676027872 81.86753973272491 0.0
87.97686322963821 83.86759930039857 0.0
87.97578339264896 85.86766326453224 0.0
87.97468619117558 87.86773190103435 0.0
87.9735705637029 89.86780550705366 0.0
87.97243544615814 91.86788440157899 0.0
87.97127977287383 93.86796892605322 0.0
87.97010247770585 95.8680594449895 0.0
87.9689024953187 97.86815634657614 0.0
90.01873599170318 1.8690594762798827 0.0
90.01751204277767 3.8689725147780627 0.0
90.01630882590072 5.868892257357911 0.0
90.01512553028184 7.868818422350201 0.0
90.01396134903851 9.868750732321661 0.0
90.01281547712979 11.868688914450107 0.0
90.01168710944008 13.86863270101103 0.0
90.01057543902483 15.86858182996396 0.0
90.00947965552783 17.868536045612277 0.0
90.00839894377451 19.868495099324175 0.0
90.00733248254411 21.868458750295474 0.0
90.00627944351913 23.868426766335954 0.0
90.0052389904079 25.868398924662916 0.0
90.00421027823332 27.868375012686883 0.0
90.00319245277846 29.86835482877599 0.0
90.00218465017743 31.868338182987916 0.0
90.00118599663837 33.86832489775916 0.0
90.0001956082842 35.868314808536994 0.0
89.99921259109642 37.86830776436253 0.0
89.99823604094556 39.86830362840779 0.0
89.99726504369367 41.86830227842249 0.0
89.99629867535315 43.86830360713671 0.0
89.99533600228806 45.86830752260464 0.0
89.99437608144375 47.868313948491874 0.0
89.99341796059358 49.868322824313125 0.0
89.99246067859156 51.86833410562631 0.0
89.99150326562227 53.86834776419054 0.0
89.99054474344022 55.86836378809524 0.0
89.98958412559428 57.86838218186962 0.0
89.98862041763252 59.86840296658044 0.0
89.98765261728688 61.86842617992727 0.0
89.98667971463709 63.86845187634354 0.0
89.98570069225687 65.86848012711185 0.0
89.98471452534558 67.868511020505 0.0
89.98372018185155 69.86854466195057 0.0
89.98271662259431 71.86858117423674 0.0
89.98170280139462 73.86862069775911 0.0
89.98067766522273 75.86866339081429 0.0
89.97964015437678 77.86870942994443 0.0
89.97858920270397 79.86875901033504 0.0
89.97752373787901 81.86881234626624 0.0
89.97644268175425 83.86886967161813 0.0
89.97534495079785 85.86893124042723 0.0
89.97422945663563 87.86899732749063 0.0
89.97309510671371 89.8690682290118 0.0
89.97194080509806 91.86914426328009 0.0
89.97076545342824 93.8692257713746 0.0
89.96956795204018 95.86931311787956 0.0
89.96834720127451 97.86940669159743 0.0
92.01900499933556 1.8703301510217618 0.0
92.01775977509027 3.8702462154823762 0.0
92.01653567918167 5.8701688736299555 0.0
92.01533189582642 7.870097846031279 0.0
92.01414761271079 9.8700328565318 0.0
92.01298201876487 11.869973632721301 0.0
92.01183430210854 13.86991990651869 0.0
92.01070364818248 15.86987141486185 0.0
92.00958923807286 17.86982790047384 0.0
92.00849024703533 19.869789112690857 0.0
92.00740584322034 21.86975480833009 0.0
92.00633518659666 23.86972475257725 0.0
92.00527742806841 25.869698719875327 0.0
92.004231708776 27.86967649479788 0.0
92.00319715957049 29.86965787289184 0.0
92.00217290064651 31.869642661477805 0.0
92.00115804131896 33.86963068039658 0.0
92.00015167992623 35.869621762686926 0.0
91.99915290384234 37.86961575520325 0.0
91.99816078957964 39.869612519175114 0.0
91.99717440296516 41.869611930666295 0.0
91.99619279937187 43.869613880979024 0.0
91.99521502398939 45.86961827698995 0.0
91.9942401121189 47.86962504142104 0.0
91.99326708947804 49.869634113054154 0.0
91.99229497250427 51.8696454468956 0.0
91.99132276864682 53.86965901430018 0.0
91.99034947663856 55.869674803063226 0.0
91.98937408674263 57.86969281749071 0.0
91.9883955809694 59.869713078457835 0.0
91.98741293326249 61.86973562346518 0.0
91.9864251096542 63.86976050670335 0.0
91.9854310683929 65.86978779913514 0.0
91.9844297600467 67.86981758860689 0.0
91.98342012759029 69.86984997999092 0.0
91.98240110648285 71.86988509537437 0.0
91.98137162474751 73.86992307429678 0.0
91.98033060306324 75.86996407404348 0.0
91.9792769548833 77.87000826999868 0.0
91.97820958659412 79.87005585606154 0.0
91.9771273977305 81.87010704512703 0.0
91.9760292812642 83.87016206963096 0.0
91.97491412398338 85.8702211821582 0.0
91.97378080698144 87.87028465610994 0.0
91.97262820627414 89.87035278642439 0.0
91.97145519356448 91.87042589034313 0.0
91.97026063717398 93.87050430821321 0.0
91.96904340315923 95.87058840431165 0.0
91.96780235663208 97.87067856767828 0.0
94.01926458609084 1.871622582030258 0.0
94.01799843611934 3.8715417285973506 0.0
94.01675380704708 5.871467357812655 0.0
94.01552987958829 7.871399192303664 0.0
94.01432583737417 9.871336956947387 0.0
94.01314086455677 11.871280379439684 0.0
94.01197414360846 13.871229190991865 0.0
94.01082485333171 15.871183127138325 0.0
94.00969216708882 17.87114192862295 0.0
94.00857525125664 19.871105342347672 0.0
94.0074732639078 21.871073122358233 0.0
94.00638535371418 23.871045030844712 0.0
94.00531065906627 25.871020839135834 0.0
94.0042483073966 27.871000328668785 0.0
94.00319741469409 29.870983291917764 0.0
94.00215708519244 31.87096953326806 0.0
94.00112641121414 33.87095886982357 0.0
94.00010447315 35.87095113213217 0.0
93.99909033955461 37.87094616483834 0.0
93.99808306733517 39.870943827263524 0.0
93.99708170201461 41.8709439938747 0.0
93.9960852780483 43.87094655468578 0.0
93.99509281917565 45.87095141558049 0.0
93.99410333878983 47.87095849856086 0.0
93.9931158403098 49.870967741931274 0.0
93.99212931754165 51.87097910042606 0.0
93.9911427550175 53.870992545291806 0.0
93.99015512830404 55.87100806433395 0.0
93.98916540427291 57.87102566194002 0.0
93.98817254133058 59.8710453590902 0.0
93.98717548960445 61.87106719336761 0.0
93.98617319108655 63.871091218978584 0.0
93.98516457973815 65.87111750679509 0.0
93.98414858155967 67.87114614443036 0.0
93.98312411463392 69.8711772363534 0.0
93.98209008915133 71.87121090405603 0.0
93.981045407429 73.87124728627767 0.0
93.97998896393621 75.87128653929486 0.0
93.97891964534072 77.87132883728133 0.0
93.9778363305933 79.87137437274096 0.0
93.97673789106638 81.87142335701834 0.0
93.97562319076701 83.87147602088496 0.0
93.97449108664355 85.87153261520159 0.0
93.97334042900661 87.87159341165267 0.0
93.97217006208624 89.87165870354744 0.0
93.97097882474681 91.87172880668032 0.0
93.9697655513817 93.87180406023936 0.0
93.96852907301 95.87188482775116 0.0
93.96726821859541 97.87197149804518 0.0
96.01951458212153 1.872936409576986 0.0
96.01822785737416 3.8728586937363745 0.0
96.01696304259139 5.872787349032823 0.0
96.01571931659367 7.872722099928279 0.0
96.01449586043601 9.872662672027953 0.0
96.01329185482815 11.872608792768068 0.0
96.01210647777779 13.87256019224009 0.0
96.01093890247324 15.87251660413177 0.0
96.00978829541549 17.87247776674986 0.0
96.00865381480448 19.872443424104407 0.0
96.00753460918015 21.87241332702689 0.0
96.00642981631339 23.872387234296767 0.0
96.00533856233692 25.872364913753074 0.0
96.00425996110354 27.8723461433704 0.0
96.00319311375432 29.87233071228111 0.0
96.00213710847757 31.8723184217288 0.0
96.00109102043604 33.87230908594077 0.0
96.00005391183991 35.872302532902495 0.0
95.99902483214134 37.872298605044755 0.0
95.99800281832562 39.87229715984307 0.0
95.99698689527675 41.872298070291656 0.0
95.99597607619297 43.87230122529713 0.0
95.99496936303277 45.87230652998171 0.0
95.99396574697013 47.87231390590185 0.0
95.99296420884369 49.87232329119366 0.0
95.99196371958305 51.87233464065506 0.0
95.99096324060133 53.872347925777 0.0
95.9899617241433 55.87236313473584 0.0
95.98895811358278 57.87238027236009 0.0
95.9879513436646 59.87239936008476 0.0
95.98694034068959 61.87242043590648 0.0
95.98592402264347 63.872443554351904 0.0
95.98490129927359 65.87246878647252 0.0
95.9838710721185 67.87249621987792 0.0
95.98283223449968 69.87252595881591 0.0
95.981783671485 71.87255812431279 0.0
95.9807242598366 73.87259285438071 0.0
95.97965286795817 75.8726303043001 0.0
95.97856835585664 77.87267064698347 0.0
95.97746957513813 79.87271407342516 0.0
95.9763553690555 81.87276079324023 0.0
95.97522457263044 83.87281103529365 0.0
95.97407601287104 85.87286504841892 0.0
95.97290850910866 87.87292310222367 0.0
95.97172087347812 89.87298548797673 0.0
95.97051191156599 91.87305251956938 0.0
95.96928042325227 93.87312453454007 0.0
95.96802520377024 95.87320189514949 0.0
95.96674504500965 97.8732849894905 0.0
98.01975481982026 1.874271273066228 0.0
98.01844787189121 3.874196749668264 0.0
98.0171632197954 5.874128485605421 0.0
98.0159000421972 7.874066206889352 0.0
98.01465751916403 9.874009639485763 0.0
98.01343482938837 11.873958510137586 0.0
98.0122311476648 13.873912547334383 0.0
98.01104564263895 15.87387148240504 0.0
98.00987747483939 17.873835050694645 0.0
98.00872579499712 19.873802992801785 0.0
98.00758974265237 21.87377505584533 0.0
98.0064684450407 23.873750994731516 0.0
98.00536101624834 25.873730573395754 0.0
98.00426655661911 27.873713565995416 0.0
98.00318415239283 29.87369975803406 0.0
98.0021128755526 31.87368894740057 0.0
98.00105178385448 33.873680945309765 0.0
97.99999992101218 35.87367557712765 0.0
97.99895631700998 37.873672683091954 0.0
97.99791998851491 39.87367211892768 0.0
97.99688993936093 41.873673756321736 0.0
97.9958651610807 43.87367748330262 0.0
97.99484463345884 45.87368320451615 0.0
97.9938273250864 47.87369084140581 0.0
97.99281219389633 49.87370033230994 0.0
97.99179818766434 51.873711632488515 0.0
97.99078424446049 53.87372471409307 0.0
97.98976929304146 55.87373956609443 0.0
97.9887522531768 57.87375619418297 0.0
97.98773203590314 59.87377462065674 0.0
97.9867075437059 61.87379488431197 0.0
97.98567767062985 63.87381704035072 0.0
97.98464130232173 65.87384116031969 0.0
97.98359731601302 67.87386733209378 0.0
97.98254458045079 69.87389565991498 0.0
97.9814819557892 71.87392626450007 0.0
97.98040829345472 73.8739592832255 0.0
97.97932243600161 75.87399487039879 0.0
97.9782232169759 77.87403319762385 0.0
97.97710946080632 79.87407445426474 0.0
97.97597998274543 81.87411884801354 0.0
97.97483358888339 83.87416660556238 0.0
97.97366907625856 85.87421797338126 0.0
97.9724852330918 87.87427321859846 0.0
97.97128083917114 89.87433262997894 0.0
97.97005466641401 91.87439651899393 0.0
97.96880547963688 93.87446522097079 0.0
97.96753203756 95.8745390963102 0.0
97.96623309407626 97.87461853175458 0.0
100.01998513375293 1.8756268118787605 0.0
100.01865831410866 3.875555535170704 0.0
100.017354173354 5.875490405897119 0.0
100.01607189187409 7.875431151267534 0.0
100.01481065045512 9.875377497167051 0.0
100.01356962729265 11.875329169134082 0.0
100.01234799529057 13.8752858934952 0.0
100.01114491967006 15.875247398630048 0.0
100.00995955589937 17.875213416322676 0.0
100.00879104794915 19.875183683171468 0.0
100.00763852687136 21.875157942022657 0.0
100.00650110969256 23.875135943394504 0.0
100.0053778986071 25.875117446863243 0.0
100.00426798044984 27.875102222384573 0.0
100.0031704264247 29.87509005152882 0.0
100.00208429206077 31.875080728611817 0.0
100.0010086173658 33.8750740617073 0.0
99.99994242714546 35.87506987352371 0.0
99.99888473145569 37.875068002156254 0.0
99.99783452615655 39.87506830171481 0.0
99.99679079353564 41.87507064279301 0.0
99.99575250297221 43.875074912826335 0.0
99.99471861161501 45.87508101633129 0.0
99.99368806504914 47.87508887503733 0.0
99.99265979792943 49.875098427924854 0.0
99.99163273456445 51.875109631185154 0.0
99.99060578943401 53.87512245811771 0.0
99.98957786763033 55.8751368989814 0.0
99.98854786521396 57.875152960817296 0.0
99.98751466948082 59.87517066725912 0.0
99.98647715913782 61.8751900583492 0.0
99.98543420439024 63.87521119037526 0.0
99.98438466694488 65.87523413574455 0.0
99.98332739993677 67.87525898290907 0.0
99.98226124778999 69.87528583635638 0.0
99.98118504602537 71.87531481667794 0.0
99.9800976210307 73.87534606072654 0.0
99.9789977898101 75.87537972187214 0.0
99.97788435973379 77.87541597036518 0.0
99.97675612830879 79.87545499381291 0.0
99.97561188299493 81.87549699777475 0.0
99.97445040109115 83.8755422064784 0.0
99.97327044972056 85.87559086365852 0.0
99.97207078594064 87.87564323351548 0.0
99.97085015701141 89.87569960179074 0.0
99.96960730085074 91.87576027695197 0.0
99.96834094670979 93.87582559147728 0.0
99.96704981610102 95.87589590322655 0.0
99.96573262401213 97.8759715968817 0.0
102.02020536056202 1.8770026662922532 0.0
102.01885901970658 3.876934689961711 0.0
102.01753573846483 5.876872749269343 0.0
102.0162347009712 7.8768165721939445 0.0
102.01495509056382 9.876765884015024 0.0
102.01369608656212 11.876720408467058 0.0
102.01245686137523 13.87667986906283 0.0
102.01123657796417 15.876643990553996 0.0
102.01003438766762 17.87661250048013 0.0
102.00884942839726 19.87658513077334 0.0
102.00768082319823 21.87656161937903 0.0
102.00652767916174 23.876541711855495 0.0
102.00538908667437 25.876525162919698 0.0
102.00426411897665 27.87651173791012 0.0
102.0031518320045 29.87650121414243 0.0
102.00205126447872 31.87649338213845 0.0
102.00096143820731 33.87648804671361 0.0
101.99988135856456 35.87648502790497 0.0
101.99881001510838 37.87648416175265 0.0
101.99774638229832 39.87648530093421 0.0
101.99668942028103 41.87648831522127 0.0
101.99563807570655 43.87649309180617 0.0
101.99459128254843 45.87649953549444 0.0
101.99354796289717 47.876507568775736 0.0
101.99250702770507 49.876517131790735 0.0
101.99146737746214 51.87652818221099 0.0
101.99042790278733 53.87654069505035 0.0
101.98938748492144 55.876554662427225 0.0
101.988344996116 57.876570093296614 0.0
101.98729929991076 59.87658701317161 0.0
101.98624925130166 61.87660546385284 0.0
101.9851936967988 63.876625503184144 0.0
101.98413147438322 65.87664720485205 0.0
101.98306141336852 67.87667065824398 0.0
101.98198233418029 69.876695968383 0.0
101.98089304806835 71.87672325595011 0.0
101.97979235676641 73.87675265740803 0.0
101.97867905212141 75.87678432523707 0.0
101.97755191571112 77.87681842829267 0.0
101.97640971847677 79.87685515229191 0.0
101.97525122039389 81.87689470043526 0.0
101.97407517021185 83.87693729416682 0.0
101.97288030528942 85.87698317407568 0.0
101.97166535156076 87.87703260093652 0.0
101.97042902366188 89.87708585688713 0.0
101.96917002525589 91.87714324673588 0.0
101.96788704958917 93.87720509939045 0.0
101.96657878031898 95.87727176939399 0.0
101.9652438926466 97.87734363855296 0.0
104.02041533883458 1.8783984784855674 0.0
104.0190498254059 3.878333855716651 0.0
104.01770775057281 5.878275157108557 0.0
104.01638830441185 7.878222110892913 0.0
104.01509067478365 9.878174441122912 0.0
104.0138140438589 11.878131869029186 0.0
104.01255758502377 13.878094114558133 0.0
104.01132046018704 15.878060898054908 0.0
104.01010181750243 17.8780319420366 0.0
104.00890078950837 19.878006973016696 0.0
104.0077164916813 21.877985723336234 0.0
104.00654802138483 23.877967932959173 0.0
104.00539445719477 25.877953351195394 0.0
104.00425485856891 27.877941738318732 0.0
104.00312826582696 29.877932867053097 0.0
104.00201370040286 31.877926523906098 0.0
104.00091016532538 33.87792251033381 0.0
103.99981664588582 35.87792064371966 0.0
103.99873211044793 37.877920758180615 0.0
103.99765551135866 39.87792270520167 0.0
103.9965857859184 41.87792635407036 0.0
103.99552185737322 43.877931592161175 0.0
103.99446263589549 45.87793832506807 0.0
103.99340701952129 47.87794647660119 0.0
103.99235389501938 49.877955988667864 0.0
103.99130213866972 51.8779668210577 0.0
103.99025061693442 53.87797895115363 0.0
103.98919818700803 55.87799237359042 0.0
103.98814369723931 57.87800709988255 0.0
103.987085987419 59.87802315804318 0.0
103.98602388893508 61.87804059221497 0.0
103.98495622479668 63.87805946233309 0.0
103.98388180953475 65.8780798438396 0.0
103.98279944898927 67.87810182746531 0.0
103.98170793999532 69.87812551909987 0.0
103.98060606998526 71.87815103976081 0.0
103.97949261652391 73.8781785256774 0.0
103.97836634679912 75.87820812850154 0.0
103.97722601709047 77.87824001565532 0.0
103.97607037224269 79.8782743708249 0.0
103.97489814517147 81.87831139460721 0.0
103.97370805643196 83.8783513053144 0.0
103.97249881388362 85.87839433993878 0.0
103.97126911248444 87.8784407552787 0.0
103.97001763425222 89.8784908292227 0.0
103.96874304843092 91.87854486218694 0.0
103.96744401190207 93.87860317869684 0.0
103.9661191698821 95.87866612910068 0.0
103.96476715694915 97.87873409139908 0.0
106.02061490893087 1.879813893635311 0.0
106.01923056872101 3.8797526771793405 0.0
106.01787004506244 5.879697273952536 0.0
106.01653253634679 7.879647411822428 0.0
106.01521723707499 9.879602812885832 0.0
106.01392333411044 11.879563195055256 0.0
106.01265000336522 13.87952827384247 0.0
106.01139640694595 15.879497764294872 0.0
106.01016169077184 17.879471383022782 0.0
106.00894498266739 19.879448850272563 0.0
106.00774539092185 21.879429891994043 0.0
106.00656200329487 23.879414241854757 0.0
106.00539388644266 25.879401643159103 0.0
106.00424008572712 27.87939185063652 0.0
106.00309962536733 29.87938463206869 0.0
106.00197150888634 31.87937976973373 0.0
106.00085471980513 33.87937706165042 0.0
105.99974822253165 35.87937632260559 0.0
105.9986509633966 37.879377384979605 0.0
105.99756187178612 39.87938009937193 0.0
105.99647986132527 41.87938433500239 0.0
105.9954038310709 43.87938997993948 0.0
105.99433266667332 45.87939694115835 0.0
105.99326524147601 47.87940514444701 0.0
105.99220041752251 49.879414534184995 0.0
105.9911370464482 51.87942507301696 0.0
105.99007397023864 53.87943674144696 0.0
105.9890100218401 55.87944953737726 0.0
105.98794402561556 57.879463475616724 0.0
105.9868747976409 59.879478587383026 0.0
105.98580114584209 61.87949491982152 0.0
105.98472186997788 63.87951253556332 0.0
105.98363576147594 65.8795315123435 0.0
105.98254160313306 67.8795519426967 0.0
105.9814381686954 69.8795739337536 0.0
105.98032422233517 71.87959760714897 0.0
105.97919851804473 73.87962309905932 0.0
105.9780597989701 75.87965056038256 0.0
105.9769067967107 77.87968015707209 0.0
105.97573823061262 79.8797120706343 0.0
105.97455280708584 81.87974649879857 0.0
105.97334921897848 83.87978365636499 0.0
105.97212614504392 85.87982377623429 0.0
105.97088224953696 87.87986711062122 0.0
105.96961618198085 89.87991393245012 0.0
105.96832657714606 91.87996453692841 0.0
105.96701205528517 93.88001924329075 0.0
105.96567122267048 95.88007839670107 0.0
105.9643026724805 97.8801423702989 0.0
108.02080391276587 1.881248561114081 0.0
108.01940108765963 3.881190803376978 0.0
108.01802245689358 5.881138748722572 0.0
108.01666722974495 7.881092123922407 0.0
108.01533460963368 9.881050648261965 0.0
108.01402379007689 11.881014035390878 0.0
108.01273395114147 13.880981995386788 0.0
108.01146425641944 15.880954236980477 0.0
108.0102138505444 17.880930469871952 0.0
108.00898185724574 19.880910407084638 0.0
108.00776737793271 21.88089376729874 0.0
108.00656949078073 23.880880277109817 0.0
108.00538725028888 25.880869673165233 0.0
108.00421968726228 27.88086170413834 0.0
108.00306580917251 29.880856132507855 0.0
108.00192460083852 31.880852736118122 0.0
108.00079502537176 33.88085130950374 0.0
107.99967602532658 35.88085166496157 0.0
107.99856652399816 37.88085363338789 0.0
107.99746542681113 39.880857064883784 0.0
107.99637162274732 41.880861829109016 0.0
107.99528398576571 43.88086781543832 0.0
107.99420137616966 45.88087493292701 0.0
107.99312264188711 47.880883110108364 0.0
107.99204661963022 49.88089229465069 0.0
107.9909721359117 51.88090245290103 0.0
107.98989800789637 53.88091356934394 0.0
107.98882304407685 55.88092564600313 0.0
107.98774604476255 57.880938701813946 0.0
107.98666580238144 59.88095277199311 0.0
107.98558110159382 61.880967907431575 0.0
107.98449071922514 63.880984174134774 0.0
107.98339342402578 65.88100165273283 0.0
107.98228797627382 67.8810204380795 0.0
107.98117312723326 69.88104063896603 0.0
107.98004761848912 71.88106237796013 0.0
107.97891018118244 73.88108579139009 0.0
107.97775953516708 75.88111102948821 0.0
107.97659438811942 77.88113825670575 0.0
107.97541343462814 79.88116765221145 0.0
107.97421535529828 81.88119941058167 0.0
107.97299881590553 83.88123374269094 0.0
107.97176246663683 85.88127087680687 0.0
107.97050494146059 87.88131105989335 0.0
107.96922485766709 89.88135455912114 0.0
107.96792081562796 91.88140166358384 0.0
107.96659139882044 93.88145268621248 0.0
107.96523517416986 95.88150796587823 0.0
107.96385069276089 97.88156786966877 0.0
110.02098219353925 1.8827021358012912 0.0
110.01956122036061 3.882647888950024 0.0
110.01816482016942 5.882599236073071 0.0
110.01679221591544 7.882555901982476 0.0
110.01544262239 9.882517602154554 0.0
110.01411524185423 11.882484044882517 0.0
110.01280926023843 13.882454933661103 0.0
110.0115238439412 15.882429969741331 0.0
110.01025813724536 17.882408854775186 0.0
110.00901126034839 19.882391293488013 0.0
110.00778230799172 21.88237699631125 0.0
110.00657034865843 23.88236568191388 0.0
110.00537442429662 25.882357079579275 0.0
110.00419355051831 27.882350931382636 0.0
110.00302671721002 29.88234699413322 0.0
110.00187288949496 31.882345041056013 0.0
110.00073100897495 33.88234486319576 0.0
109.99959999518578 35.882346270527904 0.0
109.9984787471987 37.882349092796986 0.0
109.99736614530391 39.88235318008756 0.0
109.99626105271733 41.88235840311381 0.0
109.99516231725657 43.88236465328442 0.0
109.99406877293937 45.88237184255508 0.0
109.99297924146398 47.88237990309559 0.0
109.99189253353732 49.882388786803986 0.0
109.99080745002622 51.88239846469886 0.0
109.9897227829098 53.88240892622245 0.0
109.98863731602096 55.882420178486015 0.0
109.98754982556912 57.88243224548795 0.0
109.98645908044202 59.88244516733499 0.0
109.98536384228925 61.88245899949384 0.0
109.98426286539471 63.88247381209985 0.0
109.98315489635074 65.88248968934774 0.0
109.98203867354512 67.88250672898245 0.0
109.98091292648384 69.88252504192141 0.0
109.97977637496709 71.88254475201599 0.0
109.97862772814415 73.8825659959753 0.0
109.97746568347401 75.88258892346673 0.0
109.97628892562074 77.88261369740778 0.0
109.97509612531633 79.88264049446059 0.0
109.97388593822544 81.88266950574025 0.0
109.97265700385091 83.88270093774608 0.0
109.97140794451956 85.88273501352168 0.0
109.97013736449267 87.88277197404892 0.0
109.96884384924822 89.88281207987703 0.0
109.96752596498393 91.88285561298632 0.0
109.966182258395 93.88290287888077 0.0
109.96481125678173 95.88295420890212 0.0
109.96341146854587 97.88300996275072 0.0
112.0211495954046 1.8841742795190348 0.0
112.01971080466355 3.884123595609856 0.0
112.01829696762888 5.884078397871675 0.0
112.01690732394967 7.884038408142622 0.0
112.01554110243087 9.884003336928439 0.0
112.0141975163042 11.883972885902317 0.0
112.01287575915339 13.883946750657417 0.0
112.01157500153036 15.883924623638528 0.0
112.01029438827571 17.88390619716117 0.0
112.00903303654152 19.883891166444716 0.0
112.00779003449433 21.883879232582306 0.0
112.00656444065885 23.883870105377117 0.0
112.00535528385284 25.883863505984923 0.0
112.00416156364803 27.883859169312743 0.0
112.00298225128617 29.883856846134915 0.0
112.00181629097335 31.883856304899894 0.0
112.00066260147173 33.88385733321101 0.0
111.9995200779109 35.88385973896761 0.0
111.99838759374026 37.88386335119103 0.0
111.99726400275031 39.88386802054359 0.0
111.99614814109617 41.88387361953261 0.0
111.99503882926258 43.88388004246145 0.0
111.9939348739198 45.883887205144205 0.0
111.99283506962547 47.88389504441811 0.0
111.99173820033772 49.88390351749014 0.0
111.99064304071041 51.88391260115412 0.0
111.98954835715257 53.883922290915976 0.0
111.98845290863753 55.88393260006128 0.0
111.98735544725609 57.883943558700324 0.0
111.98625471851273 59.88395521282292 0.0
111.98514946137044 61.88396762339308 0.0
111.9840384080515 63.883980865512505 0.0
111.98292028360991 65.88399502767875 0.0
111.98179380529105 67.88401021115813 0.0
111.9806576816982 69.88402652950606 0.0
111.97951061179117 71.8840441082432 0.0
111.978351283741 73.88406308471158 0.0
111.97717837367074 75.88408360812649 0.0
111.97599054431366 77.88410583983931 0.0
111.9747864436223 79.88412995382421 0.0
111.97356470336672 81.88415613740169 0.0
111.97232393776129 83.88418459220786 0.0
111.97106274216398 85.88421553541883 0.0
111.9697796918935 87.88424920123624 0.0
111.96847334121647 89.88428584263688 0.0
111.96714222255632 91.88432573338838 0.0
111.96578484598348 93.88436917032722 0.0
111.96439969904522 95.88441647589298 0.0
111.96298524700265 97.8844680009078 0.0
114.02130596306966 1.8856646626074627 0.0
114.01984967759672 3.8856175937390685 0.0
114.01841873005192 5.885575904825145 0.0
114.01701238007468 7.88553931354226 0.0
114.01562987333402 9.885507524076496 0.0
114.01427043640349 11.885480230022921 0.0
114.0129332723915 13.885457117560739 0.0
114.0116175573669 15.885437868817055 0.0
114.01032243759231 17.88542216531306 0.0
114.00904702756124 19.885409691406814 0.0
114.00779040880765 21.88540013764308 0.0
114.00655162944109 23.88539320393017 0.0
114.00532970434463 25.88538860247553 0.0
114.0041236159563 27.885386060424672 0.0
114.00293231555122 29.8853853221614 0.0
114.00175472492987 31.88538615124168 0.0
114.00058973842178 33.885388331945656 0.0
113.99943622510946 35.88539167043689 0.0
113.99829303118612 37.88539599555815 0.0
113.99715898236255 39.88540115927624 0.0
113.99603288624836 41.88540703677554 0.0
113.9949135346427 43.88541352626725 0.0
113.99379970567476 45.88542054853867 0.0
113.99269016574986 47.88542804628196 0.0
113.9915836712616 49.88543598324562 0.0
113.99047897004212 51.88544434325035 0.0
113.98937480253262 53.88545312911115 0.0
113.98826990265924 55.8854623615049 0.0
113.98716299841297 57.885472077821454 0.0
113.98605281213219 59.88548233103394 0.0
113.98493806049756 61.88549318862032 0.0
113.98381745424814 63.88550473156726 0.0
113.98268969763748 65.88551705348377 0.0
113.98155348764648 67.88553025984504 0.0
113.98040751297661 69.88554446740191 0.0
113.97925045284978 71.88555980376337 0.0
113.97808097564051 73.88557640717806 0.0
113.97689773737382 75.88559442653128 0.0
113.9756993801201 77.88561402157374 0.0
113.97448453032382 79.88563536339586 0.0
113.97325179710616 81.88565863516224 0.0
113.97199977058172 83.88568403311677 0.0
113.97072702023745 85.88571176786954 0.0
113.96943209342088 87.88574206597293 0.0
113.96811351399343 89.88577517179347 0.0
113.96676978120362 91.88581134968223 0.0
113.96539936884504 93.88585088644376 0.0
113.96400072476268 95.8858940940997 0.0
113.96257227077967 97.88594131293739 0.0
116.02145114131775 1.8871729656565213 0.0
116.01997767477519 3.8871295641517305 0.0
116.01852993556462 5.887091438268791 0.0
116.01710720690329 7.887058300135772 0.0
116.01570875440125 9.887029846054313 0.0
116.0143338204997 11.887005759860159 0.0
116.01298161978244 13.88698571658529 0.0
116.01165133520372 15.886969386317682 0.0
116.01034211524725 17.88695643813615 0.0
116.00905307200418 19.88694654401842 0.0
116.00778328013246 21.886939382619854 0.0
116.00653177663733 23.886934642830134 0.0
116.00529756139471 25.886932027031957 0.0
116.004079598323 27.886931253999585 0.0
116.00287681710313 29.886932061392372 0.0
116.0016881153336 31.886934207815294 0.0
116.00051236101565 33.88693747443308 0.0
115.99934839525723 35.88694166613081 0.0
115.99819503509516 37.88694661225675 0.0
115.99705107634144 39.88695216696568 0.0
115.99591529636898 41.88695820917118 0.0
115.99478645676363 43.88696464218099 0.0
115.99366330578084 45.88697139304746 0.0
115.99254458055661 47.88697841168057 0.0
115.99142900903419 49.88698566977286 0.0
115.99031531157762 51.88699315958461 0.0
115.98920220225529 53.88700089263616 0.0
115.98808838978097 55.8870088983509 0.0
115.98697257811233 57.88701722269124 0.0
115.98585346671119 59.887025926825004 0.0
115.98472975047413 61.88703508585777 0.0
115.98360011934916 63.887044787663044 0.0
115.98246325765706 65.88705513183922 0.0
115.98131784313918 67.88706622881394 0.0
115.98016254575656 69.8870781991342 0.0
115.97899602626838 71.88709117294705 0.0
115.9778169346193 73.8871052897002 0.0
115.97662390816862 75.88712069807787 0.0
115.97541556979577 77.88713755619007 0.0
115.97419052592109 79.88715603203006 0.0
115.97294736448129 81.88717630421513 0.0
115.97168465290461 83.88719856302438 0.0
115.97040093613354 85.88722301174488 0.0
115.96909473474666 87.8872498683373 0.0
115.96776454323614 89.88727936742924 0.0
115.96640882850213 91.88731176264228 0.0
115.96502602862994 93.88734732925566 0.0
115.96361455202174 95.8873863672056 0.0
115.9621727769595 97.8874292044146 0.0
118.02158497443868 1.8886988814137204 0.0
118.02009462969177 3.888659200033838 0.0
118.01863040883072 5.8886246921402075 0.0
118.01719162256654 7.888595062695623 0.0
118.01577755977793 9.888569998303986 0.0
118.01438748146384 11.88854917110435 0.0
118.01302061570969 13.888532242995433 0.0
118.0116761537135 15.88851887006653 0.0
118.0103532468859 17.888508707092072 0.0
118.00905100500603 19.88850141196956 0.0
118.00776849538238 21.88849664998185 0.0
118.00650474294477 23.888494097778256 0.0
118.00525873117002 25.888493446987976 0.0
118.00402940372653 27.888494407397737 0.0
118.00281566671619 29.888496709646187 0.0
118.00161639138283 31.88850010740691 0.0
118.00043041715914 33.88850437905075 0.0
117.99925655492552 35.888509328785354 0.0
117.99809359036574 37.888514787316005 0.0
117.99694028731092 39.88852061205352 0.0
117.99579539097944 41.8885266868886 0.0
117.99465763103046 43.88853292161471 0.0
117.99352572436645 45.888539251041664 0.0
117.99239837763163 47.888545633855486 0.0
117.9912742893656 49.888552051282055 0.0
117.99015215178697 51.88855850560922 0.0
117.98903065218897 53.88856501862021 0.0
117.98790847394116 55.88857162998645 0.0
117.98678429709705 57.88857839566574 0.0
117.98565679861765 59.888585386345845 0.0
117.984524652223 61.88859268597123 0.0
117.98338652789063 63.88860039038604 0.0
117.98224109102341 65.88860860612286 0.0
117.98108700131014 67.88861744935836 0.0
117.97992291130876 69.88862704507548 0.0
117.97874746478057 71.88863752643607 0.0
117.97755929480722 73.88864903439367 0.0
117.97635702172612 75.88866171756293 0.0
117.97513925091984 77.88867573236439 0.0
117.97390457049819 79.88869124345948 0.0
117.97265154891672 81.88870842449371 0.0
117.97137873257597 83.88872745916208 0.0
117.97008464345221 85.88874854261093 0.0
117.968767776812 87.8887718831902 0.0
117.9674265990718 89.8887977045662 0.0
117.96605954586553 91.88882624820505 0.0
117.96466502039051 93.88885777623311 0.0
117.9632413921093 95.88889257467665 0.0
117.96178699588843 97.88893095708012 0.0
120.02170730555493 1.8902421168911476 0.0
120.02020037288845 3.890206209087836 0.0
120.01871997011041 5.890175375161775 0.0
120.0172654397123 7.890149311027956 0.0
120.01583609744365 9.890127691492149 0.0
120.01443122572573 11.890110174764223 0.0
120.01305006824256 13.890096407334248 0.0
120.0116918257626 15.89008602906262 0.0
120.01035565320377 17.890078678317195 0.0
120.0090406579115 19.890073997015246 0.0
120.00774589908839 21.890071635431838 0.0
120.00647038827802 23.8900712566539 0.0
120.00521309078458 25.89007254058241 0.0
120.00397292788921 27.89007518740812 0.0
120.00274877971553 29.890078920510923 0.0
120.00153948858868 31.890083488756908 0.0
120.0003438627386 33.89008866818832 0.0
119.99916068019964 35.89009426311249 0.0
119.99798869277527 37.89010010664383 0.0
119.99682662994512 39.890106060734844 0.0
119.9956732026109 41.89011201572787 0.0
119.99452710659483 43.890117889520575 0.0
119.99338702581778 45.8901236263982 0.0
119.99225163510431 47.890129195598334 0.0
119.99111960257632 49.89013458967397 0.0
119.98998959160832 51.890139822717465 0.0
119.98886026233227 53.89014492850378 0.0
119.98773027269027 55.890149958606436 0.0
119.9865982790382 57.89015498053471 0.0
119.98546293631632 59.890160075935896 0.0
119.98432289780192 61.89016533890062 0.0
119.98317681446939 63.89017087440585 0.0
119.98202333398149 65.89017679692564 0.0
119.98086109934077 67.89018322922941 0.0
119.97968874723267 69.89019030140953 0.0
119.97850490609014 71.89019815013977 0.0
119.97730819391654 73.89020691819516 0.0
119.97609721589984 75.89021675424998 0.0
119.97487056185723 77.8902278129724 0.0
119.97362680355099 79.89024025543272 0.0
119.97236449191693 81.89025424984311 0.0
119.97108215425345 83.89026997264574 0.0
119.96977829142254 85.89028760996548 0.0
119.96845137511691 87.89030735944345 0.0
119.9670998452555 89.89032943246616 0.0
119.96572210757512 91.8903540568023 0.0
119.9643165314911 93.89038147965977 0.0
119.96288144830861 95.8904119711677 0.0
119.96141514987477 97.89044582828903 0.0
122.02181797582874 1.8918023956990686 0.0
122.02029473098634 3.8917703159093886 0.0
122.01879843416779 5.891743213260912 0.0
122.01732846434741 7.891720772429948 0.0
122.01588416805352 9.891702653991073 0.0
122.01446485217753 11.891688499651854 0.0
122.01306977816039 13.891677937886154 0.0
122.0116981576104 15.891670589787367 0.0
122.01034914936362 17.89166607494491 0.0
122.00902185794482 19.891664017175682 0.0
122.00771533334616 21.8916640499492 0.0
122.00642857200286 23.89166582136834 0.0
122.00516051881922 25.891668998595712 0.0
122.00391007007445 27.891673271644688 0.0
122.00267607703009 29.891678356483947 0.0
122.00145735005674 31.891683997432995 0.0
122.0002526630996 33.89168996885146 0.0
121.99906075831794 35.891696076138594 0.0
121.99788035074187 37.89170215611016 0.0
121.9967101328135 39.89170807680141 0.0
121.99554877869654 41.891713736743206 0.0
121.9943949482601 43.891719063817 0.0
121.99324729066315 45.89172401375493 0.0
121.99210444748473 47.891728568361465 0.0
121.99096505536329 49.89173273353306 0.0
121.98982774812349 51.891736537145576 0.0
121.98869115838254 53.8917400268746 0.0
121.98755391863898 55.89174326800662 0.0
121.98641466185566 57.891746341293015 0.0
121.985272021555 59.89174934089234 0.0
121.98412463145213 61.89175237243992 0.0
121.98297112465043 63.89175555128023 0.0
121.98181013243288 65.89175900089079 0.0
121.98064028267865 67.89176285151686 0.0
121.97946019794054 69.89176723905884 0.0
121.97826849321613 71.89177230421227 0.0
121.97706377344768 73.89177819189071 0.0
121.97584463079042 75.89178505094758 0.0
121.97460964168464 77.89179303421653 0.0
121.97335736377384 79.89180229888744 0.0
121.97208633271259 81.89181300723718 0.0
121.97079505891074 83.89182532773403 0.0
121.96948202426589 85.89183943653484 0.0
121.96814567894103 87.89185551939367 0.0
121.96678443825003 89.89187377400043 0.0
121.96539667972067 91.89189441276699 0.0
121.96398074041274 93.89191766607632 0.0
121.96253491457679 95.89194378600655 0.0
121.96105745174796 97.89197305053953 0.0
124.02191682353032 1.8933794606387113 0.0
124.02037752555509 3.893351264629955 0.0
124.01886560900263 5.893327952262409 0.0
124.01738049450437 7.893309194423846 0.0
124.01592156361166 9.89329463463786 0.0
124.01448815092877 11.89328389514208 0.0
124.01307953785938 13.893276583404688 0.0
124.01169494802794 15.89327229886336 0.0
124.01033354437848 17.893270639654656 0.0
124.00899442789293 19.89327120913349 0.0
124.00767663782197 21.89327362199504 0.0
124.00637915327599 23.89327750984072 0.0
124.00510089599125 25.893282526065025 0.0
124.00384073406804 27.893288349976157 0.0
124.00259748646077 29.89329469009945 0.0
124.00136992800594 31.893301286647272 0.0
124.00015679477612 33.893307913168684 0.0
123.99895678956634 35.89331437740922 0.0
123.99776858733853 37.8933205214647 0.0
123.99659084047182 39.89332622129401 0.0
123.9954221836947 41.89333138565605 0.0
123.99426123859763 43.893335954592395 0.0
123.99310661764991 45.89333989753638 0.0
123.99195692766911 47.893343211138664 0.0
123.99081077270932 49.89334591689564 0.0
123.9896667563519 51.893348058659754 0.0
123.98852348339913 53.893349700102505 0.0
123.98737956098073 55.89335092219335 0.0
123.98623359909102 57.893351820748244 0.0
123.98508421058531 59.89335250409537 0.0
123.98393001066428 61.893353090897165 0.0
123.98276961587918 63.893353708162756 0.0
123.981601642695 65.89335448947935 0.0
123.98042470564562 67.89335557347887 0.0
123.979237415119 69.89335710258274 0.0
123.9780383748069 71.89335922202044 0.0
123.97682617885827 73.89336207915235 0.0
123.97559940877309 75.89336582311321 0.0
123.97435663007396 77.89337060479335 0.0
123.97309638879852 79.8933765771774 0.0
123.97181720785478 81.8933838960602 0.0
123.97051758328529 83.89339272115997 0.0
123.96919598049405 85.8934032176518 0.0
123.96785083049129 87.89341555814251 0.0
123.96648052622146 89.89342992511075 0.0
123.9650834190438 91.8934465138336 0.0
123.96365781544851 93.89346553582092 0.0
123.96220197409492 95.89348722277688 0.0
123.96071410327377 97.89351183110281 0.0
126.02200368294571 1.8949730765930335 0.0
126.02044857179263 3.894948821865172 0.0
126.01892129437802 5.894929360893977 0.0
126.01742131870004 7.894914347809212 0.0
126.01594806595159 9.89490340581243 0.0
126.014500901894 11.894896134245652 0.0
126.01307913012853 13.894892116141522 0.0
126.01168198733461 15.8948909259938 0.0
126.01030864046407 17.894892137472638 0.0
126.0089581858157 19.894895330846015 0.0
126.00762964984597 21.89490009988849 0.0
126.00632199152518 23.894906058095856 0.0
126.00503410601152 25.894912844068337 0.0
126.00376482938863 27.894920125970057 0.0
126.0025129442066 29.894927605016385 0.0
126.00127718556789 31.894935017982217 0.0
126.00005624751093 33.894942138759696 0.0
125.99884878946744 35.89494877901357 0.0
125.99765344259664 37.89495478803981 0.0
125.99646881582613 39.89496005191255 0.0
125.99529350146686 41.89496449200653 0.0
125.99412608029438 43.894968063035186 0.0
125.99296512602237 45.8949707507023 0.0
125.9918092091183 47.89497256907167 0.0
125.99065689993647 49.894973557753204 0.0
125.98950677115864 51.894973778992764 0.0
125.98835739955373 53.89497331474337 0.0
125.98720736707422 55.8949722637843 0.0
125.98605526131968 57.8949707389445 0.0
125.984899675401 59.894968864477505 0.0
125.98373920724546 61.89496677362625 0.0
125.98257245837993 63.89496460641047 0.0
125.98139803223593 65.89496250766268 0.0
125.98021453201399 67.89496062532572 0.0
125.97902055814815 69.89495910905474 0.0
125.97781470540957 71.89495810911392 0.0
125.97659555968544 73.89495777559912 0.0
125.97536169447247 75.89495825800032 0.0
125.97411166712202 77.89495970512073 0.0
125.97284401487852 79.89496226537348 0.0
125.97155725075038 81.89496608747508 0.0
125.97024985926274 83.89497132155962 0.0
125.96892029213976 85.89497812073807 0.0
125.96756696397448 87.8949866431287 0.0
125.96618824795061 89.89499705438637 0.0
125.9647824716866 91.89500953075792 0.0
125.96334791328667 93.89502426269154 0.0
125.96188279768909 95.89504145902522 0.0
125.96038529341713 97.89506135177818 0.0
128.02207838310292 1.8965830337620706 0.0
128.02050767699168 3.8965627800171454 0.0
128.01896528011645 5.896547234154299 0.0
128.0174507141627 7.896536030083184 0.0
128.01596344499933 9.89652876688381 0.0
128.01450287319722 11.896525017043084 0.0
128.01306832679094 13.896524335219574 0.0
128.01165905635617 15.896526267219256 0.0
128.01027423237966 17.89653035885293 0.0
128.0089129448127 19.896536164391414 0.0
128.00757420462472 21.896543254362204 0.0
128.00625694711195 23.89655122248046 0.0
128.00496003667857 25.89655969156241 0.0
128.0036822727794 27.896568318325105 0.0
128.0024223967079 29.896576797030303 0.0
128.00117909892245 31.896584861980102 0.0
127.99995102662179 33.8965922889127 0.0
127.99873679131146 35.89659889537114 0.0
127.99753497613784 37.896604540177364 0.0
127.99634414280594 39.89660912212156 0.0
127.99516283793541 41.89661257798134 0.0
127.993989598748 43.89661488003143 0.0
127.99282295801356 45.89661603316284 0.0
127.99166144821255 47.89661607173112 0.0
127.99050360489913 49.896615056244855 0.0
127.98934796926902 51.89661306999067 0.0
127.98819308995338 53.896610215678194 0.0
127.9870375240711 55.89660661217412 0.0
127.98587983758014 57.89660239138332 0.0
127.98471860497314 59.89659769532228 0.0
127.98355240836491 61.89659267342181 0.0
127.98237983601942 63.89658748008813 0.0
127.98119948036266 65.89658227254473 0.0
127.98000993552601 67.89657720896389 0.0
127.97880979446259 69.89657244692897 0.0
127.97759764567611 71.89656814221229 0.0
127.97637206960115 73.89656444789905 0.0
127.97513163467148 75.89656151386816 0.0
127.97387489311373 77.89655948664775 0.0
127.97260037650415 79.89655850966363 0.0
127.97130659112878 81.89655872390404 0.0
127.9699920131904 83.89656026902416 0.0
127.96865508391164 85.89656328491971 0.0
127.96729420458746 87.89656791379849 0.0
127.96590773165273 89.89657430278403 0.0
127.9644939718351 91.8965826070838 0.0
127.96305117747525 93.8965929937574 0.0
127.96157754211362 95.89660564611819 0.0
127.96007119644693 97.8966207688002 0.0
130.0221407462687 1.8982091512989845 0.0
130.02055463873708 3.8981929609885317 0.0
130.0189973441076 5.898181397102951 0.0
130.0174684447724 7.898174069288765 0.0
130.01596745677347 9.89817054808331 0.0
130.01449381935524 11.898170374534796 0.0
130.01304688718236 13.89817307040025 0.0
130.01162592529496 15.898178148533711 0.0
130.01023010675948 17.898185123070558 0.0
130.00885851286256 19.89819351906801 0.0
130.00751013561035 21.89820288130276 0.0
130.0061838822223 23.898212781989198 0.0
130.00487858126434 25.898222827251836 0.0
130.00359299004026 27.898232662255296 0.0
130.00232580286175 29.898241974960808 0.0
130.00107565982506 31.898250498537454 0.0
129.99984115576387 33.898258012504485 0.0
129.9986208490751 35.89826434270913 0.0
129.99741327017426 37.89826936030546 0.0
129.9962169293749 39.898272979876566 0.0
129.9950303240435 41.898275156845195 0.0
129.99385194492214 43.89827588435974 0.0
129.99268028155382 45.898275189796166 0.0
129.99151382677996 47.898273131013674 0.0
129.99035108030876 49.89826979248784 0.0
129.98919055137318 51.898265281425786 0.0
129.9880307605189 53.898259723952215 0.0
129.98687024056528 55.89825326143676 0.0
129.98570753679962 57.89824604701971 0.0
129.98454120645832 59.898238242378994 0.0
129.98336981755497 61.89823001477082 0.0
129.98219194711078 63.898221534368844 0.0
129.98100617884035 65.89821297191861 0.0
129.9798111003416 67.89820449671087 0.0
129.97860529983473 69.89819627491138 0.0
129.97738736249153 71.89818846822673 0.0
129.97615586639245 73.8981812329333 0.0
129.97490937814723 75.8981747192789 0.0
129.97364644821408 77.89816907127205 0.0
129.97236560595195 79.89816442687896 0.0
129.97106535444289 81.89816091865028 0.0
129.9697441651251 83.89815867480525 0.0
129.96840047228142 85.89815782080447 0.0
129.96703266743606 87.89815848144612 0.0
129.96563909371952 89.89816078352385 0.0
129.96421804027446 91.89816485908786 0.0
129.96276773678258 93.89817084935058 0.0
129.96128634821176 95.89817890928093 0.0
129.95977196989259 97.89818921292809 0.0
132.02219058618607 1.8998512814147357 0.0
132.02058924279882 3.8998392203786416 0.0
132.01901724998876 5.899831709144284 0.0
132.01747425867822 7.899828328363488 0.0
132.01595984109275 9.899828614875545 0.0
132.01447347922306 11.899832072974249 0.0
132.01301455646714 13.899838186303871 0.0
132.01158235252464 15.89984642990869 0.0
132.0101760414676 17.899856281961867 0.0
132.0087946927849 19.899867234766344 0.0
132.00743727508421 21.89987880467843 0.0
132.00610266205774 23.899890540685174 0.0
132.00478964026712 25.899902031456254 0.0
132.00349691827952 27.899912910777214 0.0
132.00222313669155 29.899922861351655 0.0
132.00096687860434 31.899931617030315 0.0
131.99972668015852 33.89993896358072 0.0
131.99850104078894 35.89994473814214 0.0
131.9972884329247 37.89994882757438 0.0
131.996087310917 39.899951165881006 0.0
131.99489611904198 41.89995173088927 0.0
131.99371329847727 43.899950540402905 0.0
131.9925372931999 45.89994764799394 0.0
131.9913665547924 47.89994313858932 0.0
131.99019954617418 49.899937123989034 0.0
131.98903474430173 51.89992973842829 0.0
131.98787064189167 53.899921134275274 0.0
131.98670574823603 55.89991147793524 0.0
131.985538589182 57.89990094601443 0.0
131.98436770634555 59.89988972178199 0.0
131.98319165563223 61.89987799195629 0.0
131.98200900512634 63.899865943833056 0.0
131.980818332413 65.89985376276563 0.0
131.9796182213803 67.89984162999359 0.0
131.97840725855374 69.89982972085252 0.0
131.977184029001 71.89981820333827 0.0
131.97594711184436 73.89980723704853 0.0
131.9746950754144 75.89979697250871 0.0
131.97342647207492 77.89978755089564 0.0
131.97213983275128 79.89977910417737 0.0
131.9708336611931 81.89977175569395 0.0
131.96950642800618 83.89976562120754 0.0
131.9681565644976 85.89976081045717 0.0
131.96678245637673 87.89975742925866 0.0
131.96538243737518 89.8997555821936 0.0
131.96395478284896 91.89975537593648 0.0
131.9624977034477 93.8997569232712 0.0
131.96100933894553 95.89976034785006 0.0
131.95948775234774 97.89976578974871 0.0
134.0222277060376 1.9015093140340924 0.0
134.0206112606939 3.9015014522470244 0.0
134.01902474446845 5.9014980688927725 0.0
134.0174678855641 7.9014987100766145 0.0
134.01594031897105 9.90150287291307 0.0
134.0144415736959 11.901510018763604 0.0
134.01297106380477 13.90151958715326 0.0
134.01152808334567 15.90153100978105 0.0
134.010111805031 17.901543724050555 0.0
134.0087212823995 19.901557185632463 0.0
134.0073554550478 21.90157087965077 0.0
134.00601315642686 23.901584330189408 0.0
134.00469312364442 25.901597107929327 0.0
134.0033940086984 27.90160883583429 0.0
134.00211439057995 29.90161919290122 0.0
134.0008527877274 31.90162791607525 0.0
133.99960767037717 33.901634800492076 0.0
133.99837747242677 35.90163969824564 0.0
133.99716060250756 37.901642515941994 0.0
133.99595545404162 39.90164321126712 0.0
133.99476041413035 41.90164178879434 0.0
133.99357387118727 43.90163829528138 0.0
133.9923942212832 45.90163281465019 0.0
133.99121987321405 47.901625462824704 0.0
133.99004925233635 49.90161638257475 0.0
133.98888080323852 51.901605738485465 0.0
133.98771299133026 53.90159371214373 0.0
133.98654430344007 55.90158049760982 0.0
133.98537324751257 57.9015662972219 0.0
133.98419835149434 59.90155131776338 0.0
133.98301816149083 61.901535767010984 0.0
133.9818312392696 63.90151985067149 0.0
133.9806361591755 65.90150376970892 0.0
133.9794315045149 67.90148771804829 0.0
133.97821586345702 69.9014718806843 0.0
133.97698782449265 71.90145643215847 0.0
133.97574597148457 73.90144153542474 0.0
133.97448887833815 75.90142734110589 0.0
133.97321510331795 77.90141398715224 0.0
133.9719231830374 79.90140159892066 0.0
133.97061162614258 81.90139028969868 0.0
133.96927890672563 83.90138016170553 0.0
133.9679234574955 85.90137130760893 0.0
133.9665436627539 87.90136381260322 0.0
133.96513785122454 89.90135775710068 0.0
133.9637042888014 91.9013532200928 0.0
133.9622411712946 93.90135028324333 0.0
133.96074661726843 95.90134903577705 0.0
133.9592186610854 97.90134958023066 0.0
136.022251896026 1.9031831821039311 0.0
136.0206204468002 3.9031795945490373 0.0
136.01901955417432 5.903180419727042 0.0
136.0174490334543 7.903185162662104 0.0
136.01590858960765 9.903193273678287 0.0
136.0143978030986 11.90320416400771 0.0
136.01291612032242 13.903217222122752 0.0
136.01146284868835 15.903231830068842 0.0
136.0100371561675 17.90324737910088 0.0
136.00863807492271 19.903263284037788 0.0
136.0072645084837 21.903278995858365 0.0
136.00591524182016 23.903294012199837 0.0
136.00458895361103 25.90330788556381 0.0
136.0032842299984 27.903320229170042 0.0
136.00199957915007 29.903330720516706 0.0
136.0007334460152 31.903339102805155 0.0
135.999484226749 33.90334518445709 0.0
135.99825028237282 35.90334883699007 0.0
135.99702995134814 37.90334999157671 0.0
135.99582156082965 39.90334863457293 0.0
135.99462343646002 41.90334480229036 0.0
135.99343391063783 43.90333857530143 0.0
135.9922513292599 45.90333007249856 0.0
135.99107405697944 47.90331944510145 0.0
135.9899004810611 49.9033068707715 0.0
135.98872901393435 51.90329254795477 0.0
135.9875580945578 53.903276690543436 0.0
135.98638618871306 55.90325952291662 0.0
135.98521178834048 57.90324127539865 0.0
135.98403341002657 59.90322218015401 0.0
135.98284959273624 61.90320246752407 0.0
135.98165889487885 63.903182362802376 0.0
135.9804598907769 65.90316208343827 0.0
135.9792511665987 67.90314183664434 0.0
135.97803131580304 69.90312181742833 0.0
135.97679893413397 71.90310220700391 0.0
135.97555261419544 73.90308317159503 0.0
135.97429093962964 75.9030648616315 0.0
135.9730124789164 77.90304741134555 0.0
135.97171577881412 79.90303093878487 0.0
135.9703993574568 81.90301554626974 0.0
135.96906169712955 83.90300132132676 0.0
135.96770123674847 85.90298833814411 0.0
135.96631636407935 87.90297665959812 0.0
135.96490540774016 89.90296633991235 0.0
135.9634666290453 91.90295742801413 0.0
135.96199821376584 93.90294997166235 0.0
135.96049826389768 95.90294402242185 0.0
135.95896478954973 97.90293964156612 0.0
138.02226293052985 1.904872867678032 0.0
138.0206165349676 3.9048736353720113 0.0
138.01900138196805 5.9048787561642 0.0
138.01741738500735 7.904887686278996 0.0
138.01586432693844 9.90489982093928 0.0
138.0143418442528 11.904914512841668 0.0
138.01284941691938 13.904931091389992 0.0
138.01138636381833 15.904948881787899 0.0
138.00995184349665 17.904967223141153 0.0
138.0085448597216 19.90498548486571 0.0
138.0071642711271 21.905003080847713 0.0
138.00580880412028 23.90501948098113 0.0
138.0044770681654 25.90503421989296 0.0
138.0031675725688 27.905046902833412 0.0
138.00187874394425 29.90505720885367 0.0
138.0006089436364 31.90506489150743 0.0
137.99935648449892 33.90506977739092 0.0
137.99811964654967 35.90507176287276 0.0
137.99689669116066 37.90507080941885 0.0
137.99568587355822 39.90506693786571 0.0
137.99448545351453 41.90506022197438 0.0
137.9932937042002 43.905050781594824 0.0
137.99210891924042 45.90503877569121 0.0
137.99092941805978 47.905024395440016 0.0
137.9897535496453 49.90500785756586 0.0
137.98857969486494 51.904989398035816 0.0
137.98740626749685 53.904969266194854 0.0
137.9862317141149 55.904947719391664 0.0
137.98505451297203 57.90492501811871 0.0
137.98387317200797 59.904901421670374 0.0
137.98268622609297 61.904877184308894 0.0
137.98149223360159 63.90485255191931 0.0
137.9802897723949 65.90482775912996 0.0
137.97907743527162 67.90480302686028 0.0
137.97785382493555 69.90477856030833 0.0
137.9766175485139 71.90475454732072 0.0
137.97536721164934 73.90473115715477 0.0
137.97410141218234 75.90470853962505 0.0
137.97281873343366 77.90468682464049 0.0
137.97151773709473 79.90466612214793 0.0
137.97019695573363 81.90464652250881 0.0
137.9688548849267 83.90462809734596 0.0
137.9674899750322 85.90461090090865 0.0
137.9661006226309 87.9045949720134 0.0
137.96468516166786 89.90458033662954 0.0
137.96324185434858 91.90456701118472 0.0
137.96176888185403 93.90455500667646 0.0
137.96026433496326 95.90454433367923 0.0
137.95872620469268 97.90453500834317 0.0
140.02226056474925 1.9065784089317601 0.0
140.02059923452128 3.906583620130964 0.0
140.01896990261733 5.906593131217238 0.0
140.0173725932005 7.906606340461221 0.0
140.01580717567705 9.906622578174154 0.0
140.01427334718966 11.906641128670984 0.0
140.0127706219103 13.906661253005012 0.0
140.0112983270999 15.906682211351542 0.0
140.00985560552985 17.90670328400097 0.0
140.00844142355533 19.906723790115343 0.0
140.00705458390493 21.906743103607674 0.0
140.00569374211813 23.906760665739196 0.0
140.0043574255159 25.906775994264127 0.0
140.003044053623 27.906788689160877 0.0
140.00175195905365 29.90679843516262 0.0
140.00047940801275 31.906805001431046 0.0
139.99922461972722 33.90680823880018 0.0
139.9979857842883 35.90680807504983 0.0
139.99676107855694 37.90680450871099 0.0
139.9955486799265 39.90679760183582 0.0
139.99434677786488 41.906787472128784 0.0
139.9931535832588 43.90677428481202 0.0
139.99196733565844 45.906758244503855 0.0
139.99078630856908 47.906739587335174 0.0
139.98960881297177 49.90671857347058 0.0
139.98843319926507 51.906695480147796 0.0
139.98725785782239 53.90667059530396 0.0
139.98608121834857 55.90664421182036 0.0
139.98490174820512 57.90661662239047 0.0
139.9837179498512 59.90658811499396 0.0
139.98252835752706 61.90655896894723 0.0
139.98133153328243 63.90652945149334 0.0
139.9801260624328 65.9064998148907 0.0
139.97891054850282 67.90647029394806 0.0
139.97768360770192 69.90644110400679 0.0
139.97644386296113 71.90641243930236 0.0
139.97518993754224 73.90638447170709 0.0
139.97392044823172 75.90635734984146 0.0
139.97263399811234 77.90633119855676 0.0
139.9713291689126 79.90630611880377 0.0
139.97000451292672 81.90628218791485 0.0
139.96865854450417 83.90625946034014 0.0
139.96728973111175 85.90623796889003 0.0
139.9658964839807 87.90621772654964 0.0
139.96447714836427 89.90619872894243 0.0
139.9630299934445 91.90618095753038 0.0
139.96155320194836 93.90616438364904 0.0
139.96004485955183 95.90614897348252 0.0
139.95850294417795 97.90613469409192 0.0
142.0222445307242 1.9082999082972119 0.0
142.02056822552413 3.9083096599216014 0.0
142.018924757696 5.908323664937682 0.0
142.01731427629392 7.908341252757361 0.0
142.0157367467675 9.90836167715366 0.0
142.01419193147365 11.90838414249218 0.0
142.01267937853078 13.908407830711592 0.0
142.01119841889525 15.908431927644468 0.0
142.00974817107016 17.908455647402022 0.0
142.00832755247538 19.908478253806475 0.0
142.00693529624274 21.908499078135996 0.0
142.00556997205604 23.908517532756676 0.0
142.00423000962937 25.908533120515884 0.0
142.00291372349002 27.908545440030693 0.0
142.0016193378799 29.90855418721295 0.0
142.0003450107874 31.908559153519114 0.0
141.99908885634105 33.90856022149775 0.0
141.99784896501703 35.90855735822868 0.0
141.996623421323 37.908550607272815 0.0
141.99541031879306 39.90854007965715 0.0
141.99420777228104 41.90852594436054 0.0
141.99301392764798 43.908508418717346 0.0
141.99182696901858 45.908487759041726 0.0
141.99064512383143 47.90846425170459 0.0
141.98946666593 49.90843820482339 0.0
141.98828991694947 51.90840994066234 0.0
141.98711324624156 53.908379788789894 0.0
141.98593506956232 55.90834808000054 0.0
141.98475384672153 57.90831514097781 0.0
141.98356807836169 59.90828128965741 0.0
141.9823763020079 61.908246831235274 0.0
141.98117708749834 63.908212054762345 0.0
141.97996903187794 65.908177230266 0.0
141.97875075381543 67.90814260632858 0.0
141.97752088758045 69.90810840811238 0.0
141.97627807659964 71.90807483574976 0.0
141.97502096659773 73.9080420630941 0.0
141.97374819831558 75.90801023681205 0.0
141.9724583997924 77.90797947581679 0.0
141.97115017819178 79.90794987105623 0.0
141.96982211115343 81.90792148568404 0.0
141.968472737652 83.9078943556577 0.0
141.96710054835293 85.90786849082124 0.0
141.9657039754614 87.9078438765464 0.0
141.96428138207756 89.90782047601823 0.0
141.9628310510837 91.90779823326602 0.0
141.96135117361175 93.90777707705101 0.0
141.95983983716104 95.90775692573354 0.0
141.95829501346492 97.90773769325094 0.0
144.0222145325973 1.910037541957132 0.0
144.020523153144 3.910051941277958 0.0
144.01886554954936 5.910070554396144 0.0
144.01724201193784 7.910092628809788 0.0
144.01565261216186 9.910117327915758 0.0
144.01409718211795 11.910143762497222 0.0
144.01257530235463 13.91017102287837 0.0
144.01108630072244 15.910198209970071 0.0
144.00962926020787 17.910224463633785 0.0
144.00820303462282 19.91024898714557 0.0
144.00680627050895 21.910271066926562 0.0
144.00543743347174 23.910290087113925 0.0
144.0040948371683 25.91030553892894 0.0
144.00277667330718 27.910317025119614 0.0
144.00148104124244 29.910324259999165 0.0
144.00020597602477 31.910327065761834 0.0
143.99894947406364 33.910325365835796 0.0
143.99770951584395 35.91031917603347 0.0
143.99648408539383 37.91030859425618 0.0
143.9952711864158 39.91029378938 0.0
143.99406885515936 41.91027498986148 0.0
143.99287517023336 43.91025247251985 0.0
143.991688259635 45.91022655181555 0.0
143.9905063053129 47.91019756985314 0.0
143.98932754559647 49.910165887251175 0.0
143.988150275813 51.91013187494975 0.0
143.98697284739373 53.910095906970106 0.0
143.9857936657341 55.9100583540988 0.0
143.9846111870382 57.91001957844063 0.0
143.98342391433687 59.909979928765694 0.0
143.98223039283002 61.90993973656799 0.0
143.9810292046689 63.90989931275128 0.0
143.9798189632597 65.90985894486069 0.0
143.97859830714222 67.90981889477175 0.0
143.9773658934706 69.90977939681342 0.0
143.97612039110555 71.9097406562305 0.0
143.9748604733077 73.90970284797288 0.0
143.97358481001072 75.90966611578725 0.0
143.9722920596436 77.90963057160654 0.0
143.970980860467 79.90959629525048 0.0
143.96964982138473 81.90956333446648 0.0
143.96829751219755 83.90953170535796 0.0
143.96692245326835 85.90950139326489 0.0
143.965523104581 87.90947235417686 0.0
143.96409785418564 89.90944451677683 0.0
143.96264500604403 91.9094177852285 0.0
143.96116276730706 93.90939204283482 0.0
143.95964923508438 95.90936715670817 0.0
143.95810238279358 97.90934298360318 0.0
146.02217024094196 1.9117915709974513 0.0
146.02046362091667 3.9118107376462805 0.0
146.0187918341285 5.911834085418596 0.0
146.017155330259 7.911860764185211 0.0
146.01555429882262 9.911889830421224 0.0
146.0139886450751 11.91192028520758 0.0
146.01245797870396 13.911951112722893 0.0
146.01096161484165 15.911981316974888 0.0
146.0094985861603 17.912009954827916 0.0
146.00806766422664 19.912036163872543 0.0
146.0066673879328 21.912059184208132 0.0
146.00529609669155 23.912078373747505 0.0
146.0039519661493 25.91209321714078 0.0
146.002633044408 27.912103328808097 0.0
146.0013372870714 29.912108450852035 0.0
146.00006258982404 31.912108446787602 0.0
145.99880681764182 33.91210329208678 0.0
145.9975678300974 35.91209306250045 0.0
145.9963435025373 37.91207792107346 0.0
145.99513174315751 39.91205810459158 0.0
145.99393050619 41.912033910069134 0.0
145.99273780153464 43.912005681766004 0.0
145.99155170124286 45.91197379905656 0.0
145.99037034328643 47.911938665359926 0.0
145.9891919330393 49.911900698240984 0.0
145.9880147428753 51.91186032071115 0.0
145.98683711024088 53.91181795369868 0.0
145.9856574345135 55.91177400961597 0.0
145.98447417290527 57.91172888692579 0.0
145.98328583561639 59.911682965594146 0.0
145.98209098040203 61.91163660331289 0.0
145.98088820666277 63.91159013238012 0.0
145.97967614913887 65.91154385713261 0.0
145.97845347125062 67.91149805182252 0.0
145.97721885809966 69.91145295890102 0.0
145.97597100912446 71.91140878760093 0.0
145.97470863038322 73.91136571279866 0.0
145.9734304264253 75.91132387412388 0.0
145.97213509169947 77.9112833753111 0.0
145.97082130144685 79.91124428380328 0.0
145.96948770201672 81.91120663064022 0.0
145.96813290055354 83.91117041068169 0.0
145.96675545400328 85.91113558323622 0.0
145.96535385740032 87.9111020731848 0.0
145.9639265314099 89.911069772709 0.0
145.96247180911976 91.9110385437501 0.0
145.96098792209622 93.91100822134375 0.0
145.9594729857514 95.91097861798991 0.0
145.95792498409443 97.9109495292312 0.0
148.02211128593763 1.9135623545985112 0.0
148.02038918264986 3.9135864229703285 0.0
148.01870311243835 5.9136146464806165 0.0
148.01705370573015 7.913646058348987 0.0
148.01544128184344 9.913679588248739 0.0
148.01386582231106 11.913714108435359 0.0
148.0123269601825 13.913748480038796 0.0
148.01082398452016 15.913781596652496 0.0
148.00935585830092 17.913812422813823 0.0
148.00792124721303 19.913840025649957 0.0
148.00651855643682 21.913863598683136 0.0
148.00514597240522 23.913882477499513 0.0
148.00380150671722 25.913896147605488 0.0
148.0024830397434 27.91390424527087 0.0
148.0011883619549 29.91390655247338 0.0
147.99991521153615 31.91390298721791 0.0
147.99866130735904 33.91389359052574 0.0
147.9974243768578 35.91387851129794 0.0
147.99620217871782 37.91385799014703 0.0
147.99499252057905 39.913832343050046 0.0
147.99379327214987 41.91380194549389 0.0
147.99260237424622 43.91376721761571 0.0
147.99141784432163 45.91372861064397 0.0
147.9902377790614 47.913686594808844 0.0
147.9890603545796 49.91364164877809 0.0
147.98788382470755 51.91359425058758 0.0
147.9867065177961 53.91354486997661 0.0
147.98552683238572 55.91349396199888 0.0
147.98434323202665 57.91344196176011 0.0
147.9831542394733 59.9133892801251 0.0
147.98195843040898 61.91333630024073 0.0
147.9807544268162 63.91328337473069 0.0
147.97954089005484 65.91323082343236 0.0
147.9783165136799 67.91317893154708 0.0
147.97708001599406 69.91312794815339 0.0
147.9758301323111 71.91307808496191 0.0
147.97456560688187 73.91302951528512 0.0
147.9732851844228 75.91298237318544 0.0
147.97198760117394 77.91293675279206 0.0
147.97067157540928 79.91289270779743 0.0
147.96933579731962 81.91285025116655 0.0
147.96797891818636 83.91280935511419 0.0
147.96659953877582 85.91276995142641 0.0
147.96519619689005 87.91273193222528 0.0
147.96376735402592 89.91269515129775 0.0
147.96231138111514 91.91265942613038 0.0
147.96082654333995 93.91262454081206 0.0
147.95931098405217 95.91259024998537 0.0
147.95776270785487 97.91255628404403 0.0
150.02203724910552 1.9153503657503044 0.0
150.02029933263586 3.9153794878931993 0.0
150.01859882028785 5.915412745272662 0.0
150.0169365475809 7.9154490312798105 0.0
150.0153129765748 9.91548712477593 0.0
150.01372816650672 11.915525746430564 0.0
150.01218176453855 13.915563614662979 0.0
150.01067301532822 15.915599497516343 0.0
150.009200786846 17.91563225748483 0.0
150.00776360896714 19.915660887265883 0.0
150.00635972094486 21.915684535396988 0.0
150.00498712386488 23.91570252167486 0.0
150.00364363452047 25.915714343036694 0.0
150.00232693773208 27.91571967114864 0.0
150.00103463483248 29.915718343283892 0.0
149.99976428676877 31.915710348199607 0.0
149.99851345094265 33.9156958086755 0.0
149.9972797114797 35.91567496219892 0.0
149.99606070306424 37.915648141082215 0.0
149.99485412878605 39.915615752973 0.0
149.99365777264592 41.91557826246939 0.0
149.99246950745828 43.91553617432998 0.0
149.99128729891976 45.91549001853608 0.0
149.99010920656914 47.91544033730616 0.0
149.9889333823072 49.91538767403802 0.0
149.98775806705282 51.91533256406798 0.0
149.98658158601825 53.91527552707951 0.0
149.98540234299685 55.91521706096362 0.0
149.98421881396519 57.91515763692225 0.0
149.9830295402249 59.915097695607294 0.0
149.98183312124144 61.915037644100764 0.0
149.98062820727617 63.91497785356042 0.0
149.97941349186212 65.91491865737518 0.0
149.97818770413136 67.91486034968237 0.0
149.97694960097093 69.91480318418361 0.0
149.97569795895487 71.91474737312622 0.0
149.97443156598675 73.9146930864168 0.0
149.97314921256154 75.91464045082643 0.0
149.97184968255442 77.91458954927532 0.0
149.970531743431 79.91454042020754 0.0
149.96919413577314 81.9144930570918 0.0
149.96783556201453 83.91444740810587 0.0
149.96645467428743 85.91440337608907 0.0
149.96505006128942 87.91436081886975 0.0
149.9636202340975 89.9143195501014 0.0
149.96216361087286 91.91427934076405 0.0
149.96067850043153 93.91423992151299 0.0
149.95916308468244 95.91420098607679 0.0
149.957615399977 97.91416219592853 0.0
152.02194765323173 1.9171562101168018 0.0
152.0201934937443 3.9171905592265723 0.0
152.01847831594077 5.917229028595402 0.0
152.01680318846348 7.917270343356805 0.0
152.01516872964083 9.91731310240386 0.0
152.01357507548468 11.917355847645693 0.0
152.01202187317386 13.91739713194273 0.0
152.0105082979712 15.917435580998225 0.0
152.00903308984053 17.91746994551755 0.0
152.007594604957 19.91749914128934 0.0
152.00619087688705 21.917522276201055 0.0
152.0048196823701 23.91753866443641 0.0
152.00347860724983 25.91754782908111 0.0
152.00216510897926 27.917549495016384 0.0
152.00087657313426 29.917543574313665 0.0
151.99961036234282 31.917530146396622 0.0
151.99836385690003 33.917509435077164 0.0
151.99713448703432 35.917481784264766 0.0
151.99591975728958 37.91744763382711 0.0
151.99471726381944 39.917407496646554 0.0
151.9935247055604 41.91736193758887 0.0
151.99233989031148 43.9173115548182 0.0
151.9911607367141 45.91725696362586 0.0
151.9899852730437 47.91719878276547 0.0
151.98881163360758 49.91713762315887 0.0
151.98763805341744 51.91707407875617 0.0
151.9864628616721 53.91700871928781 0.0
151.98528447447293 55.9169420846291 0.0
151.9841013870816 57.91687468050131 0.0
151.9829121659393 59.91680697524798 0.0
151.98171544059 61.91673939744946 0.0
151.98050989558328 63.91667233416843 0.0
151.9792942623813 65.9166061296461 0.0
151.97806731125286 67.91654108428419 0.0
151.9768278431018 69.91647745383865 0.0
151.97557468115517 71.91641544868105 0.0
151.97430666241 73.91635523309124 0.0
151.9730226287293 75.91629692453608 0.0
151.9717214174602 77.91624059292103 0.0
151.97040185144525 79.91618625982603 0.0
151.96906272828883 81.91613389776273 0.0
151.96770280874918 83.91608342951506 0.0
151.96632080412073 85.91603472765335 0.0
151.96491536249093 87.91598761433839 0.0
151.96348505376474 89.9159418615602 0.0
151.96202835337218 91.91589719198524 0.0
151.9605436246038 93.91585328061262 0.0
151.95902909955106 95.91580975746702 0.0
151.95748285867057 97.91576621157893 0.0
154.02184194999043 1.9189806488616543 0.0
154.02007100283552 3.9190204235337256 0.0
154.01834086515683 5.919064306439108 0.0
154.01665287102617 7.919110819329 0.0
154.01500780875247 9.919158345522783 0.0
154.0134058865562 11.919205215632257 0.0
154.01184673077577 13.919249790473536 0.0
154.0103294133722 15.919290535063592 0.0
154.0088525033151 17.919326079148398 0.0
154.00741413516286 19.91935526161813 0.0
154.0060120878128 21.919377158034152 0.0
154.00464386685823 23.91939109211329 0.0
154.0033067850049 25.919396633219165 0.0
154.0019980363407 27.919393582635415 0.0
154.0007147616555 29.919381951672225 0.0
153.99945410331014 31.91936193457209 0.0
153.9982132492422 33.919333878840376 0.0
153.99698946650804 35.919298255133675 0.0
153.9957801253116 37.91925562835298 0.0
153.9945827147791 39.91920663102249 0.0
153.9933948518633 41.91915193961405 0.0
153.99221428474135 43.91909225413358 0.0
153.99103889196803 45.91902828099159 0.0
153.9898666784852 47.918960718994654 0.0
153.9886957694152 49.91889024817523 0.0
153.98752440238178 51.918817521109865 0.0
153.98635091893982 53.91874315635132 0.0
153.98517375554349 55.91866773360271 0.0
153.983991434357 57.918591790284424 0.0
153.98280255410864 59.9185158191777 0.0
153.9816057810986 61.918440266866156 0.0
153.98039984040864 63.91836553273863 0.0
153.9791835073024 65.91829196835263 0.0
153.97795559876747 67.91821987697898 0.0
153.97671496511333 69.91814951324609 0.0
153.97546048151946 71.91808108273328 0.0
153.9741910394032 73.91801474147304 0.0
153.97290553746575 75.91795059531627 0.0
153.9716028722618 77.91788869914691 0.0
153.97028192813184 79.91782905595694 0.0
153.96894156633203 81.9177716158211 0.0
153.96758061319338 83.91771627483742 0.0
153.96619784714997 85.91766287412752 0.0
153.96479198448014 87.91761119902208 0.0
153.96336166362136 89.91756097858831 0.0
153.961905427938 91.91751188568786 0.0
153.96042170685422 93.91746353778721 0.0
153.9589087952956 95.91741549877368 0.0
153.95736483143253 97.91736728205886 0.0
156.02171950461315 1.9208246265013544 0.0
156.0199310927613 3.9208700559376424 0.0
156.01818562297458 5.920919581363071 0.0
156.0164847319852 7.9209714774116895 0.0
156.01482939125947 9.921023868093869 0.0
156.01321987113607 11.921074833674764 0.0
156.0116557467989 13.921122512366072 0.0
156.01013594102406 15.921165188913012 0.0
156.00865879580851 17.921201364492333 0.0
156.00722216354174 19.92122980506642 0.0
156.00582350827125 21.921249567911783 0.0
156.00446000857664 23.92126000815074 0.0
156.00312865523324 25.921260768562053 0.0
156.0018263388223 27.921251756690474 0.0
156.00054992440099 29.9212331134046 0.0
155.9992963120472 31.921205176724133 0.0
155.9980624834271 33.92116844412193 0.0
155.99684553545674 35.92112353575536 0.0
155.99564270268178 37.92107116038321 0.0
155.99445137024574 39.921012084999276 0.0
155.99326907933659 41.9209471086961 0.0
155.99209352687342 43.920877040872334 0.0
155.99092256097916 45.920802683588064 0.0
155.98975417353697 47.92072481769449 0.0
155.98858649087083 49.92064419226658 0.0
155.98741776335513 51.92056151682975 0.0
155.98624635455013 53.92047745587759 0.0
155.9850707302815 55.92039262520851 0.0
155.98388944794092 57.92030758965869 0.0
155.982701146168 59.92022286186072 0.0
155.98150453498292 61.920138901713614 0.0
155.98029838637285 63.92005611630239 0.0
155.97908152528058 65.9199748600528 0.0
155.97785282090442 67.9198954349316 0.0
155.97661117818842 69.91981809060873 0.0
155.97535552936066 71.91974302442682 0.0
155.97408482535783 73.91967038113887 0.0
155.9727980269611 75.91960025236757 0.0
155.97149409545926 77.9195326757734 0.0
155.9701719826464 79.91946763394351 0.0
155.968830619954 81.91940505304125 0.0
155.96746890651897 83.91934480128515 0.0
155.9660856959883 85.91928668735466 0.0
155.9646797818655 87.91923045885554 0.0
155.9632498812213 89.9191758010108 0.0
155.9617946166071 91.91912233578199 0.0
155.96031249603973 93.91906962166333 0.0
155.95880189096644 95.91901715442887 0.0
155.95726101216695 97.91896436914894 0.0
158.0215795767366 1.9226893052003609 0.0
158.01977286997314 3.922740655628919 0.0
158.01801161139696 5.9227960846477075 0.0
158.01629778321995 7.922853564865684 0.0
158.01463255147434 9.922910906943168 0.0
158.01301623020606 11.92296589386018 0.0
158.01144829987527 13.923016406240253 0.0
158.0099274720536 15.923060528427287 0.0
158.0084517888745 17.92309662854662 0.0
158.0070187441436 19.923123409707255 0.0
158.00562541339465 21.923139933037763 0.0
158.00426858199467 23.92314561596196 0.0
158.00294486305228 25.92314021079146 0.0
158.00165079976594 27.923123769363116 0.0
158.00038294952807 29.923096599277315 0.0
157.9991379492774 31.923059216564667 0.0
157.9979125631703 33.92301229858837 0.0
157.99670371462224 35.92295663989057 0.0
157.99550850525713 37.92289311272901 0.0
157.99432422340388 39.922822633150815 0.0
157.99314834463155 41.92274613283951 0.0
157.99197852652384 43.92266453653532 0.0
157.99081259952777 45.92257874452869 0.0
157.98964855534973 47.92248961957994 0.0
157.98848453402266 49.92239797756553 0.0
157.98731881047658 51.92230458115871 0.0
157.98614978118508 53.92221013590289 0.0
157.98497595127012 55.922115288105005 0.0
157.98379592228005 57.92202062405518 0.0
157.98260838074685 59.92192667015725 0.0
157.98141208752838 61.92183389362676 0.0
157.98020586788422 63.92174270348057 0.0
157.9789886021824 65.92165345159601 0.0
157.97775921709942 67.92156643364862 0.0
157.97651667715232 69.92148188984838 0.0
157.97525997638178 71.92140000531987 0.0
157.97398812999052 73.92132091009204 0.0
157.97270016573125 75.9212446786523 0.0
157.9713951148262 77.92117132905419 0.0
157.97007200219363 79.92110082158997 0.0
157.96872983574863 81.92103305706966 0.0
157.96736759454254 83.92096787477374 0.0
157.965984215502 85.92090505018034 0.0
157.9645785785325 87.92084429260201 0.0
157.96314948976 89.92078524290768 0.0
157.9616956627038 91.92072747154666 0.0
157.96021569719952 93.92067047713897 0.0
157.9587080559354 95.92061368594061 0.0
157.95717103851507 97.92055645253556 0.0
160.02142129624013 1.9245761074073082 0.0
160.0195952864323 3.9246336900533736 0.0
160.01781769190208 5.924695321182134 0.0
160.01609088935257 7.924758601831284 0.0
160.01441624696463 9.924820962137765 0.0
160.01279409160094 11.9248798313568 0.0
160.01122374677897 13.924932792997232 0.0
160.00970362904735 15.924977711652483 0.0
160.00823138577846 17.925012823492157 0.0
160.00680405596665 19.925036788051276 0.0
160.00541823695934 21.92504870379051 0.0
160.00407024327214 23.92504809331692 0.0
160.00275624777126 25.925034865951936 0.0
160.00147239966216 27.925009265675875 0.0
160.00021491731007 29.924971811750808 0.0
159.99898015662413 31.92492323796676 0.0
159.9977646575015 33.92486443486245 0.0
159.99656517176476 35.924796397721344 0.0
159.99537867631545 37.924720181877746 0.0
159.9942023750809 39.92463686579286 0.0
159.99303369292207 41.924547521684666 0.0
159.99187026415157 43.92445319306093 0.0
159.9907099177619 45.92435487825278 0.0
159.9895506609632 47.92425351896605 0.0
159.98839066218792 49.92414999288587 0.0
159.98722823435838 51.92404510944645 0.0
159.98606181893277 53.92393960798311 0.0
159.98488997102 55.92383415760135 0.0
159.9837113457005 57.92372935821096 0.0
159.98252468556527 59.923625742277714 0.0
159.9813288094099 61.92352377693525 0.0
159.9801226019587 63.92342386617842 0.0
159.97890500445877 65.92332635292125 0.0
159.9776750059538 67.923231520735 0.0
159.97643163503488 69.92313959519723 0.0
159.9751739518455 71.9230507447033 0.0
159.97390104011419 73.92296508071341 0.0
159.97261199897437 75.92288265739447 0.0
159.97130593432263 77.92280347064685 0.0
159.96998194946073 79.92272745652906 0.0
159.96863913475218 81.92265448911776 0.0
159.96727655602254 83.92258437787018 0.0
159.96589324142153 85.92251686458614 0.0
159.96448816646463 87.92245162010563 0.0
159.96306023697804 89.92238824092199 0.0
159.9616082696816 91.92232624593733 0.0
159.9601309701714 93.92226507364472 0.0
159.9586269081077 95.92220408007381 0.0
159.9570944894678 97.9221425378938 0.0
162.02124363244215 1.9264867694155388 0.0
162.01939710404412 3.926550950471173 0.0
162.0176025313836 5.926619125731945 0.0
162.01586274124458 7.9266884357462395 0.0
162.01417930432015 9.926755846144777 0.0
162.01255251068773 11.926818364703553 0.0
162.01098143836677 13.926873234115973 0.0
162.00946409554712 15.926918083018984 0.0
162.00799761135744 17.926951026085796 0.0
162.00657844923057 19.926970712216363 0.0
162.00520262004088 21.926976326413058 0.0
162.0038658777136 23.926967555078175 0.0
162.00256388633537 25.926944526141067 0.0
162.00129235367353 27.926907735065527 0.0
162.00004713070157 29.926857966107274 0.0
161.99882427991923 31.926796215886494 0.0
161.99762011708262 33.926723623966446 0.0
161.99643123163347 35.92664141302906 0.0
161.99525449103993 37.92655083965232 0.0
161.99408703369596 39.92645315548067 0.0
161.99292625426105 41.926349577897476 0.0
161.99176978449466 43.926241268940984 0.0
161.99061547188344 45.92612932105786 0.0
161.9894613576974 47.92601474832138 0.0
161.98830565558183 49.92589848186511 0.0
161.98714673138014 51.925781368445676 0.0
161.98598308457207 53.92566417122679 0.0
161.9848133314938 55.92554757204517 0.0
161.9836361903486 57.925432174570375 0.0
161.98245046791666 59.92531850790083 0.0
161.98125504780083 61.92520703024382 0.0
161.98004888000946 63.925098132414846 0.0
161.9788309716448 65.92499214095778 0.0
161.97760037845794 67.92488932071909 0.0
161.97635619701796 69.92478987682563 0.0
161.97509755723954 71.92469395592984 0.0
161.97382361500584 73.92460164670587 0.0
161.9725335446172 75.92451297956242 0.0
161.97122653079043 77.92442792556456 0.0
161.96990175991954 79.92434639457487 0.0
161.96855841029944 81.92426823264935 0.0
161.96719564100206 83.92419321874607 0.0
161.9658125790808 85.92412106083883 0.0
161.96440830476936 87.92405139156568 0.0
161.9629818343411 89.92398376359012 0.0
161.96153210029738 91.92391764490868 0.0
161.96005792857576 93.92385241440377 0.0
161.95855801251145 95.9237873580083 0.0
161.95703088334608 97.92372166592052 0.0
164.02104535437772 1.9284234094125996 0.0
164.01917684918195 3.928494622598297 0.0
164.01736455972227 5.928569734191851 0.0
164.01561182488024 7.928645309425899 0.0
164.013920405437 9.928717743854822 0.0
164.0122904769824 11.928783542818078 0.0
164.0107207461215 13.928839561638734 0.0
164.00920865932508 15.928883183993834 0.0
164.0077506670348 17.92891242867817 0.0
164.0063425064427 19.928925986897926 0.0
164.0049794727134 21.928923200969855 0.0
164.003656657624 23.928904000029345 0.0
164.00236914413156 25.928868809348913 0.0
164.0011121535079 27.92881844813845 0.0
163.99988114755647 29.928754027462883 0.0
163.9986718919545 31.92867685624141 0.0
163.99748048830097 33.928588359911835 0.0
163.9963033825764 35.92849001363544 0.0
163.99513735697008 37.928383290052004 0.0
163.99397951087496 39.928269620339385 0.0
163.99282723558176 41.92815036675127 0.0
163.9916781860296 43.928026804602894 0.0
163.9905302519628 45.92790011170998 0.0
163.989381530041 47.927771363486954 0.0
163.988230297845 49.92764153217258 0.0
163.98707499027458 51.92751148892465 0.0
163.98591417852654 53.927382007782235 0.0
163.9847465516377 55.92725377071764 0.0
163.9835709004438 57.92712737318826 0.0
163.9823861037278 59.927003329749205 0.0
163.98119111628736 61.92688207940457 0.0
163.97998495863317 63.92676399046782 0.0
163.97876670801944 65.9266493647651 0.0
163.9775354905124 67.92653844104615 0.0
163.97629047380204 69.92643139757794 0.0
163.9750308604656 71.92632835380392 0.0
163.9737558813915 73.92622937106557 0.0
163.97246478906933 75.9261344523605 0.0
163.97115685044295 77.9260435411298 0.0
163.96983133901176 79.92595651908333 0.0
163.96848752585262 81.9258732030881 0.0
163.96712466921377 83.9257933411684 0.0
163.9657420023122 85.92571660769495 0.0
163.96433871895036 87.92564259788021 0.0
163.96291395654734 89.92557082174845 0.0
163.96146677618117 91.92550069781046 0.0
163.95999613924545 93.92543154675279 0.0
163.95850088036036 95.92536258553415 0.0
163.95697967624554 97.92529292237468 0.0
166.0208249789295 1.9303886150160572 0.0
166.01893275392422 3.930467377523867 0.0
166.01710191666703 5.930549874795912 0.0
166.01533638530066 7.930631946888406 0.0
166.01363807632868 9.930709285951776 0.0
166.0120069307818 11.930777799088967 0.0
166.01044110470932 13.930833907940645 0.0
166.00893727523774 15.930874756237792 0.0
166.00749100627328 17.93089831646761 0.0
166.00609712237897 19.930903404011783 0.0
166.00475005143664 21.93088961842053 0.0
166.00344411171116 23.930857236207935 0.0
166.002173733012 25.93080707880511 0.0
166.00093361251615 27.930740375091947 0.0
165.9997188127523 29.930658632281 0.0
165.9985248126215 31.93056352338263 0.0
165.99734752303473 33.930456794913056 0.0
165.99618327780507 35.9303401952233 0.0
165.9950288086591 37.93021542183631 0.0
165.99388121124653 39.93008408506565 0.0
165.99273790715048 41.929947684880815 0.0
165.99159660533164 43.92980759807764 0.0
165.99045526519504 45.92966507312428 0.0
165.9893120625592 47.92952123047778 0.0
165.9881653591508 49.92937706660115 0.0
165.98701367582018 51.929233460304914 0.0
165.98585566939195 53.92909118037537 0.0
165.9846901129001 55.92895089372643 0.0
165.98351587886663 57.92881317352848 0.0
165.98233192524697 59.928678506930616 0.0
165.98113728365104 61.92854730211447 0.0
165.9799310494631 63.92841989450613 0.0
165.9787123734926 65.92829655203116 0.0
165.97748045481103 67.92817747931828 0.0
165.97623453444294 69.92806282086299 0.0
165.97497388959104 71.9279526630558 0.0
165.9736978280801 73.92784703508966 0.0
165.9724056827052 75.92774590872823 0.0
165.97109680516206 77.92764919692863 0.0
165.96977055922437 79.92755675132022 0.0
165.96842631281052 81.92746835855311 0.0
165.967063428562 83.92738373554594 0.0
165.96568125252034 85.92730252368972 0.0
165.96427910046188 87.92722428210065 0.0
165.96285624141711 89.92714848006848 0.0
165.96141187787796 91.92707448891748 0.0
165.95994512219565 93.92700157358729 0.0
165.95845496868898 95.92692888434821 0.0
165.95694026105502 97.92685544918562 0.0
168.0205807021511 1.9323855574255684 0.0
168.01866267925902 3.9324724902935855 0.0
168.01681238508004 5.9325628862323105 0.0
168.0150343857717 7.9326516623448535 0.0
168.01333068214174 9.932733638438767 0.0
168.01170079635472 11.932804012067821 0.0
168.01014207864034 13.932858731456914 0.0
168.0086501557735 15.9328947306864 0.0
168.00721943733302 17.93291002267712 0.0
168.00584360780832 19.932903670130248 0.0
168.00451605466796 21.932875668407167 0.0
168.00323020647213 23.932826777566056 0.0
168.00197977531587 25.932758336288092 0.0
168.00075891170832 27.932672081981167 0.0
167.9995622873379 29.932569992155894 0.0
167.99838512341182 31.932454154253268 0.0
167.99722318120914 33.9323266653228 0.0
167.99607272877006 35.93218955932834 0.0
167.9949304944136 37.93204475806779 0.0
167.9937936147362 39.931894041026666 0.0
167.9926595821935 41.93173902968883 0.0
167.99152619541383 43.931581182382466 0.0
167.99039151397753 45.93142179642389 0.0
167.9892538184316 47.93126201502226 0.0
167.9881115756849 49.931102837031005 0.0
167.98696340955846 51.93094512814678 0.0
167.9858080760529 53.930789632566736 0.0
167.98464444280734 55.930636984425725 0.0
167.98347147219036 57.930487718564876 0.0
167.98228820748423 59.930342280347816 0.0
167.98109376165073 61.93020103435346 0.0
167.9798873082141 63.930064271852046 0.0
167.9786680738339 65.92993221701612 0.0
167.97743533217724 67.92980503182366 0.0
167.97618839873297 69.9296828197082 0.0
167.97492662622273 71.92956562788515 0.0
167.97364940028407 73.92945344838957 0.0
167.9723561350964 75.92934621781242 0.0
167.97104626861412 77.92924381572861 0.0
167.9697192570593 79.92914606180777 0.0
167.96837456829678 81.92905271160394 0.0
167.9670116736834 83.92896345102774 0.0
167.9656300379437 85.92887788952694 0.0
167.96422910657202 87.9287955520311 0.0
167.962808290214 89.92871586977097 0.0
167.96136694543173 91.92863817015586 0.0
167.95990435122457 93.92856166600068 0.0
167.95841968067924 95.92848544452353 0.0
167.9569119671761 97.92840845669747 0.0
170.02031030693263 1.9344181425643685 0.0
170.01836401350212 3.9345139968686524 0.0
170.0164933068751 5.934612872492903 0.0
170.01470346354824 7.934708499518605 0.0
170.0129964349935 9.934794611164639 0.0
170.0113710421721 11.934865570433743 0.0
170.00982346506217 13.934916831136759 0.0
170.008347900501 15.934945191680697 0.0
170.00693726195763 17.93494884894603 0.0
170.00558382215135 19.93492729400271 0.0
170.00427973846917 21.934881106501518 0.0
170.003017438507 23.934811703043703 0.0
170.00178987088532 25.934721083134733 0.0
170.00059064260188 27.93461160109544 0.0
169.9994140702835 29.934485778261056 0.0
169.99825517203752 31.93434615924631 0.0
169.9971096224058 33.93419520941199 0.0
169.99597368755167 35.934035247292634 0.0
169.9948441526934 37.93386840472403 0.0
169.9937182495561 39.9336966076361 0.0
169.99259358843452 41.93352157148768 0.0
169.99146809722572 43.933344806505005 0.0
169.99033996832645 45.93316762902342 0.0
169.9892076133928 47.93299117623003 0.0
169.98806962545353 49.93281642240823 0.0
169.9869247476198 51.93264419539821 0.0
169.98577184754447 53.93247519244226 0.0
169.98460989679737 55.93230999490501 0.0
169.98343795437233 57.93214908158157 0.0
169.9822551536226 59.931992840453354 0.0
169.98106069200676 61.93184157884313 0.0
169.97985382309938 63.93169553197667 0.0
169.97863385039543 65.93155486998269 0.0
169.9774001224863 67.9314197033494 0.0
169.97615202923095 69.93129008693829 0.0
169.9748889985736 71.93116602251321 0.0
169.97361049367404 73.93104745983757 0.0
169.97231601002014 75.93093429633262 0.0
169.97100507218715 77.9308263752857 0.0
169.96967722988495 79.93072348258393 0.0
169.96833205290932 81.93062534194677 0.0
169.96696912456795 83.93053160862739 0.0
169.96558803310063 85.93044186156517 0.0
169.96418836054684 87.9303555939949 0.0
169.96276966843428 89.93027220256478 0.0
169.9613314795849 91.93019097509104 0.0
169.9598732552574 93.93011107719498 0.0
169.95839436681024 95.93003153823159 0.0
169.9568940610919 97.92995123712574 0.0
172.0200110367166 1.9364912146338278 0.0
172.01803353618845 3.9365969052934813 0.0
172.01614147731345 5.936704908544446 0.0
172.01434088608403 7.936807410635599 0.0
172.0126334263912 9.936896787428616 0.0
172.01101678497514 11.936966436134986 0.0
172.00948545049002 13.937011336411135 0.0
172.00803167957494 15.937028298370803 0.0
172.0066464602361 17.9370159317202 0.0
172.0053203397754 19.93697441629789 0.0
172.00404405190307 21.93690516629888 0.0
172.0028089339943 23.936810467548455 0.0
172.0016071612498 25.936693142537315 0.0
172.00043184032626 27.93655627254866 0.0
171.99927700644005 29.936402986250002 0.0
171.99813756153512 31.93623631137501 0.0
171.99700918190166 33.936059079683176 0.0
171.99588821470533 35.93587387336164 0.0
171.99477157558604 37.93568300164299 0.0
171.99365665413538 39.935488498092 0.0
171.99254123045327 41.93529213113622 0.0
171.99142340371944 43.9350954223616 0.0
171.9903015324083 45.93489966870996 0.0
171.989174185106 47.9347059659833 0.0
171.9880401006091 49.93451523199546 0.0
171.9868981559395 51.93432822837264 0.0
171.9857473409915 53.93414558045703 0.0
171.98458673865827 55.933967795063225 0.0
171.98341550944343 57.93379527602417 0.0
171.98223287971229 59.9336283375703 0.0
171.98103813286892 61.933467215642814 0.0
171.97983060286546 63.93331207726463 0.0
171.97860966953684 65.93316302808911 0.0
171.9773747553319 67.9330201182099 0.0
171.97612532305973 69.93288334637982 0.0
171.9748608743097 71.93275266262398 0.0
171.9735809482177 73.93262796931558 0.0
171.9722851202605 75.93250912071 0.0
171.97097300074535 77.93239592091673 0.0
171.96964423264603 79.93228812026635 0.0
171.9682984883951 81.93218541001428 0.0
171.96693546520046 83.93208741531255 0.0
171.96555487838202 85.93199368637505 0.0
171.96415645214375 87.9319036877765 0.0
171.9627399070893 89.93181678585361 0.0
171.9613049436586 91.93173223424806 0.0
171.95985122053847 93.93164915775256 0.0
171.95837832698433 95.93156653481404 0.0
171.95688574796162 97.93148317931977 0.0
174.01967941941885 1.9386108355867877 0.0
174.01766723321504 3.938727484998044 0.0
174.01575301308884 5.93884531724762 0.0
174.01394351666238 7.938954486874299 0.0
174.01223970506922 9.939045674049595 0.0
174.01063746457143 11.939111192138359 0.0
174.0091288474639 13.939145649022361 0.0
174.0077034910106 15.939146134642005 0.0
174.00634993255196 17.939112026041993 0.0
174.00505665224836 19.939044557147806 0.0
174.003812787928 21.93894629828413 0.0
174.00260854700733 23.938820653530836 0.0
174.00143538100272 25.938671437789925 0.0
174.00028599710754 27.93850255633235 0.0
173.99915427199883 29.938317783952343 0.0
173.99803511678655 31.938120627881776 0.0
173.99692432579664 33.937914254620665 0.0
173.99581842878646 35.93770146191518 0.0
173.994714556887 37.93748468045753 0.0
173.99361032654127 39.93726599357634 0.0
173.99250374216052 41.93704716663233 0.0
173.9913931163063 43.93682968055329 0.0
173.99027700535612 45.93661476596158 0.0
173.98915415834912 47.9364034357834 0.0
173.98802347679032 49.93619651519727 0.0
173.98688398341145 51.93599466840542 0.0
173.98573479817506 53.93579842209891 0.0
173.98457512009207 55.93560818571095 0.0
173.98340421367394 57.93542426866983 0.0
173.98222139907188 59.93524689491076 0.0
173.9810260451326 61.935076214911774 0.0
173.97981756474866 63.93491231549997 0.0
173.9785954119958 65.9347552276391 0.0
173.97735908063473 67.93460493234461 0.0
173.97610810361698 69.93446136491742 0.0
173.97484205326916 71.93432441750564 0.0
173.97356054185553 73.934193940073 0.0
173.97226322221732 75.93406973976762 0.0
173.97094978817827 77.93395157865645 0.0
173.96961997438115 79.93383916975861 0.0
173.96827355517806 81.93373217128422 0.0
173.9669103421457 83.93363017896014 0.0
173.96553017972332 85.9335327163081 0.0
173.9641329383653 87.93343922272703 0.0
173.96271850447067 89.93334903924423 0.0
173.9612867661638 91.93326139184097 0.0
173.95983759379516 93.93317537237341 0.0
173.95837081380597 95.9330899173216 0.0
173.9568861744576 97.93300378494314 0.0
176.01931101650342 1.9407846773306316 0.0
176.017260042237 3.9409136712926993 0.0
176.01532319086874 5.941042047393218 0.0
176.0135078088309 7.941157254079212 0.0
176.01181343711937 9.941247864183921 0.0
176.01023313218698 11.941305046637236 0.0
176.00875544819715 13.941323294981222 0.0
176.00736651559944 15.941300441704447 0.0
176.00605180748306 17.94123716519754 0.0
176.0047974028702 19.941136249566508 0.0
176.0035907379967 21.941001814911875 0.0
176.0024209412325 23.940838653050648 0.0
176.00127888069537 25.940651724497314 0.0
176.00015704228832 27.940445818279738 0.0
175.9990493263508 29.940225348369673 0.0
175.99795082024738 31.939994252046503 0.0
175.99685757960452 33.93975595769536 0.0
175.9957664340361 35.939513396007584 0.0
175.99467482285704 37.9392690357143 0.0
175.99358066059307 39.93902493103477 0.0
175.9924822293558 41.93878277274649 0.0
175.99137809414756 43.938543938086 0.0
175.99026703707986 45.938309536890536 0.0
175.9891480068498 47.93808045280155 0.0
175.98802008034818 49.93785737920103 0.0
175.98688243381972 51.937640850033276 0.0
175.98573432150323 53.937431265911194 0.0
175.98457506010578 55.93722891600759 0.0
175.98340401782647 57.937033996248935 0.0
175.98222060692345 59.936846624297004 0.0
175.98102427904578 61.93666685174801 0.0
175.97981452271827 63.93649467391461 0.0
175.9785908624974 65.93633003748306 0.0
175.97735285941107 67.93617284624689 0.0
175.97610011235406 69.93602296514452 0.0
175.974832260157 71.93588022262487 0.0
175.9735489840595 73.93574441142465 0.0
175.97225001032348 75.93561528774218 0.0
175.9709351127046 77.93549256875393 0.0
175.96960411447483 79.93537592837716 0.0
175.96825688964137 81.93526499114559 0.0
175.96689336295717 83.93515932402691 0.0
175.9655135082351 85.9350584259774 0.0
175.96411734437538 87.93496171499176 0.0
175.9627049283512 89.93486851237839 0.0
175.961276344167 91.93477802398897 0.0
175.95983168648326 93.93468931820152 0.0
175.95837103722224 95.9346013006635 0.0
175.956894433114 97.93451268621259 0.0
178.01890005634843 1.943022586263864 0.0
178.01680549711241 3.9431656438871467 0.0
178.01484625829332 5.943305196768174 0.0
178.0130298702043 7.943425046791853 0.0
178.01135321371711 9.943511188300828 0.0
178.0098049198169 11.943553737339926 0.0
178.00836854567405 13.94354761403408 0.0
178.00702559426924 15.943492161676241 0.0
178.00575781628075 17.943390138258454 0.0
178.0045486373178 19.943246520097528 0.0
178.003383826004 21.943067422152904 0.0
178.00225162942937 23.94285927553169 0.0
178.00114259849863 25.94262828189006 0.0
178.0000492708933 27.942380100524662 0.0
177.99896581737752 29.942119704638177 0.0
177.99788770832487 31.941851347784304 0.0
177.99681142524312 33.941578594950066 0.0
177.99573422370563 35.9413043867699 0.0
177.99465394487285 37.94103111687121 0.0
177.9935688689876 39.94076071051189 0.0
177.99247760332545 41.94049469819391 0.0
177.99137899755468 43.940234281342505 0.0
177.9902720804655 45.93998038914241 0.0
177.98915601314965 47.93973372672804 0.0
177.9880300547422 49.939494815470894 0.0
177.98689353771354 51.93926402632126 0.0
177.98574585041138 53.93904160719601 0.0
177.98458642510866 55.93882770533808 0.0
177.98341473024652 57.93862238546798 0.0
177.98223026588403 59.93842564442389 0.0
177.98103256161832 61.938237422866344 0.0
177.97982117641388 63.93805761451104 0.0
177.9785956999196 65.93788607324686 0.0
177.9773557549396 67.93772261837991 0.0
177.97610100078992 69.93756703825436 0.0
177.97483113731062 71.93741909227894 0.0
177.9735459093142 73.93727851144017 0.0
177.9722451112528 75.93714499727027 0.0
177.9709285918652 77.9370182191915 0.0
177.9695962585309 79.93689781010654 0.0
177.9682480810156 81.93678336005624 0.0
177.966884094237 83.93667440772164 0.0
177.96550439960697 85.93657042949368 0.0
177.9641091644076 87.93647082577273 0.0
177.96269861849953 89.93637490408143 0.0
177.96127304738474 91.93628185849649 0.0
177.95983278022038 93.93619074488258 0.0
177.95837817076318 95.93610045154637 0.0
177.9569095685331 97.93600966537194 0.0
180.0184388828334 1.9453374196667834 0.0
180.01629522514227 3.9454966761032098 0.0
180.01431523553097 5.945647743705959 0.0
180.0125056794489 7.9457694641878645 0.0
180.0108586219476 9.945844789808698 0.0
180.00935579397282 11.945863225610077 0.0
180.00797368478862 13.945821162299426 0.0
180.00668784364527 15.945720684073232 0.0
180.00547571385695 17.945567710084667 0.0
180.0043180313024 19.945370176597834 0.0
180.00319917807727 21.945136626184677 0.0
180.00210693180847 23.944875288972938 0.0
180.00103195042638 25.944593581127233 0.0
179.99996719962792 27.944297897885217 0.0
179.99890742687384 29.94399358789061 0.0
179.9978487210713 31.943685025405053 0.0
179.99678816324544 33.94337572622715 0.0
179.99572355853502 35.94306847543399 0.0
179.99465323507505 37.94276545000662 0.0
179.99357589537703 39.94246832845916 0.0
179.9924905077622 41.94217838485921 0.0
179.99139622782258 43.94189656737116 0.0
179.99029234214834 45.94162356274162 0.0
179.98917822846676 47.94135984863189 0.0
179.98805332783687 49.94110573575354 0.0
179.9869171256986 51.94086140160936 0.0
179.98576913943626 53.9406269174071 0.0
179.9846089107559 55.94040226945938 0.0
179.98343600164304 57.940187376145865 0.0
179.98224999301002 59.93998210130077 0.0
179.9810504853914 61.939786264706356 0.0
179.9798371012208 63.939599650221076 0.0
179.97860948835205 65.9394220119366 0.0
179.9773673245742 67.93925307862214 0.0
179.97611032292338 69.93909255671448 0.0
179.97483823762946 71.93894013187594 0.0
179.9735508705431 73.93879546918878 0.0
179.97224807788254 75.93865821193201 0.0
179.97092977711176 77.93852797883267 0.0
179.96959595372732 79.93840435962022 0.0
179.96824666768146 81.93828690866115 0.0
179.96688205911607 83.93817513639455 0.0
179.96550235302695 85.93806849822872 0.0
179.9641078624066 87.93796638047641 0.0
179.96269898929373 89.93786808277474 0.0
179.9612762229007 91.93777279625174 0.0
179.95984013347493 93.93767957650688 0.0
179.95839135966284 95.93758731041487 0.0
179.9569305859038 97.93749467611573 0.0
182.0179170976759 1.9477463304141485 0.0
182.01571823045555 3.947924415506707 0.0
182.01372176907418 5.948086577690275 0.0
182.01193162973811 7.948204873689084 0.0
182.010331280718 9.948258976274651 0.0
182.0088917440821 11.948238967405617 0.0
182.0075797047425 13.948144621971199 0.0
182.00636339251744 15.947982641683325 0.0
182.00521568287195 17.947763498638356 0.0
182.0041150184906 19.947498876207586 0.0
182.00304505891586 21.947200027049544 0.0
182.0019938004555 23.94687692621153 0.0
182.00095260354675 25.946537968401774 0.0
181.99991532916667 27.946189976280888 0.0
181.9988776454896 29.945838358753996 0.0
181.99783650153645 31.945487322869482 0.0
181.99678974073856 33.94514008833145 0.0
181.9957358231853 35.94479908117067 0.0
181.9946736288173 37.94446609840941 0.0
181.99360231944084 39.944142443152174 0.0
181.99252124286772 41.943829033003304 0.0
181.9914298669702 43.94352648585843 0.0
181.99032773488057 45.94323518717223 0.0
181.98921443511296 47.94295534239279 0.0
181.98808958221895 49.9426870176816 0.0
181.986952804895 51.942430171462625 0.0
181.98580373938708 53.94218467883006 0.0
181.98464202668842 55.94195035040751 0.0
181.9834673124861 57.941726946898456 0.0
181.9822792491334 59.94151419028072 0.0
181.9810774991528 61.941311772370824 0.0
181.97986173993232 63.94111936130451 0.0
181.97863166938888 65.94093660632981 0.0
181.97738701244285 67.94076314116388 0.0
181.97612752819805 69.94059858616102 0.0
181.97485301774154 71.9404425492961 0.0
181.97356333248374 73.94029462601188 0.0
181.9722583829447 75.94015439785052 0.0
181.970938147864 77.94002142972602 0.0
181.96960268346425 79.93989526562592 0.0
181.96825213264913 81.93977542246802 0.0
181.96688673385947 83.9396613817772 0.0
181.96550682927543 85.93955257878957 0.0
181.96411287203185 87.9394483885003 0.0
181.96270543208894 89.93934810801265 0.0
181.96128520027045 91.93925093424251 0.0
181.95985298950436 93.93915593557865 0.0
181.9584097311693 95.93906201563563 0.0
181.9569564624401 97.93896786721875 0.0
184.01732017188527 1.9502728115752288 0.0
184.01505987531158 3.9504728876048993 0.0
184.01305621648376 5.950643929917954 0.0
184.01130575507685 7.950748825596314 0.0
184.0097766877698 9.950764499411221 0.0
184.00842359558496 11.950684364741393 0.0
184.00720008863107 13.950514890933675 0.0
184.00606613743565 15.950270065324206 0.0
184.00499057940414 17.949966443122573 0.0
184.0039506881614 19.949619991484017 0.0
184.00293057753203 21.949244558222606 0.0
184.00191944748818 23.94885142636598 0.0
184.0009100978329 25.948449427818485 0.0
183.99989779766045 27.9480452863911 0.0
183.99887947400023 29.947644012827276 0.0
183.99785314812178 31.947249271483777 0.0
183.99681755157206 33.946863689968936 0.0
183.99577186797572 35.94648910777409 0.0
183.9947155610976 37.94612677021186 0.0
183.99364826142175 39.945777477018694 0.0
183.99256969219633 41.94544169500368 0.0
183.9914796220207 43.945119642877216 0.0
183.99037783526956 45.94481135487111 0.0
183.9892641145064 47.94451672833565 0.0
183.98813823096674 49.94423555929667 0.0
183.98699994048792 51.943967568991624 0.0
183.98584898313646 53.94371242365717 0.0
183.9846850853691 55.9434697492681 0.0
183.9835079639642 57.94323914249765 0.0
183.98231733122813 59.943020178841095 0.0
183.9811129011676 61.94281241859884 0.0
183.97989439643973 63.94261541122887 0.0
183.97866155597927 65.94242869842783 0.0
183.97741414325708 67.94225181615786 0.0
183.97615195515513 69.94208429583934 0.0
183.97487483146116 71.94192566468524 0.0
183.97358266498279 73.94177544520315 0.0
183.97227541226678 75.94163315375698 0.0
183.97095310486958 77.94149829801462 0.0
183.96961586107992 79.94137037302659 0.0
183.96826389792778 81.94124885560892 0.0
183.96689754325345 83.94113319663607 0.0
183.96551724757666 85.94102281079596 0.0
183.9641235955383 87.94091706329503 0.0
183.9627173168175 89.9408152528654 0.0
183.9612992965812 91.94071659006245 0.0
183.95987058538714 93.94062016908065 0.0
183.95843240735877 95.94052493015543 0.0
183.95698616256624 97.94042960864111 0.0
186.01662709051672 1.9529501803837632 0.0
186.01430048425172 3.9531756757720653 0.0
186.01230843998025 5.953349319240446 0.0
186.01063038290627 7.953421889279123 0.0
186.00920741873423 9.953370525910056 0.0
186.00796961444414 11.953197664326952 0.0
186.00685446755514 13.95292190152443 0.0
186.0058142440851 15.952567722689171 0.0
186.0048157570867 17.952158889937508 0.0
186.00383726359908 19.951715392213103 0.0
186.00286504835344 21.951252810060456 0.0
186.00189072019913 23.95078273414609 0.0
186.00090929651168 25.95031351968484 0.0
185.99991792589068 27.949851041239764 0.0
185.99891506124504 29.949399330601114 0.0
185.99789993387486 31.94896107588419 0.0
185.99687222276776 33.94853799664616 0.0
185.99583184873873 35.94813111954454 0.0
185.99477884785037 37.94774097835735 0.0
185.99371329501784 39.94736775801785 0.0
185.99263525932952 41.947011397890606 0.0
185.9915447793815 43.94667166561699 0.0
185.99044185120755 45.94634820980046 0.0
185.9893264241117 47.94604059750892 0.0
185.98819840142679 49.94574834089309 0.0
185.98705764432827 51.945470916004375 0.0
185.98590397753335 53.945207776025576 0.0
185.98473719616945 55.94495836050272 0.0
185.9835570733874 57.94472210172054 0.0
185.98236336848774 59.94449842904087 0.0
185.9811558354509 61.944286771791745 0.0
185.97993423184278 63.94408656112371 0.0
185.97869832812506 65.94389723111956 0.0
185.9774479174307 67.9437182193159 0.0
185.97618282588462 69.94354896681521 0.0
185.97490292356017 71.94338891793194 0.0
185.9736081361564 73.94323751937465 0.0
185.97229845746406 75.94309421883973 0.0
185.97097396265195 77.94295846281682 0.0
185.96963482235208 79.9428296933211 0.0
185.96828131744758 81.94270734317287 0.0
185.9669138543807 83.94259082936404 0.0
185.9655329807444 85.94247954399103 0.0
185.9641394009609 87.94237284221347 0.0
185.96273399213283 89.94227002667058 0.0
185.96131782075764 91.94217032753939 0.0
185.95989216171455 93.94207287649851 0.0
185.958458520694 95.94197667075422 0.0
185.95701865797395 97.94188052032727 0.0
188.01580612171273 1.955827523214 0.0
188.0134136493148 3.9560814456234636 0.0
188.01147065231805 5.956241561983265 0.0
188.00991764379336 7.956245749865347 0.0
188.00864843306536 9.956079556827461 0.0
188.00755873272823 11.95576618340774 0.0
188.00656973211204 13.955343659552854 0.0
188.0056298137274 15.95484968242925 0.0
188.0047080770263 17.954314550781426 0.0
188.0037869420828 19.953760434318337 0.0
188.00285691371712 21.95320268188365 0.0
188.00191320108837 23.952651536002627 0.0
188.00095367842206 25.952113614095254 0.0
187.9999776814608 27.951593032877323 0.0
187.99898530868649 29.95109221210676 0.0
187.99797702008408 31.95061243251932 0.0
187.99695341022618 33.950154217287206 0.0
187.99591508311585 35.949717590747724 0.0
187.99486258631018 37.94930225313075 0.0
187.99379637943778 39.94890769813585 0.0
187.99271682250108 41.94853329176288 0.0
187.99162417537687 43.94817832487425 0.0
187.9905186034762 45.94784204793911 0.0
187.98940018662122 47.94752369368852 0.0
187.98826892944956 49.94722249157787 0.0
187.98712477240062 51.94693767671117 0.0
187.9859676027851 53.94666849504647 0.0
187.98479726571088 55.946414206129425 0.0
187.98361357479496 57.94617408421499 0.0
187.98241632269043 59.945947418368476 0.0
187.98120529151643 61.94573351195272 0.0
187.97998026331302 63.945531681779144 0.0
187.97874103066704 65.9453412571037 0.0
187.97748740766696 67.9451615785496 0.0
187.97621924135663 69.94499199708669 0.0
187.9749364238567 71.94483187297797 0.0
187.97363890532276 73.94468057468228 0.0
187.9723267078949 75.94453747758337 0.0
187.97099994076274 77.94440196234625 0.0
187.96965881642348 79.94427341260551 0.0
187.96830366811932 81.94415121157787 0.0
187.96693496833984 83.94403473707065 0.0
187.9655533481428 85.94392335426302 0.0
187.9641596170185 87.94381640562383 0.0
187.96275478329034 89.9437131974534 0.0
187.96134007608345 91.94361298270097 0.0
187.959916972035 93.94351493918856 0.0
187.95848723229767 95.94341813964205 0.0
187.95705295406196 97.94332150365457 0.0
190.0148067283964 1.9589826928563028 0.0
190.01236546113344 3.9592618532773343 0.0
190.01054557414759 5.95937039341706 0.0
190.00920078574754 7.959235090261984 0.0
190.00814460265403 9.958876495358462 0.0
190.0072333290704 11.958356131148374 0.0
190.00637928762373 13.957739591205508 0.0
190.0055368393569 15.957075712200544 0.0
190.0046836591772 17.95639700357935 0.0
190.00380994728877 19.955723674843604 0.0
190.00291222241637 21.955067711559792 0.0
190.00199008680417 23.954435846293684 0.0
190.00104454103283 25.953831540496015 0.0
190.00007712610372 27.953256250875018 0.0
189.99908949454186 29.95271022484883 0.0
189.9980832052756 31.95219299613745 0.0
189.99705963446277 33.9517036921262 0.0
189.99601994581855 35.951241223506024 0.0
189.99496509069465 37.950804400308265 0.0
189.99389582223696 39.95039200178283 0.0
189.99281271542247 41.95000281733603 0.0
189.9917161887683 43.94963566933066 0.0
189.99060652564654 45.949289424570466 0.0
189.98948389428418 47.948962998797846 0.0
189.98834836613239 49.948655356962 0.0
189.98719993260545 51.94836551101726 0.0
189.986038520341 53.94809251637538 0.0
189.98486400520758 55.94783546772697 0.0
189.98367622531097 57.947593494685925 0.0
189.98247499325538 59.947365757541554 0.0
189.98126010791324 61.947151443294096 0.0
189.98003136594943 63.946949762080976 0.0
189.97878857334314 65.94675994405169 0.0
189.97753155714346 67.94658123668766 0.0
189.97626017769994 69.9464129026466 0.0
189.97497434160638 71.94625421801516 0.0
189.97367401559978 73.94610447095987 0.0
189.9723592416527 75.94596296066565 0.0
189.97103015348338 77.94582899639728 0.0
189.9696869946669 79.94570189642636 0.0
189.96833013846341 81.94558098643839 0.0
189.96696010934033 83.94546559686856 0.0
189.96557760597457 85.94535505843676 0.0
189.9641835252957 87.94524869504059 0.0
189.9627789871126 89.94514581330442 0.0
189.96136535972977 91.94504568873582 0.0
189.95994429045095 93.94494754947866 0.0
189.9585177522179 95.94485055713079 0.0
189.95708812465452 97.9447537746786 0.0
192.01354336405913 1.962540647920102 0.0
192.01111900162752 3.9628312211219296 0.0
192.00957057634113 5.96278457458822 0.0
192.00855328625576 7.962377362735076 0.0
192.0077690650667 9.961704585614882 0.0
192.0070470500389 11.960898489744533 0.0
192.00631838921973 13.96004383967354 0.0
192.0055564964304 15.95918922174121 0.0
192.00475418420024 17.95835990952606 0.0
192.00391188255787 19.957568018098293 0.0
192.0030328379697 21.956818462283188 0.0
192.00212101467815 23.95611232865004 0.0
192.0011802511587 25.955448730784088 0.0
192.00021394847082 27.95482582476016 0.0
191.99922499064897 29.95424136086627 0.0
191.99821576056726 31.95369297929053 0.0
191.99718819129808 33.953178363810494 0.0
191.9961438265528 35.95269531659706 0.0
191.99508387917933 37.952241789413485 0.0
191.99400928363542 39.95181589099711 0.0
191.9929207414513 41.951415881869025 0.0
191.99181876000264 43.95104016292834 0.0
191.99070368540276 45.95068726141134 0.0
191.98957573043523 47.9503558162045 0.0
191.98843499840982 49.950044563580725 0.0
191.98728150373032 51.94975232390184 0.0
191.98611518984887 53.94947798952903 0.0
191.98493594518627 55.94922051401649 0.0
191.9837436175091 57.94897890257505 0.0
191.98253802718804 59.948752203748754 0.0
191.98131897970828 61.94853950223246 0.0
191.9800862777638 63.94833991275781 0.0
191.97883973324343 65.94815257498001 0.0
191.9775791794012 67.94797664927795 0.0
191.97630448349815 69.94781131350156 0.0
191.97501556020583 71.94765576053396 0.0
191.97371238607175 73.94750919667497 0.0
191.97239501535253 75.94737084078281 0.0
191.97106359753235 77.94723992408603 0.0
191.9697183968309 79.94711569051329 0.0
191.96835981395824 81.94699739727105 0.0
191.96698841026188 83.94688431521688 0.0
191.96560493417104 85.94677572830442 0.0
191.96421034942972 87.94667093105971 0.0
191.9628058640423 89.94656922286877 0.0
191.96139295864094 91.94646989840986 0.0
191.95997341519737 93.94637223611313 0.0
191.95854935941816 95.94627549156282 0.0
191.95712335689961 97.94617889597285 0.0
194.01186110539996 1.9667679553763702 0.0
194.00967656024005 3.966928967134399 0.0
194.00866864895073 5.966507696958442 0.0
194.00812113576842 7.965562092490938 0.0
194.00761411575417 9.964432229958838 0.0
194.0070529188794 11.963276013909745 0.0
194.00641336104087 13.962163429595103 0.0
194.00569980342559 15.961119563237425 0.0
194.00492221445566 17.960150398460403 0.0
194.00409090800648 19.95925394017514 0.0
194.00321478734685 21.95842520958193 0.0
194.00230112837642 23.95765840746035 0.0
194.00135573874633 25.956947833001355 0.0
194.00038320969614 27.956288241445215 0.0
193.9993871536115 29.955674950694593 0.0
193.99837040307767 31.955103838136438 0.0
193.9973351700349 33.95457129299688 0.0
193.99628317093 35.954074154301466 0.0
193.9952157247475 37.95360964800277 0.0
193.99413383001843 39.953175328886786 0.0
193.99303822572244 41.952769029230495 0.0
193.9919294398886 43.952388814449804 0.0
193.9908078287991 45.952032945247815 0.0
193.98967360900687 47.95169984550822 0.0
193.98852688384403 49.951388075135625 0.0
193.9873676657132 51.951096307097174 0.0
193.9861958951596 53.950823308010534 0.0
193.98501145751038 55.95056792172227 0.0
193.98381419770865 57.95032905541435 0.0
193.98260393385658 59.95010566786292 0.0
193.98138046990007 61.94989675954771 0.0
193.98014360782904 63.949701364378235 0.0
193.97889315973458 65.94951854285671 0.0
193.97762896003866 67.94934737651828 0.0
193.97635087821058 69.94918696364716 0.0
193.9750588322846 71.94903641612832 0.0
193.97375280351588 73.94889485747336 0.0
193.97243285252677 75.94876142202423 0.0
193.97109913733013 77.94863525536313 0.0
193.96975193363429 79.9485155159473 0.0
193.96839165783555 81.9484013779365 0.0
193.96701889304222 83.94829203505458 0.0
193.96563441827698 85.94818670506817 0.0
193.9642392405299 87.9480846340083 0.0
193.96283462832608 89.94798509857853 0.0
193.96142214366589 91.94788740462377 0.0
193.96000366735296 93.94779088086611 0.0
193.95858141680142 95.94769487659462 0.0
193.9571580063825 97.94759879702727 0.0
196.00951383651278 1.9719864114089665 0.0
196.00820297670188 3.9718298147047495 0.0
196.00821101979352 5.970258728847509 0.0
196.0080706907595 7.96849584067491 0.0
196.00775780195605 9.9668285774032 0.0
196.00727619206057 11.965327371310687 0.0
196.00666676072808 13.963988251981934 0.0
196.00595950969188 15.962791583944071 0.0
196.0051770715667 17.961716530752952 0.0
196.00433572435264 19.960744931507445 0.0
196.00344735592915 21.959861802689456 0.0
196.0025207410973 23.95905498442277 0.0
196.00156244298438 25.958314623583142 0.0
196.00057742251892 27.95763269828638 0.0
195.99956945932104 29.95700262782395 0.0
195.99854144644317 31.95641896556887 0.0
195.99749560076685 33.95587716060666 0.0
195.9964336159699 35.955373373164946 0.0
195.9953567757684 37.95490433129835 0.0
195.99426603921708 39.95446721891931 0.0
195.9931621060486 41.95405958770302 0.0
195.99204546755044 43.953679287230244 0.0
195.9909164468309 45.95332440914782 0.0
195.98977523121647 47.95299324217856 0.0
195.98862189877357 49.952684235593026 0.0
195.98745644041495 51.952395969334376 0.0
195.98627877869643 53.95212712941876 0.0
195.98508878414262 55.951876487557115 0.0
195.98388628976343 57.95164288419047 0.0
195.98267110428995 59.95142521431793 0.0
195.98144302457183 61.95122241564379 0.0
195.98020184751334 63.951033458689345 0.0
195.97894738188586 65.95085733860529 0.0
195.97767946033815 67.95069306847348 0.0
195.97639795191498 69.9505396740716 0.0
195.97510277540488 71.95039618996064 0.0
195.9737939138594 73.95026165696626 0.0
195.97247143065596 75.95013512113037 0.0
195.97113548751824 77.95001563428855 0.0
195.96978636495803 79.94990225650001 0.0
195.9684244856367 81.94979406062237 0.0
195.96705044115328 83.94969013936227 0.0
195.96566502266197 85.94958961509597 0.0
195.96426925535846 87.94949165251906 0.0
195.96286443584566 89.9493954735218 0.0
195.9614521688113 91.94930037217489 0.0
195.9600343932654 93.94920572529897 0.0
195.9586133770652 95.94911099460477 0.0
195.9571916546932 97.94901575241882 0.0
198.00622899499402 1.9801447265295398 0.0
198.0080182572717 3.976448389439397 0.0
198.0084566501993 5.973237746941418 0.0
198.00849267818123 7.970675542612311 0.0
198.00818973026972 9.968605879345308 0.0
198.00768647243527 11.966884633216937 0.0
198.00704499319843 13.965417512213211 0.0
198.00630562591812 15.964142631201447 0.0
198.00549349632817 17.963018051306143 0.0
198.0046255377447 19.962014310033325 0.0
198.00371352112055 21.961110033535853 0.0
198.0027658950436 23.96028928356326 0.0
198.00178885815401 25.959539890585727 0.0
198.0007870344968 27.95885236979623 0.0
197.99976391239267 29.958219193624892 0.0
197.99872214048185 31.957634289915266 0.0
197.9976637333784 33.957092687250245 0.0
197.99659021840034 35.95659025881989 0.0
197.99550274275742 37.95612353391108 0.0
197.9944021535553 39.9556895567259 0.0
197.99328905870448 41.955285779006736 0.0
197.9921638741727 43.95490997720682 0.0
197.99102686131428 45.954560187760286 0.0
197.98987815690163 47.954234655886836 0.0
197.98871779773413 49.95393179464834 0.0
197.98754574120295 51.95365015186349 0.0
197.98636188283308 53.953388383115644 0.0
197.98516607158788 55.95314522953702 0.0
197.98395812354318 57.95291949938072 0.0
197.98273783442724 59.95271005263528 0.0
197.98150499143057 61.9525157881195 0.0
197.98025938464065 63.95233563263974 0.0
197.97900081841647 65.95216853190321 0.0
197.9777291230057 67.95201344294549 0.0
197.97644416669655 69.95186932803293 0.0
197.97514586881135 71.95173514989855 0.0
197.9738342138678 73.95160986840315 0.0
197.97250926726653 75.95149243874708 0.0
197.9711711929081 77.95138181148533 0.0
197.96982027319373 79.95127693474417 0.0
197.96845693191406 81.95117675923528 0.0
197.9670817605613 83.95108024692553 0.0
197.9656955485545 85.9509863845717 0.0
197.96429931761466 87.95089420377093 0.0
197.96289435970922 89.95080280963644 0.0
197.9614822755995 91.95071142028593 0.0
197.96006500408973 93.95061941755034 0.0
197.9586448110574 95.95052640156901 0.0
197.95722414163316 97.95043222189514 0.0

CELLS 5000 25000
4 0 4 300 299
4 299 300 301 298
4 298 301 302 297
4 297 302 303 296
4 296 303 304 295
4 295 304 305 294
4 294 305 306 293
4 293 306 307 292
4 292 307 308 291
4 291 308 309 290
4 290 309 310 289
4 289 310 311 288
4 288 311 312 287
4 287 312 313 286
4 286 313 314 285
4 285 314 315 284
4 284 315 316 283
4 283 316 317 282
4 282 317 318 281
4 281 318 319 280
4 280 319 320 279
4 279 320 321 278
4 278 321 322 277
4 277 322 323 276
4 276 323 324 275
4 275 324 325 274
4 274 325 326 273
4 273 326 327 272
4 272 327 328 271
4 271 328 329 270
4 270 329 330 269
4 269 330 331 268
4 268 331 332 267
4 267 332 333 266
4 266 333 334 265
4 265 334 335 264
4 264 335 336 263
4 263 336 337 262
4 262 337 338 261
4 261 338 339 260
4 260 339 340 259
4 259 340 341 258
4 258 341 342 257
4 257 342 343 256
4 256 343 344 255
4 255 344 345 254
4 254 345 346 253
4 253 346 347 252
4 252 347 348 251
4 251 348 250 3
4 4 5 349 300
4 300 349 350 301
4 301 350 351 302
4 302 351 352 303
4 303 352 353 304
4 304 353 354 305
4 305 354 355 306
4 306 355 356 307
4 307 356 357 308
4 308 357 358 309
4 309 358 359 310
4 310 359 360 311
4 311 360 361 312
4 312 361 362 313
4 313 362 363 314
4 314 363 364 315
4 315 364 365 316
4 316 365 366 317
4 317 366 367 318
4 318 367 368 319
4 319 368 369 320
4 320 369 370 321
4 321 370 371 322
4 322 371 372 323
4 323 372 373 324
4 324 373 374 325
4 325 374 375 326
4 326 375 376 327
4 327 376 377 328
4 328 377 378 329
4 329 378 379 330
4 330 379 380 331
4 331 380 381 332
4 332 381 382 333
4 333 382 383 334
4 334 383 384 335
4 335 384 385 336
4 336 385 386 337
4 337 386 387 338
4 338 387 388 339
4 339 388 389 340
4 340 389 390 341
4 341 390 391 342
4 342 391 392 343
4 343 392 393 344
4 344 393 394 345
4 345 394 395 346
4 346 395 396 347
4 347 396 397 348
4 348 397 249 250
4 5 6 398 349
4 349 398 399 350
4 350 399 400 351
4 351 400 401 352
4 352 401 402 353
4 353 402 403 354
4 354 403 404 355
4 355 404 405 356
4 356 405 406 357
4 357 406 407 358
4 358 407 408 359
4 359 408 409 360
4 360 409 410 361
4 361 410 411 362
4 362 411 412 363
4 363 412 413 364
4 364 413 414 365
4 365 414 415 366
4 366 415 416 367
4 367 416 417 368
4 368 417 418 369
4 369 418 419 370
4 370 419 420 371
4 371 420 421 372
4 372 421 422 373
4 373 422 423 374
4 374 423 424 375
4 375 424 425 376
4 376 425 426 377
4 377 426 427 378
4 378 427 428 379
4 379 428 429 380
4 380 429 430 381
4 381 430 431 382
4 382 431 432 383
4 383 432 433 384
4 384 433 434 385
4 385 434 435 386
4 386 435 436 387
4 387 436 437 388
4 388 437 438 389
4 389 438 439 390
4 390 439 440 391
4 391 440 441 392
4 392 441 442 393
4 393 442 443 394
4 394 443 444 395
4 395 444 445 396
4 396 445 446 397
4 397 446 248 249
4 6 7 447 398
4 398 447 448 399
4 399 448 449 400
4 400 449 450 401
4 401 450 451 402
4 402 451 452 403
4 403 452 453 404
4 404 453 454 405
4 405 454 455 406
4 406 455 456 407
4 407 456 457 408
4 408 457 458 409
4 409 458 459 410
4 410 459 460 411
4 411 460 461 412
4 412 461 462 413
4 413 462 463 414
4 414 463 464 415
4 415 464 465 416
4 416 465 466 417
4 417 466 467 418
4 418 467 468 419
4 419 468 469 420
4 420 469 470 421
4 421 470 471 422
4 422 471 472 423
4 423 472 473 424
4 424 473 474 425
4 425 474 475 426
4 426 475 476 427
4 427 476 477 428
4 428 477 478 429
4 429 478 479 430
4 430 479 480 431
4 431 480 481 432
4 432 481 482 433
4 433 482 483 434
4 434 483 484 435
4 435 484 485 436
4 436 485 486 437
4 437 486 487 438
4 438 487 488 439
4 439 488 489 440
4 440 489 490 441
4 441 490 491 442
4 442 491 492 443
4 443 492 493 444
4 444 493 494 445
4 445 494 495 446
4 446 495 247 248
4 7 8 496 447
4 447 496 497 448
4 448 497 498 449
4 449 498 499 450
4 450 499 500 451
4 451 500 501 452
4 452 501 502 453
4 453 502 503 454
4 454 503 504 455
4 455 504 505 456
4 456 505 506 457
4 457 506 507 458
4 458 507 508 459
4 459 508 509 460
4 460 509 510 461
4 461 510 511 462
4 462 511 512 463
4 463 512 513 464
4 464 513 514 465
4 465 514 515 466
4 466 515 516 467
4 467 516 517 468
4 468 517 518 469
4 469 518 519 470
4 470 519 520 471
4 471 520 521 472
4 472 521 522 473
4 473 522 523 474
4 474 523 524 475
4 475 524 525 476
4 476 525 526 477
4 477 526 527 478
4 478 527 528 479
4 479 528 529 480
4 480 529 530 481
4 481 530 531 482
4 482 531 532 483
4 483 532 533 484
4 484 533 534 485
4 485 534 535 486
4 486 535 536 487
4 487 536 537 488
4 488 537 538 489
4 489 538 539 490
4 490 539 540 491
4 491 540 541 492
4 492 541 542 493
4 493 542 543 494
4 494 543 544 495
4 495 544 246 247
4 8 9 545 496
4 496 545 546 497
4 497 546 547 498
4 498 547 548 499
4 499 548 549 500
4 500 549 550 501
4 501 550 551 502
4 502 551 552 503
4 503 552 553 504
4 504 553 554 505
4 505 554 555 506
4 506 555 556 507
4 507 556 557 508
4 508 557 558 509
4 509 558 559 510
4 510 559 560 511
4 511 560 561 512
4 512 561 562 513
4 513 562 563 514
4 514 563 564 515
4 515 564 565 516
4 516 565 566 517
4 517 566 567 518
4 518 567 568 519
4 519 568 569 520
4 520 569 570 521
4 521 570 571 522
4 522 571 572 523
4 523 572 573 524
4 524 573 574 525
4 525 574 575 526
4 526 575 576 527
4 527 576 577 528
4 528 577 578 529
4 529 578 579 530
4 530 579 580 531
4 531 580 581 532
4 532 581 582 533
4 533 582 583 534
4 534 583 584 535
4 535 584 585 536
4 536 585 586 537
4 537 586 587 538
4 538 587 588 539
4 539 588 589 540
4 540 589 590 541
4 541 590 591 542
4 542 591 592 543
4 543 592 593 544
4 544 593 245 246
4 9 10 594 545
4 545 594 595 546
4 546 595 596 547
4 547 596 597 548
4 548 597 598 549
4 549 598 599 550
4 550 599 600 551
4 551 600 601 552
4 552 601 602 553
4 553 602 603 554
4 554 603 604 555
4 555 604 605 556
4 556 605 606 557
4 557 606 607 558
4 558 607 608 559
4 559 608 609 560
4 560 609 610 561
4 561 610 611 562
4 562 611 612 563
4 563 612 613 564
4 564 613 614 565
4 565 614 615 566
4 566 615 616 567
4 567 616 617 568
4 568 617 618 569
4 569 618 619 570
4 570 619 620 571
4 571 620 621 572
4 572 621 622 573
4 573 622 623 574
4 574 623 624 575
4 575 624 625 576
4 576 625 626 577
4 577 626 627 578
4 578 627 628 579
4 579 628 629 580
4 580 629 630 581
4 581 630 631 582
4 582 631 632 583
4 583 632 633 584
4 584 633 634 585
4 585 634 635 586
4 586 635 636 587
4 587 636 637 588
4 588 637 638 589
4 589 638 639 590
4 590 639 640 591
4 591 640 641 592
4 592 641 642 593
4 593 642 244 245
4 10 11 643 594
4 594 643 644 595
4 595 644 645 596
4 596 645 646 597
4 597 646 647 598
4 598 647 648 599
4 599 648 649 600
4 600 649 650 601
4 601 650 651 602
4 602 651 652 603
4 603 652 653 604
4 604 653 654 605
4 605 654 655 606
4 606 655 656 607
4 607 656 657 608
4 608 657 658 609
4 609 658 659 610
4 610 659 660 611
4 611 660 661 612
4 612 661 662 613
4 613 662 663 614
4 614 663 664 615
4 615 664 665 616
4 616 665 666 617
4 617 666 667 618
4 618 667 668 619
4 619 668 669 620
4 620 669 670 621
4 621 670 671 622
4 622 671 672 623
4 623 672 673 624
4 624 673 674 625
4 625 674 675 626
4 626 675 676 627
4 627 676 677 628
4 628 677 678 629
4 629 678 679 630
4 630 679 680 631
4 631 680 681 632
4 632 681 682 633
4 633 682 683 634
4 634 683 684 635
4 635 684 685 636
4 636 685 686 637
4 637 686 687 638
4 638 687 688 639
4 639 688 689 640
4 640 689 690 641
4 641 690 691 642
4 642 691 243 244
4 11 12 692 643
4 643 692 693 644
4 644 693 694 645
4 645 694 695 646
4 646 695 696 647
4 647 696 697 648
4 648 697 698 649
4 649 698 699 650
4 650 699 700 651
4 651 700 701 652
4 652 701 702 653
4 653 702 703 654
4 654 703 704 655
4 655 704 705 656
4 656 705 706 657
4 657 706 707 658
4 658 707 708 659
4 659 708 709 660
4 660 709 710 661
4 661 710 711 662
4 662 711 712 663
4 663 712 713 664
4 664 713 714 665
4 665 714 715 666
4 666 715 716 667
4 667 716 717 668
4 668 717 718 669
4 669 718 719 670
4 670 719 720 671
4 671 720 721 672
4 672 721 722 673
4 673 722 723 674
4 674 723 724 675
4 675 724 725 676
4 676 725 726 677
4 677 726 727 678
4 678 727 728 679
4 679 728 729 680
4 680 729 730 681
4 681 730 731 682
4 682 731 732 683
4 683 732 733 684
4 684 733 734 685
4 685 734 735 686
4 686 735 736 687
4 687 736 737 688
4 688 737 738 689
4 689 738 739 690
4 690 739 740 691
4 691 740 242 243
4 12 13 741 692
4 692 741 742 693
4 693 742 743 694
4 694 743 744 695
4 695 744 745 696
4 696 745 746 697
4 697 746 747 698
4 698 747 748 699
4 699 748 749 700
4 700 749 750 701
4 701 750 751 702
4 702 751 752 703
4 703 752 753 704
4 704 753 754 705
4 705 754 755 706
4 706 755 756 707
4 707 756 757 708
4 708 757 758 709
4 709 758 759 710
4 710 759 760 711
4 711 760 761 712
4 712 761 762 713
4 713 762 763 714
4 714 763 764 715
4 715 764 765 716
4 716 765 766 717
4 717 766 767 718
4 718 767 768 719
4 719 768 769 720
4 720 769 770 721
4 721 770 771 722
4 722 771 772 723
4 723 772 773 724
4 724 773 774 725
4 725 774 775 726
4 726 775 776 727
4 727 776 777 728
4 728 777 778 729
4 729 778 779 730
4 730 779 780 731
4 731 780 781 732
4 732 781 782 733
4 733 782 783 734
4 734 783 784 735
4 735 784 785 736
4 736 785 786 737
4 737 786 787 738
4 738 787 788 739
4 739 788 789 740
4 740 789 241 242
4 13 14 790 741
4 741 790 791 742
4 742 791 792 743
4 743 792 793 744
4 744 793 794 745
4 745 794 795 746
4 746 795 796 747
4 747 796 797 748
4 748 797 798 749
4 749 798 799 750
4 750 799 800 751
4 751 800 801 752
4 752 801 802 753
4 753 802 803 754
4 754 803 804 755
4 755 804 805 756
4 756 805 806 757
4 757 806 807 758
4 758 807 808 759
4 759 808 809 760
4 760 809 810 761
4 761 810 811 762
4 762 811 812 763
4 763 812 813 764
4 764 813 814 765
4 765 814 815 766
4 766 815 816 767
4 767 816 817 768
4 768 817 818 769
4 769 818 819 770
4 770 819 820 771
4 771 820 821 772
4 772 821 822 773
4 773 822 823 774
4 774 823 824 775
4 775 824 825 776
4 776 825 826 777
4 777 826 827 778
4 778 827 828 779
4 779 828 829 780
4 780 829 830 781
4 781 830 831 782
4 782 831 832 783
4 783 832 833 784
4 784 833 834 785
4 785 834 835 786
4 786 835 836 787
4 787 836 837 788
4 788 837 838 789
4 789 838 240 241
4 14 15 839 790
4 790 839 840 791
4 791 840 841 792
4 792 841 842 793
4 793 842 843 794
4 794 843 844 795
4 795 844 845 796
4 796 845 846 797
4 797 846 847 798
4 798 847 848 799
4 799 848 849 800
4 800 849 850 801
4 801 850 851 802
4 802 851 852 803
4 803 852 853 804
4 804 853 854 805
4 805 854 855 806
4 806 855 856 807
4 807 856 857 808
4 808 857 858 809
4 809 858 859 810
4 810 859 860 811
4 811 860 861 812
4 812 861 862 813
4 813 862 863 814
4 814 863 864 815
4 815 864 865 816
4 816 865 866 817
4 817 866 867 818
4 818 867 868 819
4 819 868 869 820
4 820 869 870 821
4 821 870 871 822
4 822 871 872 823
4 823 872 873 824
4 824 873 874 825
4 825 874 875 826
4 826 875 876 827
4 827 876 877 828
4 828 877 878 829
4 829 878 879 830
4 830 879 880 831
4 831 880 881 832
4 832 881 882 833
4 833 882 883 834
4 834 883 884 835
4 835 884 885 836
4 836 885 886 837
4 837 886 887 838
4 838 887 239 240
4 15 16 888 839
4 839 888 889 840
4 840 889 890 841
4 841 890 891 842
4 842 891 892 843
4 843 892 893 844
4 844 893 894 845
4 845 894 895 846
4 846 895 896 847
4 847 896 897 848
4 848 897 898 849
4 849 898 899 850
4 850 899 900 851
4 851 900 901 852
4 852 901 902 853
4 853 902 903 854
4 854 903 904 855
4 855 904 905 856
4 856 905 906 857
4 857 906 907 858
4 858 907 908 859
4 859 908 909 860
4 860 909 910 861
4 861 910 911 862
4 862 911 912 863
4 863 912 913 864
4 864 913 914 865
4 865 914 915 866
4 866 915 916 867
4 867 916 917 868
4 868 917 918 869
4 869 918 919 870
4 870 919 920 871
4 871 920 921 872
4 872 921 922 873
4 873 922 923 874
4 874 923 924 875
4 875 924 925 876
4 876 925 926 877
4 877 926 927 878
4 878 927 928 879
4 879 928 929 880
4 880 929 930 881
4 881 930 931 882
4 882 931 932 883
4 883 932 933 884
4 884 933 934 885
4 885 934 935 886
4 886 935 936 887
4 887 936 238 239
4 16 17 937 888
4 888 937 938 889
4 889 938 939 890
4 890 939 940 891
4 891 940 941 892
4 892 941 942 893
4 893 942 943 894
4 894 943 944 895
4 895 944 945 896
4 896 945 946 897
4 897 946 947 898
4 898 947 948 899
4 899 948 949 900
4 900 949 950 901
4 901 950 951 902
4 902 951 952 903
4 903 952 953 904
4 904 953 954 905
4 905 954 955 906
4 906 955 956 907
4 907 956 957 908
4 908 957 958 909
4 909 958 959 910
4 910 959 960 911
4 911 960 961 912
4 912 961 962 913
4 913 962 963 914
4 914 963 964 915
4 915 964 965 916
4 916 965 966 917
4 917 966 967 918
4 918 967 968 919
4 919 968 969 920
4 920 969 970 921
4 921 970 971 922
4 922 971 972 923
4 923 972 973 924
4 924 973 974 925
4 925 974 975 926
4 926 975 976 927
4 927 976 977 928
4 928 977 978 929
4 929 978 979 930
4 930 979 980 931
4 931 980 981 932
4 932 981 982 933
4 933 982 983 934
4 934 983 984 935
4 935 984 985 936
4 936 985 237 238
4 17 18 986 937
4 937 986 987 938
4 938 987 988 939
4 939 988 989 940
4 940 989 990 941
4 941 990 991 942
4 942 991 992 943
4 943 992 993 944
4 944 993 994 945
4 945 994 995 946
4 946 995 996 947
4 947 996 997 948
4 948 997 998 949
4 949 998 999 950
4 950 999 1000 951
4 951 1000 1001 952
4 952 1001 1002 953
4 953 1002 1003 954
4 954 1003 1004 955
4 955 1004 1005 956
4 956 1005 1006 957
4 957 1006 1007 958
4 958 1007 1008 959
4 959 1008 1009 960
4 960 1009 1010 961
4 961 1010 1011 962
4 962 1011 1012 963
4 963 1012 1013 964
4 964 1013 1014 965
4 965 1014 1015 966
4 966 1015 1016 967
4 967 1016 1017 968
4 968 1017 1018 969
4 969 1018 1019 970
4 970 1019 1020 971
4 971 1020 1021 972
4 972 1021 1022 973
4 973 1022 1023 974
4 974 1023 1024 975
4 975 1024 1025 976
4 976 1025 1026 977
4 977 1026 1027 978
4 978 1027 1028 979
4 979 1028 1029 980
4 980 1029 1030 981
4 981 1030 1031 982
4 982 1031 1032 983
4 983 1032 1033 984
4 984 1033 1034 985
4 985 1034 236 237
4 18 19 1035 986
4 986 1035 1036 987
4 987 1036 1037 988
4 988 1037 1038 989
4 989 1038 1039 990
4 990 1039 1040 991
4 991 1040 1041 992
4 992 1041 1042 993
4 993 1042 1043 994
4 994 1043 1044 995
4 995 1044 1045 996
4 996 1045 1046 997
4 997 1046 1047 998
4 998 1047 1048 999
4 999 1048 1049 1000
4 1000 1049 1050 1001
4 1001 1050 1051 1002
4 1002 1051 1052 1003
4 1003 1052 1053 1004
4 1004 1053 1054 1005
4 1005 1054 1055 1006
4 1006 1055 1056 1007
4 1007 1056 1057 1008
4 1008 1057 1058 1009
4 1009 1058 1059 1010
4 1010 1059 1060 1011
4 1011 1060 1061 1012
4 1012 1061 1062 1013
4 1013 1062 1063 1014
4 1014 1063 1064 1015
4 1015 1064 1065 1016
4 1016 1065 1066 1017
4 1017 1066 1067 1018
4 1018 1067 1068 1019
4 1019 1068 1069 1020
4 1020 1069 1070 1021
4 1021 1070 1071 1022
4 1022 1071 1072 1023
4 1023 1072 1073 1024
4 1024 1073 1074 1025
4 1025 1074 1075 1026
4 1026 1075 1076 1027
4 1027 1076 1077 1028
4 1028 1077 1078 1029
4 1029 1078 1079 1030
4 1030 1079 1080 1031
4 1031 1080 1081 1032
4 1032 1081 1082 1033
4 1033 1082 1083 1034
4 1034 1083 235 236
4 19 20 1084 1035
4 1035 1084 1085 1036
4 1036 1085 1086 1037
4 1037 1086 1087 1038
4 1038 1087 1088 1039
4 1039 1088 1089 1040
4 1040 1089 1090 1041
4 1041 1090 1091 1042
4 1042 1091 1092 1043
4 1043 1092 1093 1044
4 1044 1093 1094 1045
4 1045 1094 1095 1046
4 1046 1095 1096 1047
4 1047 1096 1097 1048
4 1048 1097 1098 1049
4 1049 1098 1099 1050
4 1050 1099 1100 1051
4 1051 1100 1101 1052
4 1052 1101 1102 1053
4 1053 1102 1103 1054
4 1054 1103 1104 1055
4 1055 1104 1105 1056
4 1056 1105 1106 1057
4 1057 1106 1107 1058
4 1058 1107 1108 1059
4 1059 1108 1109 1060
4 1060 1109 1110 1061
4 1061 1110 1111 1062
4 1062 1111 1112 1063
4 1063 1112 1113 1064
4 1064 1113 1114 1065
4 1065 1114 1115 1066
4 1066 1115 1116 1067
4 1067 1116 1117 1068
4 1068 1117 1118 1069
4 1069 1118 1119 1070
4 1070 1119 1120 1071
4 1071 1120 1121 1072
4 1072 1121 1122 1073
4 1073 1122 1123 1074
4 1074 1123 1124 1075
4 1075 1124 1125 1076
4 1076 1125 1126 1077
4 1077 1126 1127 1078
4 1078 1127 1128 1079
4 1079 1128 1129 1080
4 1080 1129 1130 1081
4 1081 1130 1131 1082
4 1082 1131 1132 1083
4 1083 1132 234 235
4 20 21 1133 1084
4 1084 1133 1134 1085
4 1085 1134 1135 1086
4 1086 1135 1136 1087
4 1087 1136 1137 1088
4 1088 1137 1138 1089
4 1089 1138 1139 1090
4 1090 1139 1140 1091
4 1091 1140 1141 1092
4 1092 1141 1142 1093
4 1093 1142 1143 1094
4 1094 1143 1144 1095
4 1095 1144 1145 1096
4 1096 1145 1146 1097
4 1097 1146 1147 1098
4 1098 1147 1148 1099
4 1099 1148 1149 1100
4 1100 1149 1150 1101
4 1101 1150 1151 1102
4 1102 1151 1152 1103
4 1103 1152 1153 1104
4 1104 1153 1154 1105
4 1105 1154 1155 1106
4 1106 1155 1156 1107
4 1107 1156 1157 1108
4 1108 1157 1158 1109
4 1109 1158 1159 1110
4 1110 1159 1160 1111
4 1111 1160 1161 1112
4 1112 1161 1162 1113
4 1113 1162 1163 1114
4 1114 1163 1164 1115
4 1115 1164 1165 1116
4 1116 1165 1166 1117
4 1117 1166 1167 1118
4 1118 1167 1168 1119
4 1119 1168 1169 1120
4 1120 1169 1170 1121
4 1121 1170 1171 1122
4 1122 1171 1172 1123
4 1123 1172 1173 1124
4 1124 1173 1174 1125
4 1125 1174 1175 1126
4 1126 1175 1176 1127
4 1127 1176 1177 1128
4 1128 1177 1178 1129
4 1129 1178 1179 1130
4 1130 1179 1180 1131
4 1131 1180 1181 1132
4 1132 1181 233 234
4 21 22 1182 1133
4 1133 1182 1183 1134
4 1134 1183 1184 1135
4 1135 1184 1185 1136
4 1136 1185 1186 1137
4 1137 1186 1187 1138
4 1138 1187 1188 1139
4 1139 1188 1189 1140
4 1140 1189 1190 1141
4 1141 1190 1191 1142
4 1142 1191 1192 1143
4 1143 1192 1193 1144
4 1144 1193 1194 1145
4 1145 1194 1195 1146
4 1146 1195 1196 1147
4 1147 1196 1197 1148
4 1148 1197 1198 1149
4 1149 1198 1199 1150
4 1150 1199 1200 1151
4 1151 1200 1201 1152
4 1152 1201 1202 1153
4 1153 1202 1203 1154
4 1154 1203 1204 1155
4 1155 1204 1205 1156
4 1156 1205 1206 1157
4 1157 1206 1207 1158
4 1158 1207 1208 1159
4 1159 1208 1209 1160
4 1160 1209 1210 1161
4 1161 1210 1211 1162
4 1162 1211 1212 1163
4 1163 1212 1213 1164
4 1164 1213 1214 1165
4 1165 1214 1215 1166
4 1166 1215 1216 1167
4 1167 1216 1217 1168
4 1168 1217 1218 1169
4 1169 1218 1219 1170
4 1170 1219 1220 1171
4 1171 1220 1221 1172
4 1172 1221 1222 1173
4 1173 1222 1223 1174
4 1174 1223 1224 1175
4 1175 1224 1225 1176
4 1176 1225 1226 1177
4 1177 1226 1227 1178
4 1178 1227 1228 1179
4 1179 1228 1229 1180
4 1180 1229 1230 1181
4 1181 1230 232 233
4 22 23 1231 1182
4 1182 1231 1232 1183
4 1183 1232 1233 1184
4 1184 1233 1234 1185
4 1185 1234 1235 1186
4 1186 1235 1236 1187
4 1187 1236 1237 1188
4 1188 1237 1238 1189
4 1189 1238 1239 1190
4 1190 1239 1240 1191
4 1191 1240 1241 1192
4 1192 1241 1242 1193
4 1193 1242 1243 1194
4 1194 1243 1244 1195
4 1195 1244 1245 1196
4 1196 1245 1246 1197
4 1197 1246 1247 1198
4 1198 1247 1248 1199
4 1199 1248 1249 1200
4 1200 1249 1250 1201
4 1201 1250 1251 1202
4 1202 1251 1252 1203
4 1203 1252 1253 1204
4 1204 1253 1254 1205
4 1205 1254 1255 1206
4 1206 1255 1256 1207
4 1207 1256 1257 1208
4 1208 1257 1258 1209
4 1209 1258 1259 1210
4 1210 1259 1260 1211
4 1211 1260 1261 1212
4 1212 1261 1262 1213
4 1213 1262 1263 1214
4 1214 1263 1264 1215
4 1215 1264 1265 1216
4 1216 1265 1266 1217
4 1217 1266 1267 1218
4 1218 1267 1268 1219
4 1219 1268 1269 1220
4 1220 1269 1270 1221
4 1221 1270 1271 1222
4 1222 1271 1272 1223
4 1223 1272 1273 1224
4 1224 1273 1274 1225
4 1225 1274 1275 1226
4 1226 1275 1276 1227
4 1227 1276 1277 1228
4 1228 1277 1278 1229
4 1229 1278 1279 1230
4 1230 1279 231 232
4 23 24 1280 1231
4 1231 1280 1281 1232
4 1232 1281 1282 1233
4 1233 1282 1283 1234
4 1234 1283 1284 1235
4 1235 1284 1285 1236
4 1236 1285 1286 1237
4 1237 1286 1287 1238
4 1238 1287 1288 1239
4 1239 1288 1289 1240
4 1240 1289 1290 1241
4 1241 1290 1291 1242
4 1242 1291 1292 1243
4 1243 1292 1293 1244
4 1244 1293 1294 1245
4 1245 1294 1295 1246
4 1246 1295 1296 1247
4 1247 1296 1297 1248
4 1248 1297 1298 1249
4 1249 1298 1299 1250
4 1250 1299 1300 1251
4 1251 1300 1301 1252
4 1252 1301 1302 1253
4 1253 1302 1303 1254
4 1254 1303 1304 1255
4 1255 1304 1305 1256
4 1256 1305 1306 1257
4 1257 1306 1307 1258
4 1258 1307 1308 1259
4 1259 1308 1309 1260
4 1260 1309 1310 1261
4 1261 1310 1311 1262
4 1262 1311 1312 1263
4 1263 1312 1313 1264
4 1264 1313 1314 1265
4 1265 1314 1315 1266
4 1266 1315 1316 1267
4 1267 1316 1317 1268
4 1268 1317 1318 1269
4 1269 1318 1319 1270
4 1270 1319 1320 1271
4 1271 1320 1321 1272
4 1272 1321 1322 1273
4 1273 1322 1323 1274
4 1274 1323 1324 1275
4 1275 1324 1325 1276
4 1276 1325 1326 1277
4 1277 1326 1327 1278
4 1278 1327 1328 1279
4 1279 1328 230 231
4 24 25 1329 1280
4 1280 1329 1330 1281
4 1281 1330 1331 1282
4 1282 1331 1332 1283
4 1283 1332 1333 1284
4 1284 1333 1334 1285
4 1285 1334 1335 1286
4 1286 1335 1336 1287
4 1287 1336 1337 1288
4 1288 1337 1338 1289
4 1289 1338 1339 1290
4 1290 1339 1340 1291
4 1291 1340 1341 1292
4 1292 1341 1342 1293
4 1293 1342 1343 1294
4 1294 1343 1344 1295
4 1295 1344 1345 1296
4 1296 1345 1346 1297
4 1297 1346 1347 1298
4 1298 1347 1348 1299
4 1299 1348 1349 1300
4 1300 1349 1350 1301
4 1301 1350 1351 1302
4 1302 1351 1352 1303
4 1303 1352 1353 1304
4 1304 1353 1354 1305
4 1305 1354 1355 1306
4 1306 1355 1356 1307
4 1307 1356 1357 1308
4 1308 1357 1358 1309
4 1309 1358 1359 1310
4 1310 1359 1360 1311
4 1311 1360 1361 1312
4 1312 1361 1362 1313
4 1313 1362 1363 1314
4 1314 1363 1364 1315
4 1315 1364 1365 1316
4 1316 1365 1366 1317
4 1317 1366 1367 1318
4 1318 1367 1368 1319
4 1319 1368 1369 1320
4 1320 1369 1370 1321
4 1321 1370 1371 1322
4 1322 1371 1372 1323
4 1323 1372 1373 1324
4 1324 1373 1374 1325
4 1325 1374 1375 1326
4 1326 1375 1376 1327
4 1327 1376 1377 1328
4 1328 1377 229 230
4 25 26 1378 1329
4 1329 1378 1379 1330
4 1330 1379 1380 1331
4 1331 1380 1381 1332
4 1332 1381 1382 1333
4 1333 1382 1383 1334
4 1334 1383 1384 1335
4 1335 1384 1385 1336
4 1336 1385 1386 1337
4 1337 1386 1387 1338
4 1338 1387 1388 1339
4 1339 1388 1389 1340
4 1340 1389 1390 1341
4 1341 1390 1391 1342
4 1342 1391 1392 1343
4 1343 1392 1393 1344
4 1344 1393 1394 1345
4 1345 1394 1395 1346
4 1346 1395 1396 1347
4 1347 1396 1397 1348
4 1348 1397 1398 1349
4 1349 1398 1399 1350
4 1350 1399 1400 1351
4 1351 1400 1401 1352
4 1352 1401 1402 1353
4 1353 1402 1403 1354
4 1354 1403 1404 1355
4 1355 1404 1405 1356
4 1356 1405 1406 1357
4 1357 1406 1407 1358
4 1358 1407 1408 1359
4 1359 1408 1409 1360
4 1360 1409 1410 1361
4 1361 1410 1411 1362
4 1362 1411 1412 1363
4 1363 1412 1413 1364
4 1364 1413 1414 1365
4 1365 1414 1415 1366
4 1366 1415 1416 1367
4 1367 1416 1417 1368
4 1368 1417 1418 1369
4 1369 1418 1419 1370
4 1370 1419 1420 1371
4 1371 1420 1421 1372
4 1372 1421 1422 1373
4 1373 1422 1423 1374
4 1374 1423 1424 1375
4 1375 1424 1425 1376
4 1376 1425 1426 1377
4 1377 1426 228 229
4 26 27 1427 1378
4 1378 1427 1428 1379
4 1379 1428 1429 1380
4 1380 1429 1430 1381
4 1381 1430 1431 1382
4 1382 1431 1432 1383
4 1383 1432 1433 1384
4 1384 1433 1434 1385
4 1385 1434 1435 1386
4 1386 1435 1436 1387
4 1387 1436 1437 1388
4 1388 1437 1438 1389
4 1389 1438 1439 1390
4 1390 1439 1440 1391
4 1391 1440 1441 1392
4 1392 1441 1442 1393
4 1393 1442 1443 1394
4 1394 1443 1444 1395
4 1395 1444 1445 1396
4 1396 1445 1446 1397
4 1397 1446 1447 1398
4 1398 1447 1448 1399
4 1399 1448 1449 1400
4 1400 1449 1450 1401
4 1401 1450 1451 1402
4 1402 1451 1452 1403
4 1403 1452 1453 1404
4 1404 1453 1454 1405
4 1405 1454 1455 1406
4 1406 1455 1456 1407
4 1407 1456 1457 1408
4 1408 1457 1458 1409
4 1409 1458 1459 1410
4 1410 1459 1460 1411
4 1411 1460 1461 1412
4 1412 1461 1462 1413
4 1413 1462 1463 1414
4 1414 1463 1464 1415
4 1415 1464 1465 1416
4 1416 1465 1466 1417
4 1417 1466 1467 1418
4 1418 1467 1468 1419
4 1419 1468 1469 1420
4 1420 1469 1470 1421
4 1421 1470 1471 1422
4 1422 1471 1472 1423
4 1423 1472 1473 1424
4 1424 1473 1474 1425
4 1425 1474 1475 1426
4 1426 1475 227 228
4 27 28 1476 1427
4 1427 1476 1477 1428
4 1428 1477 1478 1429
4 1429 1478 1479 1430
4 1430 1479 1480 1431
4 1431 1480 1481 1432
4 1432 1481 1482 1433
4 1433 1482 1483 1434
4 1434 1483 1484 1435
4 1435 1484 1485 1436
4 1436 1485 1486 1437
4 1437 1486 1487 1438
4 1438 1487 1488 1439
4 1439 1488 1489 1440
4 1440 1489 1490 1441
4 1441 1490 1491 1442
4 1442 1491 1492 1443
4 1443 1492 1493 1444
4 1444 1493 1494 1445
4 1445 1494 1495 1446
4 1446 1495 1496 1447
4 1447 1496 1497 1448
4 1448 1497 1498 1449
4 1449 1498 1499 1450
4 1450 1499 1500 1451
4 1451 1500 1501 1452
4 1452 1501 1502 1453
4 1453 1502 1503 1454
4 1454 1503 1504 1455
4 1455 1504 1505 1456
4 1456 1505 1506 1457
4 1457 1506 1507 1458
4 1458 1507 1508 1459
4 1459 1508 1509 1460
4 1460 1509 1510 1461
4 1461 1510 1511 1462
4 1462 1511 1512 1463
4 1463 1512 1513 1464
4 1464 1513 1514 1465
4 1465 1514 1515 1466
4 1466 1515 1516 1467
4 1467 1516 1517 1468
4 1468 1517 1518 1469
4 1469 1518 1519 1470
4 1470 1519 1520 1471
4 1471 1520 1521 1472
4 1472 1521 1522 1473
4 1473 1522 1523 1474
4 1474 1523 1524 1475
4 1475 1524 226 227
4 28 29 1525 1476
4 1476 1525 1526 1477
4 1477 1526 1527 1478
4 1478 1527 1528 1479
4 1479 1528 1529 1480
4 1480 1529 1530 1481
4 1481 1530 1531 1482
4 1482 1531 1532 1483
4 1483 1532 1533 1484
4 1484 1533 1534 1485
4 1485 1534 1535 1486
4 1486 1535 1536 1487
4 1487 1536 1537 1488
4 1488 1537 1538 1489
4 1489 1538 1539 1490
4 1490 1539 1540 1491
4 1491 1540 1541 1492
4 1492 1541 1542 1493
4 1493 1542 1543 1494
4 1494 1543 1544 1495
4 1495 1544 1545 1496
4 1496 1545 1546 1497
4 1497 1546 1547 1498
4 1498 1547 1548 1499
4 1499 1548 1549 1500
4 1500 1549 1550 1501
4 1501 1550 1551 1502
4 1502 1551 1552 1503
4 1503 1552 1553 1504
4 1504 1553 1554 1505
4 1505 1554 1555 1506
4 1506 1555 1556 1507
4 1507 1556 1557 1508
4 1508 1557 1558 1509
4 1509 1558 1559 1510
4 1510 1559 1560 1511
4 1511 1560 1561 1512
4 1512 1561 1562 1513
4 1513 1562 1563 1514
4 1514 1563 1564 1515
4 1515 1564 1565 1516
4 1516 1565 1566 1517
4 1517 1566 1567 1518
4 1518 1567 1568 1519
4 1519 1568 1569 1520
4 1520 1569 1570 1521
4 1521 1570 1571 1522
4 1522 1571 1572 1523
4 1523 1572 1573 1524
4 1524 1573 225 226
4 29 30 1574 1525
4 1525 1574 1575 1526
4 1526 1575 1576 1527
4 1527 1576 1577 1528
4 1528 1577 1578 1529
4 1529 1578 1579 1530
4 1530 1579 1580 1531
4 1531 1580 1581 1532
4 1532 1581 1582 1533
4 1533 1582 1583 1534
4 1534 1583 1584 1535
4 1535 1584 1585 1536
4 1536 1585 1586 1537
4 1537 1586 1587 1538
4 1538 1587 1588 1539
4 1539 1588 1589 1540
4 1540 1589 1590 1541
4 1541 1590 1591 1542
4 1542 1591 1592 1543
4 1543 1592 1593 1544
4 1544 1593 1594 1545
4 1545 1594 1595 1546
4 1546 1595 1596 1547
4 1547 1596 1597 1548
4 1548 1597 1598 1549
4 1549 1598 1599 1550
4 1550 1599 1600 1551
4 1551 1600 1601 1552
4 1552 1601 1602 1553
4 1553 1602 1603 1554
4 1554 1603 1604 1555
4 1555 1604 1605 1556
4 1556 1605 1606 1557
4 1557 1606 1607 1558
4 1558 1607 1608 1559
4 1559 1608 1609 1560
4 1560 1609 1610 1561
4 1561 1610 1611 1562
4 1562 1611 1612 1563
4 1563 1612 1613 1564
4 1564 1613 1614 1565
4 1565 1614 1615 1566
4 1566 1615 1616 1567
4 1567 1616 1617 1568
4 1568 1617 1618 1569
4 1569 1618 1619 1570
4 1570 1619 1620 1571
4 1571 1620 1621 1572
4 1572 1621 1622 1573
4 1573 1622 224 225
4 30 31 1623 1574
4 1574 1623 1624 1575
4 1575 1624 1625 1576
4 1576 1625 1626 1577
4 1577 1626 1627 1578
4 1578 1627 1628 1579
4 1579 1628 1629 1580
4 1580 1629 1630 1581
4 1581 1630 1631 1582
4 1582 1631 1632 1583
4 1583 1632 1633 1584
4 1584 1633 1634 1585
4 1585 1634 1635 1586
4 1586 1635 1636 1587
4 1587 1636 1637 1588
4 1588 1637 1638 1589
4 1589 1638 1639 1590
4 1590 1639 1640 1591
4 1591 1640 1641 1592
4 1592 1641 1642 1593
4 1593 1642 1643 1594
4 1594 1643 1644 1595
4 1595 1644 1645 1596
4 1596 1645 1646 1597
4 1597 1646 1647 1598
4 1598 1647 1648 1599
4 1599 1648 1649 1600
4 1600 1649 1650 1601
4 1601 1650 1651 1602
4 1602 1651 1652 1603
4 1603 1652 1653 1604
4 1604 1653 1654 1605
4 1605 1654 1655 1606
4 1606 1655 1656 1607
4 1607 1656 1657 1608
4 1608 1657 1658 1609
4 1609 1658 1659 1610
4 1610 1659 1660 1611
4 1611 1660 1661 1612
4 1612 1661 1662 1613
4 1613 1662 1663 1614
4 1614 1663 1664 1615
4 1615 1664 1665 1616
4 1616 1665 1666 1617
4 1617 1666 1667 1618
4 1618 1667 1668 1619
4 1619 1668 1669 1620
4 1620 1669 1670 1621
4 1621 1670 1671 1622
4 1622 1671 223 224
4 31 32 1672 1623
4 1623 1672 1673 1624
4 1624 1673 1674 1625
4 1625 1674 1675 1626
4 1626 1675 1676 1627
4 1627 1676 1677 1628
4 1628 1677 1678 1629
4 1629 1678 1679 1630
4 1630 1679 1680 1631
4 1631 1680 1681 1632
4 1632 1681 1682 1633
4 1633 1682 1683 1634
4 1634 1683 1684 1635
4 1635 1684 1685 1636
4 1636 1685 1686 1637
4 1637 1686 1687 1638
4 1638 1687 1688 1639
4 1639 1688 1689 1640
4 1640 1689 1690 1641
4 1641 1690 1691 1642
4 1642 1691 1692 1643
4 1643 1692 1693 1644
4 1644 1693 1694 1645
4 1645 1694 1695 1646
4 1646 1695 1696 1647
4 1647 1696 1697 1648
4 1648 1697 1698 1649
4 1649 1698 1699 1650
4 1650 1699 1700 1651
4 1651 1700 1701 1652
4 1652 1701 1702 1653
4 1653 1702 1703 1654
4 1654 1703 1704 1655
4 1655 1704 1705 1656
4 1656 1705 1706 1657
4 1657 1706 1707 1658
4 1658 1707 1708 1659
4 1659 1708 1709 1660
4 1660 1709 1710 1661
4 1661 1710 1711 1662
4 1662 1711 1712 1663
4 1663 1712 1713 1664
4 1664 1713 1714 1665
4 1665 1714 1715 1666
4 1666 1715 1716 1667
4 1667 1716 1717 1668
4 1668 1717 1718 1669
4 1669 1718 1719 1670
4 1670 1719 1720 1671
4 1671 1720 222 223
4 32 33 1721 1672
4 1672 1721 1722 1673
4 1673 1722 1723 1674
4 1674 1723 1724 1675
4 1675 1724 1725 1676
4 1676 1725 1726 1677
4 1677 1726 1727 1678
4 1678 1727 1728 1679
4 1679 1728 1729 1680
4 1680 1729 1730 1681
4 1681 1730 1731 1682
4 1682 1731 1732 1683
4 1683 1732 1733 1684
4 1684 1733 1734 1685
4 1685 1734 1735 1686
4 1686 1735 1736 1687
4 1687 1736 1737 1688
4 1688 1737 1738 1689
4 1689 1738 1739 1690
4 1690 1739 1740 1691
4 1691 1740 1741 1692
4 1692 1741 1742 1693
4 1693 1742 1743 1694
4 1694 1743 1744 1695
4 1695 1744 1745 1696
4 1696 1745 1746 1697
4 1697 1746 1747 1698
4 1698 1747 1748 1699
4 1699 1748 1749 1700
4 1700 1749 1750 1701
4 1701 1750 1751 1702
4 1702 1751 1752 1703
4 1703 1752 1753 1704
4 1704 1753 1754 1705
4 1705 1754 1755 1706
4 1706 1755 1756 1707
4 1707 1756 1757 1708
4 1708 1757 1758 1709
4 1709 1758 1759 1710
4 1710 1759 1760 1711
4 1711 1760 1761 1712
4 1712 1761 1762 1713
4 1713 1762 1763 1714
4 1714 1763 1764 1715
4 1715 1764 1765 1716
4 1716 1765 1766 1717
4 1717 1766 1767 1718
4 1718 1767 1768 1719
4 1719 1768 1769 1720
4 1720 1769 221 222
4 33 34 1770 1721
4 1721 1770 1771 1722
4 1722 1771 1772 1723
4 1723 1772 1773 1724
4 1724 1773 1774 1725
4 1725 1774 1775 1726
4 1726 1775 1776 1727
4 1727 1776 1777 1728
4 1728 1777 1778 1729
4 1729 1778 1779 1730
4 1730 1779 1780 1731
4 1731 1780 1781 1732
4 1732 1781 1782 1733
4 1733 1782 1783 1734
4 1734 1783 1784 1735
4 1735 1784 1785 1736
4 1736 1785 1786 1737
4 1737 1786 1787 1738
4 1738 1787 1788 1739
4 1739 1788 1789 1740
4 1740 1789 1790 1741
4 1741 1790 1791 1742
4 1742 1791 1792 1743
4 1743 1792 1793 1744
4 1744 1793 1794 1745
4 1745 1794 1795 1746
4 1746 1795 1796 1747
4 1747 1796 1797 1748
4 1748 1797 1798 1749
4 1749 1798 1799 1750
4 1750 1799 1800 1751
4 1751 1800 1801 1752
4 1752 1801 1802 1753
4 1753 1802 1803 1754
4 1754 1803 1804 1755
4 1755 1804 1805 1756
4 1756 1805 1806 1757
4 1757 1806 1807 1758
4 1758 1807 1808 1759
4 1759 1808 1809 1760
4 1760 1809 1810 1761
4 1761 1810 1811 1762
4 1762 1811 1812 1763
4 1763 1812 1813 1764
4 1764 1813 1814 1765
4 1765 1814 1815 1766
4 1766 1815 1816 1767
4 1767 1816 1817 1768
4 1768 1817 1818 1769
4 1769 1818 220 221
4 34 35 1819 1770
4 1770 1819 1820 1771
4 1771 1820 1821 1772
4 1772 1821 1822 1773
4 1773 1822 1823 1774
4 1774 1823 1824 1775
4 1775 1824 1825 1776
4 1776 1825 1826 1777
4 1777 1826 1827 1778
4 1778 1827 1828 1779
4 1779 1828 1829 1780
4 1780 1829 1830 1781
4 1781 1830 1831 1782
4 1782 1831 1832 1783
4 1783 1832 1833 1784
4 1784 1833 1834 1785
4 1785 1834 1835 1786
4 1786 1835 1836 1787
4 1787 1836 1837 1788
4 1788 1837 1838 1789
4 1789 1838 1839 1790
4 1790 1839 1840 1791
4 1791 1840 1841 1792
4 1792 1841 1842 1793
4 1793 1842 1843 1794
4 1794 1843 1844 1795
4 1795 1844 1845 1796
4 1796 1845 1846 1797
4 1797 1846 1847 1798
4 1798 1847 1848 1799
4 1799 1848 1849 1800
4 1800 1849 1850 1801
4 1801 1850 1851 1802
4 1802 1851 1852 1803
4 1803 1852 1853 1804
4 1804 1853 1854 1805
4 1805 1854 1855 1806
4 1806 1855 1856 1807
4 1807 1856 1857 1808
4 1808 1857 1858 1809
4 1809 1858 1859 1810
4 1810 1859 1860 1811
4 1811 1860 1861 1812
4 1812 1861 1862 1813
4 1813 1862 1863 1814
4 1814 1863 1864 1815
4 1815 1864 1865 1816
4 1816 1865 1866 1817
4 1817 1866 1867 1818
4 1818 1867 219 220
4 35 36 1868 1819
4 1819 1868 1869 1820
4 1820 1869 1870 1821
4 1821 1870 1871 1822
4 1822 1871 1872 1823
4 1823 1872 1873 1824
4 1824 1873 1874 1825
4 1825 1874 1875 1826
4 1826 1875 1876 1827
4 1827 1876 1877 1828
4 1828 1877 1878 1829
4 1829 1878 1879 1830
4 1830 1879 1880 1831
4 1831 1880 1881 1832
4 1832 1881 1882 1833
4 1833 1882 1883 1834
4 1834 1883 1884 1835
4 1835 1884 1885 1836
4 1836 1885 1886 1837
4 1837 1886 1887 1838
4 1838 1887 1888 1839
4 1839 1888 1889 1840
4 1840 1889 1890 1841
4 1841 1890 1891 1842
4 1842 1891 1892 1843
4 1843 1892 1893 1844
4 1844 1893 1894 1845
4 1845 1894 1895 1846
4 1846 1895 1896 1847
4 1847 1896 1897 1848
4 1848 1897 1898 1849
4 1849 1898 1899 1850
4 1850 1899 1900 1851
4 1851 1900 1901 1852
4 1852 1901 1902 1853
4 1853 1902 1903 1854
4 1854 1903 1904 1855
4 1855 1904 1905 1856
4 1856 1905 1906 1857
4 1857 1906 1907 1858
4 1858 1907 1908 1859
4 1859 1908 1909 1860
4 1860 1909 1910 1861
4 1861 1910 1911 1862
4 1862 1911 1912 1863
4 1863 1912 1913 1864
4 1864 1913 1914 1865
4 1865 1914 1915 1866
4 1866 1915 1916 1867
4 1867 1916 218 219
4 36 37 1917 1868
4 1868 1917 1918 1869
4 1869 1918 1919 1870
4 1870 1919 1920 1871
4 1871 1920 1921 1872
4 1872 1921 1922 1873
4 1873 1922 1923 1874
4 1874 1923 1924 1875
4 1875 1924 1925 1876
4 1876 1925 1926 1877
4 1877 1926 1927 1878
4 1878 1927 1928 1879
4 1879 1928 1929 1880
4 1880 1929 1930 1881
4 1881 1930 1931 1882
4 1882 1931 1932 1883
4 1883 1932 1933 1884
4 1884 1933 1934 1885
4 1885 1934 1935 1886
4 1886 1935 1936 1887
4 1887 1936 1937 1888
4 1888 1937 1938 1889
4 1889 1938 1939 1890
4 1890 1939 1940 1891
4 1891 1940 1941 1892
4 1892 1941 1942 1893
4 1893 1942 1943 1894
4 1894 1943 1944 1895
4 1895 1944 1945 1896
4 1896 1945 1946 1897
4 1897 1946 1947 1898
4 1898 1947 1948 1899
4 1899 1948 1949 1900
4 1900 1949 1950 1901
4 1901 1950 1951 1902
4 1902 1951 1952 1903
4 1903 1952 1953 1904
4 1904 1953 1954 1905
4 1905 1954 1955 1906
4 1906 1955 1956 1907
4 1907 1956 1957 1908
4 1908 1957 1958 1909
4 1909 1958 1959 1910
4 1910 1959 1960 1911
4 1911 1960 1961 1912
4 1912 1961 1962 1913
4 1913 1962 1963 1914
4 1914 1963 1964 1915
4 1915 1964 1965 1916
4 1916 1965 217 218
4 37 38 1966 1917
4 1917 1966 1967 1918
4 1918 1967 1968 1919
4 1919 1968 1969 1920
4 1920 1969 1970 1921
4 1921 1970 1971 1922
4 1922 1971 1972 1923
4 1923 1972 1973 1924
4 1924 1973 1974 1925
4 1925 1974 1975 1926
4 1926 1975 1976 1927
4 1927 1976 1977 1928
4 1928 1977 1978 1929
4 1929 1978 1979 1930
4 1930 1979 1980 1931
4 1931 1980 1981 1932
4 1932 1981 1982 1933
4 1933 1982 1983 1934
4 1934 1983 1984 1935
4 1935 1984 1985 1936
4 1936 1985 1986 1937
4 1937 1986 1987 1938
4 1938 1987 1988 1939
4 1939 1988 1989 1940
4 1940 1989 1990 1941
4 1941 1990 1991 1942
4 1942 1991 1992 1943
4 1943 1992 1993 1944
4 1944 1993 1994 1945
4 1945 1994 1995 1946
4 1946 1995 1996 1947
4 1947 1996 1997 1948
4 1948 1997 1998 1949
4 1949 1998 1999 1950
4 1950 1999 2000 1951
4 1951 2000 2001 1952
4 1952 2001 2002 1953
4 1953 2002 2003 1954
4 1954 2003 2004 1955
4 1955 2004 2005 1956
4 1956 2005 2006 1957
4 1957 2006 2007 1958
4 1958 2007 2008 1959
4 1959 2008 2009 1960
4 1960 2009 2010 1961
4 1961 2010 2011 1962
4 1962 2011 2012 1963
4 1963 2012 2013 1964
4 1964 2013 2014 1965
4 1965 2014 216 217
4 38 39 2015 1966
4 1966 2015 2016 1967
4 1967 2016 2017 1968
4 1968 2017 2018 1969
4 1969 2018 2019 1970
4 1970 2019 2020 1971
4 1971 2020 2021 1972
4 1972 2021 2022 1973
4 1973 2022 2023 1974
4 1974 2023 2024 1975
4 1975 2024 2025 1976
4 1976 2025 2026 1977
4 1977 2026 2027 1978
4 1978 2027 2028 1979
4 1979 2028 2029 1980
4 1980 2029 2030 1981
4 1981 2030 2031 1982
4 1982 2031 2032 1983
4 1983 2032 2033 1984
4 1984 2033 2034 1985
4 1985 2034 2035 1986
4 1986 2035 2036 1987
4 1987 2036 2037 1988
4 1988 2037 2038 1989
4 1989 2038 2039 1990
4 1990 2039 2040 1991
4 1991 2040 2041 1992
4 1992 2041 2042 1993
4 1993 2042 2043 1994
4 1994 2043 2044 1995
4 1995 2044 2045 1996
4 1996 2045 2046 1997
4 1997 2046 2047 1998
4 1998 2047 2048 1999
4 1999 2048 2049 2000
4 2000 2049 2050 2001
4 2001 2050 2051 2002
4 2002 2051 2052 2003
4 2003 2052 2053 2004
4 2004 2053 2054 2005
4 2005 2054 2055 2006
4 2006 2055 2056 2007
4 2007 2056 2057 2008
4 2008 2057 2058 2009
4 2009 2058 2059 2010
4 2010 2059 2060 2011
4 2011 2060 2061 2012
4 2012 2061 2062 2013
4 2013 2062 2063 2014
4 2014 2063 215 216
4 39 40 2064 2015
4 2015 2064 2065 2016
4 2016 2065 2066 2017
4 2017 2066 2067 2018
4 2018 2067 2068 2019
4 2019 2068 2069 2020
4 2020 2069 2070 2021
4 2021 2070 2071 2022
4 2022 2071 2072 2023
4 2023 2072 2073 2024
4 2024 2073 2074 2025
4 2025 2074 2075 2026
4 2026 2075 2076 2027
4 2027 2076 2077 2028
4 2028 2077 2078 2029
4 2029 2078 2079 2030
4 2030 2079 2080 2031
4 2031 2080 2081 2032
4 2032 2081 2082 2033
4 2033 2082 2083 2034
4 2034 2083 2084 2035
4 2035 2084 2085 2036
4 2036 2085 2086 2037
4 2037 2086 2087 2038
4 2038 2087 2088 2039
4 2039 2088 2089 2040
4 2040 2089 2090 2041
4 2041 2090 2091 2042
4 2042 2091 2092 2043
4 2043 2092 2093 2044
4 2044 2093 2094 2045
4 2045 2094 2095 2046
4 2046 2095 2096 2047
4 2047 2096 2097 2048
4 2048 2097 2098 2049
4 2049 2098 2099 2050
4 2050 2099 2100 2051
4 2051 2100 2101 2052
4 2052 2101 2102 2053
4 2053 2102 2103 2054
4 2054 2103 2104 2055
4 2055 2104 2105 2056
4 2056 2105 2106 2057
4 2057 2106 2107 2058
4 2058 2107 2108 2059
4 2059 2108 2109 2060
4 2060 2109 2110 2061
4 2061 2110 2111 2062
4 2062 2111 2112 2063
4 2063 2112 214 215
4 40 41 2113 2064
4 2064 2113 2114 2065
4 2065 2114 2115 2066
4 2066 2115 2116 2067
4 2067 2116 2117 2068
4 2068 2117 2118 2069
4 2069 2118 2119 2070
4 2070 2119 2120 2071
4 2071 2120 2121 2072
4 2072 2121 2122 2073
4 2073 2122 2123 2074
4 2074 2123 2124 2075
4 2075 2124 2125 2076
4 2076 2125 2126 2077
4 2077 2126 2127 2078
4 2078 2127 2128 2079
4 2079 2128 2129 2080
4 2080 2129 2130 2081
4 2081 2130 2131 2082
4 2082 2131 2132 2083
4 2083 2132 2133 2084
4 2084 2133 2134 2085
4 2085 2134 2135 2086
4 2086 2135 2136 2087
4 2087 2136 2137 2088
4 2088 2137 2138 2089
4 2089 2138 2139 2090
4 2090 2139 2140 2091
4 2091 2140 2141 2092
4 2092 2141 2142 2093
4 2093 2142 2143 2094
4 2094 2143 2144 2095
4 2095 2144 2145 2096
4 2096 2145 2146 2097
4 2097 2146 2147 2098
4 2098 2147 2148 2099
4 2099 2148 2149 2100
4 2100 2149 2150 2101
4 2101 2150 2151 2102
4 2102 2151 2152 2103
4 2103 2152 2153 2104
4 2104 2153 2154 2105
4 2105 2154 2155 2106
4 2106 2155 2156 2107
4 2107 2156 2157 2108
4 2108 2157 2158 2109
4 2109 2158 2159 2110
4 2110 2159 2160 2111
4 2111 2160 2161 2112
4 2112 2161 213 214
4 41 42 2162 2113
4 2113 2162 2163 2114
4 2114 2163 2164 2115
4 2115 2164 2165 2116
4 2116 2165 2166 2117
4 2117 2166 2167 2118
4 2118 2167 2168 2119
4 2119 2168 2169 2120
4 2120 2169 2170 2121
4 2121 2170 2171 2122
4 2122 2171 2172 2123
4 2123 2172 2173 2124
4 2124 2173 2174 2125
4 2125 2174 2175 2126
4 2126 2175 2176 2127
4 2127 2176 2177 2128
4 2128 2177 2178 2129
4 2129 2178 2179 2130
4 2130 2179 2180 2131
4 2131 2180 2181 2132
4 2132 2181 2182 2133
4 2133 2182 2183 2134
4 2134 2183 2184 2135
4 2135 2184 2185 2136
4 2136 2185 2186 2137
4 2137 2186 2187 2138
4 2138 2187 2188 2139
4 2139 2188 2189 2140
4 2140 2189 2190 2141
4 2141 2190 2191 2142
4 2142 2191 2192 2143
4 2143 2192 2193 2144
4 2144 2193 2194 2145
4 2145 2194 2195 2146
4 2146 2195 2196 2147
4 2147 2196 2197 2148
4 2148 2197 2198 2149
4 2149 2198 2199 2150
4 2150 2199 2200 2151
4 2151 2200 2201 2152
4 2152 2201 2202 2153
4 2153 2202 2203 2154
4 2154 2203 2204 2155
4 2155 2204 2205 2156
4 2156 2205 2206 2157
4 2157 2206 2207 2158
4 2158 2207 2208 2159
4 2159 2208 2209 2160
4 2160 2209 2210 2161
4 2161 2210 212 213
4 42 43 2211 2162
4 2162 2211 2212 2163
4 2163 2212 2213 2164
4 2164 2213 2214 2165
4 2165 2214 2215 2166
4 2166 2215 2216 2167
4 2167 2216 2217 2168
4 2168 2217 2218 2169
4 2169 2218 2219 2170
4 2170 2219 2220 2171
4 2171 2220 2221 2172
4 2172 2221 2222 2173
4 2173 2222 2223 2174
4 2174 2223 2224 2175
4 2175 2224 2225 2176
4 2176 2225 2226 2177
4 2177 2226 2227 2178
4 2178 2227 2228 2179
4 2179 2228 2229 2180
4 2180 2229 2230 2181
4 2181 2230 2231 2182
4 2182 2231 2232 2183
4 2183 2232 2233 2184
4 2184 2233 2234 2185
4 2185 2234 2235 2186
4 2186 2235 2236 2187
4 2187 2236 2237 2188
4 2188 2237 2238 2189
4 2189 2238 2239 2190
4 2190 2239 2240 2191
4 2191 2240 2241 2192
4 2192 2241 2242 2193
4 2193 2242 2243 2194
4 2194 2243 2244 2195
4 2195 2244 2245 2196
4 2196 2245 2246 2197
4 2197 2246 2247 2198
4 2198 2247 2248 2199
4 2199 2248 2249 2200
4 2200 2249 2250 2201
4 2201 2250 2251 2202
4 2202 2251 2252 2203
4 2203 2252 2253 2204
4 2204 2253 2254 2205
4 2205 2254 2255 2206
4 2206 2255 2256 2207
4 2207 2256 2257 2208
4 2208 2257 2258 2209
4 2209 2258 2259 2210
4 2210 2259 211 212
4 43 44 2260 2211
4 2211 2260 2261 2212
4 2212 2261 2262 2213
4 2213 2262 2263 2214
4 2214 2263 2264 2215
4 2215 2264 2265 2216
4 2216 2265 2266 2217
4 2217 2266 2267 2218
4 2218 2267 2268 2219
4 2219 2268 2269 2220
4 2220 2269 2270 2221
4 2221 2270 2271 2222
4 2222 2271 2272 2223
4 2223 2272 2273 2224
4 2224 2273 2274 2225
4 2225 2274 2275 2226
4 2226 2275 2276 2227
4 2227 2276 2277 2228
4 2228 2277 2278 2229
4 2229 2278 2279 2230
4 2230 2279 2280 2231
4 2231 2280 2281 2232
4 2232 2281 2282 2233
4 2233 2282 2283 2234
4 2234 2283 2284 2235
4 2235 2284 2285 2236
4 2236 2285 2286 2237
4 2237 2286 2287 2238
4 2238 2287 2288 2239
4 2239 2288 2289 2240
4 2240 2289 2290 2241
4 2241 2290 2291 2242
4 2242 2291 2292 2243
4 2243 2292 2293 2244
4 2244 2293 2294 2245
4 2245 2294 2295 2246
4 2246 2295 2296 2247
4 2247 2296 2297 2248
4 2248 2297 2298 2249
4 2249 2298 2299 2250
4 2250 2299 2300 2251
4 2251 2300 2301 2252
4 2252 2301 2302 2253
4 2253 2302 2303 2254
4 2254 2303 2304 2255
4 2255 2304 2305 2256
4 2256 2305 2306 2257
4 2257 2306 2307 2258
4 2258 2307 2308 2259
4 2259 2308 210 211
4 44 45 2309 2260
4 2260 2309 2310 2261
4 2261 2310 2311 2262
4 2262 2311 2312 2263
4 2263 2312 2313 2264
4 2264 2313 2314 2265
4 2265 2314 2315 2266
4 2266 2315 2316 2267
4 2267 2316 2317 2268
4 2268 2317 2318 2269
4 2269 2318 2319 2270
4 2270 2319 2320 2271
4 2271 2320 2321 2272
4 2272 2321 2322 2273
4 2273 2322 2323 2274
4 2274 2323 2324 2275
4 2275 2324 2325 2276
4 2276 2325 2326 2277
4 2277 2326 2327 2278
4 2278 2327 2328 2279
4 2279 2328 2329 2280
4 2280 2329 2330 2281
4 2281 2330 2331 2282
4 2282 2331 2332 2283
4 2283 2332 2333 2284
4 2284 2333 2334 2285
4 2285 2334 2335 2286
4 2286 2335 2336 2287
4 2287 2336 2337 2288
4 2288 2337 2338 2289
4 2289 2338 2339 2290
4 2290 2339 2340 2291
4 2291 2340 2341 2292
4 2292 2341 2342 2293
4 2293 2342 2343 2294
4 2294 2343 2344 2295
4 2295 2344 2345 2296
4 2296 2345 2346 2297
4 2297 2346 2347 2298
4 2298 2347 2348 2299
4 2299 2348 2349 2300
4 2300 2349 2350 2301
4 2301 2350 2351 2302
4 2302 2351 2352 2303
4 2303 2352 2353 2304
4 2304 2353 2354 2305
4 2305 2354 2355 2306
4 2306 2355 2356 2307
4 2307 2356 2357 2308
4 2308 2357 209 210
4 45 46 2358 2309
4 2309 2358 2359 2310
4 2310 2359 2360 2311
4 2311 2360 2361 2312
4 2312 2361 2362 2313
4 2313 2362 2363 2314
4 2314 2363 2364 2315
4 2315 2364 2365 2316
4 2316 2365 2366 2317
4 2317 2366 2367 2318
4 2318 2367 2368 2319
4 2319 2368 2369 2320
4 2320 2369 2370 2321
4 2321 2370 2371 2322
4 2322 2371 2372 2323
4 2323 2372 2373 2324
4 2324 2373 2374 2325
4 2325 2374 2375 2326
4 2326 2375 2376 2327
4 2327 2376 2377 2328
4 2328 2377 2378 2329
4 2329 2378 2379 2330
4 2330 2379 2380 2331
4 2331 2380 2381 2332
4 2332 2381 2382 2333
4 2333 2382 2383 2334
4 2334 2383 2384 2335
4 2335 2384 2385 2336
4 2336 2385 2386 2337
4 2337 2386 2387 2338
4 2338 2387 2388 2339
4 2339 2388 2389 2340
4 2340 2389 2390 2341
4 2341 2390 2391 2342
4 2342 2391 2392 2343
4 2343 2392 2393 2344
4 2344 2393 2394 2345
4 2345 2394 2395 2346
4 2346 2395 2396 2347
4 2347 2396 2397 2348
4 2348 2397 2398 2349
4 2349 2398 2399 2350
4 2350 2399 2400 2351
4 2351 2400 2401 2352
4 2352 2401 2402 2353
4 2353 2402 2403 2354
4 2354 2403 2404 2355
4 2355 2404 2405 2356
4 2356 2405 2406 2357
4 2357 2406 208 209
4 46 47 2407 2358
4 2358 2407 2408 2359
4 2359 2408 2409 2360
4 2360 2409 2410 2361
4 2361 2410 2411 2362
4 2362 2411 2412 2363
4 2363 2412 2413 2364
4 2364 2413 2414 2365
4 2365 2414 2415 2366
4 2366 2415 2416 2367
4 2367 2416 2417 2368
4 2368 2417 2418 2369
4 2369 2418 2419 2370
4 2370 2419 2420 2371
4 2371 2420 2421 2372
4 2372 2421 2422 2373
4 2373 2422 2423 2374
4 2374 2423 2424 2375
4 2375 2424 2425 2376
4 2376 2425 2426 2377
4 2377 2426 2427 2378
4 2378 2427 2428 2379
4 2379 2428 2429 2380
4 2380 2429 2430 2381
4 2381 2430 2431 2382
4 2382 2431 2432 2383
4 2383 2432 2433 2384
4 2384 2433 2434 2385
4 2385 2434 2435 2386
4 2386 2435 2436 2387
4 2387 2436 2437 2388
4 2388 2437 2438 2389
4 2389 2438 2439 2390
4 2390 2439 2440 2391
4 2391 2440 2441 2392
4 2392 2441 2442 2393
4 2393 2442 2443 2394
4 2394 2443 2444 2395
4 2395 2444 2445 2396
4 2396 2445 2446 2397
4 2397 2446 2447 2398
4 2398 2447 2448 2399
4 2399 2448 2449 2400
4 2400 2449 2450 2401
4 2401 2450 2451 2402
4 2402 2451 2452 2403
4 2403 2452 2453 2404
4 2404 2453 2454 2405
4 2405 2454 2455 2406
4 2406 2455 207 208
4 47 48 2456 2407
4 2407 2456 2457 2408
4 2408 2457 2458 2409
4 2409 2458 2459 2410
4 2410 2459 2460 2411
4 2411 2460 2461 2412
4 2412 2461 2462 2413
4 2413 2462 2463 2414
4 2414 2463 2464 2415
4 2415 2464 2465 2416
4 2416 2465 2466 2417
4 2417 2466 2467 2418
4 2418 2467 2468 2419
4 2419 2468 2469 2420
4 2420 2469 2470 2421
4 2421 2470 2471 2422
4 2422 2471 2472 2423
4 2423 2472 2473 2424
4 2424 2473 2474 2425
4 2425 2474 2475 2426
4 2426 2475 2476 2427
4 2427 2476 2477 2428
4 2428 2477 2478 2429
4 2429 2478 2479 2430
4 2430 2479 2480 2431
4 2431 2480 2481 2432
4 2432 2481 2482 2433
4 2433 2482 2483 2434
4 2434 2483 2484 2435
4 2435 2484 2485 2436
4 2436 2485 2486 2437
4 2437 2486 2487 2438
4 2438 2487 2488 2439
4 2439 2488 2489 2440
4 2440 2489 2490 2441
4 2441 2490 2491 2442
4 2442 2491 2492 2443
4 2443 2492 2493 2444
4 2444 2493 2494 2445
4 2445 2494 2495 2446
4 2446 2495 2496 2447
4 2447 2496 2497 2448
4 2448 2497 2498 2449
4 2449 2498 2499 2450
4 2450 2499 2500 2451
4 2451 2500 2501 2452
4 2452 2501 2502 2453
4 2453 2502 2503 2454
4 2454 2503 2504 2455
4 2455 2504 206 207
4 48 49 2505 2456
4 2456 2505 2506 2457
4 2457 2506 2507 2458
4 2458 2507 2508 2459
4 2459 2508 2509 2460
4 2460 2509 2510 2461
4 2461 2510 2511 2462
4 2462 2511 2512 2463
4 2463 2512 2513 2464
4 2464 2513 2514 2465
4 2465 2514 2515 2466
4 2466 2515 2516 2467
4 2467 2516 2517 2468
4 2468 2517 2518 2469
4 2469 2518 2519 2470
4 2470 2519 2520 2471
4 2471 2520 2521 2472
4 2472 2521 2522 2473
4 2473 2522 2523 2474
4 2474 2523 2524 2475
4 2475 2524 2525 2476
4 2476 2525 2526 2477
4 2477 2526 2527 2478
4 2478 2527 2528 2479
4 2479 2528 2529 2480
4 2480 2529 2530 2481
4 2481 2530 2531 2482
4 2482 2531 2532 2483
4 2483 2532 2533 2484
4 2484 2533 2534 2485
4 2485 2534 2535 2486
4 2486 2535 2536 2487
4 2487 2536 2537 2488
4 2488 2537 2538 2489
4 2489 2538 2539 2490
4 2490 2539 2540 2491
4 2491 2540 2541 2492
4 2492 2541 2542 2493
4 2493 2542 2543 2494
4 2494 2543 2544 2495
4 2495 2544 2545 2496
4 2496 2545 2546 2497
4 2497 2546 2547 2498
4 2498 2547 2548 2499
4 2499 2548 2549 2500
4 2500 2549 2550 2501
4 2501 2550 2551 2502
4 2502 2551 2552 2503
4 2503 2552 2553 2504
4 2504 2553 205 206
4 49 50 2554 2505
4 2505 2554 2555 2506
4 2506 2555 2556 2507
4 2507 2556 2557 2508
4 2508 2557 2558 2509
4 2509 2558 2559 2510
4 2510 2559 2560 2511
4 2511 2560 2561 2512
4 2512 2561 2562 2513
4 2513 2562 2563 2514
4 2514 2563 2564 2515
4 2515 2564 2565 2516
4 2516 2565 2566 2517
4 2517 2566 2567 2518
4 2518 2567 2568 2519
4 2519 2568 2569 2520
4 2520 2569 2570 2521
4 2521 2570 2571 2522
4 2522 2571 2572 2523
4 2523 2572 2573 2524
4 2524 2573 2574 2525
4 2525 2574 2575 2526
4 2526 2575 2576 2527
4 2527 2576 2577 2528
4 2528 2577 2578 2529
4 2529 2578 2579 2530
4 2530 2579 2580 2531
4 2531 2580 2581 2532
4 2532 2581 2582 2533
4 2533 2582 2583 2534
4 2534 2583 2584 2535
4 2535 2584 2585 2536
4 2536 2585 2586 2537
4 2537 2586 2587 2538
4 2538 2587 2588 2539
4 2539 2588 2589 2540
4 2540 2589 2590 2541
4 2541 2590 2591 2542
4 2542 2591 2592 2543
4 2543 2592 2593 2544
4 2544 2593 2594 2545
4 2545 2594 2595 2546
4 2546 2595 2596 2547
4 2547 2596 2597 2548
4 2548 2597 2598 2549
4 2549 2598 2599 2550
4 2550 2599 2600 2551
4 2551 2600 2601 2552
4 2552 2601 2602 2553
4 2553 2602 204 205
4 50 51 2603 2554
4 2554 2603 2604 2555
4 2555 2604 2605 2556
4 2556 2605 2606 2557
4 2557 2606 2607 2558
4 2558 2607 2608 2559
4 2559 2608 2609 2560
4 2560 2609 2610 2561
4 2561 2610 2611 2562
4 2562 2611 2612 2563
4 2563 2612 2613 2564
4 2564 2613 2614 2565
4 2565 2614 2615 2566
4 2566 2615 2616 2567
4 2567 2616 2617 2568
4 2568 2617 2618 2569
4 2569 2618 2619 2570
4 2570 2619 2620 2571
4 2571 2620 2621 2572
4 2572 2621 2622 2573
4 2573 2622 2623 2574
4 2574 2623 2624 2575
4 2575 2624 2625 2576
4 2576 2625 2626 2577
4 2577 2626 2627 2578
4 2578 2627 2628 2579
4 2579 2628 2629 2580
4 2580 2629 2630 2581
4 2581 2630 2631 2582
4 2582 2631 2632 2583
4 2583 2632 2633 2584
4 2584 2633 2634 2585
4 2585 2634 2635 2586
4 2586 2635 2636 2587
4 2587 2636 2637 2588
4 2588 2637 2638 2589
4 2589 2638 2639 2590
4 2590 2639 2640 2591
4 2591 2640 2641 2592
4 2592 2641 2642 2593
4 2593 2642 2643 2594
4 2594 2643 2644 2595
4 2595 2644 2645 2596
4 2596 2645 2646 2597
4 2597 2646 2647 2598
4 2598 2647 2648 2599
4 2599 2648 2649 2600
4 2600 2649 2650 2601
4 2601 2650 2651 2602
4 2602 2651 203 204
4 51 52 2652 2603
4 2603 2652 2653 2604
4 2604 2653 2654 2605
4 2605 2654 2655 2606
4 2606 2655 2656 2607
4 2607 2656 2657 2608
4 2608 2657 2658 2609
4 2609 2658 2659 2610
4 2610 2659 2660 2611
4 2611 2660 2661 2612
4 2612 2661 2662 2613
4 2613 2662 2663 2614
4 2614 2663 2664 2615
4 2615 2664 2665 2616
4 2616 2665 2666 2617
4 2617 2666 2667 2618
4 2618 2667 2668 2619
4 2619 2668 2669 2620
4 2620 2669 2670 2621
4 2621 2670 2671 2622
4 2622 2671 2672 2623
4 2623 2672 2673 2624
4 2624 2673 2674 2625
4 2625 2674 2675 2626
4 2626 2675 2676 2627
4 2627 2676 2677 2628
4 2628 2677 2678 2629
4 2629 2678 2679 2630
4 2630 2679 2680 2631
4 2631 2680 2681 2632
4 2632 2681 2682 2633
4 2633 2682 2683 2634
4 2634 2683 2684 2635
4 2635 2684 2685 2636
4 2636 2685 2686 2637
4 2637 2686 2687 2638
4 2638 2687 2688 2639
4 2639 2688 2689 2640
4 2640 2689 2690 2641
4 2641 2690 2691 2642
4 2642 2691 2692 2643
4 2643 2692 2693 2644
4 2644 2693 2694 2645
4 2645 2694 2695 2646
4 2646 2695 2696 2647
4 2647 2696 2697 2648
4 2648 2697 2698 2649
4 2649 2698 2699 2650
4 2650 2699 2700 2651
4 2651 2700 202 203
4 52 53 2701 2652
4 2652 2701 2702 2653
4 2653 2702 2703 2654
4 2654 2703 2704 2655
4 2655 2704 2705 2656
4 2656 2705 2706 2657
4 2657 2706 2707 2658
4 2658 2707 2708 2659
4 2659 2708 2709 2660
4 2660 2709 2710 2661
4 2661 2710 2711 2662
4 2662 2711 2712 2663
4 2663 2712 2713 2664
4 2664 2713 2714 2665
4 2665 2714 2715 2666
4 2666 2715 2716 2667
4 2667 2716 2717 2668
4 2668 2717 2718 2669
4 2669 2718 2719 2670
4 2670 2719 2720 2671
4 2671 2720 2721 2672
4 2672 2721 2722 2673
4 2673 2722 2723 2674
4 2674 2723 2724 2675
4 2675 2724 2725 2676
4 2676 2725 2726 2677
4 2677 2726 2727 2678
4 2678 2727 2728 2679
4 2679 2728 2729 2680
4 2680 2729 2730 2681
4 2681 2730 2731 2682
4 2682 2731 2732 2683
4 2683 2732 2733 2684
4 2684 2733 2734 2685
4 2685 2734 2735 2686
4 2686 2735 2736 2687
4 2687 2736 2737 2688
4 2688 2737 2738 2689
4 2689 2738 2739 2690
4 2690 2739 2740 2691
4 2691 2740 2741 2692
4 2692 2741 2742 2693
4 2693 2742 2743 2694
4 2694 2743 2744 2695
4 2695 2744 2745 2696
4 2696 2745 2746 2697
4 2697 2746 2747 2698
4 2698 2747 2748 2699
4 2699 2748 2749 2700
4 2700 2749 201 202
4 53 54 2750 2701
4 2701 2750 2751 2702
4 2702 2751 2752 2703
4 2703 2752 2753 2704
4 2704 2753 2754 2705
4 2705 2754 2755 2706
4 2706 2755 2756 2707
4 2707 2756 2757 2708
4 2708 2757 2758 2709
4 2709 2758 2759 2710
4 2710 2759 2760 2711
4 2711 2760 2761 2712
4 2712 2761 2762 2713
4 2713 2762 2763 2714
4 2714 2763 2764 2715
4 2715 2764 2765 2716
4 2716 2765 2766 2717
4 2717 2766 2767 2718
4 2718 2767 2768 2719
4 2719 2768 2769 2720
4 2720 2769 2770 2721
4 2721 2770 2771 2722
4 2722 2771 2772 2723
4 2723 2772 2773 2724
4 2724 2773 2774 2725
4 2725 2774 2775 2726
4 2726 2775 2776 2727
4 2727 2776 2777 2728
4 2728 2777 2778 2729
4 2729 2778 2779 2730
4 2730 2779 2780 2731
4 2731 2780 2781 2732
4 2732 2781 2782 2733
4 2733 2782 2783 2734
4 2734 2783 2784 2735
4 2735 2784 2785 2736
4 2736 2785 2786 2737
4 2737 2786 2787 2738
4 2738 2787 2788 2739
4 2739 2788 2789 2740
4 2740 2789 2790 2741
4 2741 2790 2791 2742
4 2742 2791 2792 2743
4 2743 2792 2793 2744
4 2744 2793 2794 2745
4 2745 2794 2795 2746
4 2746 2795 2796 2747
4 2747 2796 2797 2748
4 2748 2797 2798 2749
4 2749 2798 200 201
4 54 55 2799 2750
4 2750 2799 2800 2751
4 2751 2800 2801 2752
4 2752 2801 2802 2753
4 2753 2802 2803 2754
4 2754 2803 2804 2755
4 2755 2804 2805 2756
4 2756 2805 2806 2757
4 2757 2806 2807 2758
4 2758 2807 2808 2759
4 2759 2808 2809 2760
4 2760 2809 2810 2761
4 2761 2810 2811 2762
4 2762 2811 2812 2763
4 2763 2812 2813 2764
4 2764 2813 2814 2765
4 2765 2814 2815 2766
4 2766 2815 2816 2767
4 2767 2816 2817 2768
4 2768 2817 2818 2769
4 2769 2818 2819 2770
4 2770 2819 2820 2771
4 2771 2820 2821 2772
4 2772 2821 2822 2773
4 2773 2822 2823 2774
4 2774 2823 2824 2775
4 2775 2824 2825 2776
4 2776 2825 2826 2777
4 2777 2826 2827 2778
4 2778 2827 2828 2779
4 2779 2828 2829 2780
4 2780 2829 2830 2781
4 2781 2830 2831 2782
4 2782 2831 2832 2783
4 2783 2832 2833 2784
4 2784 2833 2834 2785
4 2785 2834 2835 2786
4 2786 2835 2836 2787
4 2787 2836 2837 2788
4 2788 2837 2838 2789
4 2789 2838 2839 2790
4 2790 2839 2840 2791
4 2791 2840 2841 2792
4 2792 2841 2842 2793
4 2793 2842 2843 2794
4 2794 2843 2844 2795
4 2795 2844 2845 2796
4 2796 2845 2846 2797
4 2797 2846 2847 2798
4 2798 2847 199 200
4 55 56 2848 2799
4 2799 2848 2849 2800
4 2800 2849 2850 2801
4 2801 2850 2851 2802
4 2802 2851 2852 2803
4 2803 2852 2853 2804
4 2804 2853 2854 2805
4 2805 2854 2855 2806
4 2806 2855 2856 2807
4 2807 2856 2857 2808
4 2808 2857 2858 2809
4 2809 2858 2859 2810
4 2810 2859 2860 2811
4 2811 2860 2861 2812
4 2812 2861 2862 2813
4 2813 2862 2863 2814
4 2814 2863 2864 2815
4 2815 2864 2865 2816
4 2816 2865 2866 2817
4 2817 2866 2867 2818
4 2818 2867 2868 2819
4 2819 2868 2869 2820
4 2820 2869 2870 2821
4 2821 2870 2871 2822
4 2822 2871 2872 2823
4 2823 2872 2873 2824
4 2824 2873 2874 2825
4 2825 2874 2875 2826
4 2826 2875 2876 2827
4 2827 2876 2877 2828
4 2828 2877 2878 2829
4 2829 2878 2879 2830
4 2830 2879 2880 2831
4 2831 2880 2881 2832
4 2832 2881 2882 2833
4 2833 2882 2883 2834
4 2834 2883 2884 2835
4 2835 2884 2885 2836
4 2836 2885 2886 2837
4 2837 2886 2887 2838
4 2838 2887 2888 2839
4 2839 2888 2889 2840
4 2840 2889 2890 2841
4 2841 2890 2891 2842
4 2842 2891 2892 2843
4 2843 2892 2893 2844
4 2844 2893 2894 2845
4 2845 2894 2895 2846
4 2846 2895 2896 2847
4 2847 2896 198 199
4 56 57 2897 2848
4 2848 2897 2898 2849
4 2849 2898 2899 2850
4 2850 2899 2900 2851
4 2851 2900 2901 2852
4 2852 2901 2902 2853
4 2853 2902 2903 2854
4 2854 2903 2904 2855
4 2855 2904 2905 2856
4 2856 2905 2906 2857
4 2857 2906 2907 2858
4 2858 2907 2908 2859
4 2859 2908 2909 2860
4 2860 2909 2910 2861
4 2861 2910 2911 2862
4 2862 2911 2912 2863
4 2863 2912 2913 2864
4 2864 2913 2914 2865
4 2865 2914 2915 2866
4 2866 2915 2916 2867
4 2867 2916 2917 2868
4 2868 2917 2918 2869
4 2869 2918 2919 2870
4 2870 2919 2920 2871
4 2871 2920 2921 2872
4 2872 2921 2922 2873
4 2873 2922 2923 2874
4 2874 2923 2924 2875
4 2875 2924 2925 2876
4 2876 2925 2926 2877
4 2877 2926 2927 2878
4 2878 2927 2928 2879
4 2879 2928 2929 2880
4 2880 2929 2930 2881
4 2881 2930 2931 2882
4 2882 2931 2932 2883
4 2883 2932 2933 2884
4 2884 2933 2934 2885
4 2885 2934 2935 2886
4 2886 2935 2936 2887
4 2887 2936 2937 2888
4 2888 2937 2938 2889
4 2889 2938 2939 2890
4 2890 2939 2940 2891
4 2891 2940 2941 2892
4 2892 2941 2942 2893
4 2893 2942 2943 2894
4 2894 2943 2944 2895
4 2895 2944 2945 2896
4 2896 2945 197 198
4 57 58 2946 2897
4 2897 2946 2947 2898
4 2898 2947 2948 2899
4 2899 2948 2949 2900
4 2900 2949 2950 2901
4 2901 2950 2951 2902
4 2902 2951 2952 2903
4 2903 2952 2953 2904
4 2904 2953 2954 2905
4 2905 2954 2955 2906
4 2906 2955 2956 2907
4 2907 2956 2957 2908
4 2908 2957 2958 2909
4 2909 2958 2959 2910
4 2910 2959 2960 2911
4 2911 2960 2961 2912
4 2912 2961 2962 2913
4 2913 2962 2963 2914
4 2914 2963 2964 2915
4 2915 2964 2965 2916
4 2916 2965 2966 2917
4 2917 2966 2967 2918
4 2918 2967 2968 2919
4 2919 2968 2969 2920
4 2920 2969 2970 2921
4 2921 2970 2971 2922
4 2922 2971 2972 2923
4 2923 2972 2973 2924
4 2924 2973 2974 2925
4 2925 2974 2975 2926
4 2926 2975 2976 2927
4 2927 2976 2977 2928
4 2928 2977 2978 2929
4 2929 2978 2979 2930
4 2930 2979 2980 2931
4 2931 2980 2981 2932
4 2932 2981 2982 2933
4 2933 2982 2983 2934
4 2934 2983 2984 2935
4 2935 2984 2985 2936
4 2936 2985 2986 2937
4 2937 2986 2987 2938
4 2938 2987 2988 2939
4 2939 2988 2989 2940
4 2940 2989 2990 2941
4 2941 2990 2991 2942
4 2942 2991 2992 2943
4 2943 2992 2993 2944
4 2944 2993 2994 2945
4 2945 2994 196 197
4 58 59 2995 2946
4 2946 2995 2996 2947
4 2947 2996 2997 2948
4 2948 2997 2998 2949
4 2949 2998 2999 2950
4 2950 2999 3000 2951
4 2951 3000 3001 2952
4 2952 3001 3002 2953
4 2953 3002 3003 2954
4 2954 3003 3004 2955
4 2955 3004 3005 2956
4 2956 3005 3006 2957
4 2957 3006 3007 2958
4 2958 3007 3008 2959
4 2959 3008 3009 2960
4 2960 3009 3010 2961
4 2961 3010 3011 2962
4 2962 3011 3012 2963
4 2963 3012 3013 2964
4 2964 3013 3014 2965
4 2965 3014 3015 2966
4 2966 3015 3016 2967
4 2967 3016 3017 2968
4 2968 3017 3018 2969
4 2969 3018 3019 2970
4 2970 3019 3020 2971
4 2971 3020 3021 2972
4 2972 3021 3022 2973
4 2973 3022 3023 2974
4 2974 3023 3024 2975
4 2975 3024 3025 2976
4 2976 3025 3026 2977
4 2977 3026 3027 2978
4 2978 3027 3028 2979
4 2979 3028 3029 2980
4 2980 3029 3030 2981
4 2981 3030 3031 2982
4 2982 3031 3032 2983
4 2983 3032 3033 2984
4 2984 3033 3034 2985
4 2985 3034 3035 2986
4 2986 3035 3036 2987
4 2987 3036 3037 2988
4 2988 3037 3038 2989
4 2989 3038 3039 2990
4 2990 3039 3040 2991
4 2991 3040 3041 2992
4 2992 3041 3042 2993
4 2993 3042 3043 2994
4 2994 3043 195 196
4 59 60 3044 2995
4 2995 3044 3045 2996
4 2996 3045 3046 2997
4 2997 3046 3047 2998
4 2998 3047 3048 2999
4 2999 3048 3049 3000
4 3000 3049 3050 3001
4 3001 3050 3051 3002
4 3002 3051 3052 3003
4 3003 3052 3053 3004
4 3004 3053 3054 3005
4 3005 3054 3055 3006
4 3006 3055 3056 3007
4 3007 3056 3057 3008
4 3008 3057 3058 3009
4 3009 3058 3059 3010
4 3010 3059 3060 3011
4 3011 3060 3061 3012
4 3012 3061 3062 3013
4 3013 3062 3063 3014
4 3014 3063 3064 3015
4 3015 3064 3065 3016
4 3016 3065 3066 3017
4 3017 3066 3067 3018
4 3018 3067 3068 3019
4 3019 3068 3069 3020
4 3020 3069 3070 3021
4 3021 3070 3071 3022
4 3022 3071 3072 3023
4 3023 3072 3073 3024
4 3024 3073 3074 3025
4 3025 3074 3075 3026
4 3026 3075 3076 3027
4 3027 3076 3077 3028
4 3028 3077 3078 3029
4 3029 3078 3079 3030
4 3030 3079 3080 3031
4 3031 3080 3081 3032
4 3032 3081 3082 3033
4 3033 3082 3083 3034
4 3034 3083 3084 3035
4 3035 3084 3085 3036
4 3036 3085 3086 3037
4 3037 3086 3087 3038
4 3038 3087 3088 3039
4 3039 3088 3089 3040
4 3040 3089 3090 3041
4 3041 3090 3091 3042
4 3042 3091 3092 3043
4 3043 3092 194 195
4 60 61 3093 3044
4 3044 3093 3094 3045
4 3045 3094 3095 3046
4 3046 3095 3096 3047
4 3047 3096 3097 3048
4 3048 3097 3098 3049
4 3049 3098 3099 3050
4 3050 3099 3100 3051
4 3051 3100 3101 3052
4 3052 3101 3102 3053
4 3053 3102 3103 3054
4 3054 3103 3104 3055
4 3055 3104 3105 3056
4 3056 3105 3106 3057
4 3057 3106 3107 3058
4 3058 3107 3108 3059
4 3059 3108 3109 3060
4 3060 3109 3110 3061
4 3061 3110 3111 3062
4 3062 3111 3112 3063
4 3063 3112 3113 3064
4 3064 3113 3114 3065
4 3065 3114 3115 3066
4 3066 3115 3116 3067
4 3067 3116 3117 3068
4 3068 3117 3118 3069
4 3069 3118 3119 3070
4 3070 3119 3120 3071
4 3071 3120 3121 3072
4 3072 3121 3122 3073
4 3073 3122 3123 3074
4 3074 3123 3124 3075
4 3075 3124 3125 3076
4 3076 3125 3126 3077
4 3077 3126 3127 3078
4 3078 3127 3128 3079
4 3079 3128 3129 3080
4 3080 3129 3130 3081
4 3081 3130 3131 3082
4 3082 3131 3132 3083
4 3083 3132 3133 3084
4 3084 3133 3134 3085
4 3085 3134 3135 3086
4 3086 3135 3136 3087
4 3087 3136 3137 3088
4 3088 3137 3138 3089
4 3089 3138 3139 3090
4 3090 3139 3140 3091
4 3091 3140 3141 3092
4 3092 3141 193 194
4 61 62 3142 3093
4 3093 3142 3143 3094
4 3094 3143 3144 3095
4 3095 3144 3145 3096
4 3096 3145 3146 3097
4 3097 3146 3147 3098
4 3098 3147 3148 3099
4 3099 3148 3149 3100
4 3100 3149 3150 3101
4 3101 3150 3151 3102
4 3102 3151 3152 3103
4 3103 3152 3153 3104
4 3104 3153 3154 3105
4 3105 3154 3155 3106
4 3106 3155 3156 3107
4 3107 3156 3157 3108
4 3108 3157 3158 3109
4 3109 3158 3159 3110
4 3110 3159 3160 3111
4 3111 3160 3161 3112
4 3112 3161 3162 3113
4 3113 3162 3163 3114
4 3114 3163 3164 3115
4 3115 3164 3165 3116
4 3116 3165 3166 3117
4 3117 3166 3167 3118
4 3118 3167 3168 3119
4 3119 3168 3169 3120
4 3120 3169 3170 3121
4 3121 3170 3171 3122
4 3122 3171 3172 3123
4 3123 3172 3173 3124
4 3124 3173 3174 3125
4 3125 3174 3175 3126
4 3126 3175 3176 3127
4 3127 3176 3177 3128
4 3128 3177 3178 3129
4 3129 3178 3179 3130
4 3130 3179 3180 3131
4 3131 3180 3181 3132
4 3132 3181 3182 3133
4 3133 3182 3183 3134
4 3134 3183 3184 3135
4 3135 3184 3185 3136
4 3136 3185 3186 3137
4 3137 3186 3187 3138
4 3138 3187 3188 3139
4 3139 3188 3189 3140
4 3140 3189 3190 3141
4 3141 3190 192 193
4 62 63 3191 3142
4 3142 3191 3192 3143
4 3143 3192 3193 3144
4 3144 3193 3194 3145
4 3145 3194 3195 3146
4 3146 3195 3196 3147
4 3147 3196 3197 3148
4 3148 3197 3198 3149
4 3149 3198 3199 3150
4 3150 3199 3200 3151
4 3151 3200 3201 3152
4 3152 3201 3202 3153
4 3153 3202 3203 3154
4 3154 3203 3204 3155
4 3155 3204 3205 3156
4 3156 3205 3206 3157
4 3157 3206 3207 3158
4 3158 3207 3208 3159
4 3159 3208 3209 3160
4 3160 3209 3210 3161
4 3161 3210 3211 3162
4 3162 3211 3212 3163
4 3163 3212 3213 3164
4 3164 3213 3214 3165
4 3165 3214 3215 3166
4 3166 3215 3216 3167
4 3167 3216 3217 3168
4 3168 3217 3218 3169
4 3169 3218 3219 3170
4 3170 3219 3220 3171
4 3171 3220 3221 3172
4 3172 3221 3222 3173
4 3173 3222 3223 3174
4 3174 3223 3224 3175
4 3175 3224 3225 3176
4 3176 3225 3226 3177
4 3177 3226 3227 3178
4 3178 3227 3228 3179
4 3179 3228 3229 3180
4 3180 3229 3230 3181
4 3181 3230 3231 3182
4 3182 3231 3232 3183
4 3183 3232 3233 3184
4 3184 3233 3234 3185
4 3185 3234 3235 3186
4 3186 3235 3236 3187
4 3187 3236 3237 3188
4 3188 3237 3238 3189
4 3189 3238 3239 3190
4 3190 3239 191 192
4 63 64 3240 3191
4 3191 3240 3241 3192
4 3192 3241 3242 3193
4 3193 3242 3243 3194
4 3194 3243 3244 3195
4 3195 3244 3245 3196
4 3196 3245 3246 3197
4 3197 3246 3247 3198
4 3198 3247 3248 3199
4 3199 3248 3249 3200
4 3200 3249 3250 3201
4 3201 3250 3251 3202
4 3202 3251 3252 3203
4 3203 3252 3253 3204
4 3204 3253 3254 3205
4 3205 3254 3255 3206
4 3206 3255 3256 3207
4 3207 3256 3257 3208
4 3208 3257 3258 3209
4 3209 3258 3259 3210
4 3210 3259 3260 3211
4 3211 3260 3261 3212
4 3212 3261 3262 3213
4 3213 3262 3263 3214
4 3214 3263 3264 3215
4 3215 3264 3265 3216
4 3216 3265 3266 3217
4 3217 3266 3267 3218
4 3218 3267 3268 3219
4 3219 3268 3269 3220
4 3220 3269 3270 3221
4 3221 3270 3271 3222
4 3222 3271 3272 3223
4 3223 3272 3273 3224
4 3224 3273 3274 3225
4 3225 3274 3275 3226
4 3226 3275 3276 3227
4 3227 3276 3277 3228
4 3228 3277 3278 3229
4 3229 3278 3279 3230
4 3230 3279 3280 3231
4 3231 3280 3281 3232
4 3232 3281 3282 3233
4 3233 3282 3283 3234
4 3234 3283 3284 3235
4 3235 3284 3285 3236
4 3236 3285 3286 3237
4 3237 3286 3287 3238
4 3238 3287 3288 3239
4 3239 3288 190 191
4 64 65 3289 3240
4 3240 3289 3290 3241
4 3241 3290 3291 3242
4 3242 3291 3292 3243
4 3243 3292 3293 3244
4 3244 3293 3294 3245
4 3245 3294 3295 3246
4 3246 3295 3296 3247
4 3247 3296 3297 3248
4 3248 3297 3298 3249
4 3249 3298 3299 3250
4 3250 3299 3300 3251
4 3251 3300 3301 3252
4 3252 3301 3302 3253
4 3253 3302 3303 3254
4 3254 3303 3304 3255
4 3255 3304 3305 3256
4 3256 3305 3306 3257
4 3257 3306 3307 3258
4 3258 3307 3308 3259
4 3259 3308 3309 3260
4 3260 3309 3310 3261
4 3261 3310 3311 3262
4 3262 3311 3312 3263
4 3263 3312 3313 3264
4 3264 3313 3314 3265
4 3265 3314 3315 3266
4 3266 3315 3316 3267
4 3267 3316 3317 3268
4 3268 3317 3318 3269
4 3269 3318 3319 3270
4 3270 3319 3320 3271
4 3271 3320 3321 3272
4 3272 3321 3322 3273
4 3273 3322 3323 3274
4 3274 3323 3324 3275
4 3275 3324 3325 3276
4 3276 3325 3326 3277
4 3277 3326 3327 3278
4 3278 3327 3328 3279
4 3279 3328 3329 3280
4 3280 3329 3330 3281
4 3281 3330 3331 3282
4 3282 3331 3332 3283
4 3283 3332 3333 3284
4 3284 3333 3334 3285
4 3285 3334 3335 3286
4 3286 3335 3336 3287
4 3287 3336 3337 3288
4 3288 3337 189 190
4 65 66 3338 3289
4 3289 3338 3339 3290
4 3290 3339 3340 3291
4 3291 3340 3341 3292
4 3292 3341 3342 3293
4 3293 3342 3343 3294
4 3294 3343 3344 3295
4 3295 3344 3345 3296
4 3296 3345 3346 3297
4 3297 3346 3347 3298
4 3298 3347 3348 3299
4 3299 3348 3349 3300
4 3300 3349 3350 3301
4 3301 3350 3351 3302
4 3302 3351 3352 3303
4 3303 3352 3353 3304
4 3304 3353 3354 3305
4 3305 3354 3355 3306
4 3306 3355 3356 3307
4 3307 3356 3357 3308
4 3308 3357 3358 3309
4 3309 3358 3359 3310
4 3310 3359 3360 3311
4 3311 3360 3361 3312
4 3312 3361 3362 3313
4 3313 3362 3363 3314
4 3314 3363 3364 3315
4 3315 3364 3365 3316
4 3316 3365 3366 3317
4 3317 3366 3367 3318
4 3318 3367 3368 3319
4 3319 3368 3369 3320
4 3320 3369 3370 3321
4 3321 3370 3371 3322
4 3322 3371 3372 3323
4 3323 3372 3373 3324
4 3324 3373 3374 3325
4 3325 3374 3375 3326
4 3326 3375 3376 3327
4 3327 3376 3377 3328
4 3328 3377 3378 3329
4 3329 3378 3379 3330
4 3330 3379 3380 3331
4 3331 3380 3381 3332
4 3332 3381 3382 3333
4 3333 3382 3383 3334
4 3334 3383 3384 3335
4 3335 3384 3385 3336
4 3336 3385 3386 3337
4 3337 3386 188 189
4 66 67 3387 3338
4 3338 3387 3388 3339
4 3339 3388 3389 3340
4 3340 3389 3390 3341
4 3341 3390 3391 3342
4 3342 3391 3392 3343
4 3343 3392 3393 3344
4 3344 3393 3394 3345
4 3345 3394 3395 3346
4 3346 3395 3396 3347
4 3347 3396 3397 3348
4 3348 3397 3398 3349
4 3349 3398 3399 3350
4 3350 3399 3400 3351
4 3351 3400 3401 3352
4 3352 3401 3402 3353
4 3353 3402 3403 3354
4 3354 3403 3404 3355
4 3355 3404 3405 3356
4 3356 3405 3406 3357
4 3357 3406 3407 3358
4 3358 3407 3408 3359
4 3359 3408 3409 3360
4 3360 3409 3410 3361
4 3361 3410 3411 3362
4 3362 3411 3412 3363
4 3363 3412 3413 3364
4 3364 3413 3414 3365
4 3365 3414 3415 3366
4 3366 3415 3416 3367
4 3367 3416 3417 3368
4 3368 3417 3418 3369
4 3369 3418 3419 3370
4 3370 3419 3420 3371
4 3371 3420 3421 3372
4 3372 3421 3422 3373
4 3373 3422 3423 3374
4 3374 3423 3424 3375
4 3375 3424 3425 3376
4 3376 3425 3426 3377
4 3377 3426 3427 3378
4 3378 3427 3428 3379
4 3379 3428 3429 3380
4 3380 3429 3430 3381
4 3381 3430 3431 3382
4 3382 3431 3432 3383
4 3383 3432 3433 3384
4 3384 3433 3434 3385
4 3385 3434 3435 3386
4 3386 3435 187 188
4 67 68 3436 3387
4 3387 3436 3437 3388
4 3388 3437 3438 3389
4 3389 3438 3439 3390
4 3390 3439 3440 3391
4 3391 3440 3441 3392
4 3392 3441 3442 3393
4 3393 3442 3443 3394
4 3394 3443 3444 3395
4 3395 3444 3445 3396
4 3396 3445 3446 3397
4 3397 3446 3447 3398
4 3398 3447 3448 3399
4 3399 3448 3449 3400
4 3400 3449 3450 3401
4 3401 3450 3451 3402
4 3402 3451 3452 3403
4 3403 3452 3453 3404
4 3404 3453 3454 3405
4 3405 3454 3455 3406
4 3406 3455 3456 3407
4 3407 3456 3457 3408
4 3408 3457 3458 3409
4 3409 3458 3459 3410
4 3410 3459 3460 3411
4 3411 3460 3461 3412
4 3412 3461 3462 3413
4 3413 3462 3463 3414
4 3414 3463 3464 3415
4 3415 3464 3465 3416
4 3416 3465 3466 3417
4 3417 3466 3467 3418
4 3418 3467 3468 3419
4 3419 3468 3469 3420
4 3420 3469 3470 3421
4 3421 3470 3471 3422
4 3422 3471 3472 3423
4 3423 3472 3473 3424
4 3424 3473 3474 3425
4 3425 3474 3475 3426
4 3426 3475 3476 3427
4 3427 3476 3477 3428
4 3428 3477 3478 3429
4 3429 3478 3479 3430
4 3430 3479 3480 3431
4 3431 3480 3481 3432
4 3432 3481 3482 3433
4 3433 3482 3483 3434
4 3434 3483 3484 3435
4 3435 3484 186 187
4 68 69 3485 3436
4 3436 3485 3486 3437
4 3437 3486 3487 3438
4 3438 3487 3488 3439
4 3439 3488 3489 3440
4 3440 3489 3490 3441
4 3441 3490 3491 3442
4 3442 3491 3492 3443
4 3443 3492 3493 3444
4 3444 3493 3494 3445
4 3445 3494 3495 3446
4 3446 3495 3496 3447
4 3447 3496 3497 3448
4 3448 3497 3498 3449
4 3449 3498 3499 3450
4 3450 3499 3500 3451
4 3451 3500 3501 3452
4 3452 3501 3502 3453
4 3453 3502 3503 3454
4 3454 3503 3504 3455
4 3455 3504 3505 3456
4 3456 3505 3506 3457
4 3457 3506 3507 3458
4 3458 3507 3508 3459
4 3459 3508 3509 3460
4 3460 3509 3510 3461
4 3461 3510 3511 3462
4 3462 3511 3512 3463
4 3463 3512 3513 3464
4 3464 3513 3514 3465
4 3465 3514 3515 3466
4 3466 3515 3516 3467
4 3467 3516 3517 3468
4 3468 3517 3518 3469
4 3469 3518 3519 3470
4 3470 3519 3520 3471
4 3471 3520 3521 3472
4 3472 3521 3522 3473
4 3473 3522 3523 3474
4 3474 3523 3524 3475
4 3475 3524 3525 3476
4 3476 3525 3526 3477
4 3477 3526 3527 3478
4 3478 3527 3528 3479
4 3479 3528 3529 3480
4 3480 3529 3530 3481
4 3481 3530 3531 3482
4 3482 3531 3532 3483
4 3483 3532 3533 3484
4 3484 3533 185 186
4 69 70 3534 3485
4 3485 3534 3535 3486
4 3486 3535 3536 3487
4 3487 3536 3537 3488
4 3488 3537 3538 3489
4 3489 3538 3539 3490
4 3490 3539 3540 3491
4 3491 3540 3541 3492
4 3492 3541 3542 3493
4 3493 3542 3543 3494
4 3494 3543 3544 3495
4 3495 3544 3545 3496
4 3496 3545 3546 3497
4 3497 3546 3547 3498
4 3498 3547 3548 3499
4 3499 3548 3549 3500
4 3500 3549 3550 3501
4 3501 3550 3551 3502
4 3502 3551 3552 3503
4 3503 3552 3553 3504
4 3504 3553 3554 3505
4 3505 3554 3555 3506
4 3506 3555 3556 3507
4 3507 3556 3557 3508
4 3508 3557 3558 3509
4 3509 3558 3559 3510
4 3510 3559 3560 3511
4 3511 3560 3561 3512
4 3512 3561 3562 3513
4 3513 3562 3563 3514
4 3514 3563 3564 3515
4 3515 3564 3565 3516
4 3516 3565 3566 3517
4 3517 3566 3567 3518
4 3518 3567 3568 3519
4 3519 3568 3569 3520
4 3520 3569 3570 3521
4 3521 3570 3571 3522
4 3522 3571 3572 3523
4 3523 3572 3573 3524
4 3524 3573 3574 3525
4 3525 3574 3575 3526
4 3526 3575 3576 3527
4 3527 3576 3577 3528
4 3528 3577 3578 3529
4 3529 3578 3579 3530
4 3530 3579 3580 3531
4 3531 3580 3581 3532
4 3532 3581 3582 3533
4 3533 3582 184 185
4 70 71 3583 3534
4 3534 3583 3584 3535
4 3535 3584 3585 3536
4 3536 3585 3586 3537
4 3537 3586 3587 3538
4 3538 3587 3588 3539
4 3539 3588 3589 3540
4 3540 3589 3590 3541
4 3541 3590 3591 3542
4 3542 3591 3592 3543
4 3543 3592 3593 3544
4 3544 3593 3594 3545
4 3545 3594 3595 3546
4 3546 3595 3596 3547
4 3547 3596 3597 3548
4 3548 3597 3598 3549
4 3549 3598 3599 3550
4 3550 3599 3600 3551
4 3551 3600 3601 3552
4 3552 3601 3602 3553
4 3553 3602 3603 3554
4 3554 3603 3604 3555
4 3555 3604 3605 3556
4 3556 3605 3606 3557
4 3557 3606 3607 3558
4 3558 3607 3608 3559
4 3559 3608 3609 3560
4 3560 3609 3610 3561
4 3561 3610 3611 3562
4 3562 3611 3612 3563
4 3563 3612 3613 3564
4 3564 3613 3614 3565
4 3565 3614 3615 3566
4 3566 3615 3616 3567
4 3567 3616 3617 3568
4 3568 3617 3618 3569
4 3569 3618 3619 3570
4 3570 3619 3620 3571
4 3571 3620 3621 3572
4 3572 3621 3622 3573
4 3573 3622 3623 3574
4 3574 3623 3624 3575
4 3575 3624 3625 3576
4 3576 3625 3626 3577
4 3577 3626 3627 3578
4 3578 3627 3628 3579
4 3579 3628 3629 3580
4 3580 3629 3630 3581
4 3581 3630 3631 3582
4 3582 3631 183 184
4 71 72 3632 3583
4 3583 3632 3633 3584
4 3584 3633 3634 3585
4 3585 3634 3635 3586
4 3586 3635 3636 3587
4 3587 3636 3637 3588
4 3588 3637 3638 3589
4 3589 3638 3639 3590
4 3590 3639 3640 3591
4 3591 3640 3641 3592
4 3592 3641 3642 3593
4 3593 3642 3643 3594
4 3594 3643 3644 3595
4 3595 3644 3645 3596
4 3596 3645 3646 3597
4 3597 3646 3647 3598
4 3598 3647 3648 3599
4 3599 3648 3649 3600
4 3600 3649 3650 3601
4 3601 3650 3651 3602
4 3602 3651 3652 3603
4 3603 3652 3653 3604
4 3604 3653 3654 3605
4 3605 3654 3655 3606
4 3606 3655 3656 3607
4 3607 3656 3657 3608
4 3608 3657 3658 3609
4 3609 3658 3659 3610
4 3610 3659 3660 3611
4 3611 3660 3661 3612
4 3612 3661 3662 3613
4 3613 3662 3663 3614
4 3614 3663 3664 3615
4 3615 3664 3665 3616
4 3616 3665 3666 3617
4 3617 3666 3667 3618
4 3618 3667 3668 3619
4 3619 3668 3669 3620
4 3620 3669 3670 3621
4 3621 3670 3671 3622
4 3622 3671 3672 3623
4 3623 3672 3673 3624
4 3624 3673 3674 3625
4 3625 3674 3675 3626
4 3626 3675 3676 3627
4 3627 3676 3677 3628
4 3628 3677 3678 3629
4 3629 3678 3679 3630
4 3630 3679 3680 3631
4 3631 3680 182 183
4 72 73 3681 3632
4 3632 3681 3682 3633
4 3633 3682 3683 3634
4 3634 3683 3684 3635
4 3635 3684 3685 3636
4 3636 3685 3686 3637
4 3637 3686 3687 3638
4 3638 3687 3688 3639
4 3639 3688 3689 3640
4 3640 3689 3690 3641
4 3641 3690 3691 3642
4 3642 3691 3692 3643
4 3643 3692 3693 3644
4 3644 3693 3694 3645
4 3645 3694 3695 3646
4 3646 3695 3696 3647
4 3647 3696 3697 3648
4 3648 3697 3698 3649
4 3649 3698 3699 3650
4 3650 3699 3700 3651
4 3651 3700 3701 3652
4 3652 3701 3702 3653
4 3653 3702 3703 3654
4 3654 3703 3704 3655
4 3655 3704 3705 3656
4 3656 3705 3706 3657
4 3657 3706 3707 3658
4 3658 3707 3708 3659
4 3659 3708 3709 3660
4 3660 3709 3710 3661
4 3661 3710 3711 3662
4 3662 3711 3712 3663
4 3663 3712 3713 3664
4 3664 3713 3714 3665
4 3665 3714 3715 3666
4 3666 3715 3716 3667
4 3667 3716 3717 3668
4 3668 3717 3718 3669
4 3669 3718 3719 3670
4 3670 3719 3720 3671
4 3671 3720 3721 3672
4 3672 3721 3722 3673
4 3673 3722 3723 3674
4 3674 3723 3724 3675
4 3675 3724 3725 3676
4 3676 3725 3726 3677
4 3677 3726 3727 3678
4 3678 3727 3728 3679
4 3679 3728 3729 3680
4 3680 3729 181 182
4 73 74 3730 3681
4 3681 3730 3731 3682
4 3682 3731 3732 3683
4 3683 3732 3733 3684
4 3684 3733 3734 3685
4 3685 3734 3735 3686
4 3686 3735 3736 3687
4 3687 3736 3737 3688
4 3688 3737 3738 3689
4 3689 3738 3739 3690
4 3690 3739 3740 3691
4 3691 3740 3741 3692
4 3692 3741 3742 3693
4 3693 3742 3743 3694
4 3694 3743 3744 3695
4 3695 3744 3745 3696
4 3696 3745 3746 3697
4 3697 3746 3747 3698
4 3698 3747 3748 3699
4 3699 3748 3749 3700
4 3700 3749 3750 3701
4 3701 3750 3751 3702
4 3702 3751 3752 3703
4 3703 3752 3753 3704
4 3704 3753 3754 3705
4 3705 3754 3755 3706
4 3706 3755 3756 3707
4 3707 3756 3757 3708
4 3708 3757 3758 3709
4 3709 3758 3759 3710
4 3710 3759 3760 3711
4 3711 3760 3761 3712
4 3712 3761 3762 3713
4 3713 3762 3763 3714
4 3714 3763 3764 3715
4 3715 3764 3765 3716
4 3716 3765 3766 3717
4 3717 3766 3767 3718
4 3718 3767 3768 3719
4 3719 3768 3769 3720
4 3720 3769 3770 3721
4 3721 3770 3771 3722
4 3722 3771 3772 3723
4 3723 3772 3773 3724
4 3724 3773 3774 3725
4 3725 3774 3775 3726
4 3726 3775 3776 3727
4 3727 3776 3777 3728
4 3728 3777 3778 3729
4 3729 3778 180 181
4 74 75 3779 3730
4 3730 3779 3780 3731
4 3731 3780 3781 3732
4 3732 3781 3782 3733
4 3733 3782 3783 3734
4 3734 3783 3784 3735
4 3735 3784 3785 3736
4 3736 3785 3786 3737
4 3737 3786 3787 3738
4 3738 3787 3788 3739
4 3739 3788 3789 3740
4 3740 3789 3790 3741
4 3741 3790 3791 3742
4 3742 3791 3792 3743
4 3743 3792 3793 3744
4 3744 3793 3794 3745
4 3745 3794 3795 3746
4 3746 3795 3796 3747
4 3747 3796 3797 3748
4 3748 3797 3798 3749
4 3749 3798 3799 3750
4 3750 3799 3800 3751
4 3751 3800 3801 3752
4 3752 3801 3802 3753
4 3753 3802 3803 3754
4 3754 3803 3804 3755
4 3755 3804 3805 3756
4 3756 3805 3806 3757
4 3757 3806 3807 3758
4 3758 3807 3808 3759
4 3759 3808 3809 3760
4 3760 3809 3810 3761
4 3761 3810 3811 3762
4 3762 3811 3812 3763
4 3763 3812 3813 3764
4 3764 3813 3814 3765
4 3765 3814 3815 3766
4 3766 3815 3816 3767
4 3767 3816 3817 3768
4 3768 3817 3818 3769
4 3769 3818 3819 3770
4 3770 3819 3820 3771
4 3771 3820 3821 3772
4 3772 3821 3822 3773
4 3773 3822 3823 3774
4 3774 3823 3824 3775
4 3775 3824 3825 3776
4 3776 3825 3826 3777
4 3777 3826 3827 3778
4 3778 3827 179 180
4 75 76 3828 3779
4 3779 3828 3829 3780
4 3780 3829 3830 3781
4 3781 3830 3831 3782
4 3782 3831 3832 3783
4 3783 3832 3833 3784
4 3784 3833 3834 3785
4 3785 3834 3835 3786
4 3786 3835 3836 3787
4 3787 3836 3837 3788
4 3788 3837 3838 3789
4 3789 3838 3839 3790
4 3790 3839 3840 3791
4 3791 3840 3841 3792
4 3792 3841 3842 3793
4 3793 3842 3843 3794
4 3794 3843 3844 3795
4 3795 3844 3845 3796
4 3796 3845 3846 3797
4 3797 3846 3847 3798
4 3798 3847 3848 3799
4 3799 3848 3849 3800
4 3800 3849 3850 3801
4 3801 3850 3851 3802
4 3802 3851 3852 3803
4 3803 3852 3853 3804
4 3804 3853 3854 3805
4 3805 3854 3855 3806
4 3806 3855 3856 3807
4 3807 3856 3857 3808
4 3808 3857 3858 3809
4 3809 3858 3859 3810
4 3810 3859 3860 3811
4 3811 3860 3861 3812
4 3812 3861 3862 3813
4 3813 3862 3863 3814
4 3814 3863 3864 3815
4 3815 3864 3865 3816
4 3816 3865 3866 3817
4 3817 3866 3867 3818
4 3818 3867 3868 3819
4 3819 3868 3869 3820
4 3820 3869 3870 3821
4 3821 3870 3871 3822
4 3822 3871 3872 3823
4 3823 3872 3873 3824
4 3824 3873 3874 3825
4 3825 3874 3875 3826
4 3826 3875 3876 3827
4 3827 3876 178 179
4 76 77 3877 3828
4 3828 3877 3878 3829
4 3829 3878 3879 3830
4 3830 3879 3880 3831
4 3831 3880 3881 3832
4 3832 3881 3882 3833
4 3833 3882 3883 3834
4 3834 3883 3884 3835
4 3835 3884 3885 3836
4 3836 3885 3886 3837
4 3837 3886 3887 3838
4 3838 3887 3888 3839
4 3839 3888 3889 3840
4 3840 3889 3890 3841
4 3841 3890 3891 3842
4 3842 3891 3892 3843
4 3843 3892 3893 3844
4 3844 3893 3894 3845
4 3845 3894 3895 3846
4 3846 3895 3896 3847
4 3847 3896 3897 3848
4 3848 3897 3898 3849
4 3849 3898 3899 3850
4 3850 3899 3900 3851
4 3851 3900 3901 3852
4 3852 3901 3902 3853
4 3853 3902 3903 3854
4 3854 3903 3904 3855
4 3855 3904 3905 3856
4 3856 3905 3906 3857
4 3857 3906 3907 3858
4 3858 3907 3908 3859
4 3859 3908 3909 3860
4 3860 3909 3910 3861
4 3861 3910 3911 3862
4 3862 3911 3912 3863
4 3863 3912 3913 3864
4 3864 3913 3914 3865
4 3865 3914 3915 3866
4 3866 3915 3916 3867
4 3867 3916 3917 3868
4 3868 3917 3918 3869
4 3869 3918 3919 3870
4 3870 3919 3920 3871
4 3871 3920 3921 3872
4 3872 3921 3922 3873
4 3873 3922 3923 3874
4 3874 3923 3924 3875
4 3875 3924 3925 3876
4 3876 3925 177 178
4 77 78 3926 3877
4 3877 3926 3927 3878
4 3878 3927 3928 3879
4 3879 3928 3929 3880
4 3880 3929 3930 3881
4 3881 3930 3931 3882
4 3882 3931 3932 3883
4 3883 3932 3933 3884
4 3884 3933 3934 3885
4 3885 3934 3935 3886
4 3886 3935 3936 3887
4 3887 3936 3937 3888
4 3888 3937 3938 3889
4 3889 3938 3939 3890
4 3890 3939 3940 3891
4 3891 3940 3941 3892
4 3892 3941 3942 3893
4 3893 3942 3943 3894
4 3894 3943 3944 3895
4 3895 3944 3945 3896
4 3896 3945 3946 3897
4 3897 3946 3947 3898
4 3898 3947 3948 3899
4 3899 3948 3949 3900
4 3900 3949 3950 3901
4 3901 3950 3951 3902
4 3902 3951 3952 3903
4 3903 3952 3953 3904
4 3904 3953 3954 3905
4 3905 3954 3955 3906
4 3906 3955 3956 3907
4 3907 3956 3957 3908
4 3908 3957 3958 3909
4 3909 3958 3959 3910
4 3910 3959 3960 3911
4 3911 3960 3961 3912
4 3912 3961 3962 3913
4 3913 3962 3963 3914
4 3914 3963 3964 3915
4 3915 3964 3965 3916
4 3916 3965 3966 3917
4 3917 3966 3967 3918
4 3918 3967 3968 3919
4 3919 3968 3969 3920
4 3920 3969 3970 3921
4 3921 3970 3971 3922
4 3922 3971 3972 3923
4 3923 3972 3973 3924
4 3924 3973 3974 3925
4 3925 3974 176 177
4 78 79 3975 3926
4 3926 3975 3976 3927
4 3927 3976 3977 3928
4 3928 3977 3978 3929
4 3929 3978 3979 3930
4 3930 3979 3980 3931
4 3931 3980 3981 3932
4 3932 3981 3982 3933
4 3933 3982 3983 3934
4 3934 3983 3984 3935
4 3935 3984 3985 3936
4 3936 3985 3986 3937
4 3937 3986 3987 3938
4 3938 3987 3988 3939
4 3939 3988 3989 3940
4 3940 3989 3990 3941
4 3941 3990 3991 3942
4 3942 3991 3992 3943
4 3943 3992 3993 3944
4 3944 3993 3994 3945
4 3945 3994 3995 3946
4 3946 3995 3996 3947
4 3947 3996 3997 3948
4 3948 3997 3998 3949
4 3949 3998 3999 3950
4 3950 3999 4000 3951
4 3951 4000 4001 3952
4 3952 4001 4002 3953
4 3953 4002 4003 3954
4 3954 4003 4004 3955
4 3955 4004 4005 3956
4 3956 4005 4006 3957
4 3957 4006 4007 3958
4 3958 4007 4008 3959
4 3959 4008 4009 3960
4 3960 4009 4010 3961
4 3961 4010 4011 3962
4 3962 4011 4012 3963
4 3963 4012 4013 3964
4 3964 4013 4014 3965
4 3965 4014 4015 3966
4 3966 4015 4016 3967
4 3967 4016 4017 3968
4 3968 4017 4018 3969
4 3969 4018 4019 3970
4 3970 4019 4020 3971
4 3971 4020 4021 3972
4 3972 4021 4022 3973
4 3973 4022 4023 3974
4 3974 4023 175 176
4 79 80 4024 3975
4 3975 4024 4025 3976
4 3976 4025 4026 3977
4 3977 4026 4027 3978
4 3978 4027 4028 3979
4 3979 4028 4029 3980
4 3980 4029 4030 3981
4 3981 4030 4031 3982
4 3982 4031 4032 3983
4 3983 4032 4033 3984
4 3984 4033 4034 3985
4 3985 4034 4035 3986
4 3986 4035 4036 3987
4 3987 4036 4037 3988
4 3988 4037 4038 3989
4 3989 4038 4039 3990
4 3990 4039 4040 3991
4 3991 4040 4041 3992
4 3992 4041 4042 3993
4 3993 4042 4043 3994
4 3994 4043 4044 3995
4 3995 4044 4045 3996
4 3996 4045 4046 3997
4 3997 4046 4047 3998
4 3998 4047 4048 3999
4 3999 4048 4049 4000
4 4000 4049 4050 4001
4 4001 4050 4051 4002
4 4002 4051 4052 4003
4 4003 4052 4053 4004
4 4004 4053 4054 4005
4 4005 4054 4055 4006
4 4006 4055 4056 4007
4 4007 4056 4057 4008
4 4008 4057 4058 4009
4 4009 4058 4059 4010
4 4010 4059 4060 4011
4 4011 4060 4061 4012
4 4012 4061 4062 4013
4 4013 4062 4063 4014
4 4014 4063 4064 4015
4 4015 4064 4065 4016
4 4016 4065 4066 4017
4 4017 4066 4067 4018
4 4018 4067 4068 4019
4 4019 4068 4069 4020
4 4020 4069 4070 4021
4 4021 4070 4071 4022
4 4022 4071 4072 4023
4 4023 4072 174 175
4 80 81 4073 4024
4 4024 4073 4074 4025
4 4025 4074 4075 4026
4 4026 4075 4076 4027
4 4027 4076 4077 4028
4 4028 4077 4078 4029
4 4029 4078 4079 4030
4 4030 4079 4080 4031
4 4031 4080 4081 4032
4 4032 4081 4082 4033
4 4033 4082 4083 4034
4 4034 4083 4084 4035
4 4035 4084 4085 4036
4 4036 4085 4086 4037
4 4037 4086 4087 4038
4 4038 4087 4088 4039
4 4039 4088 4089 4040
4 4040 4089 4090 4041
4 4041 4090 4091 4042
4 4042 4091 4092 4043
4 4043 4092 4093 4044
4 4044 4093 4094 4045
4 4045 4094 4095 4046
4 4046 4095 4096 4047
4 4047 4096 4097 4048
4 4048 4097 4098 4049
4 4049 4098 4099 4050
4 4050 4099 4100 4051
4 4051 4100 4101 4052
4 4052 4101 4102 4053
4 4053 4102 4103 4054
4 4054 4103 4104 4055
4 4055 4104 4105 4056
4 4056 4105 4106 4057
4 4057 4106 4107 4058
4 4058 4107 4108 4059
4 4059 4108 4109 4060
4 4060 4109 4110 4061
4 4061 4110 4111 4062
4 4062 4111 4112 4063
4 4063 4112 4113 4064
4 4064 4113 4114 4065
4 4065 4114 4115 4066
4 4066 4115 4116 4067
4 4067 4116 4117 4068
4 4068 4117 4118 4069
4 4069 4118 4119 4070
4 4070 4119 4120 4071
4 4071 4120 4121 4072
4 4072 4121 173 174
4 81 82 4122 4073
4 4073 4122 4123 4074
4 4074 4123 4124 4075
4 4075 4124 4125 4076
4 4076 4125 4126 4077
4 4077 4126 4127 4078
4 4078 4127 4128 4079
4 4079 4128 4129 4080
4 4080 4129 4130 4081
4 4081 4130 4131 4082
4 4082 4131 4132 4083
4 4083 4132 4133 4084
4 4084 4133 4134 4085
4 4085 4134 4135 4086
4 4086 4135 4136 4087
4 4087 4136 4137 4088
4 4088 4137 4138 4089
4 4089 4138 4139 4090
4 4090 4139 4140 4091
4 4091 4140 4141 4092
4 4092 4141 4142 4093
4 4093 4142 4143 4094
4 4094 4143 4144 4095
4 4095 4144 4145 4096
4 4096 4145 4146 4097
4 4097 4146 4147 4098
4 4098 4147 4148 4099
4 4099 4148 4149 4100
4 4100 4149 4150 4101
4 4101 4150 4151 4102
4 4102 4151 4152 4103
4 4103 4152 4153 4104
4 4104 4153 4154 4105
4 4105 4154 4155 4106
4 4106 4155 4156 4107
4 4107 4156 4157 4108
4 4108 4157 4158 4109
4 4109 4158 4159 4110
4 4110 4159 4160 4111
4 4111 4160 4161 4112
4 4112 4161 4162 4113
4 4113 4162 4163 4114
4 4114 4163 4164 4115
4 4115 4164 4165 4116
4 4116 4165 4166 4117
4 4117 4166 4167 4118
4 4118 4167 4168 4119
4 4119 4168 4169 4120
4 4120 4169 4170 4121
4 4121 4170 172 173
4 82 83 4171 4122
4 4122 4171 4172 4123
4 4123 4172 4173 4124
4 4124 4173 4174 4125
4 4125 4174 4175 4126
4 4126 4175 4176 4127
4 4127 4176 4177 4128
4 4128 4177 4178 4129
4 4129 4178 4179 4130
4 4130 4179 4180 4131
4 4131 4180 4181 4132
4 4132 4181 4182 4133
4 4133 4182 4183 4134
4 4134 4183 4184 4135
4 4135 4184 4185 4136
4 4136 4185 4186 4137
4 4137 4186 4187 4138
4 4138 4187 4188 4139
4 4139 4188 4189 4140
4 4140 4189 4190 4141
4 4141 4190 4191 4142
4 4142 4191 4192 4143
4 4143 4192 4193 4144
4 4144 4193 4194 4145
4 4145 4194 4195 4146
4 4146 4195 4196 4147
4 4147 4196 4197 4148
4 4148 4197 4198 4149
4 4149 4198 4199 4150
4 4150 4199 4200 4151
4 4151 4200 4201 4152
4 4152 4201 4202 4153
4 4153 4202 4203 4154
4 4154 4203 4204 4155
4 4155 4204 4205 4156
4 4156 4205 4206 4157
4 4157 4206 4207 4158
4 4158 4207 4208 4159
4 4159 4208 4209 4160
4 4160 4209 4210 4161
4 4161 4210 4211 4162
4 4162 4211 4212 4163
4 4163 4212 4213 4164
4 4164 4213 4214 4165
4 4165 4214 4215 4166
4 4166 4215 4216 4167
4 4167 4216 4217 4168
4 4168 4217 4218 4169
4 4169 4218 4219 4170
4 4170 4219 171 172
4 83 84 4220 4171
4 4171 4220 4221 4172
4 4172 4221 4222 4173
4 4173 4222 4223 4174
4 4174 4223 4224 4175
4 4175 4224 4225 4176
4 4176 4225 4226 4177
4 4177 4226 4227 4178
4 4178 4227 4228 4179
4 4179 4228 4229 4180
4 4180 4229 4230 4181
4 4181 4230 4231 4182
4 4182 4231 4232 4183
4 4183 4232 4233 4184
4 4184 4233 4234 4185
4 4185 4234 4235 4186
4 4186 4235 4236 4187
4 4187 4236 4237 4188
4 4188 4237 4238 4189
4 4189 4238 4239 4190
4 4190 4239 4240 4191
4 4191 4240 4241 4192
4 4192 4241 4242 4193
4 4193 4242 4243 4194
4 4194 4243 4244 4195
4 4195 4244 4245 4196
4 4196 4245 4246 4197
4 4197 4246 4247 4198
4 4198 4247 4248 4199
4 4199 4248 4249 4200
4 4200 4249 4250 4201
4 4201 4250 4251 4202
4 4202 4251 4252 4203
4 4203 4252 4253 4204
4 4204 4253 4254 4205
4 4205 4254 4255 4206
4 4206 4255 4256 4207
4 4207 4256 4257 4208
4 4208 4257 4258 4209
4 4209 4258 4259 4210
4 4210 4259 4260 4211
4 4211 4260 4261 4212
4 4212 4261 4262 4213
4 4213 4262 4263 4214
4 4214 4263 4264 4215
4 4215 4264 4265 4216
4 4216 4265 4266 4217
4 4217 4266 4267 4218
4 4218 4267 4268 4219
4 4219 4268 170 171
4 84 85 4269 4220
4 4220 4269 4270 4221
4 4221 4270 4271 4222
4 4222 4271 4272 4223
4 4223 4272 4273 4224
4 4224 4273 4274 4225
4 4225 4274 4275 4226
4 4226 4275 4276 4227
4 4227 4276 4277 4228
4 4228 4277 4278 4229
4 4229 4278 4279 4230
4 4230 4279 4280 4231
4 4231 4280 4281 4232
4 4232 4281 4282 4233
4 4233 4282 4283 4234
4 4234 4283 4284 4235
4 4235 4284 4285 4236
4 4236 4285 4286 4237
4 4237 4286 4287 4238
4 4238 4287 4288 4239
4 4239 4288 4289 4240
4 4240 4289 4290 4241
4 4241 4290 4291 4242
4 4242 4291 4292 4243
4 4243 4292 4293 4244
4 4244 4293 4294 4245
4 4245 4294 4295 4246
4 4246 4295 4296 4247
4 4247 4296 4297 4248
4 4248 4297 4298 4249
4 4249 4298 4299 4250
4 4250 4299 4300 4251
4 4251 4300 4301 4252
4 4252 4301 4302 4253
4 4253 4302 4303 4254
4 4254 4303 4304 4255
4 4255 4304 4305 4256
4 4256 4305 4306 4257
4 4257 4306 4307 4258
4 4258 4307 4308 4259
4 4259 4308 4309 4260
4 4260 4309 4310 4261
4 4261 4310 4311 4262
4 4262 4311 4312 4263
4 4263 4312 4313 4264
4 4264 4313 4314 4265
4 4265 4314 4315 4266
4 4266 4315 4316 4267
4 4267 4316 4317 4268
4 4268 4317 169 170
4 85 86 4318 4269
4 4269 4318 4319 4270
4 4270 4319 4320 4271
4 4271 4320 4321 4272
4 4272 4321 4322 4273
4 4273 4322 4323 4274
4 4274 4323 4324 4275
4 4275 4324 4325 4276
4 4276 4325 4326 4277
4 4277 4326 4327 4278
4 4278 4327 4328 4279
4 4279 4328 4329 4280
4 4280 4329 4330 4281
4 4281 4330 4331 4282
4 4282 4331 4332 4283
4 4283 4332 4333 4284
4 4284 4333 4334 4285
4 4285 4334 4335 4286
4 4286 4335 4336 4287
4 4287 4336 4337 4288
4 4288 4337 4338 4289
4 4289 4338 4339 4290
4 4290 4339 4340 4291
4 4291 4340 4341 4292
4 4292 4341 4342 4293
4 4293 4342 4343 4294
4 4294 4343 4344 4295
4 4295 4344 4345 4296
4 4296 4345 4346 4297
4 4297 4346 4347 4298
4 4298 4347 4348 4299
4 4299 4348 4349 4300
4 4300 4349 4350 4301
4 4301 4350 4351 4302
4 4302 4351 4352 4303
4 4303 4352 4353 4304
4 4304 4353 4354 4305
4 4305 4354 4355 4306
4 4306 4355 4356 4307
4 4307 4356 4357 4308
4 4308 4357 4358 4309
4 4309 4358 4359 4310
4 4310 4359 4360 4311
4 4311 4360 4361 4312
4 4312 4361 4362 4313
4 4313 4362 4363 4314
4 4314 4363 4364 4315
4 4315 4364 4365 4316
4 4316 4365 4366 4317
4 4317 4366 168 169
4 86 87 4367 4318
4 4318 4367 4368 4319
4 4319 4368 4369 4320
4 4320 4369 4370 4321
4 4321 4370 4371 4322
4 4322 4371 4372 4323
4 4323 4372 4373 4324
4 4324 4373 4374 4325
4 4325 4374 4375 4326
4 4326 4375 4376 4327
4 4327 4376 4377 4328
4 4328 4377 4378 4329
4 4329 4378 4379 4330
4 4330 4379 4380 4331
4 4331 4380 4381 4332
4 4332 4381 4382 4333
4 4333 4382 4383 4334
4 4334 4383 4384 4335
4 4335 4384 4385 4336
4 4336 4385 4386 4337
4 4337 4386 4387 4338
4 4338 4387 4388 4339
4 4339 4388 4389 4340
4 4340 4389 4390 4341
4 4341 4390 4391 4342
4 4342 4391 4392 4343
4 4343 4392 4393 4344
4 4344 4393 4394 4345
4 4345 4394 4395 4346
4 4346 4395 4396 4347
4 4347 4396 4397 4348
4 4348 4397 4398 4349
4 4349 4398 4399 4350
4 4350 4399 4400 4351
4 4351 4400 4401 4352
4 4352 4401 4402 4353
4 4353 4402 4403 4354
4 4354 4403 4404 4355
4 4355 4404 4405 4356
4 4356 4405 4406 4357
4 4357 4406 4407 4358
4 4358 4407 4408 4359
4 4359 4408 4409 4360
4 4360 4409 4410 4361
4 4361 4410 4411 4362
4 4362 4411 4412 4363
4 4363 4412 4413 4364
4 4364 4413 4414 4365
4 4365 4414 4415 4366
4 4366 4415 167 168
4 87 88 4416 4367
4 4367 4416 4417 4368
4 4368 4417 4418 4369
4 4369 4418 4419 4370
4 4370 4419 4420 4371
4 4371 4420 4421 4372
4 4372 4421 4422 4373
4 4373 4422 4423 4374
4 4374 4423 4424 4375
4 4375 4424 4425 4376
4 4376 4425 4426 4377
4 4377 4426 4427 4378
4 4378 4427 4428 4379
4 4379 4428 4429 4380
4 4380 4429 4430 4381
4 4381 4430 4431 4382
4 4382 4431 4432 4383
4 4383 4432 4433 4384
4 4384 4433 4434 4385
4 4385 4434 4435 4386
4 4386 4435 4436 4387
4 4387 4436 4437 4388
4 4388 4437 4438 4389
4 4389 4438 4439 4390
4 4390 4439 4440 4391
4 4391 4440 4441 4392
4 4392 4441 4442 4393
4 4393 4442 4443 4394
4 4394 4443 4444 4395
4 4395 4444 4445 4396
4 4396 4445 4446 4397
4 4397 4446 4447 4398
4 4398 4447 4448 4399
4 4399 4448 4449 4400
4 4400 4449 4450 4401
4 4401 4450 4451 4402
4 4402 4451 4452 4403
4 4403 4452 4453 4404
4 4404 4453 4454 4405
4 4405 4454 4455 4406
4 4406 4455 4456 4407
4 4407 4456 4457 4408
4 4408 4457 4458 4409
4 4409 4458 4459 4410
4 4410 4459 4460 4411
4 4411 4460 4461 4412
4 4412 4461 4462 4413
4 4413 4462 4463 4414
4 4414 4463 4464 4415
4 4415 4464 166 167
4 88 89 4465 4416
4 4416 4465 4466 4417
4 4417 4466 4467 4418
4 4418 4467 4468 4419
4 4419 4468 4469 4420
4 4420 4469 4470 4421
4 4421 4470 4471 4422
4 4422 4471 4472 4423
4 4423 4472 4473 4424
4 4424 4473 4474 4425
4 4425 4474 4475 4426
4 4426 4475 4476 4427
4 4427 4476 4477 4428
4 4428 4477 4478 4429
4 4429 4478 4479 4430
4 4430 4479 4480 4431
4 4431 4480 4481 4432
4 4432 4481 4482 4433
4 4433 4482 4483 4434
4 4434 4483 4484 4435
4 4435 4484 4485 4436
4 4436 4485 4486 4437
4 4437 4486 4487 4438
4 4438 4487 4488 4439
4 4439 4488 4489 4440
4 4440 4489 4490 4441
4 4441 4490 4491 4442
4 4442 4491 4492 4443
4 4443 4492 4493 4444
4 4444 4493 4494 4445
4 4445 4494 4495 4446
4 4446 4495 4496 4447
4 4447 4496 4497 4448
4 4448 4497 4498 4449
4 4449 4498 4499 4450
4 4450 4499 4500 4451
4 4451 4500 4501 4452
4 4452 4501 4502 4453
4 4453 4502 4503 4454
4 4454 4503 4504 4455
4 4455 4504 4505 4456
4 4456 4505 4506 4457
4 4457 4506 4507 4458
4 4458 4507 4508 4459
4 4459 4508 4509 4460
4 4460 4509 4510 4461
4 4461 4510 4511 4462
4 4462 4511 4512 4463
4 4463 4512 4513 4464
4 4464 4513 165 166
4 89 90 4514 4465
4 4465 4514 4515 4466
4 4466 4515 4516 4467
4 4467 4516 4517 4468
4 4468 4517 4518 4469
4 4469 4518 4519 4470
4 4470 4519 4520 4471
4 4471 4520 4521 4472
4 4472 4521 4522 4473
4 4473 4522 4523 4474
4 4474 4523 4524 4475
4 4475 4524 4525 4476
4 4476 4525 4526 4477
4 4477 4526 4527 4478
4 4478 4527 4528 4479
4 4479 4528 4529 4480
4 4480 4529 4530 4481
4 4481 4530 4531 4482
4 4482 4531 4532 4483
4 4483 4532 4533 4484
4 4484 4533 4534 4485
4 4485 4534 4535 4486
4 4486 4535 4536 4487
4 4487 4536 4537 4488
4 4488 4537 4538 4489
4 4489 4538 4539 4490
4 4490 4539 4540 4491
4 4491 4540 4541 4492
4 4492 4541 4542 4493
4 4493 4542 4543 4494
4 4494 4543 4544 4495
4 4495 4544 4545 4496
4 4496 4545 4546 4497
4 4497 4546 4547 4498
4 4498 4547 4548 4499
4 4499 4548 4549 4500
4 4500 4549 4550 4501
4 4501 4550 4551 4502
4 4502 4551 4552 4503
4 4503 4552 4553 4504
4 4504 4553 4554 4505
4 4505 4554 4555 4506
4 4506 4555 4556 4507
4 4507 4556 4557 4508
4 4508 4557 4558 4509
4 4509 4558 4559 4510
4 4510 4559 4560 4511
4 4511 4560 4561 4512
4 4512 4561 4562 4513
4 4513 4562 164 165
4 90 91 4563 4514
4 4514 4563 4564 4515
4 4515 4564 4565 4516
4 4516 4565 4566 4517
4 4517 4566 4567 4518
4 4518 4567 4568 4519
4 4519 4568 4569 4520
4 4520 4569 4570 4521
4 4521 4570 4571 4522
4 4522 4571 4572 4523
4 4523 4572 4573 4524
4 4524 4573 4574 4525
4 4525 4574 4575 4526
4 4526 4575 4576 4527
4 4527 4576 4577 4528
4 4528 4577 4578 4529
4 4529 4578 4579 4530
4 4530 4579 4580 4531
4 4531 4580 4581 4532
4 4532 4581 4582 4533
4 4533 4582 4583 4534
4 4534 4583 4584 4535
4 4535 4584 4585 4536
4 4536 4585 4586 4537
4 4537 4586 4587 4538
4 4538 4587 4588 4539
4 4539 4588 4589 4540
4 4540 4589 4590 4541
4 4541 4590 4591 4542
4 4542 4591 4592 4543
4 4543 4592 4593 4544
4 4544 4593 4594 4545
4 4545 4594 4595 4546
4 4546 4595 4596 4547
4 4547 4596 4597 4548
4 4548 4597 4598 4549
4 4549 4598 4599 4550
4 4550 4599 4600 4551
4 4551 4600 4601 4552
4 4552 4601 4602 4553
4 4553 4602 4603 4554
4 4554 4603 4604 4555
4 4555 4604 4605 4556
4 4556 4605 4606 4557
4 4557 4606 4607 4558
4 4558 4607 4608 4559
4 4559 4608 4609 4560
4 4560 4609 4610 4561
4 4561 4610 4611 4562
4 4562 4611 163 164
4 91 92 4612 4563
4 4563 4612 4613 4564
4 4564 4613 4614 4565
4 4565 4614 4615 4566
4 4566 4615 4616 4567
4 4567 4616 4617 4568
4 4568 4617 4618 4569
4 4569 4618 4619 4570
4 4570 4619 4620 4571
4 4571 4620 4621 4572
4 4572 4621 4622 4573
4 4573 4622 4623 4574
4 4574 4623 4624 4575
4 4575 4624 4625 4576
4 4576 4625 4626 4577
4 4577 4626 4627 4578
4 4578 4627 4628 4579
4 4579 4628 4629 4580
4 4580 4629 4630 4581
4 4581 4630 4631 4582
4 4582 4631 4632 4583
4 4583 4632 4633 4584
4 4584 4633 4634 4585
4 4585 4634 4635 4586
4 4586 4635 4636 4587
4 4587 4636 4637 4588
4 4588 4637 4638 4589
4 4589 4638 4639 4590
4 4590 4639 4640 4591
4 4591 4640 4641 4592
4 4592 4641 4642 4593
4 4593 4642 4643 4594
4 4594 4643 4644 4595
4 4595 4644 4645 4596
4 4596 4645 4646 4597
4 4597 4646 4647 4598
4 4598 4647 4648 4599
4 4599 4648 4649 4600
4 4600 4649 4650 4601
4 4601 4650 4651 4602
4 4602 4651 4652 4603
4 4603 4652 4653 4604
4 4604 4653 4654 4605
4 4605 4654 4655 4606
4 4606 4655 4656 4607
4 4607 4656 4657 4608
4 4608 4657 4658 4609
4 4609 4658 4659 4610
4 4610 4659 4660 4611
4 4611 4660 162 163
4 92 93 4661 4612
4 4612 4661 4662 4613
4 4613 4662 4663 4614
4 4614 4663 4664 4615
4 4615 4664 4665 4616
4 4616 4665 4666 4617
4 4617 4666 4667 4618
4 4618 4667 4668 4619
4 4619 4668 4669 4620
4 4620 4669 4670 4621
4 4621 4670 4671 4622
4 4622 4671 4672 4623
4 4623 4672 4673 4624
4 4624 4673 4674 4625
4 4625 4674 4675 4626
4 4626 4675 4676 4627
4 4627 4676 4677 4628
4 4628 4677 4678 4629
4 4629 4678 4679 4630
4 4630 4679 4680 4631
4 4631 4680 4681 4632
4 4632 4681 4682 4633
4 4633 4682 4683 4634
4 4634 4683 4684 4635
4 4635 4684 4685 4636
4 4636 4685 4686 4637
4 4637 4686 4687 4638
4 4638 4687 4688 4639
4 4639 4688 4689 4640
4 4640 4689 4690 4641
4 4641 4690 4691 4642
4 4642 4691 4692 4643
4 4643 4692 4693 4644
4 4644 4693 4694 4645
4 4645 4694 4695 4646
4 4646 4695 4696 4647
4 4647 4696 4697 4648
4 4648 4697 4698 4649
4 4649 4698 4699 4650
4 4650 4699 4700 4651
4 4651 4700 4701 4652
4 4652 4701 4702 4653
4 4653 4702 4703 4654
4 4654 4703 4704 4655
4 4655 4704 4705 4656
4 4656 4705 4706 4657
4 4657 4706 4707 4658
4 4658 4707 4708 4659
4 4659 4708 4709 4660
4 4660 4709 161 162
4 93 94 4710 4661
4 4661 4710 4711 4662
4 4662 4711 4712 4663
4 4663 4712 4713 4664
4 4664 4713 4714 4665
4 4665 4714 4715 4666
4 4666 4715 4716 4667
4 4667 4716 4717 4668
4 4668 4717 4718 4669
4 4669 4718 4719 4670
4 4670 4719 4720 4671
4 4671 4720 4721 4672
4 4672 4721 4722 4673
4 4673 4722 4723 4674
4 4674 4723 4724 4675
4 4675 4724 4725 4676
4 4676 4725 4726 4677
4 4677 4726 4727 4678
4 4678 4727 4728 4679
4 4679 4728 4729 4680
4 4680 4729 4730 4681
4 4681 4730 4731 4682
4 4682 4731 4732 4683
4 4683 4732 4733 4684
4 4684 4733 4734 4685
4 4685 4734 4735 4686
4 4686 4735 4736 4687
4 4687 4736 4737 4688
4 4688 4737 4738 4689
4 4689 4738 4739 4690
4 4690 4739 4740 4691
4 4691 4740 4741 4692
4 4692 4741 4742 4693
4 4693 4742 4743 4694
4 4694 4743 4744 4695
4 4695 4744 4745 4696
4 4696 4745 4746 4697
4 4697 4746 4747 4698
4 4698 4747 4748 4699
4 4699 4748 4749 4700
4 4700 4749 4750 4701
4 4701 4750 4751 4702
4 4702 4751 4752 4703
4 4703 4752 4753 4704
4 4704 4753 4754 4705
4 4705 4754 4755 4706
4 4706 4755 4756 4707
4 4707 4756 4757 4708
4 4708 4757 4758 4709
4 4709 4758 160 161
4 94 95 4759 4710
4 4710 4759 4760 4711
4 4711 4760 4761 4712
4 4712 4761 4762 4713
4 4713 4762 4763 4714
4 4714 4763 4764 4715
4 4715 4764 4765 4716
4 4716 4765 4766 4717
4 4717 4766 4767 4718
4 4718 4767 4768 4719
4 4719 4768 4769 4720
4 4720 4769 4770 4721
4 4721 4770 4771 4722
4 4722 4771 4772 4723
4 4723 4772 4773 4724
4 4724 4773 4774 4725
4 4725 4774 4775 4726
4 4726 4775 4776 4727
4 4727 4776 4777 4728
4 4728 4777 4778 4729
4 4729 4778 4779 4730
4 4730 4779 4780 4731
4 4731 4780 4781 4732
4 4732 4781 4782 4733
4 4733 4782 4783 4734
4 4734 4783 4784 4735
4 4735 4784 4785 4736
4 4736 4785 4786 4737
4 4737 4786 4787 4738
4 4738 4787 4788 4739
4 4739 4788 4789 4740
4 4740 4789 4790 4741
4 4741 4790 4791 4742
4 4742 4791 4792 4743
4 4743 4792 4793 4744
4 4744 4793 4794 4745
4 4745 4794 4795 4746
4 4746 4795 4796 4747
4 4747 4796 4797 4748
4 4748 4797 4798 4749
4 4749 4798 4799 4750
4 4750 4799 4800 4751
4 4751 4800 4801 4752
4 4752 4801 4802 4753
4 4753 4802 4803 4754
4 4754 4803 4804 4755
4 4755 4804 4805 4756
4 4756 4805 4806 4757
4 4757 4806 4807 4758
4 4758 4807 159 160
4 95 96 4808 4759
4 4759 4808 4809 4760
4 4760 4809 4810 4761
4 4761 4810 4811 4762
4 4762 4811 4812 4763
4 4763 4812 4813 4764
4 4764 4813 4814 4765
4 4765 4814 4815 4766
4 4766 4815 4816 4767
4 4767 4816 4817 4768
4 4768 4817 4818 4769
4 4769 4818 4819 4770
4 4770 4819 4820 4771
4 4771 4820 4821 4772
4 4772 4821 4822 4773
4 4773 4822 4823 4774
4 4774 4823 4824 4775
4 4775 4824 4825 4776
4 4776 4825 4826 4777
4 4777 4826 4827 4778
4 4778 4827 4828 4779
4 4779 4828 4829 4780
4 4780 4829 4830 4781
4 4781 4830 4831 4782
4 4782 4831 4832 4783
4 4783 4832 4833 4784
4 4784 4833 4834 4785
4 4785 4834 4835 4786
4 4786 4835 4836 4787
4 4787 4836 4837 4788
4 4788 4837 4838 4789
4 4789 4838 4839 4790
4 4790 4839 4840 4791
4 4791 4840 4841 4792
4 4792 4841 4842 4793
4 4793 4842 4843 4794
4 4794 4843 4844 4795
4 4795 4844 4845 4796
4 4796 4845 4846 4797
4 4797 4846 4847 4798
4 4798 4847 4848 4799
4 4799 4848 4849 4800
4 4800 4849 4850 4801
4 4801 4850 4851 4802
4 4802 4851 4852 4803
4 4803 4852 4853 4804
4 4804 4853 4854 4805
4 4805 4854 4855 4806
4 4806 4855 4856 4807
4 4807 4856 158 159
4 96 97 4857 4808
4 4808 4857 4858 4809
4 4809 4858 4859 4810
4 4810 4859 4860 4811
4 4811 4860 4861 4812
4 4812 4861 4862 4813
4 4813 4862 4863 4814
4 4814 4863 4864 4815
4 4815 4864 4865 4816
4 4816 4865 4866 4817
4 4817 4866 4867 4818
4 4818 4867 4868 4819
4 4819 4868 4869 4820
4 4820 4869 4870 4821
4 4821 4870 4871 4822
4 4822 4871 4872 4823
4 4823 4872 4873 4824
4 4824 4873 4874 4825
4 4825 4874 4875 4826
4 4826 4875 4876 4827
4 4827 4876 4877 4828
4 4828 4877 4878 4829
4 4829 4878 4879 4830
4 4830 4879 4880 4831
4 4831 4880 4881 4832
4 4832 4881 4882 4833
4 4833 4882 4883 4834
4 4834 4883 4884 4835
4 4835 4884 4885 4836
4 4836 4885 4886 4837
4 4837 4886 4887 4838
4 4838 4887 4888 4839
4 4839 4888 4889 4840
4 4840 4889 4890 4841
4 4841 4890 4891 4842
4 4842 4891 4892 4843
4 4843 4892 4893 4844
4 4844 4893 4894 4845
4 4845 4894 4895 4846
4 4846 4895 4896 4847
4 4847 4896 4897 4848
4 4848 4897 4898 4849
4 4849 4898 4899 4850
4 4850 4899 4900 4851
4 4851 4900 4901 4852
4 4852 4901 4902 4853
4 4853 4902 4903 4854
4 4854 4903 4904 4855
4 4855 4904 4905 4856
4 4856 4905 157 158
4 97 98 4906 4857
4 4857 4906 4907 4858
4 4858 4907 4908 4859
4 4859 4908 4909 4860
4 4860 4909 4910 4861
4 4861 4910 4911 4862
4 4862 4911 4912 4863
4 4863 4912 4913 4864
4 4864 4913 4914 4865
4 4865 4914 4915 4866
4 4866 4915 4916 4867
4 4867 4916 4917 4868
4 4868 4917 4918 4869
4 4869 4918 4919 4870
4 4870 4919 4920 4871
4 4871 4920 4921 4872
4 4872 4921 4922 4873
4 4873 4922 4923 4874
4 4874 4923 4924 4875
4 4875 4924 4925 4876
4 4876 4925 4926 4877
4 4877 4926 4927 4878
4 4878 4927 4928 4879
4 4879 4928 4929 4880
4 4880 4929 4930 4881
4 4881 4930 4931 4882
4 4882 4931 4932 4883
4 4883 4932 4933 4884
4 4884 4933 4934 4885
4 4885 4934 4935 4886
4 4886 4935 4936 4887
4 4887 4936 4937 4888
4 4888 4937 4938 4889
4 4889 4938 4939 4890
4 4890 4939 4940 4891
4 4891 4940 4941 4892
4 4892 4941 4942 4893
4 4893 4942 4943 4894
4 4894 4943 4944 4895
4 4895 4944 4945 4896
4 4896 4945 4946 4897
4 4897 4946 4947 4898
4 4898 4947 4948 4899
4 4899 4948 4949 4900
4 4900 4949 4950 4901
4 4901 4950 4951 4902
4 4902 4951 4952 4903
4 4903 4952 4953 4904
4 4904 4953 4954 4905
4 4905 4954 156 157
4 98 99 4955 4906
4 4906 4955 4956 4907
4 4907 4956 4957 4908
4 4908 4957 4958 4909
4 4909 4958 4959 4910
4 4910 4959 4960 4911
4 4911 4960 4961 4912
4 4912 4961 4962 4913
4 4913 4962 4963 4914
4 4914 4963 4964 4915
4 4915 4964 4965 4916
4 4916 4965 4966 4917
4 4917 4966 4967 4918
4 4918 4967 4968 4919
4 4919 4968 4969 4920
4 4920 4969 4970 4921
4 4921 4970 4971 4922
4 4922 4971 4972 4923
4 4923 4972 4973 4924
4 4924 4973 4974 4925
4 4925 4974 4975 4926
4 4926 4975 4976 4927
4 4927 4976 4977 4928
4 4928 4977 4978 4929
4 4929 4978 4979 4930
4 4930 4979 4980 4931
4 4931 4980 4981 4932
4 4932 4981 4982 4933
4 4933 4982 4983 4934
4 4934 4983 4984 4935
4 4935 4984 4985 4936
4 4936 4985 4986 4937
4 4937 4986 4987 4938
4 4938 4987 4988 4939
4 4939 4988 4989 4940
4 4940 4989 4990 4941
4 4941 4990 4991 4942
4 4942 4991 4992 4943
4 4943 4992 4993 4944
4 4944 4993 4994 4945
4 4945 4994 4995 4946
4 4946 4995 4996 4947
4 4947 4996 4997 4948
4 4948 4997 4998 4949
4 4949 4998 4999 4950
4 4950 4999 5000 4951
4 4951 5000 5001 4952
4 4952 5001 5002 4953
4 4953 5002 5003 4954
4 4954 5003 155 156
4 99 100 5004 4955
4 4955 5004 5005 4956
4 4956 5005 5006 4957
4 4957 5006 5007 4958
4 4958 5007 5008 4959
4 4959 5008 5009 4960
4 4960 5009 5010 4961
4 4961 5010 5011 4962
4 4962 5011 5012 4963
4 4963 5012 5013 4964
4 4964 5013 5014 4965
4 4965 5014 5015 4966
4 4966 5015 5016 4967
4 4967 5016 5017 4968
4 4968 5017 5018 4969
4 4969 5018 5019 4970
4 4970 5019 5020 4971
4 4971 5020 5021 4972
4 4972 5021 5022 4973
4 4973 5022 5023 4974
4 4974 5023 5024 4975
4 4975 5024 5025 4976
4 4976 5025 5026 4977
4 4977 5026 5027 4978
4 4978 5027 5028 4979
4 4979 5028 5029 4980
4 4980 5029 5030 4981
4 4981 5030 5031 4982
4 4982 5031 5032 4983
4 4983 5032 5033 4984
4 4984 5033 5034 4985
4 4985 5034 5035 4986
4 4986 5035 5036 4987
4 4987 5036 5037 4988
4 4988 5037 5038 4989
4 4989 5038 5039 4990
4 4990 5039 5040 4991
4 4991 5040 5041 4992
4 4992 5041 5042 4993
4 4993 5042 5043 4994
4 4994 5043 5044 4995
4 4995 5044 5045 4996
4 4996 5045 5046 4997
4 4997 5046 5047 4998
4 4998 5047 5048 4999
4 4999 5048 5049 5000
4 5000 5049 5050 5001
4 5001 5050 5051 5002
4 5002 5051 5052 5003
4 5003 5052 154 155
4 100 101 5053 5004
4 5004 5053 5054 5005
4 5005 5054 5055 5006
4 5006 5055 5056 5007
4 5007 5056 5057 5008
4 5008 5057 5058 5009
4 5009 5058 5059 5010
4 5010 5059 5060 5011
4 5011 5060 5061 5012
4 5012 5061 5062 5013
4 5013 5062 5063 5014
4 5014 5063 5064 5015
4 5015 5064 5065 5016
4 5016 5065 5066 5017
4 5017 5066 5067 5018
4 5018 5067 5068 5019
4 5019 5068 5069 5020
4 5020 5069 5070 5021
4 5021 5070 5071 5022
4 5022 5071 5072 5023
4 5023 5072 5073 5024
4 5024 5073 5074 5025
4 5025 5074 5075 5026
4 5026 5075 5076 5027
4 5027 5076 5077 5028
4 5028 5077 5078 5029
4 5029 5078 5079 5030
4 5030 5079 5080 5031
4 5031 5080 5081 5032
4 5032 5081 5082 5033
4 5033 5082 5083 5034
4 5034 5083 5084 5035
4 5035 5084 5085 5036
4 5036 5085 5086 5037
4 5037 5086 5087 5038
4 5038 5087 5088 5039
4 5039 5088 5089 5040
4 5040 5089 5090 5041
4 5041 5090 5091 5042
4 5042 5091 5092 5043
4 5043 5092 5093 5044
4 5044 5093 5094 5045
4 5045 5094 5095 5046
4 5046 5095 5096 5047
4 5047 5096 5097 5048
4 5048 5097 5098 5049
4 5049 5098 5099 5050
4 5050 5099 5100 5051
4 5051 5100 5101 5052
4 5052 5101 153 154
4 101 102 5102 5053
4 5053 5102 5103 5054
4 5054 5103 5104 5055
4 5055 5104 5105 5056
4 5056 5105 5106 5057
4 5057 5106 5107 5058
4 5058 5107 5108 5059
4 5059 5108 5109 5060
4 5060 5109 5110 5061
4 5061 5110 5111 5062
4 5062 5111 5112 5063
4 5063 5112 5113 5064
4 5064 5113 5114 5065
4 5065 5114 5115 5066
4 5066 5115 5116 5067
4 5067 5116 5117 5068
4 5068 5117 5118 5069
4 5069 5118 5119 5070
4 5070 5119 5120 5071
4 5071 5120 5121 5072
4 5072 5121 5122 5073
4 5073 5122 5123 5074
4 5074 5123 5124 5075
4 5075 5124 5125 5076
4 5076 5125 5126 5077
4 5077 5126 5127 5078
4 5078 5127 5128 5079
4 5079 5128 5129 5080
4 5080 5129 5130 5081
4 5081 5130 5131 5082
4 5082 5131 5132 5083
4 5083 5132 5133 5084
4 5084 5133 5134 5085
4 5085 5134 5135 5086
4 5086 5135 5136 5087
4 5087 5136 5137 5088
4 5088 5137 5138 5089
4 5089 5138 5139 5090
4 5090 5139 5140 5091
4 5091 5140 5141 5092
4 5092 5141 5142 5093
4 5093 5142 5143 5094
4 5094 5143 5144 5095
4 5095 5144 5145 5096
4 5096 5145 5146 5097
4 5097 5146 5147 5098
4 5098 5147 5148 5099
4 5099 5148 5149 5100
4 5100 5149 5150 5101
4 5101 5150 152 153
4 102 1 103 5102
4 5102 103 104 5103
4 5103 104 105 5104
4 5104 105 106 5105
4 5105 106 107 5106
4 5106 107 108 5107
4 5107 108 109 5108
4 5108 109 110 5109
4 5109 110 111 5110
4 5110 111 112 5111
4 5111 112 113 5112
4 5112 113 114 5113
4 5113 114 115 5114
4 5114 115 116 5115
4 5115 116 117 5116
4 5116 117 118 5117
4 5117 118 119 5118
4 5118 119 120 5119
4 5119 120 121 5120
4 5120 121 122 5121
4 5121 122 123 5122
4 5122 123 124 5123
4 5123 124 125 5124
4 5124 125 126 5125
4 5125 126 127 5126
4 5126 127 128 5127
4 5127 128 129 5128
4 5128 129 130 5129
4 5129 130 131 5130
4 5130 131 132 5131
4 5131 132 133 5132
4 5132 133 134 5133
4 5133 134 135 5134
4 5134 135 136 5135
4 5135 136 137 5136
4 5136 137 138 5137
4 5137 138 139 5138
4 5138 139 140 5139
4 5139 140 141 5140
4 5140 141 142 5141
4 5141 142 143 5142
4 5142 143 144 5143
4 5143 144 145 5144
4 5144 145 146 5145
4 5145 146 147 5146
4 5146 147 148 5147
4 5147 148 149 5148
4 5148 149 150 5149
4 5149 150 151 5150
4 5150 151 2 152

CELL_TYPES 5000
9
9
9
9
9
9
9
9
9
9
9
9
9
9
9
9
9
9
9
9
9
9
9
9
9
9
9
9
9
9
9
9
9
9
9
9
9
9
9
9
9
9
9
9
9
9
9
9
9
9
9
9
9
9
9
9
9
9
9
9
9
9
9
9
9
9
9
9
9
9
9
9
9
9
9
9
9
9
9
9
9
9
9
9
9
9
9
9
9
9
9
9
9
9
9
9
9
9
9
9
9
9
9
9
9
9
9
9
9
9
9
9
9
9
9
9
9
9
9
9
9
9
9
9
9
9
9
9
9
9
9
9
9
9
9
9
9
9
9
9
9
9
9
9
9
9
9
9
9
9
9
9
9
9
9
9
9
9
9
9
9
9
9
9
9
9
9
9
9
9
9
9
9
9
9
9
9
9
9
9
9
9
9
9
9
9
9
9
9
9
9
9
9
9
9
9
9
9
9
9
9
9
9
9
9
9
9
9
9
9
9
9
9
9
9
9
9
9
9
9
9
9
9
9
9
9
9
9
9
9
9
9
9
9
9
9
9
9
9
9
9
9
9
9
9
9
9
9
9
9
9
9
9
9
9
9
9
9
9
9
9
9
9
9
9
9
9
9
9
9
9
9
9
9
9
9
9
9
9
9
9
9
9
9
9
9
9
9
9
9
9
9
9
9
9
9
9
9
9
9
9
9
9
9
9
9
9
9
9
9
9
9
9
9
9
9
9
9
9
9
9
9
9
9
9
9
9
9
9
9
9
9
9
9
9
9
9
9
9
9
9
9
9
9
9
9
9
9
9
9
9
9
9
9
9
9
9
9
9
9
9
9
9
9
9
9
9
9
9
9
9
9
9
9
9
9
9
9
9
9
9
9
9
9
9
9
9
9
9
9
9
9
9
9
9
9
9
9
9
9
9
9
9
9
9
9
9
9
9
9
9
9
9
9
9
9
9
9
9
9
9
9
9
9
9
9
9
9
9
9
9
9
9
9
9
9
9
9
9
9
9
9
9
9
9
9
9
9
9
9
9
9
9
9
9
9
9
9
9
9
9
9
9
9
9
9
9
9
9
9
9
9
9
9
9
9
9
9
9
9
9
9
9
9
9
9
9
9
9
9
9
9
9
9
9
9
9
9
9
9
9
9
9
9
9
9
9
9
9
9
9
9
9
9
9
9
9
9
9
9
9
9
9
9
9
9
9
9
9
9
9
9
9
9
9
9
9
9
9
9
9
9
9
9
9
9
9
9
9
9
9
9
9
9
9
9
9
9
9
9
9
9
9
9
9
9
9
9
9
9
9
9
9
9
9
9
9
9
9
9
9
9
9
9
9
9
9
9
9
9
9
9
9
9
9
9
9
9
9
9
9
9
9
9
9
9
9
9
9
9
9
9
9
9
9
9
9
9
9
9
9
9
9
9
9
9
9
9
9
9
9
9
9
9
9
9
9
9
9
9
9
9
9
9
9
9
9
9
9
9
9
9
9
9
9
9
9
9
9
9
9
9
9
9
9
9
9
9
9
9
9
9
9
9
9
9
9
9
9
9
9
9
9
9
9
9
9
9
9
9
9
9
9
9
9
9
9
9
9
9
9
9
9
9
9
9
9
9
9
9
9
9
9
9
9
9
9
9
9
9
9
9
9
9
9
9
9
9
9
9
9
9
9
9
9
9
9
9
9
9
9
9
9
9
9
9
9
9
9
9
9
9
9
9
9
9
9
9
9
9
9
9
9
9
9
9
9
9
9
9
9
9
9
9
9
9
9
9
9
9
9
9
9
9
9
9
9
9
9
9
9
9
9
9
9
9
9
9
9
9
9
9
9
9
9
9
9
9
9
9
9
9
9
9
9
9
9
9
9
9
9
9
9
9
9
9
9
9
9
9
9
9
9
9
9
9
9
9
9
9
9
9
9
9
9
9
9
9
9
9
9
9
9
9
9
9
9
9
9
9
9
9
9
9
9
9
9
9
9
9
9
9
9
9
9
9
9
9
9
9
9
9
9
9
9
9
9
9
9
9
9
9
9
9
9
9
9
9
9
9
9
9
9
9
9
9
9
9
9
9
9
9
9
9
9
9
9
9
9
9
9
9
9
9
9
9
9
9
9
9
9
9
9
9
9
9
9
9
9
9
9
9
9
9
9
9
9
9
9
9
9
9
9
9
9
9
9
9
9
9
9
9
9
9
9
9
9
9
9
9
9
9
9
9
9
9
9
9
9
9
9
9
9
9
9
9
9
9
9
9
9
9
9
9
9
9
9
9
9
9
9
9
9
9
9
9
9
9
9
9
9
9
9
9
9
9
9
9
9
9
9
9
9
9
9
9
9
9
9
9
9
9
9
9
9
9
9
9
9
9
9
9
9
9
9
9
9
9
9
9
9
9
9
9
9
9
9
9
9
9
9
9
9
9
9
9
9
9
9
9
9
9
9
9
9
9
9
9
9
9
9
9
9
9
9
9
9
9
9
9
9
9
9
9
9
9
9
9
9
9
9
9
9
9
9
9
9
9
9
9
9
9
9
9
9
9
9
9
9
9
9
9
9
9
9
9
9
9
9
9
9
9
9
9
9
9
9
9
9
9
9
9
9
9
9
9
9
9
9
9
9
9
9
9
9
9
9
9
9
9
9
9
9
9
9
9
9
9
9
9
9
9
9
9
9
9
9
9
9
9
9
9
9
9
9
9
9
9
9
9
9
9
9
9
9
9
9
9
9
9
9
9
9
9
9
9
9
9
9
9
9
9
9
9
9
9
9
9
9
9
9
9
9
9
9
9
9
9
9
9
9
9
9
9
9
9
9
9
9
9
9
9
9
9
9
9
9
9
9
9
9
9
9
9
9
9
9
9
9
9
9
9
9
9
9
9
9
9
9
9
9
9
9
9
9
9
9
9
9
9
9
9
9
9
9
9
9
9
9
9
9
9
9
9
9
9
9
9
9
9
9
9
9
9
9
9
9
9
9
9
9
9
9
9
9
9
9
9
9
9
9
9
9
9
9
9
9
9
9
9
9
9
9
9
9
9
9
9
9
9
9
9
9
9
9
9
9
9
9
9
9
9
9
9
9
9
9
9
9
9
9
9
9
9
9
9
9
9
9
9
9
9
9
9
9
9
9
9
9
9
9
9
9
9
9
9
9
9
9
9
9
9
9
9
9
9
9
9
9
9
9
9
9
9
9
9
9
9
9
9
9
9
9
9
9
9
9
9
9
9
9
9
9
9
9
9
9
9
9
9
9
9
9
9
9
9
9
9
9
9
9
9
9
9
9
9
9
9
9
9
9
9
9
9
9
9
9
9
9
9
9
9
9
9
9
9
9
9
9
9
9
9
9
9
9
9
9
9
9
9
9
9
9
9
9
9
9
9
9
9
9
9
9
9
9
9
9
9
9
9
9
9
9
9
9
9
9
9
9
9
9
9
9
9
9
9
9
9
9
9
9
9
9
9
9
9
9
9
9
9
9
9
9
9
9
9
9
9
9
9
9
9
9
9
9
9
9
9
9
9
9
9
9
9
9
9
9
9
9
9
9
9
9
9
9
9
9
9
9
9
9
9
9
9
9
9
9
9
9
9
9
9
9
9
9
9
9
9
9
9
9
9
9
9
9
9
9
9
9
9
9
9
9
9
9
9
9
9
9
9
9
9
9
9
9
9
9
9
9
9
9
9
9
9
9
9
9
9
9
9
9
9
9
9
9
9
9
9
9
9
9
9
9
9
9
9
9
9
9
9
9
9
9
9
9
9
9
9
9
9
9
9
9
9
9
9
9
9
9
9
9
9
9
9
9
9
9
9
9
9
9
9
9
9
9
9
9
9
9
9
9
9
9
9
9
9
9
9
9
9
9
9
9
9
9
9
9
9
9
9
9
9
9
9
9
9
9
9
9
9
9
9
9
9
9
9
9
9
9
9
9
9
9
9
9
9
9
9
9
9
9
9
9
9
9
9
9
9
9
9
9
9
9
9
9
9
9
9
9
9
9
9
9
9
9
9
9
9
9
9
9
9
9
9
9
9
9
9
9
9
9
9
9
9
9
9
9
9
9
9
9
9
9
9
9
9
9
9
9
9
9
9
9
9
9
9
9
9
9
9
9
9
9
9
9
9
9
9
9
9
9
9
9
9
9
9
9
9
9
9
9
9
9
9
9
9
9
9
9
9
9
9
9
9
9
9
9
9
9
9
9
9
9
9
9
9
9
9
9
9
9
9
9
9
9
9
9
9
9
9
9
9
9
9
9
9
9
9
9
9
9
9
9
9
9
9
9
9
9
9
9
9
9
9
9
9
9
9
9
9
9
9
9
9
9
9
9
9
9
9
9
9
9
9
9
9
9
9
9
9
9
9
9
9
9
9
9
9
9
9
9
9
9
9
9
9
9
9
9
9
9
9
9
9
9
9
9
9
9
9
9
9
9
9
9
9
9
9
9
9
9
9
9
9
9
9
9
9
9
9
9
9
9
9
9
9
9
9
9
9
9
9
9
9
9
9
9
9
9
9
9
9
9
9
9
9
9
9
9
9
9
9
9
9
9
9
9
9
9
9
9
9
9
9
9
9
9
9
9
9
9
9
9
9
9
9
9
9
9
9
9
9
9
9
9
9
9
9
9
9
9
9
9
9
9
9
9
9
9
9
9
9
9
9
9
9
9
9
9
9
9
9
9
9
9
9
9
9
9
9
9
9
9
9
9
9
9
9
9
9
9
9
9
9
9
9
9
9
9
9
9
9
9
9
9
9
9
9
9
9
9
9
9
9
9
9
9
9
9
9
9
9
9
9
9
9
9
9
9
9
9
9
9
9
9
9
9
9
9
9
9
9
9
9
9
9
9
9
9
9
9
9
9
9
9
9
9
9
9
9
9
9
9
9
9
9
9
9
9
9
9
9
9
9
9
9
9
9
9
9
9
9
9
9
9
9
9
9
9
9
9
9
9
9
9
9
9
9
9
9
9
9
9
9
9
9
9
9
9
9
9
9
9
9
9
9
9
9
9
9
9
9
9
9
9
9
9
9
9
9
9
9
9
9
9
9
9
9
9
9
9
9
9
9
9
9
9
9
9
9
9
9
9
9
9
9
9
9
9
9
9
9
9
9
9
9
9
9
9
9
9
9
9
9
9
9
9
9
9
9
9
9
9
9
9
9
9
9
9
9
9
9
9
9
9
9
9
9
9
9
9
9
9
9
9
9
9
9
9
9
9
9
9
9
9
9
9
9
9
9
9
9
9
9
9
9
9
9
9
9
9
9
9
9
9
9
9
9
9
9
9
9
9
9
9
9
9
9
9
9
9
9
9
9
9
9
9
9
9
9
9
9
9
9
9
9
9
9
9
9
9
9
9
9
9
9
9
9
9
9
9
9
9
9
9
9
9
9
9
9
9
9
9
9
9
9
9
9
9
9
9
9
9
9
9
9
9
9
9
9
9
9
9
9
9
9
9
9
9
9
9
9
9
9
9
9
9
9
9
9
9
9
9
9
9
9
9
9
9
9
9
9
9
9
9
9
9
9
9
9
9
9
9
9
9
9
9
9
9
9
9
9
9
9
9
9
9
9
9
9
9
9
9
9
9
9
9
9
9
9
9
9
9
9
9
9
9
9
9
9
9
9
9
9
9
9
9
9
9
9
9
9
9
9
9
9
9
9
9
9
9
9
9
9
9
9
9
9
9
9
9
9
9
9
9
9
9
9
9
9
9
9
9
9
9
9
9
9
9
9
9
9
9
9
9
9
9
9
9
9
9
9
9
9
9
9
9
9
9
9
9
9
9
9
9
9
9
9
9
9
9
9
9
9
9
9
9
9
9
9
9
9
9
9
9
9
9
9
9
9
9
9
9
9
9
9
9
9
9
9
9
9
9
9
9
9
9
9
9
9
9
9
9
9
9
9
9
9
9
9
9
9
9
9
9
9
9
9
9
9
9
9
9
9
9
9
9
9
9
9
9
9
9
9
9
9
9
9
9
9
9
9
9
9
9
9
9
9
9
9
9
9
9
9
9
9
9
9
9
9
9
9
9
9
9
9
9
9
9
9
9
9
9
9
9
9
9
9
9
9
9
9
9
9
9
9
9
9
9
9
9
9
9
9
9
9
9
9
9
9
9
9
9
9
9
9
9
9
9
9
9
9
9
9
9
9
9
9
9
9
9
9
9
9
9
9
9
9
9
9
9
9
9
9
9
9
9
9
9
9
9
9
9
9
9
9
9
9
9
9
9
9
9
9
9
9
9
9
9
9
9
9
9
9
9
9
9
9
9
9
9
9
9
9
9
9
9
9
9
9
9
9
9
9
9
9
9
9
9
9
9
9
9
9
9
9
9
9
9
9
9
9
9
9
9
9
9
9
9
9
9
9
9
9
9
9
9
9
9
9
9
9
9
9
9
9
9
9
9
9
9
9
9
9
9
9
9
9
9
9
9
9
9
9
9
9
9
9
9
9
9
9
9
9
9
9
9
9
9
9
9
9
9
9
9
9
9
9
9
9
9
9
9
9
9
9
9
9
9
9
9
9
9
9
9
9
9
9
9
9
9
9
9
9
9
9
9
9
9
9
9
9
9
9
9
9
9
9
9
9
9
9
9
9
9
9
9
9
9
9
9
9
9
9
9
9
9
9
9
9
9
9
9
9
9
9
9
9
9
9
9
9
9
9
9
9
9
9
9
9
9
9
9
9
9
9
9
9
9
9
9
9
9
9
9
9
9
9
9
9
9
9
9
9
9
9
9
9
9
9
9
9
9
9
9
9
9
9
9
9
9
9
9
9
9
9
9
9
9
9
9
9
9
9
9
9
9
9
9
9
9
9
9
9
9
9
9
9
9
9
9
9
9
9
9
9
9
9
9
9
9
9
9
9
9
9
9
9
9
9
9
9
9
9
9
9
9
9
9
9
9
9
9
9
9
9
9
9
9
9
9
9
9
9
9
9
9
9
9
9
9
9
9
9
9
9
9
9
9
9
9
9
9
9
9
9
9
9
9
9
9
9
9
9
9
9
9
9
9
9
9
9
9
9
9
9
9
9
9
9
9
9
9
9
9
9
9
9
9
9
9
9
9
9
9
9
9
9
9
9
9
9
9
9
9
9
9
9
9
9
9
9
9
9
9
9
9
9
9
9
9
9
9
9
9
9
9
9
9
9
9
9
9
9
9
9
9
9
9
9
9
9
9
9
9
9
9
9
9
9
9
9
9
9
9
9
9
9
9
9
9
9
9
9
9
9
9
9
9
9
9
9
9
9
9
9
9
9
9
9
9
9
9
9
9
9
9
9
9
9
9
9
9
9
9
9
9
9
9
9
9
9
9
9
9
9
9
9
9
9
9
9
9
9
9
9
9
9
9
9
9
9
9
9
9
9
9
9
9
9
9
9
9
9
9
9
9
9
9
9
9
9
9
9
9
9
9
9
9
9
9
9
9
9
9
9
9
9
9
9
9
9
9
9
9
9
9
9
9
9
9
9
9
9
9
9
9
9
9
9
9
9
9
9
9
9
9
9
9
9
9
9
9
9
9
9
9
9
9
9
9
9
9
9
9
9
9
9
9
9
9
9
9
9
9
9
9
9
9
9
9
9
9
9
9
9
9
9
9
9
9
9
9
9
9
9
9
9
9
9
9
9
9
9
9
9
9
9
9
9
9
9
9
9
9
9
9
9
9
9
9
9
9
9
9
9
9
9
9
9
9
9
9
9
9
9
9
9
9
9
9
9
9
9
9
9
9
9
9
9
9
9
9
9
9
9
9
9
9
9
9
9
9
9
9
9
9
9
9
9
9
9
9
9
9
9
9
9
9
9
9
9
9
9
9
9
9
9
9
9
9
9
9
9
9
9
9
9
9
9
9
9
9
9
9
9
9
9
9
9
9
9
9
9
9
9
9
9
9
9
9
9
9
9
9
9
9
9
9
9
9
9
9
9
9
9
9
9
9
9
9
9
9
9
9
9
9
9
9
9
9
9
9
9
9
9
9
9
9
9
9
9
9
9
9
9
9
9
9
9
9
9
9
9
9
9
9
9
9
9
9
9
9
9
9
9
9
9
9
9
9
9
9
9
9
9
9
9
9
9
9
9
9
9
9
9
9
9
9
9
9
9
9
9
9
9
9
9
9
9
9
9
9
9
9
9
9
9
9
9
9
9
9
9
9
9
9
9
9
9
9
9
9
9
9
9
9
9
9
9
9
9
9
9
9
9
9
9
9
9
9
9
9
9
9
9
9
9
9
9
9
9
9
9
9
9
9
9
9
9
9
9
9
9
9
9
9
9
9
9
9
9
9
9
9
9
9
9
9
9
9
9
9
9
9
9
9
9
9
9
9
9
9
9
9
9
9
9
9
9
9
9
9
9
9
9
9
9
9
9
9
9
9
9
9
9
9
9
9
9
9
9
9
9
9
9
9
9
9
9
9
9
9
9
9
9
9
9
9
9
9
9
9
9
9
9
9
9
9
9
9
9
9
9
9
9
9
9
9
9
9
9
9
9
9
9
9
9
9
9
9
9
9
9
9
9
9
9
9
9
9
9
9
9
9
9
9
9
9
9
9
9
9
9
9
9
9
9
9
9
9
9
9
9
9
9
9
9
9
9
9
9
9
9
9
9
9
9
9
9
9
9
9
9
9
9
9
9
9
9
9
9
9
9
9
9
9
9
9
9
9
9
9
9
9
9
9
9
9
9
9
9
9
9
9
9
9
9
9
9
9
9
9
9
9
9
9
9
9
9
9
9
9
9
9
9
9
9
9
9
9
9
9
9
9
9
9
9
9
9
9
9
9
9
9
9
9
9
9
9
9
9
9
9
9
9
9
9
9
9
9
9
9
9
9
9
9
9
9
9
9
9
9
9
9
9
9
9
9
9
9
9
9
9
9
9
9
9
9
9
9
9
9
9
9
9
9
9
9
9
9
9
9
9
9
9
9
9
9
9
9
9
9
9
9
9
9
9
9
9
9
9
9
9
9
9
9
9
9
9
9
9
9
9
9
9
9
9
9
9
9
9
9
9
9
9
9
9
9
9
9
9
9
9
9
9
9
9
9
9
9
9
9
9
9
9
9
9
9
9
9
9
9
9
9
9
9
9
9
9
9
9
9
9
9
9
9
9
9
9
9
9
9
9
9
9
9
9
9
9
9
9
9
9
9
9
9
9
9
9
9
9
9
9
9
9
9
9
9
9
9
9
9
9
9
9
9
9
9
9
9
9
9
9
9
9
9
9
9
9
9
9
9
9
9
9
9
9
9
9
9
9
9
9
9
9
9
9
9
9
9
9
9
9
9
9
9
9
9
9
9
9
9
9
9
9
9
9
9
9
9
9
9
9
9
9
9
9
9
9
9
9
9
9
9
9
9
9
9
9
9
9
9
9
9
9
9
9
9
9
9
9
9
9
9
9
9
9
9
9
9
9
9
9
9
9
9
9
9
9
9
9
9
9
9
9
9
9
9
9
9
9
9
9
9
9
9
9
9
9
9
9
9
9
9
9
9
9
9
9
9
9
9
9
9
9
9
9
9
9
9
9
9
9
9
9
9
9
9
9
9
9
9
9
9
9
9
9
9
9
9
9
9
9
9
9
9
9
9
9
9
9
9
9
9
9
9
9
9
9
9
9
9
9
9
9
9
9
9
9
9
9
9
9
9
9
9
9
9
9
9
9
9
9
9
9
9
9
9
9
9
9
9
9
9
9
9
9
9
9
9
9
9
9
9
9
9
9
9
9
9
9
9
9
9
9
9
9
9
9
9
9
9
9
9
9
9
9
9
9
9
9
9
9
9
9
9
9
9
9
9
9
9
9
9
9
9
9
9
9
9
9
9
9
9
9
9
9
9
9
9
9
9
9
9
9
9
9
9
9
9
9
9
9
9
9
9
9
9
9
9
9
9
9
9
9
9
9
9
9
9
9
9
9
9
9
9
9
9
9
9
9
9
9
9
9
9
9
9
9
9
9
9
9
9
9
9
9
9
9
9
9
9
9
9
9
9
9
9
9
9
9
9
9
9
9
9
9
9
9
9
9
9
9
9
9
9
9
9
9
9
9
9
9
9
9
9
9
9
9
9
9
9
9
9
9
9
9
9
9
9
9
9
9
9
9
9
9
9
9
9
9
9
9
9
9
9
9
9
9
9
9
9
9
9
9
9
9
9
9
9
9
9
9
9
9
9
9
9
9
9
9
9
9
9
9
9
9
9
9
9
9
9
9
9
9
9
9
9
9
9
9
9
9
9
9
9
9
9
9
9
9
9
9
9
9
9
9
9
9
9
9
9
9
9
9
9
9
9
9
9
9
9
9
9
9
9
9
9
9
9
9
9
9
9
9
9
9
9
9
9
9
9
9
9
9
9
9
9
9
9
9
9
9
9
9
9
9
9
9
9
9
9
9
9
9
9
9
9
9
9
9
9
9
9
9
9
9
9
9
9
9
9
9
9
9
9
9
9
9
9
9
9
9
9
9
9
9
9
9
9
9
9
9
9
9
9
9
9
9
9
9
9
9
9
9
9
9
9
9
9
9
9
9
9
9
9
9
9
9
9
9
9
9
9
9
9
9
9
9
9
9
9
9
9
9
9
9
9
9
9
9
9
9
9
9
9
9
9
9
9
9
9
9
9
9
9
9
9
9
9
9
9
9
9
9
9
9
9
9
9
9
9
9
9
9
9
9
9
9
9
9
9
9
9
9
9
9
9
9
9
9
9
9
9
9
9
9
9
9
9
9
9
9
9
9
9
9
9
9
9
9
9
9
9
9
9
9
9
9
9
9
9
9
9
9
9
9
9
9
9
9
9
9
9
9
9
9
9
9
9
9
9
9
9
9
9
9
9
9
9
9
9
9
9
9
9
9
9
9
9
9
9
9
9
9
9
9
9
9
9
9
9
9
9
9
9
9
9
9
9
9
9
9
9
9
9
9
9
9
9
9
9
9
9
9
9
9
9
9
9
9
9
9
9
9
9
9
9
9
9
9
9
9
9
9
9
9
9
9
9
9
9
9
9
9
9
9
9
9
9
9
9
9
9
9
9
9
9
9
9
9
9
9
9
9
9
9
9
9
9
9
9
9
9
9
9
9
9
9
9
9
9
9
9
9
9
9
9
9
9
9
9
9
9
9
9
9
9
9
9
9
9
9
9
9
9
9
9
9
9
9
9
9
9
9
9
9
9
9
9
9
9
9
9
9
9
9
9
9
9
9
9
9
9
9
9
9
9
9
9
9
9
9
9
9
9
9
9
9
9
9
9
9
9
9
9
9
9
9
9
9
9
9
9
9
9
9
9
9
9
9
9
9
9
9
9
9
9
9

POINT_DATA 5151
SCALARS STRESS_EQV float 1
LOOKUP_TABLE default
52.955890224537185
1355.1234859376518
9.986349847994799
82.14652211847662
52.94418144906062
52.90905642595024
52.85051907465371
52.76857595922753
52.663236335787474
52.53451221889085
52.38241846681028
52.20697288561674
52.00819635199785
51.7861129546619
51.54075015414451
51.27213896081471
50.98031413074767
50.6653143791122
50.32718261059793
49.96596616631674
49.58171708645334
49.17449238777371
48.74435435504421
48.291370845085
47.81561560201464
47.31716858203669
46.79611628579514
46.252552096036666
45.68657661796524
45.09829801935248
44.48783236699985
43.85530395574232
43.200845625687634
42.524599062854094
41.82671507781551
41.10735385631992
40.366685175243724
39.60488857648509
38.82215349067653
38.01867930181629
37.194675343051586
36.350360812995106
35.48596460103047
34.60172500911128
33.69788935661926
32.77471345393083
31.832460929399193
30.871402393668255
29.89181442465693
28.893978356185947
27.878178853466352
26.844702259678698
25.793834700215417
24.72585993572399
23.64105696304297
22.539697376811276
21.422042527602642
20.288340551290084
19.138823410304965
17.97370420085715
16.793175179242525
15.597407319227889
14.386552880584832
13.160753763581784
11.92016105846248
10.66497688468869
9.395542811614156
8.112532684813042
6.8174033053705205
5.513573741948926
4.21010001749179
2.936707543763459
1.8322178215036065
1.4327873891405214
2.078265218717335
3.3303395468550954
4.752846824798789
6.251695716700785
7.808053410438278
9.419535263427289
11.089619695251546
12.825092547318427
14.635463195680533
16.533081809473828
18.533639361524152
20.65699529311493
22.92838664283601
25.380152341220036
28.054202537972767
31.00560949266987
34.307942139953724
38.06140191431436
42.40561477174461
47.54052561346584
53.76186489564753
61.52562889183024
71.56732452408693
85.17469177895981
104.67383908041623
135.55873600091573
188.50886052190856
318.10973527452705
884.5862626152654
985.3001601472452
498.99583894140756
332.28959701974964
251.58125322528053
201.45441506057233
167.94057587551103
143.77752458792366
125.51961189311322
111.19167154737778
99.61106705391867
90.02157722751255
81.91904258941315
74.9548494015528
68.88082102760166
63.51592033049816
58.72536969623554
54.40709618215836
50.48267455465522
46.8911204406251
43.58454149910265
40.52503016360943
37.68240448566675
35.03253977232853
32.55611906216082
30.237685235901402
28.064913418792052
26.02804626019305
24.119450907732094
22.333267659429634
20.665128041450878
19.111925484675492
17.67162553807293
16.343105077894755
15.126011473061952
14.020633213858968
13.02777302445542
12.14861275588045
11.384556113277053
10.737030241490148
10.207220215784083
9.795701422452009
9.501922956740323
9.323477906944461
9.255067757851858
9.28702013927693
9.403153779162261
9.577758426809432
9.771770405784128
9.92706572309501
10.019640842238395
10.110101938251361
10.223157259951517
10.321524040678872
10.38462812175732
10.398542445264198
10.355147329719625
10.251868862478169
10.09152107941564
9.88226969043076
9.637750407312124
9.377294251876386
9.126077973536121
8.914822737525856
8.77846287907348
8.753203609512106
8.87190651678928
9.158850770184529
9.62589982690059
10.271809368204401
11.0847352046303
12.046378657829148
13.135935764253947
14.33284920931509
15.618276800781246
16.97563598155415
18.39062747905075
19.85102466554613
21.34639066736124
22.86780012101817
24.40759505051321
25.959181418983874
27.516863350140103
29.075708950637058
30.631441429186808
32.180350020748755
33.7192162882654
35.24525237148986
36.75604858086276
38.24952838350138
39.72390932080248
41.1776687637353
42.60951368174888
44.01835379845957
45.40327765103672
46.76353117487412
48.098498511439885
49.407684793062685
50.690700699604434
51.9472486126917
53.17711021630688
54.38013541046152
55.55623241875563
56.70535898202852
57.82751453978912
58.92273330924887
59.991078178972884
61.03263534050659
62.047509587242686
63.035820215230345
63.99769746562337
64.93327945327997
65.84270953050236
66.72613403906215
67.58370040765993
68.41555555569595
69.22184456770529
70.0027096060654
70.75828903266626
71.48871671302084
72.19412147892336
72.87462672821407
73.53035014237781
74.16140350479168
74.76789260429733
75.34991721046197
75.9075711084555
76.44094218286014
76.95011254103493
77.43515866775951
77.89615160392644
78.33315714298925
78.74623603966805
79.1354442261715
79.5008330318342
79.84244940263285
80.16033611758414
80.45453199944596
80.72507211752259
80.97198798077292
81.19530771964429
81.395056255358
81.5712554555862
81.72392427561218
81.85307888428585
81.95873277418465
82.0408968555058
82.09957953334086
82.13478676804183
80.55354077054861
77.39530145600004
74.29129924526003
71.23911664960187
68.23634041690434
65.28056273912418
62.36938256738465
59.50040705685069
56.671253178153265
53.87954955246654
51.122938596331
48.399079104443274
45.705649461318124
43.04035176813988
40.40091731993024
37.78511410637634
35.19075740186977
32.61572517639743
30.05798122988034
27.515611093172616
24.986879831651347
22.470329130261398
19.96494868975261
17.470497636875997
14.98815414079304
12.521960099731036
10.08246463187728
7.697618851057507
5.453596867110703
3.6730160880347356
3.171940489109629
4.307561735036027
6.389901764368509
8.78242068560633
11.296332771928341
13.87791556878292
16.50841096546918
19.18057284861242
21.891780536219617
24.641558935334537
27.430540629889855
30.25997998575923
33.13150528833395
36.04698347363174
39.00844219763708
42.01802291178828
45.077951555980476
48.19051968103943
51.358071957929376
51.346622529828544
48.179604746828176
45.06760424726713
42.00827986284656
38.99934457155021
36.038578369486665
33.12384771748709
30.253135720978275
27.424590435814412
24.636605066520616
21.887957122889624
19.17806330250583
16.507478879721866
13.878963599327578
11.300025075500013
8.789964966068693
6.403750898188811
4.3325472844797925
3.20841930166033
3.7084224789670905
5.479207152681245
7.716238308799004
10.096768339200512
12.533318670093909
14.997306027299011
17.477877034530945
19.970830392418364
22.47489761293992
24.990265063663607
27.517908483059664
30.059263412159943
32.61604932805487
35.19016997408608
37.78365399188526
40.39861803567467
43.03724299654523
45.701758160967174
48.394430323699574
51.11755607690705
53.87345618100765
56.66447132545565
59.49295883228473
62.36129000806057
65.27184794788374
68.22702565943584
71.22922441834282
74.28085229587948
77.38432282088861
80.54205375277922
51.31227554920116
48.14686128019285
45.03656376046274
41.97905234655232
38.9720536224515
36.013365414931506
33.10087794742786
30.23260663771725
27.40674454440062
24.621749358014217
21.876494193030098
19.170543452536933
16.504692467725743
13.882116586831991
11.311102483238537
8.812560985258441
6.445091292459692
4.406468545299354
3.315438218224588
3.8124964746682037
5.555246172658126
7.771809203703887
10.139552881642828
12.567331248464516
15.024728215253635
17.49999733527321
19.98846645714058
22.488599304051263
25.000420249920456
27.524802149020683
30.06311266833601
32.61702517867592
35.188411412238466
37.77927744373575
40.39172387358647
43.027920141126515
45.69008739906426
48.380486739981855
51.10141085826598
53.85517796691373
56.644127222474886
59.470615175054206
62.337012925064435
65.24570377407838
68.19908122652069
71.19954724558302
74.24951069876639
77.35138595091158
80.50759157866739
51.25503493610697
48.09229329747973
44.98483442176411
41.93034526319212
38.92657514782506
35.97135169583941
33.062604821075126
30.19840388888933
27.37701705257552
24.59700953265745
21.857413708236198
19.158039690440926
16.500081273497806
13.887401193271618
11.329566511638046
8.850099610286513
6.513320035600451
4.526449852639142
3.4864866698084755
3.9794400407606023
5.6794663685349995
7.863492362487432
10.210444369069387
12.623810275890976
15.070320944258418
17.53680510658408
20.017829843063733
22.51142296141179
25.017343867336667
27.536296579690948
30.069537126108642
32.61866291719914
35.1854928856532
37.77199585526026
40.38024591499055
43.012393590474275
45.67064660406422
48.357256639723815
51.07450996954018
53.824720620165664
56.61022524221517
59.43337914049759
62.29655310732468
65.20213081940089
68.15250663648118
71.15008369213349
74.19727220274196
77.29648794598785
80.45015087793405
51.17490725409574
48.015907520426886
44.9124234687976
41.86216680890851
38.86291884353214
35.91254906288003
33.009043128354534
30.150546128436076
27.335431537082012
24.562415225530852
21.830752375343874
19.140596091412206
16.493694564469646
13.894861769849022
11.355419771712512
8.902403286966504
6.607488907870792
4.688352316610626
3.71271408551506
4.201309226657079
5.848500990695311
7.989962270768638
10.30883850653058
12.702449158225303
15.133920097929199
17.588212100366167
20.058875776668778
22.54334994284634
25.041033398140613
27.552399255158484
30.0785503304948
32.62097953172243
35.18143302583862
37.7618282397909
40.36420265964096
42.99068069385097
45.64345152675022
48.32475386998565
51.03686516011886
53.78209368789122
56.56277269863148
59.38125584066563
62.23991354976772
65.14113009322121
68.0873010860744
71.08083135194065
74.12413304170843
77.21962395220022
80.36972600725382
51.07190175535076
47.917713417869365
44.819341091571005
41.77452851926927
38.78109835407433
35.836974193176026
32.94021368430302
30.089059610665238
27.28202117814731
24.518008130378632
21.796561803362763
19.118274547582693
16.485601371839483
13.904560228901515
11.388666090033453
8.969232166447801
6.7263776097231505
4.887446863200492
3.9847475002866783
4.469583036920228
6.058296855719891
8.149502718469373
10.43392676457491
12.802830845071131
15.215300327731057
17.654096435462264
20.111542186686762
22.58435434660878
25.071485360350312
27.573120645086547
30.090171241652634
32.623998818847966
35.17625795001156
37.74880126696411
40.343620071753975
42.96280581341604
45.608524295174824
48.28299789294779
50.98849295095968
53.72731060022308
56.50177988521183
59.31425247423866
62.16709847359871
65.0627030226244
68.00346345001799
70.99178684115958
74.03008791361472
77.12078713125705
80.26630901107391
50.94603044383939
47.79772326408748
44.70560048982482
41.667445330416015
38.681131343327294
35.74464867728242
32.85614343945153
30.01397833076478
27.216828934391113
24.4638422064577
21.75490872456914
19.091154954980198
16.47589054557884
13.916575864682997
11.429310670019364
9.050291990242165
6.868576963505863
5.118970314997648
4.293933334333677
4.776252709405453
6.304528141625882
8.34011728485784
10.584729207348685
12.92443903965294
15.314179229832172
17.73430420143925
20.17575029932796
22.6344032044358
25.10869534928546
27.598474205263404
30.10442423093079
32.627751395790085
35.17000129309998
37.73294931275261
40.31853164385031
42.92880039693324
45.56589349135482
48.232013862156876
50.92941470653324
53.660388734720875
56.42726012930144
59.232378368794755
62.07811335510821
64.96685146687366
67.9009922807281
70.88294578322808
73.91512995133787
76.99996861802934
80.13988956699119
50.797308156412356
47.65595221374495
44.57121794680814
41.54093565795836
38.5630395861262
35.6355991321731
32.75686562354119
29.925344207951657
27.139907770770414
24.399983947656782
21.70587528109551
19.059335454002994
16.464670822621535
13.931005123224613
11.47736028597111
9.145243159934891
7.032570262672187
5.378479316361745
4.6329070068482485
5.114349494599641
6.582919229011379
8.55963975355306
10.760131011973726
13.066671353968427
15.430222397609363
17.82865143539607
20.25140538079991
22.693456723777512
25.152658088968934
27.628476371758122
30.121339074225695
32.63227471427382
35.162704247291934
37.71431452240981
40.28897847776715
42.888703070538945
45.51559424951496
48.17183272049192
50.85965672750888
53.5813494995937
56.33922986249831
59.135645035794816
61.972964963401395
64.85357773672979
67.77988580869948
70.75430279034856
73.779250685844
76.8571574664592
79.9904549159187
50.6257526617656
47.49241839334363
44.4162129194888
41.39502149381323
38.42684908120721
35.50985734114893
32.64241992399178
29.823207313206655
27.051320941925415
24.32651271633525
21.64955937879711
19.0229327234334
16.45207090630481
13.947961321557562
11.53282350108213
9.253710394397471
7.216804263926196
5.662020717512943
4.995693166404295
5.478075577014257
6.889455948830848
8.805833133767116
10.958919802877908
13.228853668019081
15.563049146371243
17.93692641440478
20.33839761122905
22.761468574908037
25.203367491932763
27.663146551606914
30.14095094148363
32.63761307497495
35.15441560793087
37.69294688530413
40.25500938204553
42.84255975100623
45.457668375555684
48.10249131976636
50.779250364306186
53.490218436013166
56.23770870752964
59.02406623878262
61.851661407599565
64.7228846191751
67.64014194404741
70.60585144186489
73.62244000206739
76.69234058421259
79.81798977735556
50.43138477717099
47.30714300910995
44.240608145221216
41.22972852123728
38.27259018613231
35.367460421826365
32.51285270090846
29.707626144034194
26.951142333891188
24.24352114489782
21.586075110539202
18.982082328007248
16.43823955476388
13.967574316786724
11.595710900010836
9.375292418158333
7.419745428347977
5.96617736836856
5.377569866068549
5.862726907822744
7.22049881380891
9.076470747559723
11.179821364160027
13.410254966358938
15.712238694967798
18.05889219994016
20.436603071817512
22.838386217905125
25.260816725695435
27.702507108743045
30.16330038089942
32.64381764093757
35.14519182423889
37.6689043202996
40.21668098462314
42.79042377676733
45.39216448732377
48.024032561835774
50.68823215164184
53.38702533983921
56.122719582080954
58.89765807539101
61.71421219416868
64.57477540821996
67.48175827988672
70.43758426016716
73.44468608808982
76.50550265660414
79.6224762501815
50.214228502809675
47.10015047118392
44.0444297649112
41.04508624839896
38.10029777499348
35.208451023616426
32.3682172408044
29.578667949238064
26.839456867807474
24.151115608782447
21.515553251435147
18.93693911939999
16.423345675517844
13.989990125734195
11.66603532643128
9.509571212977447
7.639920560471319
6.288045119532596
5.774853183509903
6.264535816987182
7.572824956986471
9.369397240067716
11.421531931687502
13.610101997391059
15.877336590717125
18.194289367472273
20.54588482538123
22.92415126381399
25.324998283844813
27.746583343588902
30.188433296036187
32.65094644805862
35.135097053011606
37.642252770048394
40.174057859536866
42.732356056786145
45.31913817517129
47.936505561041784
50.58664396418911
53.271804403140166
55.994288820162325
58.75643907385967
61.560628295164555
64.40925394262894
67.30473209838135
70.24949268491753
73.24597537832943
76.2966260603927
79.40389369948494
49.97431117352141
46.871468533958904
43.827707462702065
40.84112816088019
37.91001141984641
35.03287755639984
32.20857405168522
29.436409107347576
26.71636096996932
24.049416775188096
21.43814182898516
18.88767769043215
16.407578423094122
14.015370496189885
11.743812116545147
9.656120480445557
7.875943337323078
6.625179159944141
6.184681481149144
6.6805007551581275
7.94362496495765
9.682570531810832
11.682745955744117
13.827593212914051
16.057861177567986
18.342838854104258
20.666094069369315
23.018699863751706
25.39590405937505
27.795403464537273
30.216400913877166
32.659064410442454
35.12420321311917
37.613066302284594
40.12721266609795
42.66842523616684
45.23865218213311
47.83996582775754
50.474533193492796
53.144594375934
55.85244631165902
58.60043030488707
61.39092222831921
64.22632465152427
67.10906038041801
70.0415670465215
73.02629249160059
76.06569076821339
79.16221863007554
49.71166362773984
46.621128452385335
43.59047462221421
40.617891893563765
37.70177559702566
34.84079445249586
32.03399120268071
29.28093556297401
26.581963113317236
23.93856023256985
21.35400677139706
18.834492882124543
16.391147296183384
14.043892431193653
11.829059320578684
9.814513086405508
8.126529353581736
6.975531391703017
6.6048300135862075
7.108232162646207
8.330474750513156
10.014087507947004
11.962178850206854
14.061911577884722
16.253309929967337
18.504244859464144
20.797071340081846
23.12196311937539
25.473525417720367
27.848998549289252
30.247259741490236
32.66824331807437
35.11259003827611
37.5814272158285
40.07622629866502
42.598707877127694
45.1507766028535
47.73447547264154
50.351952946190046
53.00543874857258
55.6972256607815
58.429655509739376
61.20510815001731
64.02599260899692
66.89473982005597
69.81379653994732
72.78562016507766
75.81267424458385
78.89742454746309
49.426320393294276
46.34916515400939
43.33276849938416
40.375419422487305
37.475639919728444
34.63226246440343
31.844544712014105
29.112343326186565
26.436384436342312
23.818697206693145
21.26333263774071
18.777600342956145
16.37428223040837
14.075747668245778
11.921797905760043
9.984327372370679
8.39050254959536
7.337389571540011
7.033562494135795
7.545823561584919
8.731295973575534
10.362196892204203
12.258584740181218
14.312235976032861
16.46316550361437
18.67819773966486
20.938647746990775
23.233867507790077
25.557853266607946
27.907402493707263
30.28107150862369
32.67856182385255
35.10034512512766
37.54742614862484
40.02118804480434
42.523288653700924
45.05558910023878
47.620103431138126
50.21896226355645
52.85438595523529
55.52866436422541
58.244141245659165
61.00320196238155
63.80826359902528
66.66176684506107
69.56616920017535
72.52393918535182
75.53755133455147
78.60948180726133
49.11831988969395
46.05561742643426
43.05463041194301
40.113757277338266
37.23165939848748
34.40734900119834
31.640318987717382
28.93073904087595
26.27975944638732
23.689995369856074
21.166323433921274
18.717237139398893
16.35723368244291
14.111142115893646
12.022051936236988
10.165152314955838
8.6667956136603
7.709322723217819
7.469516396778782
7.99174801093648
9.14431322014719
10.725302676397659
12.570769565191744
14.577751062344587
16.68690138603695
18.86437684039803
21.09064621676304
23.354335313811262
25.64887811964813
27.97065194564695
30.317903093324578
32.69010541671258
35.08756397332659
37.5111621847483
39.96219574926829
42.442260558207224
44.95317513853026
47.496925707584495
50.075626362350135
52.69148959897129
55.346804009868094
58.04391704972805
60.78522143582123
63.57314419216452
66.4101376450348
69.29867188076248
72.24122831799698
75.24029414629123
78.29835745416935
48.78770464642837
45.74052811987179
42.75610594559622
39.832956775401314
36.969894731502336
34.16612850708296
31.42140732633505
28.736240629013817
26.11223681532897
23.552639750763564
21.063203518759316
18.65366241643203
16.34027270091087
14.150295250704733
12.12984872740607
10.35659158644376
8.954446458329002
8.090134147490664
7.911615855917406
8.444776688598655
9.568012493670766
11.101961021440513
12.897600099008546
14.857655519761664
16.92398706202971
19.06245322262849
21.25288272774396
23.48328506246467
25.746590150403645
28.038786220975837
30.357826427284117
32.702966377097454
35.0743500137824
37.47274295683914
39.89935598076787
42.35572511716421
44.843628231223406
47.36502563808215
49.92201689677674
52.51680869870573
55.151690496892904
57.82901562241423
60.55118634853102
63.32064183568251
66.1398482088851
69.01129023725375
71.93746423731078
74.92087192917842
77.96401505188354
48.43452153671739
45.40394436435557
42.437245176957944
39.53307427792078
36.690412627148724
33.908682886198086
31.18791247580824
28.52897801894811
25.93398027684284
23.40683375341389
20.954218604712967
18.587158106278075
16.323690979280684
14.19343947842641
12.245218974490992
10.558266618395038
9.252592350022365
8.478821879288194
8.35900600259661
8.903915558597589
10.001103264230524
11.490872959137256
13.238009537289171
15.151168760946288
17.173892639477135
19.272092242454235
21.425167517151518
23.620631944583387
25.850979233408715
28.11184719866188
30.400918377257096
32.71724371063667
35.06081462078855
37.432284739906855
39.83278419805639
42.263792613909324
44.72705020194021
47.22449417105253
49.758212241249275
52.3304079585769
54.943374278286065
57.599473032200095
60.30111864464853
63.050764958996695
65.85089437356126
68.70400871737849
71.61262145810315
74.57925094911653
77.60641450559663
48.058822025994886
45.04591780111594
42.098102913368415
39.21417147005274
36.393286161388346
33.63510197848085
30.93994726968828
28.30909396712512
25.74516963582438
23.252800294348248
20.839636857922258
18.518029683000254
16.307800885752304
14.240819463915338
12.36819685758922
10.769818798099841
9.560462814641614
8.874545839844304
8.81100352812128
9.368356330319484
10.442484955270169
11.890874649281258
13.591000312096082
15.457536175934596
17.436092908218072
19.49295595487819
21.607306244995396
23.7662882285259
25.962034968446602
28.18987919160454
30.44726059862031
32.733043055468634
35.0470771032319
37.38991253193464
39.7626049113234
42.16658231471214
44.603551455927054
47.07543016411341
49.5842977934974
52.13235805991775
54.7219106266452
57.35532894272544
60.03504261285539
62.763523096461796
65.54327188627867
68.37681056030388
71.26667227175926
74.21539436323798
77.22551187900706
47.660662434291574
44.66650482756543
41.73873894972863
38.87631566582039
36.078595173406235
33.34548409232639
30.677635341157526
28.076744984138273
25.546001902003766
23.090783068654375
20.71975010234886
18.44660695989085
16.29293546496877
14.292691435189752
12.498820127556058
10.990910938559846
9.87737207989119
9.276600753081027
9.267059385582888
9.837438513545845
10.89121798843382
12.300926451001452
13.955644747607629
15.776033064939288
17.71007082761039
19.724705319260327
21.799101100663627
23.920163651189156
26.07974668422001
28.272928789595973
30.49693935671629
32.750476558143745
35.03326466953392
37.34576011609738
39.6889518342645
42.06422269461845
44.473251259455836
46.9179406955765
49.40036629729597
51.922735976049815
54.4873599242236
57.096626863967835
59.75298508742678
62.45892702986434
65.2169764827526
68.02967780750367
70.89958668909739
73.8292620963697
76.82125920809342
47.24010421158458
44.26576685522076
41.35921834249836
38.51958013973191
35.74642670336629
33.0399366008064
30.401111926790076
27.832102377777066
25.336692561442987
22.921047956121313
20.594875132755558
18.37324492579326
16.279448406384894
14.349322467859658
12.637130179177973
11.221228161588837
10.202711546631745
9.684393909461438
9.72673053384139
10.310620013129723
11.346499117742677
12.720101671362595
14.331084098254872
16.10596741621694
17.99532045696238
19.967002191585046
22.000351840047237
24.082165781730144
26.20410341736795
28.361044670517487
30.550045311282894
32.769662712577755
35.01951236035633
37.29997009873647
39.61196802157748
41.95685165868332
44.33627802385643
46.752141388442865
49.20651818380593
51.701625309909645
54.239787978143745
56.82341442914737
59.454975673952205
62.136988953159474
64.87200398417032
67.66259132808628
70.51133239288741
73.42081072207151
76.39360431432087
46.79721422490816
43.843770579810105
40.959611701206846
38.144044487156876
35.39687547690217
32.718576609378744
30.110524771625265
27.5753534277084
25.117477001502877
22.743884580025757
20.465355141018577
18.298324615540935
16.267713974250956
14.410989757256173
12.783172120080867
11.46047832451443
10.535942591646997
10.09742695277884
10.189658423152103
10.78745427506703
11.807640611537938
13.147575554825696
14.716526426185226
16.44668169531117
18.29134935688861
20.219511095322652
22.210856743079088
24.25220035168371
26.3350938626166
28.454277375619576
30.606673258901424
32.79072615601509
35.00596294250921
37.252693916575936
39.531805985902864
41.844616753523525
44.19276959029271
46.57815674431669
49.00286193024095
51.46911665438556
53.97926636163266
56.535743699007746
59.14104700202576
61.79772266224511
64.50835041603725
67.27553086188267
70.10187470333855
72.98999335148655
75.94249062037757
46.33206505586506
43.400588262689425
40.539995497812626
37.749795015981555
35.03004444201723
32.38153170461298
29.80603514918938
27.30670270874117
24.888612106917993
22.559608032117755
20.33156125989179
18.22225400856484
16.25812689433006
14.477979886534872
12.936994845424437
11.70839210732166
10.876589874602224
10.515280981469484
10.65555252636225
11.267572460359276
12.274052788143658
13.582614859057815
15.111243690475739
16.79755380809037
18.597680499405804
20.48190076844375
22.430413483497823
24.43017154547088
26.472706289714875
28.552679044457694
30.666921828031505
32.81379741548614
34.992766756851964
37.20409180587316
39.44862778741086
41.72767536339539
44.04287351076489
46.39612048409726
48.78951443410871
51.22530797493179
53.70587278203669
56.233671495221444
58.81123500741428
61.44114377285118
64.12601215234596
66.86847508394433
69.67117656030288
72.53675953372517
75.4678569720455
45.844735307012044
42.93629802263859
40.10045239443603
37.33692517257414
34.64604536505069
32.02894079515346
29.487819012485268
27.02637358228703
24.650378046855607
22.368560778336093
20.193894227603664
18.14546894840837
16.251102192759408
14.550588099960219
13.098651129622928
11.964722861316698
11.224235236182361
10.937604371239358
11.124177668336776
11.750669487814779
12.745229422427448
14.024568209464602
15.514568343002065
17.157997389489026
18.91385373073606
20.753845488821447
22.65881990432593
24.615982245557333
26.61692842262206
28.656303104762348
30.73089312077571
32.839012597649884
34.98008151226965
37.154332725405936
39.362605088392115
41.606194884116526
43.886747319985446
46.20617589163675
48.56660140080562
50.970305013766115
53.41969147627279
55.91725976470332
58.465579246402044
61.06726996992607
63.724986088913035
66.44140169458647
69.21919852645361
72.06105517202519
74.9696374703598
45.33530991530473
42.45098413700419
39.64107159024203
36.90553600582251
34.24499949371928
31.660955058240326
29.15606829475698
26.73460987874428
24.40308027543366
22.171114760793692
20.05278617574514
18.06843407455439
16.247074983111816
14.629117591752394
13.268197747398677
12.229246304578593
11.578512219374606
11.364102829735462
11.595344235155004
12.236493067128421
13.220735582429906
14.472857320833633
15.925889658096235
17.527461555057677
19.2394268337532
21.03502618404542
22.895874694191967
24.809534226821828
26.767747276276047
28.76520391227483
30.798692295213858
32.866513014454135
34.968072017113556
37.10359422434161
39.27391916427279
41.48035286723346
43.72455879195511
46.00847615586609
48.33425774180913
50.704221714558244
53.12081363414368
55.58657597660128
58.1041232451703
60.67612129219231
63.305269850138366
65.99428753959201
68.74589881622728
71.5628224605398
74.4477613188586
44.80388047053947
41.94473735105467
39.16194918846602
36.45573667385881
33.827038296992484
31.277739007712796
28.810992382061944
26.431677796904907
24.14705177076203
21.967673712237197
19.908702541431637
17.99164375627182
16.246500198296403
14.713878821895175
13.445695637154666
12.501760134647595
11.939101212014618
11.79453128371155
12.068900584569146
12.724835055803556
13.700197508389403
14.926969106014955
16.34464996623895
17.905430235737718
19.573976237619142
21.325131334531985
23.141377961048182
25.010728294999517
26.925148946143636
28.87943633530553
30.87042708171839
32.896444736446796
34.95690983873612
37.052062245107166
39.18276086142981
41.35033712576405
43.556486174039904
45.803184705986105
48.09262797999451
50.42718066604583
52.809337849730525
55.24169355370432
57.726914887187746
60.26772045581099
62.86686203383509
65.52710876570754
68.25123335595526
71.04199984729631
73.90215269145114
44.25054553644566
41.417655194364016
38.66318858500032
35.98764499918272
33.3923042935185
30.87947170249452
28.452819783782658
26.11786805070661
23.882655540558133
21.758675699723547
19.762144102843376
17.915623016499943
16.249852264904433
14.805188871313995
13.631210119961738
12.782083615571512
12.305725188684187
12.228687274175165
12.544727154134133
13.215524633714283
14.183294201756926
15.386448648764375
16.770340915661876
18.291421199143837
19.917097420895352
21.62385768072823
23.3951317009086
25.219464364223512
27.08911834553969
28.999055278458933
30.94620722627953
32.92895806507226
34.94677288106349
36.99993085045999
39.08933049111659
41.216345791728976
43.38271839027926
45.59047553338133
47.84186665787142
50.13931356251778
52.48537060076996
54.882692339907535
57.334006841735714
59.84209322146981
62.40976249930798
65.03984101718228
67.73515588127543
70.49852202957608
73.33273062719756
43.67541097179832
40.86984230297544
38.14490088041177
35.501388079203586
32.94095198277188
30.46634811819968
28.081800031703757
25.7934982982556
23.610287425585312
21.544595914494156
19.61364913486696
17.840928431903414
16.257624718713362
14.903370849857023
13.824811187450265
13.070057184914225
12.67814601931916
12.666405596996164
13.022731891328943
13.708422909677385
14.669750443429052
15.850892992629088
17.202499849008923
18.68498484413636
20.268405051766592
21.930910746423965
23.656940160255573
25.435641468941895
27.259638885561742
29.124115139732027
31.026143853588607
32.964206914793365
34.937844869351494
36.94740186297328
38.99383764765271
41.07858731443808
43.203455204459146
45.370533492832514
47.58213874360047
49.84076167838265
52.149026755513674
54.509659105273066
56.925457036808645
59.399268809491105
61.93397270431075
64.53245967971594
67.19761807866712
69.93231998883249
72.73940895922036
43.0785902485826
40.30141074611896
37.607205317911664
34.997102960894296
32.47314889617584
30.03858070904281
27.69820584374332
25.458915893168204
23.330379235187795
21.325949724519692
19.463795678352973
17.768148993251977
16.27032976141638
15.008753371492295
14.026573871806074
13.365542116843661
13.056161307012028
13.107553976882608
13.50284672349343
14.203418664768531
15.159331006321345
16.319945684389822
17.640706353479857
19.085702840133493
20.627532905610096
22.246005190826192
23.92661009147877
25.6591577056208
27.436692092332102
29.254669194938213
31.11034874223415
33.002348095342164
34.930314730563055
36.89468440412847
38.896500937784445
40.93728038714729
43.018907332074726
45.143554574302456
47.31362002860688
49.531676353285704
51.80043010607496
54.12268809001229
56.501329179716826
58.93928036788949
61.43949609703862
64.00494017886801
66.63856977875575
69.34332107314249
72.12209628594503
42.46020476392396
39.71248035630673
37.05022975065168
34.47493739035788
31.98907678914373
29.596401192642844
27.302335595084514
25.1145010045023
23.04340225253833
21.103296005137096
19.313203912579667
17.697906908202828
16.28849776026368
15.12167011195935
14.236578710460876
13.66842026942858
13.439601716288461
13.55202960373386
13.985024854814167
14.700425005848997
15.65183586742869
16.793292005173043
18.084579021031594
19.493186668865008
20.99413359600659
22.56886500192021
24.203950901138196
25.889910099696117
27.620257156009814
29.39076890311206
31.19893350406045
33.04354048394841
34.924375857053285
36.84199431920546
38.797547606899926
40.792653788294686
42.829296488895125
44.90974613526871
47.036497509472724
49.212219483348704
51.439713926706546
53.721881588467184
56.061693328730534
58.462165498603625
60.9263385698682
63.45725834071336
66.05795920991156
68.73144913620959
71.48069599396256
41.82038414211647
39.10317906173126
36.474111142832015
33.9350506507746
31.488932999638934
29.14006259687524
26.894516146976745
24.76067015818872
22.74987115034154
20.877240761162582
19.162538615725882
17.630858326599707
16.312676694191413
15.242459464915607
14.454912317483164
13.978593937995399
13.828328754159065
13.99975639336743
14.469238728628888
15.19937675418065
16.147096257874704
17.27065482165174
18.53377243877368
19.90707611417465
21.36787815097477
22.899223543209448
24.488774691193477
26.127794393337535
27.810310405891574
29.532463126304116
31.2920086594
33.08794407691464
34.9202252405522
36.789553473154015
38.697213046421865
40.64494612194956
42.634855362206835
44.669327081990474
46.750969745401264
48.882564013034134
51.067021554708326
53.307350573771636
55.60662651911049
57.96796684746886
60.39450898212921
62.88939082332538
65.4557333216593
68.09662474304898
70.81510634304004
41.15926652271851
38.47364322012313
35.87899611052388
33.37761450548204
30.972932004555748
28.66984161600896
26.475106092671616
24.39788026043653
22.450348360487553
20.64844105056928
19.01251169231533
17.567693966487553
16.343431552243306
15.371464313328406
14.681668072951679
14.295985831493333
14.222232968620965
14.45068286129574
14.955478531558
15.700228433429793
16.644971417885422
17.7517909924194
18.987974417654662
20.327037735130382
21.748455461977475
23.236823465189666
24.780896193338204
26.37270474936812
28.0068247055307
29.67979725684979
31.389682599683503
33.13571890964186
34.91806246288504
36.7375889016502
38.595740165394105
40.49440544057912
42.43582748912362
44.42252798641484
46.45724718102593
48.54289442087873
50.6825069907764
52.87921536342137
55.13621344680108
57.456732763746565
59.84401975977653
62.301315628517884
64.8318381884323
67.43876545364989
70.12522062511853
40.476998830352315
37.8240179536187
35.26504150996285
32.802814267113305
30.441307212242464
28.186041332975257
26.044499490592116
24.02663317193627
22.145448943298895
20.417609214893545
18.86388473970225
17.50913961723077
16.381343692331267
15.509031933142982
14.916946940427025
14.620539184679641
14.621232532123665
14.904780519683975
15.44375114462121
16.202952751117614
17.14534594667903
18.236488268613925
19.446903458744693
20.752763348748662
22.13557162878367
23.58141649169536
25.08013259656036
26.624533366777243
28.209768761775834
29.832812245078813
31.492060428698228
33.18702383377298
34.918088529185034
36.686331800608976
38.49337860798166
40.34128873156608
42.232467024493005
44.169591123565674
46.15555242263305
48.19340719095301
50.28633551464079
52.437606325424625
54.65054721288054
56.92851803526912
59.27488758042762
61.693012704141324
64.1862195053337
66.75778619728125
69.41092741065876
39.7737370214432
37.154457484726585
34.6324150834987
32.210850019040144
29.89431303839184
27.68899437660921
25.60313016747851
23.647480910705823
21.83584600313334
20.18551741455481
18.71747161763856
17.455956495007566
16.427010171397324
15.655514046801558
15.16085842189961
14.952218016126144
15.025272180703338
15.362042724661674
15.934079467903482
16.70753949033803
17.648127656315687
18.72456263268586
19.910306450163034
21.183968541196975
22.5289492192428
23.932763089963775
25.386303267710495
26.883170002970953
28.419106341255038
29.991543520070906
31.599242673479033
33.24201513988206
34.92050452893286
36.636016336561866
38.39038379726547
40.18586124718826
42.02503837895648
43.91077041224637
45.84612045400889
47.83431126030396
49.878684310566896
51.982664623906274
54.149730131636076
56.383384705485526
58.687134152821734
61.0644646481795
63.51882318879436
66.05359975150571
68.67211089727547
39.04964630280382
36.46512547427757
33.9812961765417
31.60193802205954
29.332227323404766
27.17906659709583
25.151476689030844
23.26103157109088
21.522276696738228
19.953002457892598
18.574140975698253
17.408941424966077
16.48104306081891
15.811267044067128
15.413521658389477
15.291007539638773
15.434322482722418
15.822483915109075
16.42650206178469
17.213994746221704
18.153245854388935
19.21585602452416
20.377956583531716
21.620391220160577
22.92832645918865
24.290632031807966
25.699229364399113
27.148501397537174
28.634795387406903
30.156019795783436
31.711323855760618
33.30084501406618
34.92551010981429
36.58687825956051
38.28701578450547
40.028395656129916
41.813815705743025
43.64633123971122
45.52919877595076
47.465828430759906
49.4597430959208
51.514543002177255
53.633874604744875
55.821402978824395
58.08078710040614
60.41565752692193
62.8295960963176
65.32611734151557
67.90865137736189
38.30490131666148
35.75619536340521
33.311876542900286
30.976312347780365
28.755354163059213
26.656661360454372
24.690068112677974
22.867956056181647
21.205548877825862
19.7209709001484
18.434818683184666
17.368926824416313
16.544068764188633
15.976652387458628
15.675066683320424
15.636914734930864
15.84837941417397
16.286139195056972
16.921073059968545
17.72234045473865
18.660649992752262
19.71023440877166
20.849651475689118
22.061790215670147
23.333456363899423
24.654799851601517
26.018733339028024
27.420410592159328
28.856787031068244
30.326261754744728
31.8283909147472
33.363659816626075
34.93330174913936
36.53915329971667
38.18353788195524
39.86917099293379
41.59908221269394
43.37655014866472
45.20504745122814
47.08819373144998
49.02971474434761
51.033406600168064
53.103104063537245
55.24265222086798
57.45588095930061
59.746581820450935
62.1184868808725
64.57524937711173
67.12042584337928
37.53968628648692
35.0278507232128
32.62436126120779
30.334226791029096
28.16402724154988
26.122224584496426
24.219490657085686
22.468995730617515
20.886548415316035
19.490404372416535
18.300490094962
17.33678046252585
16.61672735816707
16.152037219247937
15.945635834811544
15.989969081926262
16.26746422004546
16.7530642204319
17.417862318817985
18.232614171787002
19.170308629783527
20.207586141766324
21.325211479497533
22.50794393241187
23.744105819251093
25.02505020509127
26.344638331946225
27.698776140693365
29.085024487065823
30.50228060119923
31.95052147197243
33.43059817117335
34.94407080754239
36.493075328041115
38.08021505636013
39.70847138026731
41.38112927390623
43.10171436251059
44.87393903429022
46.70165571609002
48.58881589321548
50.53943380179898
52.55755398064745
54.64722205976946
56.8124583014319
59.05723350975963
61.385446996965015
63.800906346436065
66.30730875154231
36.7541951178239
34.28028561796188
31.918969792089964
29.67595712755565
27.558613777505617
25.576250664809667
23.740395445675787
22.06497110926901
20.566247212055533
19.26236508023776
18.172202074951233
17.313404974210552
16.699671980610027
16.337795186138816
16.22538533200101
16.350223462141987
16.691623543901894
17.223335358094445
17.91695577464792
18.744869068274866
19.682208661856947
20.70782060061351
21.804478166256263
22.95864905278388
24.16005461748754
25.401173131293117
26.676767450919034
27.983471202991197
29.319441828943688
30.684076475363426
32.07778192896818
33.50178885261626
34.95800134980233
36.44887426207791
37.97731205948745
39.54658449739621
41.160255313347164
42.8221211223187
44.53615836234269
46.306476676530835
48.13727752286188
50.03281710632939
51.99737295149605
54.03521359524251
56.15057099420103
58.347615320932405
60.63043187699309
63.002999887491626
65.46917296688858
35.94863144829249
33.51370499064085
31.195937214788845
29.00180380120139
26.939519220811704
25.019289471252158
23.253507507093776
21.656791703627384
20.245711934009577
19.038001386283096
18.0510646873448
17.299737109940875
16.793568293975852
16.53430749688803
16.51448701960892
16.717755229658568
17.120929809833747
17.69705009045802
18.41845598576799
19.25917411269171
20.196354785939885
21.21086704012412
22.287312961202595
23.413719286757356
24.58109444949713
25.78296421778733
27.014942933098077
28.274362515489056
29.559962633555628
30.87163672024451
32.21022538856515
33.57734846287444
34.97526771805747
36.406773696976366
37.87509127166384
39.38379976718163
40.936764430909506
42.538076806428435
44.19200218157655
45.90293275126662
47.67534549268558
49.5137640158461
51.42272384493406
53.40674072109843
55.470281608429794
57.61773814288009
59.85340229810725
62.18144406056696
64.60589091519029
35.12320864116184
32.72832508391155
30.4555156938508
28.31209514777199
26.307192872365313
24.451954634103878
22.759636243920376
21.245467150163442
19.926113435170656
18.81855336124925
17.938252454565653
17.296746709070508
16.899094055677036
16.74196422676442
16.813130284016324
17.092667453389964
17.55548184253544
18.17432764311733
18.92248283980464
19.775614416959993
20.712769160253323
21.71667364621019
22.773595912871613
23.87298416181591
25.007027852740723
26.170223667928795
27.358985184622124
28.571309230876995
29.80649848678624
31.06493399234816
32.34788939089491
33.6573788836866
34.99603184331213
36.36698824309602
37.773810234201726
39.22040623298497
40.71096473956861
42.24989580111394
43.841778579402195
45.4913139046031
47.20328101644586
48.98249792893668
50.83378502103712
52.761931566834306
54.77166498670132
56.867622636203606
59.0543259614861
61.33615684688847
63.71733596977552
34.27814971735532
31.924373915007155
29.69797624219413
27.607191292829558
25.662134642333207
23.87493338571521
22.259687611212605
20.832119740772345
19.60873682831466
18.60535815151558
17.835005071807906
17.305435392476525
17.016938830734233
16.961165881438323
17.121524143451044
17.475090331823125
17.9954057128237
18.65530981630212
19.429174409658003
20.294291724428405
21.23149123356204
22.22520675641011
23.263224576362255
24.336287843652038
25.437667111185014
26.562755266487454
27.708711691795212
28.87416161844053
30.058947341155328
31.263924207312286
32.49079345530092
33.74196449654282
35.0204402821325
36.32972055214018
37.67371884692824
39.0566900963517
40.4831663808626
41.95789908842105
43.48580619058813
45.07192374895384
46.72136105607382
48.4392590281286
50.23075161240868
52.100930063090296
54.05480998444003
56.09730105183138
58.23317930771271
60.46706190114321
62.8033841041485
33.41368722161866
31.10209183077893
28.923610867722033
26.88748889959166
25.004903217486248
23.28899827961191
21.7546782775315
20.417998461438575
19.29499210384784
18.39985497164475
17.74262746180154
17.326834980861545
17.147803885320528
17.192325231110935
17.43989951406205
17.865182780650105
18.440855796775963
19.140162003073304
19.9386879430161
20.8153250208358
21.75257771631846
22.736450219782707
23.75611298985558
24.80348797603409
25.87283310104065
26.96036523814562
28.063935796398205
29.18275961583845
30.317191715642434
31.468544311519125
32.63893641986665
33.8311691607493
35.04862096669652
36.29515801507333
37.57505620796201
38.892931886522135
40.2536791849722
41.662412515173
43.12441314220451
44.64507917932207
46.22987860996206
47.884305145839065
49.613836863350436
51.423897634804675
53.31982139614799
55.30681927911408
57.38994959375393
59.574090587970105
61.863915844301985
32.53006302011577
30.26173217952515
28.132735218339874
26.153426994058712
24.336125977881764
22.695021175608566
21.245752070358396
20.004494616502082
18.98642513542929
18.203589485484734
17.66248905206124
17.362005658413644
17.29240230284625
17.435869424038692
17.768511653103474
18.26313419308067
18.892016037348455
19.62907437874203
20.451200971239125
21.338851250111283
22.27610266850609
23.250404869287692
24.252190722777943
25.274454525825835
26.312354073465468
27.36286099134037
28.424465326470475
29.496931222312032
30.581096727600766
31.67870987060048
32.792293570666956
33.92503294171607
35.08067965806744
36.26346911704421
37.478047074465714
38.729403233460225
40.02280994112361
41.36376470535912
42.75793569946389
44.211109785595426
45.72914286813436
47.31791259040598
48.9832735189187
50.73101502464858
52.5668220791092
54.49623914399025
56.52463725889099
58.65718433511699
60.898818557814536
31.627528029029662
29.403562150442827
27.32569187742252
25.405494161492516
23.65651109160086
22.093989957530063
20.734199031161445
19.593159066287466
18.68472882931891
18.018217293428663
17.596022162189982
17.41203391749977
17.451459366657375
17.692242386837385
18.107642779890654
18.669166371854832
19.349101397519856
20.122263246709963
20.96691252360979
21.865026117175898
22.802157679783463
23.767088080014588
24.751401972887603
25.7490686168913
26.75606436280416
27.770049737717493
28.790101072350975
29.816490722344565
30.850507946118764
31.89431246582266
32.95081355363827
34.02356858310796
35.11669609475635
36.2347994369991
37.382897925338874
38.566363217576054
39.79085924427692
41.0622845769072
42.386716571976734
43.770357004711144
45.219479202802326
46.74037691020186
48.33931525312487
50.02248424770296
51.795955286503954
53.66564097866805
55.63725860879632
57.716297338635755
59.90798912021814
30.706341877223625
28.52786385111864
26.502854511927833
24.644237496728998
22.96686232817636
21.487028539731647
20.221477416451997
19.18572102743726
18.391754072615207
17.84550619870005
17.544719402798105
17.478030338353417
17.625713254979118
17.961907516986976
18.45760487458661
19.083535631188564
19.81235949403044
20.619972526202066
21.486044432534626
22.39402495958521
23.330852117678333
24.28653338638165
25.253704688189476
26.227221334297262
27.203803006376884
28.18173697524535
29.16063509619055
30.14123672790988
31.125249055867965
32.11521688948973
33.11441506276039
34.126757718173366
35.15671983115382
36.209267282752606
37.28979260995735
38.40405427180615
39.558117885275756
40.758298423387544
42.011102837815905
43.323172971396694
44.70122895882384
46.15201356990272
47.68223812236029
49.29853067633327
51.00738722124457
52.81512648498564
54.72784884882586
56.75139965829482
58.89133700273063
29.766772511284245
27.634935720617328
25.66463314345603
23.87027380792986
22.26809727267809
20.875420818137695
19.709238969787478
18.78410826798748
18.109520012783655
17.68733688722571
17.510130012802186
17.561127278363276
17.81591609476918
18.245350671468216
18.81874265453744
19.506535065864355
20.282072400158732
21.122475366778605
22.008842714037918
22.9260436685528
23.862313418699365
24.808790130468218
25.759069687801176
26.708812477578803
27.65541225903708
28.597724820847468
29.535848861715515
30.470950026598175
31.405119320150217
32.34125813081941
33.282983299369704
34.234546817634794
35.20076576352143
36.186958956237234
37.19888757122589
38.24269761529122
39.32486275387416
40.45212652161007
41.631443441310196
42.86991902309592
44.17474900448809
45.553158508734406
47.012342026475544
48.55940525176047
50.20130982087998
51.944821914149195
53.796465499456545
55.76248074432508
57.848787829234524
28.80909575893204
26.72509441340195
24.811480905725553
23.084303729257204
21.561269799785975
20.260639326451578
19.19935774119587
18.390468361962597
17.840223058985117
17.545701630312905
17.493855099854677
17.662476567348577
18.02283542103636
18.54308345380388
19.19143672728626
19.93849698353559
20.758558605081724
21.63007587343529
22.535579006229927
23.461299638212964
24.396687395827477
25.333923112075944
26.26747975378077
27.19374923928216
28.110735983050784
29.017810176009167
29.915511169276368
30.80539122195888
31.689890831629942
32.572238144234156
33.456366198804346
34.34684287410225
35.24880934506494
36.167923648426246
37.11030663639711
38.082488202720285
39.09135222766283
40.14407922777082
41.24808621990234
42.41096381200654
43.640410998966004
44.94416854592018
46.329952155781214
47.805386815888404
49.377943782571975
51.0548815858454
52.84319222858133
54.74955343960522
56.780287454380264
27.83359487805351
25.798677342362637
23.943902780427496
22.287129606115005
20.847597887790442
19.64437945892123
18.69396262345704
18.007190438889996
17.586243840562823
17.422700615724498
17.49754180093342
17.78324732731825
18.247256087162246
18.8556468005549
19.576106919014123
20.379795495013784
21.242175116071955
22.143110924512172
23.0665520460916
24.000032719507004
24.934138533694437
25.862012208990485
26.778928663356453
27.681944781917736
28.569617890802697
29.44178270640792
30.299375879678045
31.14429815169317
31.97930553927805
32.80792239282121
33.63437042234533
34.46350882590251
35.30078149587949
36.15216796898609
37.0241353754827
37.923589179711
38.857821025096094
39.83445252791789
40.86137441597256
41.94668097525536
43.09860032893375
44.32542159379067
45.63542039764447
47.03678455339898
48.53754183529179
50.1454917697427
51.86814313706443
53.71265850448584
55.68580661896332
26.840560135198842
24.856046144429968
23.062466982080757
21.47967829528802
20.12849812282246
19.028600199853653
18.19547357987177
17.63692656102539
17.350151200763424
17.320535541182714
17.522876447311994
17.924624056538207
18.48998266981338
19.183614867295567
19.973215776589488
20.830849255639812
21.733319687812404
22.661952062104792
23.602089161769015
24.542506151823453
25.474850239810586
26.393151933148964
27.29342012807716
28.173316683409205
29.03189961494451
29.8694226142383
30.687179408712215
31.487383068691948
32.27307204035499
33.04803616095633
33.81675711470799
34.58435872676673
35.35656321862188
36.13965012232211
36.94041503477993
37.76612584251042
38.624474507836005
39.52352301352576
40.47164263173669
41.47744631339177
42.549714663531816
43.697316634218865
44.92912667136137
46.25394053010579
47.68039226406274
49.21687495211591
50.87146753563424
52.65186971467987
54.565346243168854
25.830288481735927
23.897591439839818
22.167819912907927
20.66303039579336
19.405628566905136
18.41557232528313
17.70664121673728
17.28261147912201
17.134702163388702
17.241500175574572
17.571576898726597
18.08780513657265
18.751842409307724
19.527599213507962
20.38327224081724
21.29212434893774
22.23243316080246
23.18700743179039
24.14254775396008
25.089007441676422
26.019025016448857
26.927450884732515
27.810966602738212
28.667785217528404
29.497418577332013
30.300498179359188
31.078637972791768
31.8343295694484
32.57086212675852
33.29226063152937
34.003237429936334
34.70915267198809
35.41597993672901
36.130273749380166
36.85913606217648
37.610179110088076
38.39148242678023
39.21154226007933
40.07921218935705
41.00363442793329
41.994162074182576
43.06027340920869
44.21148015443696
45.457232308799775
46.80682268817703
48.26929450966429
49.85335525265762
51.56729958591751
53.41894342303351
24.803083432095107
22.923739412095244
21.260705962741707
19.838457926339792
18.680942035497175
17.80793496240241
17.230588857378542
16.947479059734967
16.942836715207346
17.187967717800507
17.64538430243225
18.27400193560424
19.03368872268261
19.888253285412734
20.806835487672714
21.764137301434616
22.740001887772735
23.71872374461417
24.688316735306877
25.639849152840085
26.56688451330482
27.465031062100053
28.33158792296962
29.165271431968275
29.966005624743623
30.734763042957766
31.4734445647934
32.184789254294294
32.87230707619816
33.54022872554664
34.19346783210309
34.837591496565636
35.4787955787154
36.12388146344466
36.78023125161944
37.45577852837753
38.15897211753136
38.89873059616611
39.684385864800404
40.525614771063665
41.43235866423835
42.41473177203961
43.48292035768892
44.647075618463816
45.917204091682606
47.30305981141399
48.81404251366312
50.459105782541045
52.246678200643615
23.759255302916173
21.934960964438755
20.341993933648055
19.007473132020106
17.956752229899312
17.208761126144687
16.770855549121013
16.635073164886343
16.777666235844052
17.162374969156694
17.74605462937397
18.48443869092391
19.336405322818333
20.266277195789286
21.244518933271678
22.24745821468122
23.256560223241305
24.257588229537802
25.23981789125711
26.19536956675968
27.11866941569381
28.00602698050228
28.855309725776376
29.665694982616767
30.43748239601536
31.171953205011654
31.871265638046445
32.5383781041495
33.176993680223184
33.79152070468411
34.3870451813952
34.96931126675166
35.54470643997867
36.12024811819089
36.70356854628008
37.302894840162494
37.92702116509566
38.5852702631326
39.28744197329465
40.04374706541559
40.86472565357257
41.761150641688445
42.74391800078
43.82392704682552
45.011955100158566
46.318531768034475
47.75381843479601
49.32749827085314
51.04868118406788
22.699122054329514
20.93178454859981
19.41271259416329
18.171891983660892
17.235815543808087
16.621632276568022
16.331437428259797
16.349250249384458
16.642454526954513
17.167203583691276
17.875350433527494
18.72035335624238
19.660910972859273
20.662422800175356
21.69699439708307
22.742713997105636
23.782693046699784
24.804130538886014
25.79750711935923
26.755933165272403
27.674639116455545
28.550584546397666
29.382161601870177
30.16897167792261
30.911658381535293
31.6117837044904
32.27173747561932
32.89467255921781
33.48446000338744
34.04565954111737
34.58350162140471
35.10387759331544
35.61333486246595
36.11907385765786
36.628943553957285
37.151432170166
37.69564957443493
38.27129798105686
38.888627796734326
39.558376059582194
40.29168586541316
41.10000650047212
41.99497563389312
42.988286719677326
44.09154649280785
45.31612884570434
46.67303217333359
48.17274728188845
49.82514209921965
21.623011101583806
19.914814274254834
18.47409891747317
17.333917076986157
16.52143160002075
16.05072088205586
15.916823550981515
16.09417051179508
16.540590693291666
17.204958964561875
18.03503336240201
18.98299959457285
20.00816490091434
21.077499069117138
22.164996415930407
23.25059167412607
24.319038284300976
25.35892456244674
26.36187549620948
27.32193087977771
28.235071112364587
29.098859627593512
29.91217492281504
30.675010682329095
31.38832763234099
32.05394494905879
32.67446222164031
33.25320528657355
33.794190871158435
34.30210606388273
34.782299289899015
35.24077980295466
35.68422278285121
36.11997701083329
36.55607184415493
37.00121989327195
37.464811503241606
37.956896956037966
38.48815235973852
39.06982559620864
39.7136595675923
40.43179137371848
41.236627945841555
42.14070092332777
43.15650593293488
44.29633355878603
45.57210077929735
46.99519215257826
48.57631936280718
20.531262664005254
18.88475569265492
17.527664085078435
16.496246078912705
15.81756545901673
15.500878201844312
15.532020696148397
15.874274233758195
16.475553654122955
17.27814771422454
18.22685800765022
19.27365008570343
20.379172896373657
21.512377756650473
22.649326698838333
23.771841749624265
24.86628938682899
25.922590097432305
26.933450111986954
27.893780041629775
28.80026005698356
29.651016251464142
30.445380279190594
31.183711322385143
31.867265072394428
32.49809865924958
33.07900355160581
33.61346062580951
34.10561308833343
34.56025389696105
34.9828248830463
35.37942501398683
35.75682521178767
36.12248690796413
36.48458111372718
36.8520042744202
37.23438663616018
37.64208838692988
38.086178581780665
38.578391985056115
39.13105962885138
39.75701023140647
40.469441694321645
41.28176461924935
42.207422893228234
43.25969945217469
44.45151779312437
45.795251119151075
47.302550773579
19.42423553534929
17.84245286932458
16.57528456589727
15.662213582381128
15.128993598010616
14.977721750446086
15.18255989195105
15.694240159530565
16.450868834654056
17.38925488880082
18.452567714120825
19.593601298386936
20.774994105842723
21.9679993652213
23.15085870927782
24.30728158539717
25.42519771321153
26.495794311551148
27.512794601778765
28.471923957700348
29.370516391646092
30.20722435442261
30.981804458514283
31.69495943343157
32.34822236378151
32.943873390420165
33.484881959366646
33.97486970508098
34.41809039523943
34.81942421199179
35.18438411270647
35.51913217380493
35.83050372023608
36.126036712046556
36.41400332776435
36.70343999193702
37.00417130569749
37.32682255670969
37.68281485807881
38.08433669371241
38.54428596348162
39.07617775569453
39.694015190639384
40.41212379256559
41.244953744818595
42.20685857998525
43.31186263506812
44.57343214226892
46.00426542876134
18.302316676452563
16.78894229374268
15.619328826895806
14.835976053378127
14.461473560170186
14.487712934526543
14.874475822813853
15.558923624659837
16.470058580548187
17.540722607786023
18.713892957070087
19.944179852980305
21.196748544064903
22.445379406952004
23.67054235660575
24.857798756945765
25.996574758322044
27.079252924252447
28.10050928981786
29.056831022209217
29.946164464543294
30.767656995677804
31.521466883285427
32.20862317848841
32.83092327082775
33.390859594796076
33.89156964031234
34.336805224530515
34.73091817618583
35.07886032786405
35.38619610767859
35.659126128883436
35.90452002442893
36.12995637714184
36.34376696394311
36.555081681603944
36.77386949426557
37.01096962494163
37.27810615240644
37.58787839451523
37.95371925537917
38.38981442611921
38.91097726991824
39.532477568812595
40.269826970814464
41.13852948234733
42.153810832931235
43.33034485032838
44.681996984472605
17.16593689403546
15.725532285452324
14.662834915094118
14.022750998961792
13.82193265655432
14.038210088036891
14.614249392781135
15.473273843039745
16.536588971468394
17.734931779130683
19.012552847956602
20.326750572635376
21.64562533309742
22.945614959696194
24.209408772008672
25.424354333566004
26.581294150724492
27.673731016457637
28.697230847411337
29.648993260896244
30.52754003403646
31.332486936403726
32.064375420143435
32.72454826448346
33.315058465648704
33.83860418554315
34.29848495308757
34.69857590998193
35.04331794344206
35.33772220084846
35.58738782347254
35.79853181378054
35.97802977872436
36.13346586544785
36.273189512258405
36.406375666573794
36.543083883909574
36.69431027312954
36.87202472072036
37.089184438224464
37.35971397643369
37.69844188698222
38.12098567931527
38.643580026990094
39.282848456177135
40.055525656443606
40.97814513589094
42.06671369600771
43.336398393979316
16.015596349864854
14.6539216483105
13.709760753569473
13.229121421698235
13.218662945183077
13.637475947410023
14.408704389124594
15.442232396294123
16.653816826834422
17.97418876945838
19.35026024118084
20.74272629212957
22.122891681249794
23.469891513256734
24.768575135267227
26.00798601750394
27.18029333005114
28.280043361395368
29.303631347059223
30.248924186009084
31.11498703646697
31.9018824721243
32.61052146084479
33.242552473992625
33.800279714252234
34.286604565130645
34.70498644618976
35.059420647374914
35.35443163092085
35.59508086273098
35.78698854131056
35.93636866366769
36.0500767056659
36.135668777618434
36.20147040799401
36.25665206854441
36.31130715544281
36.37652639409616
36.464460625575875
36.58836186349852
36.762590744886
37.00257758003587
37.32472482199384
37.7462416317086
38.284906796474615
38.95876451159918
39.78576756382904
40.7833924322283
41.968258277080395
14.8519062622331
13.576379783456584
12.765337854041254
12.463412724289679
12.661496410251816
13.294612746855876
14.264852422260343
15.47061840149356
16.824941585889153
18.26071874762021
19.72873079522063
21.193579465496562
22.629902611352342
24.019490095816096
25.349249506560817
26.609811059914698
27.79457479352902
28.899054147303172
29.92041657318665
30.85715581973289
31.708853480314083
32.47600239090742
33.159874164290265
33.76241942331783
34.28619337927443
34.734302081564834
35.110366441419814
35.41850231808688
35.663315744990825
35.849912880644105
35.98392455580421
36.07154537583217
36.11958721544291
36.135546575809414
36.12768460374407
36.10511752787254
36.07791377640821
36.05719205962783
36.055212247775984
36.08544809669647
36.16262810771218
36.3027286513058
36.52290280491814
36.841330204232094
37.27697855859436
37.84927679120925
38.577712443996006
39.48138002821146
40.578519099568396
13.675657949720119
12.496024675568663
11.836569827593475
11.736137167172577
12.161914823257082
13.019395184519908
14.18968699991997
15.563009588757389
17.05296717451451
18.596667151089594
20.149696204068782
21.68085558868011
23.168111445124392
24.59579466208136
25.952735601444907
27.231028850007547
28.425206776424833
29.5316759364307
30.548323423820495
31.47423471935265
32.309486307202846
33.05498991266769
33.71237373627706
34.28389145019917
34.77235317301248
35.18107487869343
35.51384417360807
35.77490136719925
35.96893543573493
36.10109493164375
36.17701417284219
36.20285516959732
36.1853656924971
36.13195360638534
36.05077701653775
35.95084879463625
35.84215255715801
35.73576504677772
35.643977052915716
35.58040154881796
35.56005387795388
35.599385175018526
35.71624775516261
35.92977135229448
36.26013341727253
36.72821643665715
37.35516049039663
38.16183816547854
39.16829737596038
12.487939459008528
11.417259074293721
10.93292673440007
11.060473644517218
11.733024343756192
12.821975749289432
14.189937876195803
15.723631770349268
17.34067875920808
18.984110295169227
20.614921674323163
22.206188432965035
23.739081045491776
25.20029971122858
26.580437425110787
27.872923046040686
29.073323200209337
30.17886767259718
31.188116206073605
32.100716808582256
32.91722503558876
33.63896544532506
34.267923609768374
34.806661526549476
35.25825209253261
35.62623011070909
35.9145584953468
36.127609151011264
36.2701585705988
36.34739860722131
36.36496316400479
36.328971720957476
36.246090655566235
36.1236131593424
35.969558118436815
35.79278748871086
35.60314029607402
35.41157925207318
35.23034292619519
35.07309237554818
34.95503621359981
34.89301278113803
34.90550339389622
35.01254828296018
35.235539082808856
35.59687086015488
36.11945398635575
36.82611047912567
37.73890615485088
11.290338004101349
10.346464839376178
10.067286109366638
10.452698113181444
11.389301904723872
12.712453449021055
14.271809353336126
15.956270895846
17.6906383691336
19.42507562054681
21.12622759492112
22.771317069377528
24.344495810352687
25.83461808322769
27.23386365299195
28.536863081506382
29.740122683485197
30.841631510093638
31.84058159062142
32.737160785629115
33.53239397442456
34.228017971468574
34.826381373382674
35.33036408362494
35.74331346755015
36.06899549644455
36.311560167053415
36.47552112712977
36.56574991394981
36.58748558825316
36.54636085209651
36.44844597853176
36.30031202892255
36.10911483396008
35.88270097310422
35.62973636421103
35.35985687771161
35.08383837338805
34.8137804478675
34.563293731458366
34.347674689220675
34.18404482715616
34.09142389120991
34.09070093299768
34.2044659282582
34.45667158465199
34.87211313770113
35.47574374345662
36.291880108714324
10.085303600838916
9.29311787598551
9.257139872788436
9.93239336519865
11.14601464195678
12.700329188814779
14.440737699858634
16.264221174687034
18.105201841480365
19.921571531811853
21.68551524335697
23.378104652580284
24.98617439737071
26.500488854261285
27.91463160626867
29.224304834842854
30.426866362707162
31.52100818877244
32.50652194534206
33.384119838842196
34.15529276133178
34.822194854358656
35.387548279405635
35.85456462908067
36.22688105192378
36.50851019663965
36.70380376682539
36.817429970230776
36.854365540605244
36.81990335931244
36.71967703356965
36.559704100318534
36.34644979649939
36.08691351484436
35.788740056559845
35.46035745190993
35.111142230881434
34.751611290413564
34.393636542901426
34.05067391971634
33.7379916849839
33.472874320271146
33.274768070092115
33.165324368993254
33.168291219648715
33.30920519957257
33.61485367320141
34.11251124569931
34.82900363484892
8.876829383500706
8.271571678406099
8.525979418564045
9.522149621668783
11.018252157432766
12.793915511868535
14.701208572443047
16.6502792933692
18.586557676345592
20.475626298389667
22.294796303584956
24.028558923509358
25.66608313709775
27.19978521259943
28.62447061976887
29.93679019319258
31.13487420952024
32.21807062150031
33.186746714337694
34.042131354041295
34.78618494204815
35.421489824310044
35.951157145061764
36.37874802765556
36.70820809096469
36.94381500680339
37.090139271032946
37.15201871910415
37.134547638820344
37.04308166232529
36.88325997719248
36.661046785940975
36.38279434656859
36.05533029874134
35.68607223697923
35.28317249157764
34.855695596340915
34.41382962524678
33.96913000032658
33.534789912508984
33.12592449876012
32.75984587322461
32.45629308580766
32.23756643664867
32.128502851325926
32.15622457090038
32.3496057802426
32.738438649835444
33.35234248924064
7.671782531463352
7.303832133763286
7.904514196038116
9.246366445925315
11.019622447675916
12.999810440113231
15.056671155940638
17.116789112401598
19.136786535785806
21.089335136161672
22.95622593918934
24.72485437951744
26.386350057858802
27.93452214226708
29.365224532993956
30.675945167481558
31.865519457016248
32.93391528884906
33.882061444290684
34.711704243224325
35.425284265116076
36.02582887596582
36.51685844229043
36.9023053100006
37.18644529971102
37.37384187012386
37.46930337586123
37.477854085759816
37.404719887895816
37.25532992265249
37.035335773853
36.75065031589163
36.4075088516819
36.012555749215586
35.57296032487104
35.09656610354219
34.5920775946453
34.0692880131012
33.5393494183093
33.0150827927709
32.51131867462571
32.045248065932476
31.636747779194096
31.308624677629545
31.086702491582205
30.999660232442675
31.078534476649185
31.355832727675143
31.86427963065023
6.482615910058553
6.423582203175467
7.430869007494168
9.128822453381407
11.160841532468462
13.322560937854997
15.509570803044074
17.665734746957252
19.75793864322852
21.764914402427802
23.67213916768277
25.46935604420893
27.149279395401237
28.706863668067015
30.138852947603667
31.44347612281241
32.6202206546335
33.669650949500316
34.59325398409375
35.39330346150576
36.07273831746979
36.63505377350212
37.08420435210978
37.424518868052516
37.6606276924298
37.79740272917094
37.83991065157181
37.79338008451252
37.6631836268398
37.45483591475269
37.17400934800675
36.826569645560284
36.41863406487443
35.95665589192185
35.44753963980685
34.89879218380004
34.318715622381944
33.71664765782278
33.103254188362015
32.4908757425409
31.893923132963526
31.32930668462639
30.81686598990328
30.379742585124525
30.044608052686154
29.841631870891607
29.804061532124837
29.96731342883445
30.367556161044163
5.332963058230332
5.681260354443237
7.148103078281567
9.189125643152474
11.448613970103679
13.764611834788397
16.06150019608293
18.298874290138556
20.452125483661973
22.504761826324497
24.445090309703296
26.264644740387478
27.95736638769646
29.519129316278253
30.947430781297044
32.24116357026076
33.400430757030094
34.42638407041055
35.32107729385767
36.08733120673966
36.72860907279832
37.248902825269305
37.6526305408248
37.944545890969955
38.129660211143154
38.21317775205435
38.20044464511772
38.09691216767735
37.908115062322494
37.63966596807978
37.29726747551211
36.88674393596233
36.41409594639111
35.885581395277256
35.307828070868624
34.68798403763496
34.03391313753097
33.35444378561803
32.659679183446976
31.961375274084585
31.27338778052967
30.61217941881526
29.997360218964825
29.45220533821956
29.0040554156527
28.684459798533506
28.52888906099045
28.57584987639955
28.865318525773677
4.268268671209947
5.14869853638723
7.096924544138114
9.43905355166781
11.885214022179948
14.326564489609996
16.713447878363525
19.017902984683104
21.221622057798424
23.31152183847106
25.27789532669822
27.11354371956373
28.813312052001027
30.373799312335933
31.793145501147343
33.070852817713615
34.207622511925265
35.205200255899214
36.06622819488912
36.794104214610655
37.39284986611938
37.86698855280103
38.22143539796085
38.46139989412367
38.59230211172347
38.61970298826793
38.549249072063695
38.386632083024075
38.13756379402325
37.807767043893556
37.40298418199927
36.92900493141232
36.39171656227509
35.797180406919715
35.15174013197645
34.46216878983944
33.73586341903372
32.9810976402654
32.2073438570792
31.425676463333254
30.649264369681
29.893952711261964
29.178916148778715
28.527335242317548
27.96699936500441
27.53067628046363
27.256024903580215
27.184801007745822
27.361173498778008
3.370496029802105
4.9165697300445945
7.303760892401842
9.880523541332872
12.468954190845535
15.007687007697108
17.466109561501995
19.824633948427845
22.06897642883595
24.18815531411892
26.17367689594838
28.019146419660913
29.720037497164235
31.27351786032716
32.6782912305
33.93444059115795
35.04326924036014
36.00714080640607
36.829321271867975
37.513826471417296
38.06527824616463
38.48877184306048
38.78975646145254
38.97393019627218
39.047150080824686
39.01535753172165
38.88451926485195
38.66058369519142
38.34945296146585
37.95697103735394
37.48892891683752
36.95108861261187
36.34922871195634
35.68921553013268
34.97710552562348
34.219286621429234
33.42266839870778
32.59493368127795
31.744866490895546
30.882772997657803
30.021011460098677
29.174641573355483
28.362188661080825
27.60648720928369
26.935513723274006
26.38303654225119
25.98880988237803
25.797961718620467
25.8592529373444
2.7824090979494276
5.064326143965884
7.770720312229927
10.506446994050275
13.195377949998283
15.806563588384023
18.32022521807177
20.721186303407507
22.997124231450343
25.138013348900238
27.135912082440797
28.98484499426536
30.68069712524924
32.22109361623861
33.60525868178846
34.83385650632894
35.908819895541285
36.83317336368455
37.61085700229555
38.246556568882426
38.74554409484395
39.11353214091658
39.35654374768983
39.48079920919549
39.49262007672251
39.39835029337214
39.20429406990774
38.91667003598337
38.54158133446063
38.085001671815995
37.55277790492941
36.95065055607016
36.2842947408069
35.55938542090352
34.78169272381841
33.957215377888154
33.09236316044173
32.19420264843428
31.270784341947795
30.331572886442224
29.38800440825848
28.45419329242919
27.547800136426268
26.691044737332263
25.911790719610476
25.244529219693728
24.730946934941663
24.419615483978045
24.364290846750514
2.7961294852540894
5.603299475660745
8.47650297764585
11.304034344757508
14.058770497047862
16.721764594701952
19.276912118623315
21.710173866894365
24.00950696243366
26.16491498932217
28.168482429277336
30.014359062303917
31.69868980392215
33.219496160769225
34.576519559578
35.77103798419186
36.80566703798973
37.684155398333345
38.411183038213
38.992168824007315
39.43309234471376
39.74033321536068
39.9205297062132
39.980457422743285
39.92692791385039
39.76670651348229
39.50644840925764
39.15265186365417
38.71162767464058
38.18948434746698
37.59212906456692
36.92528540945866
36.19452996725473
35.40535145699375
34.56323804482143
33.673801064688405
32.742946675130945
31.7771111355965
30.783580432715418
29.770920697878417
28.749551363262224
27.732496061813258
26.736341966843636
25.782416995229827
24.89813968061626
24.11838591023507
23.486531945503724
23.054594458365457
22.881715909612637
3.536390175706872
6.465363729838788
9.387985919390784
12.258806592111721
15.05358090004054
17.75245222516893
20.337976194198376
22.79489141709311
25.110194034290227
27.273229089111023
29.27572617371861
31.11176384071092
32.777666720856004
34.2718468779709
35.59460368878811
36.747896853231865
37.73510607163439
38.56078906876418
39.2304474054194
39.75030718872238
40.12711957860108
40.3679840253217
40.48019553735997
40.471116000608305
40.34806864634125
40.11825417376763
39.78868674118039
39.36614801506424
38.857157682798785
38.26795927758877
37.60452083660725
36.872550838335826
36.07753109230866
35.22476986494916
34.31948063860934
33.36689468281166
32.37241928192298
31.341858266966067
30.28171769047279
29.19962717271109
28.104916275187563
27.009393650171347
25.928380358730863
24.882037774181157
23.89698519145012
23.008089324263317
22.26008574963794
21.708347877310082
21.417763184561156
4.71701661302798
7.5604501072893315
10.472720265535328
13.357758304729705
16.175523819443697
18.898884351729894
21.506196742434327
23.9794991406307
26.30400959437457
28.46796060749085
30.462492067453212
32.28151640882487
33.92153413107798
35.38140212658266
36.6620666342284
37.766275457505635
38.69828374590034
39.46356573241629
40.068542224740646
40.52033088966936
40.8265237714953
40.9949942293959
41.03373365435376
40.9507169540812
40.75379485338146
40.450610502735586
40.04853766631939
39.55463782181478
38.97563380846493
38.31789818340765
37.5874551872375
36.78999620077245
35.930909849972835
35.01532957672307
34.048203679997364
33.034395747587936
31.97882732493243
30.88667997860317
29.763681068064297
28.616507016075214
27.453349914301484
26.284707282923854
25.124467634196325
23.99136723567238
22.91086493525242
21.917379283041914
21.056586158050962
20.387018954352815
19.97960885602091
6.071997707851505
8.822789413822248
11.70557164764869
14.591166236561602
17.422323579521578
20.162819656971777
22.785589576273832
25.26920875600705
27.59666589868935
29.75484165535761
31.734193887384805
33.52847826323815
35.13444853566108
36.55152592018656
37.78144496973006
38.827889583922385
39.696133545128305
40.3926981302163
40.92503641295079
41.301250684651855
41.52984644996859
41.61952394275069
41.57900615062397
41.41690094058686
41.14159399303716
40.76116880424993
40.28334992820213
39.7154658265809
39.064428126139575
38.336724712459386
37.53842491165035
36.675196049133675
35.75233198490565
34.774795908297435
33.74728188933929
32.67430266189335
31.560315194025137
30.40990126299064
29.228028152700187
28.02042557036877
26.79412984420646
25.558265921233115
24.325160340021093
23.111897540760296
21.94242746779827
20.850255426630724
19.881497763888667
19.097528972946282
18.57553103639586
7.528445082922702
10.214828814166445
13.070100403980861
15.953326631945426
18.794181730589816
21.54785171085812
24.18166030992075
26.670476867326126
28.994905527605976
31.140427367471432
33.09686409784042
34.85793148953633
36.420800930674574
37.78564847181574
38.95519560807575
39.9342549319768
40.72929516882764
41.34803801303999
41.799095711758554
42.091654624375266
42.23520662248081
42.23932746430141
42.11349926434885
41.86697285160708
41.50866507713846
41.047085881020024
40.490290047681604
39.8458489732846
39.12083836862097
38.32183858473702
37.45494516573546
36.525788327286804
35.53956139176443
34.50105989015001
33.41473523744132
32.284769859532865
31.115184778435307
29.909996515351246
28.67344857525348
27.410354908903177
26.126610172977195
24.829946074487506
23.531045521999054
22.245163573999157
20.994430204279823
19.810974927378787
18.740795514675327
17.84766418288642
17.215096271536105
9.064716718324073
11.71784756694926
14.557656288316206
17.442714129080436
20.294085482493692
23.059709557457676
25.701663073106218
28.19121242194591
30.506654897335522
32.63219614472867
34.55720416716748
36.27558471215347
37.78518556897701
39.08720586466372
40.18561469911808
41.08659317919421
41.79801487616208
42.32897676653178
42.689388358373506
42.88962230205611
42.940226007115015
42.85169090428351
42.63427403514045
42.29786552418011
41.85189503555383
41.30527037408364
40.6663418079586
39.942886349197806
39.1421070433167
38.27064324422761
37.3345888734155
36.33951681026184
35.290508899863234
34.19219271185032
33.04878831984176
31.864171271219746
30.641961996694775
29.38565780085192
28.098832243932947
26.785439637327404
25.450281699454866
24.0997221441119
22.742776487107164
21.392760039391383
20.06973785865941
18.804042695477982
17.640975222253378
16.64615526362267
15.909362860777359
10.674913456753492
13.324710675258508
16.16609466466663
19.061948137594918
21.928064031766112
24.70656347759653
27.354881603770128
29.84100587902475
32.14119128720153
34.23865283695493
36.12262760907881
37.78756336289406
39.232347096533225
40.45955473546411
41.47473053282697
42.28571296596849
42.90202306651492
43.33432646983754
43.59397480520378
43.69262681069098
43.641945395823385
43.45336397203198
43.137913648814575
42.70610214956194
42.16783529461255
41.53237240129999
40.8083077706078
40.003571424722224
39.12544333538334
38.18057649116756
37.17502528619487
36.11427690653036
35.00328471837205
33.84650424818825
32.64793437973631
31.411169163887983
30.13946958264622
28.8358704070804
27.50334600781657
26.145072312481624
24.764842742188584
23.36772803238408
21.961119212303554
20.556366156210025
19.171321443244956
17.834190468029703
16.58904000578495
15.50272883970306
14.671073583089878
12.360482087048942
15.035917880287158
17.898817592907903
20.81779410453617
23.705475981247886
26.49937234616441
29.152950430019064
31.631387955064532
33.90932483219332
35.96943181728094
37.80128970781435
39.40037656851718
40.767097853128206
41.905854155158416
42.824163653875814
43.531860380760264
44.04038516474217
44.36217887369107
44.510180196703146
44.497424077141545
44.33673250287368
44.04048667977263
43.62046839686319
43.0877582830679
42.45267930477136
41.72477495983469
40.91281295670681
40.02480656782342
39.06804721966915
38.0491431869024
36.97406049971987
35.84816339748861
34.67625295346309
33.462603988978984
32.211002289844004
30.92478672940228
29.60690464449053
28.259994410536944
26.886517758407724
25.488977835495948
24.070280433796455
22.63433030388589
21.18701020209461
19.737778945547067
18.30225765253198
16.906339798563934
15.592445920216326
14.428093914302629
13.514774654828178
14.127514089170134
16.85770337945
19.764286057808206
22.721318752367875
25.639391266872874
28.452307016930384
31.110234447458275
33.57612557878937
35.82359536530179
37.83539431541426
39.60209480508062
41.12084988225587
42.39419444273239
43.42890483091071
44.23494604488009
44.824532858883444
45.21132178727577
45.4097401207699
45.4344489257606
45.29992999429798
45.020182421212546
44.608512433489686
44.07739977502223
43.43842480629728
42.70224203419937
41.878587671401505
40.976310779115224
40.00341941073518
38.96713486561824
37.87394866077216
36.729678159059794
35.53951801943957
34.3080858586854
33.03946188040605
31.737223943602864
30.404481913558534
29.043918624366086
27.65785011208524
26.24832613536976
24.817305375092722
23.366961506241452
21.90021247619236
20.42162595359616
18.938955568305598
17.46572794931954
16.02554243421105
14.658983083075723
13.433802214498392
12.45673698830375
15.985890023786528
18.80131387179671
21.775987571028754
24.788266566356178
27.747120950721683
30.58328427620377
33.24428597506661
35.691561730073026
37.89848118260595
39.84871034214191
41.534667565826965
42.95600889791217
44.11815925424255
45.030933337631815
45.7072898650487
46.162249968725746
46.41199445598665
46.473139821893916
46.362181663925725
46.095086942387496
45.687012939972256
45.15212997778417
44.50352605248169
43.75317378595777
42.911942818945384
41.9896436117256
40.99509127769418
39.93618043203736
38.819964040979
37.65273092128851
36.44007792181254
35.186974007715875
33.89781458367665
32.5764655931504
31.226298433646924
29.850218843830184
28.450696116521314
27.029804014091322
25.589292829544767
24.13072522800548
22.65573047116167
21.166468918385938
19.66646312223576
18.16206420493459
16.6650158570261
15.196890227553032
13.796562159427845
12.531893705591182
11.514471293963355
17.949250134101575
20.88303113337126
23.952833466788235
27.03971169914199
30.050948270477424
32.91464881074159
35.57639926836126
37.9970035955559
40.150611984354825
42.02290931405942
43.60926823107445
44.91289315292801
45.94302834362812
46.713306394320156
47.240295036283506
47.54227459899205
47.63825405565726
47.54721457227278
47.28755697192092
46.8767230141967
46.330958554697034
45.665188001771085
44.89297270205374
44.02652994212217
43.07679345097385
42.053500200959256
40.965291714753775
39.81982091675654
38.62385783331504
37.38338921530915
36.10370852817474
34.78949384851584
33.44487216429495
32.073469569765315
30.67844810252787
29.2625318066509
27.828027500850965
26.376850442725257
24.910572865943468
23.43052639335976
21.93801145792485
20.434705175819293
18.923426802124176
17.40954135923797
15.903499747862897
14.425386256154834
13.01287411237433
11.734220719907459
10.705554422954542
20.035474120854985
23.12476345944315
26.319997948221378
29.503050446011013
32.57912357902348
35.47404642301023
38.132282921877014
40.515158862322295
42.598970168931544
44.37287397463262
45.83662274261286
46.99827227356575
47.87200194610891
48.47615745034225
48.83158430332982
48.96027897030977
48.884351159207135
48.62526843851701
48.203342169954105
47.63740968825634
46.944669126370385
46.14062795744641
45.23913242996543
44.25245141131308
43.19139402016205
42.0654454716444
40.88290967237971
39.651050317609645
38.37622466692012
37.06400594806326
35.71929161096118
34.34639558066268
32.94912340152472
31.530829910358353
30.09446005737089
28.64257503600195
27.1773684764241
25.70068188512451
24.214036081585174
22.718708362964602
21.215907606000144
19.707139079883333
18.194921785083096
16.684150975794147
15.184636722612277
13.715770265172075
12.31490059875031
11.05136659526546
10.045521061695881
22.267600088559774
25.55518316939473
28.910265393859465
32.21342780567939
35.36720390040226
38.29554005258533
40.94286927941151
43.27261103344907
45.265051308834586
46.91473778896716
48.227625798050816
49.21822669270853
49.906968029381645
50.31790550817856
50.47685485273098
50.40995225508401
50.14261075930459
49.69881673267424
49.10070182540749
48.36832697696107
47.51962189694733
46.57043283161246
45.534641204933244
44.42432468692568
43.24993983324916
42.02051151587514
40.743819011908414
39.42657203189547
38.074572379510656
36.69285856641013
35.285831765224906
33.857362157698375
32.4108752041032
30.94941781781323
29.475705113654165
27.992149642597983
26.50087733416816
25.003738558813353
23.502330173048527
21.998057528871254
20.492288572282515
18.986693445659117
17.483937923552816
15.989037108518836
14.51193097361286
13.072296144045445
11.708281503023105
10.491178683038154
9.544877641944282
24.675238050513492
28.21150003529054
31.766021437232357
35.21573717835322
38.45984537024864
41.42103001033381
44.04527421383802
46.30030795123828
48.172932812982076
49.66562435567342
50.79285718948002
51.57754331779543
52.04786326564228
52.234645068277
52.16933810068735
51.882551220431125
51.40307946203952
50.757324921586275
49.96901723264038
49.0591493242173
48.04605898464998
46.94560224945284
45.77137865505296
44.53498004706172
43.246243737616425
41.913497593273135
40.5437894825709
39.14309682726184
37.71651415438652
36.2684178508068
34.8026080331289
33.32242777603754
31.830860079725337
30.33060309643617
28.824124514454397
27.31369695151132
25.801418261850863
24.289224673531507
22.77891211370865
21.272194531806427
19.770852165949258
18.27706619408649
16.79411546513224
15.327756836527985
13.888877382353604
12.498467706275653
11.196598309814616
10.057136772529553
9.205910593909255
27.29663485323794
31.14207474470057
34.94211684784018
38.56739992915716
41.91319519176724
44.9020486696621
47.48390523076449
49.634007303097825
51.34916446098187
52.64313537249678
53.54182801605299
54.078862607731395
54.291830845695834
54.21938788017568
53.899165267754626
53.366403294760566
52.65316152883155
51.78796218807289
50.79573677414708
49.69797075722192
48.51296651268829
47.25616730762475
45.9405034288058
44.57673542043288
43.173779400894375
41.73900631419732
40.278511494100705
38.79735371998796
37.299764532148515
35.78932933585443
34.26914204510977
32.7419349168338
31.210184987165633
29.676198326559224
28.142173407226544
26.610245560460946
25.082516332474228
23.561075435270666
22.048030504683886
20.54557379281005
19.05614022960885
17.582757144484233
16.129769244507553
14.704273666226637
13.31886828216642
11.996750870669569
10.780696082316412
9.747004106062482
9.020551138947113
30.181670622300125
34.41022730112897
38.509970367579015
42.34223136243068
45.79808023893021
48.802001672129705
51.311680779194205
53.31456854679074
54.8223380336294
55.86444733537248
56.48184289335856
56.72149918643729
56.63213318684201
56.26114432560189
55.65264783047132
54.846384101888404
53.87727198901552
52.7753992111786
51.56628503890864
50.2712938538643
48.9081159814123
47.491261772449924
46.03253649069194
44.5414784438211
43.02575254812042
41.49149756183459
39.94362870753048
38.386099182777016
36.82212473874799
35.25437550575771
33.68513884697736
32.1164564251378
30.55023802837667
28.988354177602144
27.432709336201125
25.88529798930089
24.34824750413531
22.82385547693136
21.314636878245878
19.823410662438185
18.353481835923425
16.909022645415384
15.495842116560503
14.122884249867228
12.80504883429372
11.568292191240342
10.458211254816064
9.552285783559478
8.970467591217172
33.396253054606774
38.09982629074199
42.56348943037208
46.63584761872198
50.204251118988424
53.19890872286606
55.59124980812067
57.387885156476244
58.6221045222744
59.34481226406631
59.61632825107771
59.49984731508962
59.05678432463026
58.34384851982934
57.411501398433145
56.30341013206341
55.05655082187681
53.70169205758769
52.26406766510716
50.76411353659381
49.21819298467649
47.6392694363105
46.03750765134426
44.420798339007014
42.79520883235934
41.16536644911857
39.534782773494996
37.90612730713767
36.281458377759826
34.66241824462837
33.05039823281073
31.44667860722481
29.852546869903417
28.269397344069592
26.698814470565154
25.142642489928356
23.60304566220416
22.08256685748317
20.584199946899382
19.11150594382283
17.668829538478246
16.26172057903611
14.897749099779006
13.588044268180816
12.35010516173441
11.212679800879231
10.223457944556229
9.45880359254715
9.029549046455413
37.02888644097112
42.323627353360074
47.22773074372731
51.57328756548145
55.2460042231319
58.188626566199474
60.39595179031864
61.904085888468316
62.777271554893815
63.09517208387729
62.942440806215316
62.401283551555316
61.54688911993416
60.445161752914
59.15207173444455
57.71401270150948
56.16870167442404
54.54630789854254
52.870618160010416
51.16013271807115
49.429042245028526
47.688070046518014
45.945182637869664
44.206181050691804
42.47518889354499
40.75505368878281
39.047676889995884
37.35428615137215
35.67566137204113
34.012324034343955
32.364697517311114
30.733244449161106
29.118585799351052
27.521605357714556
25.943542632163958
24.38607728309033
22.85140951686375
21.342344329625107
19.862394808437003
18.41593377747212
17.008448853084406
15.647001432985299
14.341067039069948
13.104055498869092
11.955970385065953
10.927777241118008
10.067736598570631
9.44826190843617
9.167752950435245
41.20074057640581
47.23599359796441
52.671792056561664
57.319845144346345
61.06953753240795
63.88834726450078
65.80996596855259
66.91535427964733
67.31241470339931
67.11849527673834
66.44774936870043
65.40350722477045
64.0747254990298
62.5352397125788
60.84466448955249
59.05009123548153
57.18804016895644
55.28636174810457
53.36594076769936
51.44215109082232
49.526060258487874
47.62540769073103
45.74538933555948
43.889282674607145
42.05894321573777
40.25519935500898
38.478167996653866
36.727509153218506
35.0026341282405
33.30287884976545
31.62765143171991
29.976561023755515
28.34953341210867
26.746917639450643
25.169587186487774
23.61903920812158
22.0974963884478
20.60801902545514
19.154641505173267
17.74255997849993
16.37842100988425
15.070800422641259
13.83102494899078
12.674579619063213
11.62343820134669
10.70964114441521
9.979998068258883
9.500309512773462
9.354881737193958
46.0815556661734
53.05283401250163
59.12839227982023
64.09655917543134
67.86230225218613
70.43971031997873
71.92654132491252
72.47125839152622
72.24216830185559
71.40435372803111
70.1058104792407
68.47134037312759
66.60169595747054
64.57562487278182
62.45313507702497
60.27897905113498
58.08585688315265
55.89714328049612
53.72910725235896
51.59266905433546
49.4947663957046
47.43940510594762
45.428462074432964
43.462297391835726
41.54022160133196
39.66085420793633
37.82240150871472
36.02287535739526
34.260269448887875
32.53270584200028
30.83856148657057
29.17658227874586
27.545990481180862
25.94659012214259
24.3788742221621
22.844137509031597
21.344598997796865
19.88354109871939
18.46547698632785
17.09636785217905
15.78392947692204
14.538097306233993
13.371764085865738
12.30196000091365
11.351682432601017
10.552504852630765
9.94768795237962
9.594523213064358
9.563344362575352
51.91568874961422
60.0838595738517
66.92427231488207
72.20236283706464
75.86413235743542
78.0098339709999
78.84216185783973
78.60978216673628
77.56205827279145
75.92125088753545
73.8705951740329
71.55317847666932
69.07641802754416
66.51852575881185
63.934955547441874
61.36398574712858
58.83121207396928
56.35301413275654
53.93916185143213
51.59474370835346
49.32157875648564
47.11924430755322
44.985821604661666
42.91843676392629
40.91365444678847
38.96776663763507
37.077007679528165
35.23771849446673
33.446476940059966
31.7002069410665
29.996275931054193
28.332587910844005
26.707677833685445
25.120811897757072
23.572097577087273
22.062606858969012
20.594516326170197
19.171268799030003
17.797763969415517
16.48059107499569
15.228327050321537
14.051940911386204
12.965370259859128
11.986363795665417
11.137693800600694
10.448781896116742
9.957558175750698
9.711923267851583
9.769707890667743
59.06656843246718
68.78674645163892
76.52843470296693
82.04533743412748
85.3783634196964
86.78630374111523
86.64267244624585
85.34129445835005
83.23456803189444
80.60644319960967
77.6700697017107
74.57757532441948
71.43342040603433
68.30685571254682
65.24202564705676
62.26559396764796
59.39227377877923
56.6287427474079
53.97637379477701
51.43312075007911
48.994811151633414
46.65602754823359
44.41070540486391
42.25253725613793
40.175245590058225
38.172768015364184
36.23938517870568
34.36981289853979
32.559273820988615
30.80355970209965
29.099092569536296
27.44299108582659
25.83314711944321
24.268316604912318
22.74822806808135
21.273711576784493
19.846850263225548
18.471155939765318
17.15176982838973
15.895689457999671
14.712024229857878
13.612286531543248
12.610734724481777
11.724800924337512
10.975660484903232
10.389026508232831
9.996265125212304
9.835887317300717
9.955314220541997
68.0968053488802
79.86186972751055
88.63037443827969
94.18464851336444
96.77672523189636
96.95741416897484
95.37437271387242
92.62186229940629
89.16947971032967
85.3537743590842
81.3998789679067
77.45086345335261
73.59312927763838
69.87549032809385
66.3225081652183
62.94346647309228
59.7382769414627
56.701309408590106
53.82384724131951
51.09564320994542
48.50589140186741
46.043822501850215
43.699058045327014
41.46181225368977
39.32299943725347
37.27428505452551
35.308105614999135
33.4176742714289
31.596983583045727
29.84081351195053
28.14475056266194
26.50522263161365
24.919553271834136
23.38603843599771
21.904048089373134
20.47415410201352
19.098284186439788
17.779898907988965
16.524184495443752
15.338248056049569
14.231294404762982
13.214757737750336
12.302363909483278
11.51012449206955
10.856334914387851
10.361790092369576
10.050641143737078
9.952506344010583
10.106348114456562
79.92001627316792
94.42727391437884
104.26737508989774
109.3792529868749
110.47996396077161
108.65922481441439
104.98971376955535
100.31250483479067
95.19954774708992
90.00160312076643
84.91904491643615
80.05716662036588
75.46398420188817
71.15420490762288
67.1239080238963
63.35934241046583
59.84210889158135
56.55215424679461
53.46945245357482
50.574904593845964
47.850778476097425
45.280881635377014
42.85058444770855
40.5467636510661
38.35770851702484
36.27301499932767
34.2834830288028
32.38102609262346
30.55859873045746
28.810145619784933
27.130574893038915
25.515757824726442
23.962556746603845
22.468882720018513
21.03378380195683
19.657563260925883
18.341924233425217
17.09013226644171
15.907179091107325
14.799919354029178
13.77713813528441
12.849496460619374
12.029308483536857
11.330152911849758
10.76644665971156
10.353337747176578
10.10759529218019
10.050488021551184
10.21365507794596
96.12199089783475
114.35257552188244
125.03264645934993
128.61320689643418
126.86475429468959
121.85768785495806
115.25429653193687
108.1274080104597
101.05667235301142
94.3253246076837
88.05058425280907
82.26243440708622
76.94747427791557
72.07259743365938
67.59744625915775
63.480756315363294
59.68341239175098
56.16975591658517
52.90798074545771
49.87007121763163
47.03152738779433
44.371008077504875
41.86995987358772
39.512266111263685
37.283931494461214
35.17280832914047
33.16836550343077
31.26149918013355
29.444383458695
27.71035932315798
26.053860609862653
24.470376232456992
22.956448264653716
21.509705444949454
20.128930871106732
18.8141605579785
17.56680536758246
16.389781602801854
15.287624374657367
14.266542752253052
13.33435968066753
12.500272048883764
11.774386377479948
11.1670616358902
10.688247576968148
10.34724858938052
10.153666074676265
10.120701319907022
10.272471120020189
119.63436146787808
142.97954791803548
153.3530635057708
152.97718603394816
145.99427959749067
136.1042458964542
125.62870943117439
115.5856451308124
106.36038199901733
98.04115240920041
90.59036153149148
83.92387104524033
77.9464812350324
72.56693357925883
67.70349288039078
63.285304562575895
59.25195022360165
55.55232604665038
52.143354474889165
48.98874922506734
46.05791725387239
43.3250186655164
40.7681783848639
38.368833162086034
36.11119508487314
33.98181385373079
31.969222505548018
30.063654053662823
28.256819200483942
26.541737678717176
24.912617800211933
23.364780363703577
21.894624074215578
20.499629835920004
19.178400312997944
17.93072840702667
16.757682938738277
15.661690913201335
14.646582782958319
13.717551325184028
12.880961542258294
12.143951294643358
11.513801804776342
10.99715605405214
10.599319924056509
10.324046012903494
10.174356728435137
10.155442902877464
10.282113286528963
156.82765172015934
186.41053109463866
192.72645845931052
183.0628594477832
166.83046071816193
150.24909917867845
135.1707779209479
122.00088609568212
110.63469228041006
100.82798799602881
92.32640855591099
84.90503917298835
78.3764867884743
72.58828405921992
67.41745252201659
62.76494513586192
58.550819752041484
54.71030068039886
51.190651447159105
47.948720207948206
44.94902016907692
42.16222759480874
39.56400335213439
37.13406491969331
34.85545297624011
32.713950214557734
30.697620488607647
28.79644443872838
27.002033907886485
25.307412188626355
23.706850717462807
22.19575541526153
20.770597463021257
19.428883732408956
18.16916097964249
16.99104464921895
15.895256935518967
14.883648930755959
13.959168420249535
13.125720784773558
12.387863121283951
11.750286121500698
11.217095554914678
10.791019848178575
10.472817838093512
10.261232313355094
10.153657791638919
10.14761940755316
10.245633769082863
220.8263803855383
257.564632898876
246.72884532342337
215.69562360443788
186.5335888792299
162.2648005877252
142.56837224846288
126.54798808745073
113.36642236918237
102.36994049988841
93.0678741504001
85.09500679444396
78.17808695962567
72.1106933856363
66.73514103771564
61.92961216923857
57.598982240076786
53.66822819521255
50.0776426895211
46.77931995594636
43.734545695873976
40.91183663956017
38.28545231179825
35.8342540112419
33.54082213649192
31.39076812990718
29.372195014868637
27.475273133434413
25.69190681740891
24.015474381575416
22.44062867297549
20.963148819866234
19.57983593097316
18.288446198582665
17.087653816725876
15.977032775467627
14.95704027202433
14.028974803615924
13.194869727356366
12.457271630664005
11.818850467689177
11.28180944862296
10.847125268841495
10.513764697699521
10.278171489890886
10.134391763935856
10.074877791862718
10.09065715181607
10.16964695781865
368.4788939562168
377.8905912159262
301.9961809513489
242.56338747633555
200.36366344775507
169.54662823060644
146.3880971945472
128.42325857476476
114.10206898824578
102.41333285162084
92.67837255709422
84.42777748404994
77.32826189688474
71.13766872658067
65.67649356952217
60.809339720688556
56.432527370191764
52.46561993564812
48.84550666296223
45.522191535169185
42.4557448007363
39.614061632255506
36.97119078962048
34.50607221373808
32.20157232513161
30.04373909006659
28.021221543562902
26.124814101016966
24.347096976528885
22.682151842301757
21.125337447431544
19.67311382211645
18.322906185772162
17.073000757132448
15.92246409019802
14.871074885171163
13.91925193193623
13.067953709264811
12.318514982300353
11.672376484094638
11.130661815396095
10.693571158427197
10.359606126779184
10.124723255672293
9.981636818861537
9.919630932396032
9.925209322315244
9.982513371499689
10.066029861593686
730.2817500680223
476.2296593694393
329.25519568794414
252.4326220310274
203.2770842685725
169.8025668503812
145.50270288450264
127.05996747729114
112.55654557553538
100.82277753193777
91.10493218656485
82.89701979875328
75.8475243274195
69.70528039050704
64.28654297901002
59.45419279027631
55.10416938480668
51.15636874845709
47.548384642134295
44.23111143666834
41.16559503822802
38.32073872137516
35.671605866013586
33.19814669699581
30.88423092972187
28.7169042511431
26.685810695096297
24.78273941015378
23.00126568954454
21.33646409532384
19.784677117025794
18.343326713842945
17.01075867011804
15.786111091842708
14.66919853432014
13.660401954702497
12.76055160457421
11.970784874492324
11.292354158330761
10.72635210824855
10.27331552186107
9.932667705581698
9.701965021189254
9.575927051392274
9.545253617472985
9.595282618280466
9.70463971253043
9.843838100466703
9.968149366793192

SCALARS STRESS_XX float 1
LOOKUP_TABLE default
52.95341296601151
-757.6837299100355
0.027636509068230897
-86.68670835135549
52.94170035860195
52.906563831935856
52.84800728215089
52.766037234325424
52.66066288975118
52.53189619205219
52.37975191210408
52.204247751696215
52.00540446582747
51.78324600347868
51.53779966670031
51.26909628777086
50.97717042408678
50.66206057042935
50.32380938810654
49.96246395037973
49.57807600344054
49.17070224202199
48.74040459862613
48.287250545094814
47.81131340503113
47.31267267534538
46.79141435490336
46.24763127795214
45.681423449613646
45.09289838038669
44.482171416162174
43.84936605976917
43.19461427957741
42.51805680012181
41.819843369063356
41.100132994169975
40.3590941432884
39.5969048994543
38.81375306243587
38.00983618709474
37.18536154793758
36.340546018113976
35.47561584992858
34.59080634262729
33.68636138174981
32.762532832779954
31.819579770078764
30.857767520046018
29.877366495330357
28.8786507943822
27.861896537763144
26.8273799094
25.775374867124007
24.70615048241835
23.61996786405174
22.51707661402152
21.39771075678466
20.262084073710703
19.110384763772203
17.942769338114694
16.759355639681928
15.56021485881425
14.345362390522173
13.114747347697797
11.868240505182634
10.605620400043604
9.326557250823967
8.030594278997887
6.717125914393688
5.38537223633263
4.034348834513708
2.6628310563495567
1.2693113239900304
-0.14805216798256554
-1.5914975553527277
-3.0637350446635208
-4.568040009911047
-6.108368359885837
-7.689500728449255
-9.317224308176556
-10.99856432562849
-12.742081666097839
-14.558259644643005
-16.46001239997686
-18.46336146800156
-20.58834838870259
-22.86028406296618
-25.311487418124194
-27.983749760711696
-30.931900461463897
-34.22908838673882
-37.974816772090634
-42.30755394258158
-47.425246400339795
-53.6202141794607
-61.341353323004576
-71.31416449748289
-84.78137965978681
-104.0955127142203
-134.00881315531146
-186.85111425304234
-291.2097573838849
-559.4069580280839
-394.4266041165891
-32.19272461132839
-20.464935446797725
-6.135381553802617
-3.4424781510532156
-1.8907112851430696
-1.1984797896547263
-0.7970984036301658
-0.5580696872405575
-0.4048738250262893
-0.3026777586210816
-0.2319325744433467
-0.18152626801166605
-0.14472867019518354
-0.11731748883042492
-0.09654873515529161
-0.0805873968704578
-0.06817487373158038
-0.05842868249156119
-0.05071788194559623
-0.04458349942660611
-0.039686453519395926
-0.0357727252878588
-0.03264960094965197
-0.0301691695693167
-0.028216662767908574
-0.026702077942927005
-0.025554057538990094
-0.02471533279616489
-0.02413925557067431
-0.02378708038343058
-0.02362574703168141
-0.023625967336778242
-0.02376044624126683
-0.024002070709578938
-0.02432187800482888
-0.02468656016888815
-0.025055157148171858
-0.0253744038210737
-0.02557186210524165
-0.025545360331718392
-0.02514612180946263
-0.024150733501332455
-0.022212734642303777
-0.018775965111964554
-0.012921290375865091
-0.0031670804250174545
0.012184532822988592
0.024546963205540395
0.08598526895837355
0.23593718539079211
0.42148800433233613
0.5876020822504988
0.6938081000521046
0.7132988357900611
0.6292804011088577
0.4319769193204288
0.1165496982996359
-0.3183151854166866
-0.8713782532986365
-1.539531267238358
-2.3182933535627948
-3.20218065999385
-4.184989091200708
-5.260015667841414
-6.420235252105317
-7.658443780212069
-8.967375536013265
-10.339799658712463
-11.768599549742955
-13.246837844090686
-14.767808957256666
-16.325080791400115
-17.9125269041844
-19.52435025887365
-21.155099549225188
-22.79967900426786
-24.453352510542345
-26.11174283296664
-27.770826663990604
-29.42692618051559
-31.07669773742981
-32.71711827492202
-34.34546996401727
-35.95932356166182
-37.55652089380216
-39.13515683310297
-40.693561087980285
-42.23028007214194
-43.74405907935703
-45.23382494709777
-46.69866935534965
-48.13783287324234
-49.55068983639874
-50.9367341118539
-52.29556578490238
-53.626878783177546
-54.930449437279066
-56.20612596420638
-57.453818849263456
-58.67349209391509
-59.865155290842736
-61.02885648293267
-62.1646757599353
-63.272719544793844
-64.35311552097478
-65.40600815222567
-66.43155474707262
-67.4299220217564
-68.40128311705985
-69.34581502662323
-70.26369639662644
-71.15510565915385
-72.02021946408132
-72.85921137681892
-73.67225081176261
-74.45950217371521
-75.22112418193485
-75.95726935367054
-76.66808362619108
-77.35370609836194
-78.01426887462753
-78.64989699606721
-79.26070844481555
-79.84681420960125
-80.4083184015135
-80.94531841036792
-81.45790509323771
-81.94616298765169
-82.41017054293849
-82.85000036404242
-83.26571946283269
-83.65738951267912
-84.02506710257697
-84.36880398764288
-84.68864733336491
-84.9846399512661
-85.25682052403295
-85.50522381854599
-85.72988088542846
-85.93081924400563
-86.10806305175575
-86.26163325748237
-86.39154773761632
-86.49782141517854
-86.5804663609828
-86.639491876801
-86.67490456027079
-85.07968370138099
-81.88829650843061
-78.74128489619287
-75.63674810990342
-72.57277867588168
-69.5474629381905
-66.55888163395744
-63.605110497934575
-60.684220887288504
-57.794280418197644
-54.933353606246214
-52.09950250316645
-49.29078732302996
-46.505267051458276
-43.741000031999334
-40.99604452426301
-38.2684592289458
-35.556303775369535
-32.85763916757726
-30.170528185531204
-27.493035738343828
-24.823229166940603
-22.15917849399701
-19.498956619319145
-16.840639459263972
-14.182306029241277
-11.522038468683725
-8.857922008249393
-6.188044879507492
-3.5104981676514333
-0.8233756082266384
1.8752266706205196
4.587210458538266
7.314475823740606
10.058921521367067
12.822445446191356
15.60694512596704
18.414318251227055
21.246463236819437
24.105279809989774
26.992669619331195
29.910536858367742
32.86078889709127
35.84533691427612
38.86609652291769
41.92498838069965
45.02393877701187
48.164880187607984
51.34975178768063
51.33828260147249
48.15389661355594
45.01343843025547
41.91496903811703
38.856556142272794
35.836273649805705
32.85220111164848
29.902423132258633
26.98502875598799
24.098110838650005
21.239765412381793
18.408091051468958
15.601188246305469
12.817158792187923
10.054105199160384
7.310130128603695
4.583335861747228
1.8718238048237215
-0.8263059649537359
-3.5129551088955644
-6.190027388570293
-8.859428977007596
-11.523068717091052
-14.18285832531156
-16.84071253939227
-19.49854920880246
-22.158289327599817
-24.82185700937407
-27.49117940452487
-30.168186560471028
-32.85481122577829
-35.5529885995879
-38.26465602816759
-40.99175265075817
-43.73621899729491
-46.49999654107712
-49.285027209831966
-52.093252859115914
-54.926614712427835
-57.78705277289971
-60.676505211957746
-63.596907740807566
-66.55019297116647
-69.53828977213942
-72.56312263069455
-75.62661102373991
-78.73066881024138
-81.87720365239342
-85.06811647528352
51.30387630421422
48.12094707616545
44.98193848295923
41.88491199878443
38.82793587378808
35.80908460674481
32.82643837661413
29.878082442275065
26.962106519404465
24.07660414305303
21.219672024030544
18.38940940681133
15.583917436132323
12.80129853900678
10.039655828366456
7.297092534018782
4.5717114661033955
1.8616145157520116
-0.8350978028798771
-3.520326765535674
-6.195975802478394
-8.863950812108072
-11.52616042127929
-14.184516190491864
-16.84093276253067
-19.497327953561157
-22.15562278611444
-24.81774146377061
-27.485611287765124
-30.161162516104966
-32.84632816621068
-35.543043762442416
-38.25324703030697
-40.97887753952834
-43.721876298549724
-46.4841853034968
-49.267747045047514
-52.07450397713152
-54.90639795179376
-57.76536962508882
-60.653357839366116
-63.5722989877885
-66.52412636748954
-69.51076952826537
-72.53415362426387
-75.59619877665997
-78.69881945580059
-81.84392389184188
-85.03341352337317
51.24653668883643
48.066035137333614
44.92944222044137
41.83482023318897
38.78023834195241
35.76377203924907
32.78350255800719
29.8375162546945
26.923903970354157
24.040760378165047
21.186183325688113
18.358273179560165
15.555132179828348
12.774863810652706
10.015572193618436
7.275361509323118
4.5523354524177595
1.8445967247936033
-0.8497534289502586
-3.5326156400998308
-6.205892785250801
-8.871490303919497
-11.531316462045847
-14.18728255957942
-16.841303080791185
-19.49529578631714
-22.151181746384466
-24.810885315052367
-27.476334045688
-30.14945854828697
-32.83219228962855
-35.52647133763152
-38.234234051683444
-40.95742072110078
-43.69797315427643
-46.45783422149056
-49.23894735481668
-52.04325600899787
-54.87270308759433
-57.72923033923333
-60.614777729289486
-63.531282792806294
-66.48067997504047
-69.46489996652605
-72.48586904010614
-75.54550839793691
-78.64573353698866
-81.78845364209724
-84.97557101614042
51.16627010632753
47.9891667588755
44.85595513954017
41.76469870959137
38.71346793469267
35.70033971456483
32.723396772952974
29.780727017431783
26.870422878194823
23.990580634543825
21.139299737317224
18.31468213506176
15.514831611190392
12.73785313886034
9.981852259827562
7.244934492943143
4.525204777444155
1.8207669557099868
-0.8702767004215537
-3.54982591614378
-6.219782789800779
-8.882052116038034
-11.538541653716177
-14.191162336838252
-16.841828427165908
-19.492457607560407
-22.144971015532395
-24.80129321684587
-27.463352119418396
-30.133078828127015
-32.81240744149693
-35.50327479163575
-38.20762012916244
-40.92738475525782
-43.66451160333852
-46.42094477330915
-49.1986290217736
-51.9995092119958
-54.825529727902
-57.678633856874974
-60.5607631466241
-63.473856741909714
-66.41985070745616
-69.40067734394619
-72.41826450453038
-75.47453491987545
-78.571405540314
-81.71078690421677
-84.89458254225319
51.06308550985951
47.890350340439326
44.76148498049907
41.67455442011047
38.62763082393862
35.61879292839831
32.646125400215276
29.707718166107163
26.80166572286399
23.92606643666639
21.079021839980122
18.258635933883184
15.463014503120787
12.690264450654123
9.938493157953294
7.205807876694717
4.49031515700282
1.790120316847771
-0.8966730433291096
-3.571963477192236
-6.2376520771724575
-8.895642804658369
-11.547842763518377
-14.196162415269391
-16.84251573460144
-19.48882030434131
-22.136997349388842
-24.788971709481988
-27.446671751068504
-30.112029218878206
-32.78697902818615
-35.47345899909886
-38.17340953458537
-40.888773244338736
-43.62149451692286
-46.37351904309919
-49.146793293644265
-51.94326395538018
-54.76487732963702
-57.613578697833354
-60.49131165937733
-63.4000174476263
-66.3416342301819
-69.31809640038522
-72.33133386744299
-75.38327135321173
-78.47582770425461
-81.61091522838048
-84.79043906542893
50.936994516492476
47.76959677247686
44.64604177145431
41.56439641706501
38.522734994220315
35.519138526230435
32.551694094731644
29.61849413234073
26.71763569749154
23.847219740423775
21.005350368781254
18.190134120752788
15.399679253101432
12.63209505087794
9.885491165070386
7.157976983835457
4.447661042421824
1.7526504763409267
-0.9289494781959702
-3.5990359330671087
-6.259508743237365
-8.912270845432479
-11.559228538425835
-14.202291703290344
-16.84337396238619
-19.484392776258026
-22.127269477980978
-24.77392924488257
-27.426301007914162
-30.086317299290954
-32.755914039378126
-35.437030264126214
-38.13160779475511
-40.841590851691976
-43.56892561518672
-46.31555973541154
-49.083441795255276
-51.874520729469346
-54.69074520426986
-57.53406296200778
-60.40642013600974
-63.309760541252864
-66.24602494709224
-69.2171503388561
-72.22506917572593
-75.27170865292882
-78.3589899769211
-81.48882766285664
-84.66312886422452
50.78801148637422
47.62691950414332
44.509637885366644
41.434235859382284
38.39879027909174
35.40138493036045
32.44010980593711
29.513060354062468
26.618336711425297
23.75404292959574
20.91828620352679
18.109176110134758
15.324823864378786
12.563341599650297
9.822841678723162
7.101436040894681
4.397235590375214
1.7083496304272592
-0.9671146528144142
-3.631052653407292
-6.285362752639982
-8.931946667582285
-11.572709739212648
-14.209561158537102
-16.84441412955152
-19.479185968322156
-22.11579813774994
-24.756176218011063
-27.402249812964413
-30.055952393160265
-32.71922107642142
-35.393996347258216
-38.08222171679262
-40.78584332512192
-43.50680948845192
-46.24707019374189
-49.00857654394285
-51.79328015738092
-54.6031325252781
-57.440084331893644
-60.30608474228959
-63.2030806632795
-66.13301598368255
-69.09783080065351
-72.09946063946506
-75.1398356747679
-78.22087996206446
-81.3445106887764
-84.51263745494613
50.61615361934105
47.462334625960196
44.352288109187214
41.28408606883332
38.255808405109946
35.26554217239424
32.311380799597764
29.391423287567214
26.50377339341135
23.646538811080532
20.817830356915138
18.015761168274796
15.238445922733725
12.484000084679886
9.750539185552832
7.0361781433227595
4.33903062620047
1.6572084650131211
-1.011178881927934
-3.668024808150981
-6.315225979710594
-8.95468269492665
-11.588299181338014
-14.217983828400268
-16.845649354878002
-19.473212910290755
-22.102596110074547
-24.73572500447247
-27.374529981508076
-30.020945604673024
-32.67691038629562
-35.34436649781853
-38.025259418603454
-40.72153752513135
-43.435151622804995
-46.16805442300033
-48.92219996831673
-51.69954300943972
-54.50203833745863
-57.33164007597665
-60.19030093788499
-63.07997145222274
-66.00259916713536
-68.96012783561997
-71.95449659137378
-74.98763912277309
-78.06148285374621
-81.17794814101745
-84.33894749793525
50.42144106877739
47.27586096703462
44.17400972498899
41.113962595784045
38.093803043038214
35.11162193083824
32.165516682805176
29.253590420971925
26.37395109461582
23.524710608591587
20.703983960016146
17.909888391534356
15.140542568703673
12.394065788360694
9.668577224185446
6.962195215014948
4.273036600820394
1.599216110677612
-1.061154193553375
-3.7099654146685084
-6.349112255974289
-8.980493393406963
-11.60601178220095
-14.227574896785342
-16.84709490297643
-19.466488761923117
-22.087678265575555
-24.71259000374114
-27.343155263136072
-29.981309859072176
-32.6289939007318
-35.28815149124862
-37.96073036410946
-40.64868145766908
-43.35395842988878
-46.078517115774694
-48.82431493033399
-51.593310220287776
-54.38746156819938
-57.20872705319173
-60.059063472935065
-62.94042553216778
-65.85476500362859
-68.80402986796325
-71.79016343984692
-74.81510348832029
-77.88078136012517
-80.98912111560588
-84.14203868755425
50.20389707253222
47.067520206558726
43.97482260272817
40.92388329407913
37.91278986586151
34.93963757336112
32.00252843169358
29.09957028866104
26.228875891100333
23.388561954473467
20.57674824472772
17.791556680760774
15.03111046508299
12.29353324954985
9.576948342355905
6.8794779617688775
4.199242541417611
1.5343600913431232
-1.1170543816252314
-3.756889391152013
-6.387037423803442
-9.009395324611106
-11.625864614225739
-14.238351736515252
-16.848768235832694
-19.459030863523083
-22.071061613545634
-24.68678768737277
-27.30814138861665
-29.93705994804667
-32.5754852799367
-35.22536367092809
-37.88864540283001
-40.567284311049036
-43.263237280637455
-45.97846368224419
-48.71492475062436
-51.47458290872957
-54.25940104083695
-57.071341718662744
-59.91236638492502
-62.78443449942786
-65.68950265334786
-68.62952365813965
-71.60644561619485
-74.62221098118675
-77.67875561689107
-80.77800786411902
-83.92188762631176
49.96354810067011
46.83733699925675
43.754749304230714
40.71386840459618
37.71278661310401
34.74960420320494
31.822428421367142
28.92937248622259
26.068554585288478
23.238096879227932
20.436124522871467
17.660764711422964
14.910145759505411
12.182396219923545
9.47564404826798
6.788015818762618
4.117635996039737
1.4626262668932986
-1.178895064607596
-3.8088136158141164
-6.429019395682607
-9.04140720468773
-11.647876963100575
-14.250333966656758
-16.850689069055985
-19.450858790994157
-22.052765355721647
-24.658336651417894
-27.26950612086933
-29.888212579159614
-32.51639996029715
-35.156016993903144
-37.80901681330917
-40.47735649663356
-43.16299654264855
-45.86790028353742
-48.59403323698234
-51.34336240036423
-54.11785549027188
-56.91948013099645
-59.75020299623179
-62.61198890878314
-65.50679990375286
-68.43659426140758
-71.40332551670228
-74.40894145332449
-77.45538309099405
-80.54458367571148
-83.67846768366451
49.70042401975877
46.58533911437585
43.5138151979015
40.48394064691191
37.49381316086125
34.54153870913984
31.62523045743896
28.743007685294536
25.892994705883964
23.073319798273953
20.28211416152718
17.517510899195678
14.777644041886873
12.060647614786406
9.364654756164525
6.6877968921542665
4.0282029723535135
1.3839987700627927
-1.2466937496319743
-3.8657569913521597
-6.4750782184328886
-9.076549967906363
-11.672070390362116
-14.263543513910165
-16.852879431932905
-19.441994414481012
-22.032810943476658
-24.627257672138512
-27.22726930916879
-29.834786428464717
-32.45175520527142
-35.08012707983393
-37.72185834979696
-40.37890969279536
-43.05324562082349
-45.74683386828577
-48.46164471591021
-51.1996502530101
-53.96282358098398
-56.75313796142736
-59.572565912757184
-62.423078259825104
-65.30664314173208
-68.2252249837741
-71.18078344028947
-74.17527231613893
-77.21063847547512
-80.2888207475137
-83.41174884014096
49.414558273297835
46.31155758772621
43.25204858357989
40.234125318431204
37.25589159686284
34.315459818261246
31.41094980847623
28.540487647647744
25.702204505613388
22.894235495363816
20.11471855411061
17.361793360613763
14.633600296470828
11.928279458207554
9.24396972611017
6.5788078949259745
3.9309278707950766
1.298459937980002
-1.3204699016437136
-3.927740514044509
-6.525236141677317
-9.114846834051367
-11.698468799419043
-14.278004677084587
-16.85536373025849
-19.432461959537537
-22.011222137354803
-24.593573763955852
-27.1814529455311
-29.776802195312783
-32.381570158546225
-34.99771126233159
-37.62718529146521
-40.271956891561786
-42.93399500082077
-45.61527221208717
-48.317764067084795
-51.043448284952284
-53.79430392763841
-56.57231050515185
-59.3794470241578
-62.217690984056034
-65.089017325387
-67.99539733616571
-70.93879752267436
-73.9211784522086
-76.9444935763264
-80.01068804428645
-83.12169751760112
49.105988077837154
46.016026886163445
42.96948082683981
39.964450400206395
36.99904629972863
34.07138815077619
31.17960323852486
28.32182523772236
25.49619295607706
22.700849102036265
19.93393908666718
17.193609868371457
14.478008848173047
11.785282822311538
9.113576997976427
6.461034077118924
3.825793412435298
1.2059902388385657
-1.4002450169510952
-3.9947873467356323
-6.579517689666328
-9.156323378662512
-11.727098503940049
-14.293744193496268
-16.8581688107335
-19.422288069583068
-21.98802506769221
-24.557310238370476
-27.132081222066105
-29.714282658223198
-32.30586589842495
-34.908788641748785
-37.52501449333634
-40.15651244725951
-42.80525629480357
-45.47322395952087
-48.162396760561094
-50.87475860602627
-53.61229511849161
-56.3769926952355
-59.17083750620901
-61.99581443344376
-64.85390595630531
-67.74709098779539
-70.67734366809495
-73.64663212255412
-76.65691719249062
-79.71015114841012
-82.80827639661986
48.7747546342237
45.69878508381717
42.66614650191084
39.67494666855171
36.723304021496034
33.80934627584035
30.931209038781024
28.087034432722078
25.274969738875992
22.493166072373242
19.739777098774958
17.012957800787575
14.310863302898419
11.63164776056445
8.973463319628767
6.334459150644656
3.712780561910477
1.1065681942141652
-1.4860427004852306
-4.066922894859403
-6.6379497354655195
-9.201007604990235
-11.75798829736186
-14.310791305970826
-16.861324025527217
-19.41150186820049
-21.963248294884856
-24.51849476245362
-27.079180587931354
-29.647252730494884
-32.224665492198945
-34.81338013828934
-37.41536443795267
-40.03259212636196
-42.667042288858525
-45.32069866827658
-47.99554889649733
-50.6935836515324
-53.41679574178823
-56.16717911950994
-58.94672782592388
-61.757434871228064
-64.60129105329855
-67.48028371985495
-70.39639547982591
-73.35160287075121
-76.34787499031725
-79.38717210148687
-82.47144422216347
48.42090335328505
45.35987404921458
42.34208354225809
39.365647811398254
36.42869397232438
33.529358767352974
30.66578705732845
27.83613032923944
25.03854523207688
22.271192152211718
19.532233838347818
16.81983408490069
14.132156481467161
11.467363234885603
8.823614069338602
6.1990652088769505
3.5918684458194052
1.0001702976271833
-1.577888745978084
-4.14417488452072
-6.700561576360096
-9.24893001637842
-11.791169522099276
-14.329177828927937
-16.86486129542657
-19.40013501964618
-21.936922867637488
-24.477157415245784
-27.02277980427688
-29.575739514029166
-32.13799404908831
-34.711508544162456
-37.29825528665851
-39.90021315759019
-42.519366991343645
-45.15770685489831
-47.81722724712785
-50.499926218944154
-53.20780441537097
-55.94286404091688
-58.707107750139656
-61.502537465931454
-64.33115312872529
-67.19495138079822
-70.09592419087414
-73.03605742536111
-76.01732937398907
-79.04170923904118
-82.11115559898444
48.04448409512268
44.99933964230516
41.997333397706626
39.03659054820373
36.11524790612034
33.231452258426756
30.38335872571858
27.569129145255136
24.786930490954212
22.034933341900967
19.311310409565493
16.614235132589886
13.941880346746347
11.29241703637029
8.664013172430405
6.054832641274832
3.463034267071964
0.8867709300632344
-1.6758112181229192
-4.226573441502719
-6.767385009155643
-9.300123687573098
-11.826676136833314
-14.348938211805377
-16.868815169735722
-19.388221785690828
-21.909082377299814
-24.433330740182672
-26.962909995342883
-29.49977234962445
-32.04587877013505
-34.60319857331864
-37.173708929215216
-39.75939428119287
-42.362245681325014
-44.98426004154365
-47.627439300650174
-50.29378950735457
-52.985319819738976
-55.704041421817266
-58.451966358333465
-61.23110628957214
-64.04347116864027
-66.89106784467201
-69.77589859648172
-72.69995960242083
-75.66523935371484
-78.67371702010574
-81.72736077839457
47.6455514210181
44.61723192023304
41.631941196819554
38.68781475202281
35.78300020565962
32.91565549311786
30.08394708099255
27.286048216190228
24.52013722180071
21.784395851531475
19.07700771304425
16.396156769032594
13.740025923514807
11.106795699412343
8.494643012213578
5.9017400433446525
3.326253215759069
0.7663422732778592
-1.779840535664925
-4.314151169925265
-6.8384544039010855
-9.354624333309149
-11.864544780038633
-14.370109597852865
-16.87322288085507
-19.37579907666367
-21.8797630061457
-24.387049791420502
-26.89960469363492
-29.419382861739546
-31.948348993173596
-34.488476907063685
-37.0417490302537
-39.6101557961441
-42.19569495610364
-44.80037080304403
-47.426193306625365
-50.075177159583355
-52.74934073477601
-55.45070495280895
-58.18129206052769
-60.94312432122785
-63.73822261819785
-66.56860497415569
-69.43628499029451
-72.34327020998498
-75.291560413731
-78.283145853746
-81.32000543841554
47.2241648568051
44.21360535048674
41.245955913020225
38.319363572152135
35.43198796558155
32.58199937379668
29.767576781572643
26.986905983528086
24.238177747454298
21.519586047444882
18.829326377261754
16.16559415275088
13.526583210568678
10.910484408998563
8.315484335241335
5.739764122268878
3.181498377162424
0.638854221789773
-1.890009554228276
-4.406943229079853
-6.913806774304103
-9.412470372233855
-11.904814827645378
-14.392731876052395
-16.878124391202594
-19.362906494281532
-21.849003567137252
-24.338352171621118
-26.83289987680837
-29.334604995477388
-31.84543623078154
-34.367372233632445
-36.90240107086345
-39.45251960382457
-42.01973277668758
-44.60605281344615
-47.21349832239875
-49.84409330679877
-52.499866080374375
-55.18284808663353
-57.895072621244005
-60.638573457276365
-63.41538337392062
-66.22753259017541
-69.07704710626929
-71.96594695695977
-74.8962443824851
-77.86994192491474
-80.8890304596648
46.78038916632935
43.788519029875786
40.83943053275455
37.93128355552683
35.06225107137307
32.23051700228213
29.434274115229368
26.67172197431903
23.94106496301039
21.240510388699718
18.56826668013459
15.922541686405037
13.301541084515545
10.703466900930103
8.126516150984768
5.568879598618342
3.028740637642283
0.5042742946242087
-2.0063536474985915
-4.5049874067788265
-6.993481842917889
-9.473702983999557
-11.94752844247462
-14.416847723628187
-16.883562429797138
-19.349586363508696
-21.816845532401658
-24.28727805845157
-26.762833993582145
-29.245475043225362
-31.737174198798186
-34.2399152795195
-36.75569238338173
-39.286509246546544
-41.834378509898194
-44.40132089107286
-46.98936425996612
-49.600542615477906
-52.23689496119294
-54.90046407782256
-57.593295190523236
-60.31743452968756
-63.07492778459639
-65.86781845021133
-68.69814606871543
-71.56794436883303
-74.47923930773504
-77.43404702241949
-80.43437169967484
46.314294633386965
43.34203690749739
40.41242222370512
37.52362476481108
34.67383227226514
31.86124371267782
29.08406699710869
26.340516769673155
23.62881227999604
20.947175351995803
18.293828459517428
15.666992917395552
13.064887194646799
10.485725354710908
7.927715626017793
5.389059104618508
2.867948589252294
0.3625675480153375
-2.128910785219695
-4.60832418735509
-7.077522098932317
-9.538366157088745
-11.992730612757684
-14.442502636280302
-16.88958251551645
-19.335883750383385
-21.783333047319175
-24.233870216698882
-26.689447975650584
-29.15203165804632
-31.623598832703102
-34.10613883010326
-36.601652177185755
-39.11214993903171
-41.63965296558713
-44.18619104098893
-46.753801932601256
-49.3445303364704
-51.96042671576324
-54.603546028762565
-57.2759463431705
-59.97968733397486
-62.716828662802705
-65.48942823763862
-68.29954035314033
-71.1492137132469
-74.04048933969281
-76.97539837223574
-79.95595976886699
45.82595735028123
42.874228009608565
39.96499250082293
37.09644089084681
34.26677724565522
31.474217093546603
28.716984955553635
25.9933119601383
23.301433557105984
20.63958734338828
18.00601101124677
15.398940427233455
12.8166078482124
10.257240278809686
7.719057972825416
5.200273079502342
2.6990884340349384
0.21369649043594208
-2.2577216062371006
-4.716996812166965
-7.165972846088975
-9.606506724605504
-12.040469176729937
-14.469744942920592
-16.896232963656885
-19.32184646233111
-21.748512926701302
-24.178173992516726
-26.612785232192955
-29.054315850555035
-31.504748288782906
-33.966077736746655
-36.440311552993805
-38.929468590727154
-41.4355784272456
-43.960680493580824
-46.50682310042154
-49.07606235584635
-51.67046097015401
-54.29208694291566
-56.943012127473786
-59.625310668560076
-62.34105730928794
-65.09232556477342
-67.88118576095545
-70.70970293876272
-73.57993462577025
-76.4939284798372
-79.45371981189334
45.31545951084372
42.38516666403093
39.49720738761543
36.64978935676631
33.84113465033902
31.06947699676392
28.333059103175305
25.630130085572933
22.95894301534004
20.317752594927107
17.704812973206472
15.118375708538014
12.556687885363012
10.017990388015471
7.500516333425402
5.002489662594144
2.5221238890969735
0.057621001503680325
-2.392829484604229
-4.83105133021658
-7.2588822379527
-9.678174384927383
-12.090794829913943
-14.49862580130031
-16.903564871998142
-19.307525027060755
-21.712434629113243
-24.12023728587561
-26.532891623155272
-28.952370965628262
-31.380662926658182
-33.8197689072166
-36.271703502854415
-38.73849381653217
-41.222178674039284
-43.72480773779738
-46.248440513974906
-48.79514524716061
-51.36699769638108
-53.96607978596008
-56.59447812473816
-59.25428238745555
-61.94758355267546
-64.67647199260489
-67.44303541144596
-70.24935663057784
-73.09751122098189
-75.98956498577249
-78.92757129859756
44.78288970544634
41.87493272133662
39.00913756977103
36.183731410786905
33.39695616554394
30.64706553007297
27.93232209030646
25.250994556837917
22.60135513513506
19.98167704415299
17.390232193719616
14.825289028388047
12.28511054296096
9.767952472572318
7.2720616579916495
4.795674584844423
2.3370160937074154
-0.10570174347880251
-2.5342805864973252
-4.95053663617983
-7.35630129741877
-9.753421703720004
-12.143761111280456
-14.529199170467482
-16.911632082137682
-19.292972645695325
-21.675150204951183
-24.060110496850733
-26.44981540702362
-28.8462426348334
-31.25138526930441
-33.66725127588853
-36.095862892668436
-38.53925593321857
-40.99947899205008
-43.478592547358346
-45.97866795473506
-48.50178632464169
-51.0500372757251
-53.625517555669504
-56.23032952112304
-58.86657946840346
-61.53637580721147
-64.24182707048244
-66.98503975479252
-69.7681159874525
-72.59315101862
-75.46223053934078
-78.37742782955706
44.2283432151542
41.34361176972579
38.50085853785322
35.6983322042987
32.93429651234416
30.207027029991202
27.514808037640805
24.855929556353125
22.228684532822353
19.63136619411997
17.06226558236781
14.519669276614604
12.001857306376026
9.507101258768945
7.033662578732999
4.579791059657852
2.1437235198541074
-0.2763173413473485
-2.6821239154028538
-5.075504492796455
-7.45828391694997
-9.832304093413747
-12.199424364030307
-14.561521755509794
-16.92049111134388
-19.278245115255977
-21.63671421333673
-23.997846440849095
-26.363607158313982
-28.73597869998485
-31.116959936239056
-33.50856574975636
-35.91282642370223
-38.33178693849999
-40.76750617220492
-43.22205599802305
-45.697520271251534
-48.195993696740885
-50.719580567120495
-53.2703933614204
-55.85055119337695
-58.46217809877509
-61.10740115157927
-63.78834839944264
-66.50714661043828
-69.26591882463411
-72.0667817063708
-74.91184269582942
-77.80319696183439
43.65192230179613
40.79129534007958
37.9724507153392
35.19366085142263
32.45321345364019
29.749408011332
27.080552444484514
24.444959914184384
21.840945813421932
19.266824951390973
16.720908941171132
14.201503797510938
11.706907748317846
9.235409260654311
6.78528527935016
4.35479967397984
1.9422018878603544
-0.45427421903158033
-2.83641134274123
-5.206009534212079
-7.5648868356139225
-9.914879765757597
-12.257843666235473
-14.59565291951823
-16.9302010496261
-19.263400715053116
-21.597183602338607
-23.933500227323492
-26.274319649454885
-28.621629102743043
-30.977433545104255
-33.34375512584615
-35.72263256913344
-38.11612046931183
-40.52628849207837
-42.955220473780905
-45.4050134095289
-47.87777631936989
-50.37562898070076
-52.900700514220574
-55.455127810204104
-58.041053781772526
-60.66062543210002
-63.3159917232515
-66.00930123554576
-68.74269960812869
-71.51832675374979
-74.33831384356924
-77.2047800614019
43.05373649027513
40.21808109721499
37.42399956783664
34.6697904657589
31.953767768397512
29.274257089116478
26.6295920685938
24.018110955941264
21.438153396447362
18.888057439155396
16.36615677381786
13.870778203242754
11.40023935365559
8.952846622536986
6.526893360447337
4.12065828075851
1.7324040889127872
-0.6396236790766079
-2.997197620684056
-5.342109246427431
-7.676169588518139
-10.001209652541771
-12.319080726015782
-14.631654557122783
-16.940823416145555
-19.248500050961052
-21.556617546434595
-23.867129095924078
-26.182007691144555
-28.503245734561336
-30.832854576277462
-33.172863975105564
-35.525321481218896
-37.89229173549463
-40.275855678434354
-42.67810965952822
-45.10116443597805
-47.54714404800313
-50.018184556563995
-52.516432628226084
-55.044043951130206
-57.60318146571744
-60.19601339398491
-62.824711051658625
-65.49144642882217
-68.19838952630005
-70.94770543742827
-73.74155116783764
-76.58207218959686
42.43390283896259
39.624073012872486
36.855595688786856
34.12679816951294
31.4360231953365
28.781624868202073
26.16196477315229
23.575408318361326
21.020321311019497
18.49506678228005
15.998002070376128
13.527476167101014
11.081827329109647
8.659380951930801
6.258447701364473
3.8773218940670273
1.5142801165973343
-0.8324199298663973
-3.164540373562521
-5.48386392054203
-7.792194423702254
-10.0913572890158
-12.383199735315905
-14.669590923292855
-16.9524219683869
-19.23360585084391
-21.51507723443555
-23.798792203368816
-26.086727924645366
-28.380882240708573
-30.68327319460921
-32.99593848733538
-35.320934864209654
-37.660337424647125
-40.016238846967866
-42.39074851751696
-44.785991551103855
-47.20410768772449
-49.64725004879989
-52.11758373476946
-54.61728424488289
-57.1485356994322
-59.71352884463032
-62.31445882079584
-64.9535226755518
-67.63291660545187
-70.35483291179796
-73.12145665953403
-75.9349620319178
41.79254619350618
39.009381515413004
36.26733485638891
33.56476506963713
30.900046340724348
28.271563795399818
25.67770933590788
23.116877727982853
20.5874629561988
18.08785486081097
15.61643606468824
13.171579194552935
10.751644396603607
8.354977142609924
5.9799063190080854
3.624742588369299
1.2877770098143793
-1.0327200972910615
-3.3385000637848883
-5.631336573965413
-7.913026180979258
-10.185388653896903
-12.450267175684589
-14.709528410410684
-16.965062456816177
-19.21878270368486
-21.47262560038856
-23.728550353626968
-25.988538558777233
-28.254593771439495
-30.528741021766102
-32.813026271138796
-35.10951580760292
-37.420295573456706
-39.74747041537517
-42.093163244562184
-44.45951409184084
-46.848679040141775
-49.26282901474783
-51.7041484099519
-54.174833529459235
-56.6770908169995
-59.213134853346055
-61.78518609620204
-64.3954683403137
-67.04620587679788
-69.73962033302288
-72.4779271775491
-75.26333187858118
41.12979941878744
38.37412361058742
35.65931805587001
32.98377619498403
30.345906544270797
27.744127968225374
25.176865214913274
22.642544737783357
20.1395908219568
17.666422028026254
15.22144796133922
12.803066369851967
10.409660568979822
8.039597187474545
5.691224224386788
3.362869403651615
1.0528388097985963
-1.240584214182674
-3.5191399276836015
-5.7845928341744415
-8.038732126560063
-10.283371959151527
-12.520351568694826
-14.751535265843653
-16.97881231696946
-19.204096734205386
-21.4293269891842
-23.65646566321638
-25.887499043625827
-28.12443667265932
-30.369310851986864
-32.62417610228762
-34.89110857381616
-37.17220540034705
-39.46958398544665
-41.785381206667815
-44.1217525202374
-46.4808709459401
-48.864925909401734
-51.27612191691275
-53.716677036204366
-56.18882115546425
-58.694793992309314
-61.236842824448296
-63.817219914512634
-66.43817960301496
-69.10197504570141
-71.81085457476415
-74.56705766743842
40.445803603122414
37.71842296707567
35.03165146051221
32.38392038773832
29.77367569641506
27.19937289375877
24.65947226468733
22.152434416088646
19.676716165737254
17.230766788750582
14.813024628789544
12.421914075784503
10.055842906695803
7.713199980937628
5.392353277692643
3.0916482583936986
0.8094065343295895
-1.4560751833643661
-3.7065258761290414
-5.943700778937918
-8.169381736563205
-10.385377381952622
-12.593523162835101
-14.795681241397938
-16.99374029004039
-19.18961520386444
-21.38524674773666
-23.58260115260704
-25.783669672236865
-27.990468107738824
-30.205036303404658
-32.429437613270615
-34.665758333772374
-36.91610709379068
-39.18261418947773
-41.467430847388684
-43.77272839591167
-46.100697321701475
-48.45354618483658
-50.83350036394201
-53.24280060040541
-55.68370130932716
-58.1584686239274
-60.669378139875114
-63.2187123265321
-65.80875757340179
-68.44180084228745
-71.12012589881726
-73.84600910117108
39.740708228131204
37.042409959766495
34.384446364106466
31.765290141664437
29.18342799957189
26.63735519039215
24.125570395942724
21.646570981441013
19.198848639006968
16.780885433201927
14.391150254926217
12.028095683901492
9.690155254048776
7.375741110611608
5.0832420429706335
2.8110218726907026
0.5574181726840329
-1.6792587095769949
-3.9007263540813177
-6.108730726184891
-8.305046421702722
-10.491476730347966
-12.669853547797583
-14.842037165123626
-17.00991596210997
-19.175406028221204
-21.340450731733164
-23.507020253865317
-25.677111100683966
-27.852745601294618
-30.035971396325873
-32.22886091610317
-34.43351084328614
-36.652041550105515
-38.886596495850625
-41.13934156589791
-43.41246432946092
-45.70817318946892
-48.02869639449295
-50.376280879674866
-52.75319090108289
-55.16170642599107
-57.604121240282694
-60.082740733598136
-62.599879323071136
-65.15785747757928
-67.75899830649666
-70.4056236799727
-73.10004985203929
39.014671296952585
36.346221662948714
33.71781905666582
31.127981378841053
28.57523966503586
26.058132224374564
23.575199171222447
21.12497737640886
18.705995857585776
16.316771621137313
13.955805960940735
11.621581212384271
9.31255795339876
7.027172638172033
4.763835643668745
2.520929704215742
0.29680870537295984
-1.9102031949506766
-4.101812152535587
-6.2797549658645755
-8.445799184539624
-10.601743033224643
-12.749415186091278
-14.890674424892383
-17.02740921114197
-19.16153719965682
-21.295004716950913
-23.42978622372354
-25.56788377604314
-27.711326494954182
-29.862170049113217
-32.022496149821045
-34.19441205257844
-36.380050054050606
-38.581566968194515
-40.801143560397534
-43.04098391376618
-45.303314697347666
-47.590384302068884
-49.904461806667
-52.24783573286743
-54.62281254665586
-57.03171486076751
-59.47687929252524
-61.96065393105543
-64.4853953686702
-67.05346525304637
-69.66722631977434
-72.32903786901403
38.26785941262641
35.63000178468351
33.031890634282895
30.47209315557928
27.94918853627209
25.46176167215306
23.00839732794602
20.587674772551043
18.198162908904614
15.838415910552456
13.506969369049298
11.202336948465632
8.9230075358129
6.667442869371963
4.434075620623516
2.221307900146213
0.0275101533144953
-2.148979591927131
-4.309856165449393
-6.4568474252186
-8.591714199692223
-10.716250044086362
-12.832280850809873
-14.941664352100425
-17.04628954979001
-19.148076103361408
-21.24897370310326
-23.350961450271257
-25.456047260894337
-27.56626730428931
-29.683685481553667
-31.810392943376975
-33.948507640594315
-36.100173894998925
-38.26756197212184
-40.452867632158274
-42.658311629873765
-44.88613912933821
-47.138618994778255
-49.418042914715954
-51.726724313011786
-54.06699699747839
-56.44121349452098
-58.85174301678691
-61.30096901028473
-63.79128622784792
-66.32509727732035
-68.90480859561531
-71.53282580378395
37.500447797586666
34.8939005326665
32.326786733003615
29.79772728718677
27.305353628305085
24.848300998530124
22.42520221943422
20.034681997907363
17.675351788596906
15.345805224606512
13.044614119170092
10.770325032116954
8.521456386541676
6.2964961133611475
4.093899794406064
1.9120892687310822
-0.2505483382039988
-2.3956612067033314
-4.524933083273352
-6.64008325779122
-8.742866306217975
-10.835071646957537
-12.918522957176046
-14.995077492621384
-17.066625350841363
-19.13508871333594
-21.202421097101404
-23.270606640452403
-25.34165944198238
-27.41762296519296
-29.50056951479209
-31.592599783954803
-33.695842465205
-35.812453910939375
-37.94461782308046
-40.0945449451333
-42.264472723897825
-44.456664902437026
-46.673411000698344
-48.91702563542681
-51.1898476268676
-53.494238836189275
-55.83258267479043
-58.20728222465185
-60.62075790783738
-63.07544464324145
-65.57378842980417
-68.11824229782765
-70.71126157384711
36.712620244233136
34.13807440081648
31.602637175457428
29.104987880085325
26.643814571743157
24.217806839499133
21.825649163414294
19.466014877448906
17.137560758059358
14.83892224984384
12.568709329277153
10.325502997512483
8.107852383731162
5.914272431702919
3.743242134403869
1.5932032748076836
-0.5374403746079135
-2.6503234452983557
-4.747119013602422
-6.829538345305026
-8.899330400128505
-10.958281151428668
-13.008212774155222
-15.05098275080994
-17.088482940854767
-19.122638653934665
-21.15540776142321
-23.1887798744543
-25.22477560971254
-27.26544595711174
-29.312871756126235
-31.36916328002311
-33.43645991978431
-35.51692995209459
-37.61277036849569
-39.72620673580741
-41.859493051200054
-44.01491154893951
-46.19477240990928
-48.40141331959152
-50.63719881536009
-52.9045193597406
-55.20579007286669
-57.54344905473262
-59.91995522622025
-62.337785617304974
-64.79943203149368
-67.30739701751116
-69.86418908277969
35.90456898546757
33.36268586464433
30.85957551771952
28.39398075847043
25.964650948667547
23.570334277368314
21.20977068633923
18.881685475877592
16.58478361374359
14.31774475811724
12.079218993694715
9.867823268577979
7.68213850886128
5.520707377785243
3.3820326375527374
1.2645760643573998
-0.8332421390097171
-2.913043493187063
-4.976491018202272
-7.025288700174267
-9.061180713565102
-11.085950462381351
-13.101419500950945
-15.10944639092487
-17.111925546161626
-19.110786111168302
-21.107990912091957
-23.105535511969315
-25.105447394134888
-27.10978528963302
-29.12063865617288
-31.140127307799595
-33.17040118609416
-35.21364025546116
-37.27205449700892
-39.34788396769763
-41.44339888395069
-43.56089968183112
-45.70271699919721
-47.87121151911745
-50.06877360823968
-52.297822678923126
-54.56080619978337
-56.860198275953785
-59.198497718085434
-61.57822551786772
-64.00192164787732
-66.47214110500582
-68.9914491197615
35.07649447291452
32.56790297215227
30.09773848245959
27.66481277122305
25.26794150615313
22.90593599438073
20.577595650557143
18.281701231033324
16.017008857991506
13.78224484389924
11.576101313163257
9.39723260478156
7.244252427512542
5.115731727750045
3.0101972203404976
0.9261305241287379
-1.1380321627819874
-3.183899918121279
-5.2131265541705085
-7.227409754835418
-9.228489965507022
-11.218149108269383
-13.198209191574742
-15.17053087875755
-17.13701207390033
-19.099586576595726
-21.060222849495
-23.02092293417716
-24.98372154207502
-26.95068533808493
-28.92391242520157
-30.90553202917712
-32.89770437292144
-34.90262072120914
-36.92250356733195
-38.9596069246945
-41.01621667803927
-43.09465094111991
-45.197260360144384
-47.326428295414544
-49.48457080721508
-51.6741363663174
-53.897605204520346
-56.15748821651799
-58.45632532129923
-60.79668318925841
-63.18115224050935
-65.61234282063538
-68.09288046249645
34.22860504923906
31.753898815535255
29.317265262876862
26.91759096318352
24.55376323154858
22.22466128946014
19.92914824992672
17.666063964893652
15.434218760218887
13.232388067940963
11.05930795006906
8.913671493218388
6.794126039290641
4.699271204596214
2.627657628534976
0.5777863834693137
-1.4518910300687997
-3.4629721842073518
-5.457102805305546
-7.435975522287743
-9.40132836707925
-11.354943110021335
-13.298643508899717
-15.234293544561812
-17.163795709180587
-19.08908940517134
-21.012149503938968
-22.93498510412397
-24.859638519064163
-26.788184512939743
-28.722729794720895
-30.665412768619714
-32.618403529498735
-34.58390408159572
-36.56414874906726
-38.56140473736418
-40.577972795310025
-42.616187919027915
-44.67842003056738
-46.76707455634721
-48.88459282334184
-51.03345218436968
-53.21616577802958
-55.43528182383413
-57.69338234908675
-59.993081241078144
-62.33702151666361
-64.72787170112929
-67.16832120982914
33.36111649956663
30.92085086736998
28.518296680161846
26.152421593046547
23.822190271818407
21.526554940948046
19.264446857850213
17.03476875776177
14.83638829612429
12.66813249744824
10.528783201813365
8.41707348300061
6.331684996096628
4.271246197834621
2.234331370159217
0.21946036688943055
-1.7749010049494636
-3.7503400634755657
-5.708495887788995
-7.651057610183523
-9.579762462425888
-11.49639367057508
-13.402778287629694
-15.300785046512091
-17.192322307748498
-19.079336166887632
-20.963808776535245
-22.847756927062505
-24.733230918806388
-26.622313747088903
-28.51712060984243
-30.41979873611987
-32.332527522437665
-34.25751895283297
-36.19701826773164
-38.153304836328076
-40.12869317717438
-42.125534062103974
-44.14621562948143
-46.19316442414946
-48.26884627340677
-50.37576690082096
-52.51647217295187
-54.69354786806864
-56.909618850885835
-59.167347533364385
-61.46943149901573
-63.818600166961794
-66.21761037257943
32.474251465428345
30.06894016314103
27.70097417521437
25.36940897804896
23.073292677161746
20.81165589621095
18.58350270989194
16.38780266970464
14.223483951392678
12.089427632122666
9.984463084915905
7.9073644580227755
5.856848188424907
3.8315714820206233
1.8301316785632833
-0.14893359247007806
-2.1071455680349764
-4.046082929030128
-5.967379911984433
-7.872724068443939
-9.763853783757039
-11.64255566274485
-13.510661883436129
-15.3700476119145
-17.222628561721795
-19.070358770471103
-20.915228654639186
-22.759263391192814
-24.604521662034163
-26.453094784397248
-28.307106237492356
-30.16871158303065
-32.04009876480291
-33.92348876038588
-35.82113654634764
-37.735332327000755
-39.668402965861176
-41.62271354857188
-43.600668996040014
-45.604715637020874
-47.63734264043016
-49.70108319916722
-51.7985153494687
-53.93226230272413
-56.10499216045319
-58.31941687802633
-60.57829033876472
-62.88440539766954
-65.24058975337626
31.568238702902665
29.198350309918794
26.865438613121608
24.56865414327403
22.307134946759565
20.07999576675369
17.88631840111981
15.725143291561194
13.595462375058542
11.49621320456598
9.426274322084375
7.384461844347991
5.369527200065443
3.3801559386646716
1.414967514073462
-0.5274840662640066
-2.448708846937947
-4.350278911313099
-6.233825879484386
-8.101038047658069
-9.953657296501953
-11.793475890561268
-13.622333283127169
-15.442113031226617
-17.254739914069198
-19.062177335770617
-20.866425079750172
-22.669517468211975
-24.47352196582863
-26.280538252429228
-28.092697775266537
-29.91216377751021
-31.74113178603237
-33.58183052838935
-35.4365232362529
-37.30750928031371
-39.19712606994333
-41.10775113962572
-43.041804333324166
-45.00174998753271
-46.99009900383638
-49.0094106923192
-51.06229425825832
-53.15140979627486
-55.279468648584746
-57.44923297750473
-59.66351439697509
-61.9251715039712
-64.23710614852524
30.643312164671357
28.309266298692993
26.011828876350254
23.750253250723826
21.52377435183841
19.33159710493607
17.172886176058668
15.046757106007666
12.95226886630147
10.888417842716937
8.854133224255008
6.84827374884128
4.869625732574113
2.9169022875525004
0.9887436147353433
-0.9162817566093774
-2.799674922297852
-4.66300389603988
-6.507900391436824
-8.336056242406254
-10.149219607467913
-11.949191096369912
-13.73781994808941
-15.517000377606575
-17.288668195493692
-19.054797789825578
-20.8173995444971
-22.578517752161865
-24.340229063922482
-26.10464150197665
-27.873894045714508
-29.650156786514795
-31.435631631748485
-33.23255352430255
-35.043192130302614
-36.86985393464483
-38.71488467139563
-40.580672003971834
-42.46964835838202
-44.3842938014861
-46.32713884533353
-48.30076704809775
-50.30781727206194
-52.35098544953322
-54.43302569859638
-56.556750622606216
-58.72503062023542
-60.94079202724394
-63.2070139071829
29.69970988348703
27.401873095243445
25.14028021966312
22.91429578023132
20.7232590081817
18.56647143551077
16.44318598657244
14.352597637060287
12.293835676941974
10.26595758115357
8.267944459490076
6.2986980262775285
4.357039002177875
2.441706835479096
0.5513606091868557
-1.3154190163711323
-3.1601269877122506
-4.984330338802106
-6.789664140539954
-8.577827090057681
-10.350576905448085
-12.109725682740219
-13.85713536034012
-15.594713422208436
-17.324408955310368
-19.048209159983706
-20.76813639415232
-22.486245814306628
-24.204623658136647
-25.925386195991134
-27.650679361086283
-29.382679051765177
-31.123592083208436
-32.87565775076728
-34.641149952553896
-36.42237980506381
-38.22169867226376
-40.041501515684885
-41.88423046064169
-43.75237846150479
-45.64849293710437
-47.57517923573595
-49.535103777901114
-51.530996713963425
-53.56565392337417
-55.641938172351836
-57.7627792379222
-59.931172798519114
-62.150177885240616
28.73767263208157
26.47635398143965
24.25092235643146
22.060862430759816
19.905625666726284
17.78461701193887
15.697183290150322
13.642603364103115
11.620080110319805
9.628734207296283
7.667599700677764
5.73562127307541
3.83165311351756
1.9544592528872524
0.1027152078361987
-1.724989242783456
-3.5301463379137186
-5.314325867130511
-7.07917015482575
-8.826388691390006
-10.557752599766216
-12.275089114653184
-13.980276237384754
-15.675237712788777
-17.361938455789858
-19.042380535858143
-20.718599807087127
-22.39266325125247
-24.066667081022892
-25.742735630860615
-27.42302104427607
-29.109703748084478
-30.804993687273445
-32.51113227785319
-34.230395019750574
-35.965094697220195
-37.717585080197175
-39.49026502651318
-41.285582871730924
-43.10604098036638
-44.954200319489644
-46.83268490301885
-48.74418594235192
-50.69146552658751
-52.6773596433352
-54.70478033937742
-56.77671680935741
-58.89623519056738
-61.06647683329609
27.75744233167486
25.532888615377942
23.343877242155067
21.190022706593087
19.070897186850146
16.986016263697064
14.934826557843753
12.916695374022858
10.930902395578524
8.976633427860834
7.052976144298096
5.158917747135396
3.293344416926402
1.4550423920276705
-0.3572995076298192
-2.14508611871802
-3.9098111547551957
-5.6530516358454745
-7.376461756399488
-9.081766414627465
-10.770754617821876
-12.44527296345785
-14.10721937864426
-15.758537280389813
-17.401210297305138
-19.037257670451645
-20.668730427758987
-22.297708403297513
-23.92629815012618
-25.556631773778637
-27.190866692869847
-28.831186313925112
-30.479801589380834
-32.13895341058385
-33.81091577165648
-35.49799962486989
-37.20255733361933
-38.926987615081515
-40.67374085082955
-42.445324630018845
-44.24430937609732
-46.07333389423768
-47.935110662706634
-49.832430677439035
-51.76816764495308
-53.745281304880045
-55.766819649866555
-57.83591979781708
-59.955807259886114
26.75926017798607
24.57165077479705
22.419256516488957
20.301832148184026
18.219079652336166
16.17063289651194
14.156044457445228
12.174774722253831
10.22618331466417
8.309522840347585
6.4239348931589095
4.568448215109209
2.741978858913716
0.9433321642461426
-0.8287936715866192
-2.5758026705195523
-4.299195054784253
-6.000560395598488
-7.681570192477182
-9.34397013895893
-10.989572317624958
-12.62024754962372
-14.237918102485994
-15.84455093592323
-17.442151639509742
-19.032759189500034
-20.618441625335407
-22.20129272024096
-23.7834296951415
-25.36699200132648
-26.95414117498243
-28.54706174599776
-30.14796316427549
-31.759082688968462
-33.38268916957583
-35.021087632174456
-36.67662456924243
-38.35169381715155
-40.04874289113148
-41.770279633320705
-43.5188790150478
-45.29718991969314
-47.10794171720539
-48.95395042572189
-50.8381242396464
-52.76346818732341
-54.733087665221476
-56.750190579714555
-58.818087812566176
25.743364449871862
23.59280574354026
21.477158559838024
19.396329161948607
17.350159084611462
15.338408602556123
13.360742673418162
11.416719470508367
9.505781557579892
7.627249694022346
5.780319197170606
3.9640587309992776
2.1774113394081605
0.4191974990187769
-1.311880067919759
-3.017230104758118
-4.698365355279991
-6.356894227524913
-7.994511889246411
-9.612991087208524
-11.214172965580136
-12.799958136403031
-14.372298228905299
-15.933188115495991
-17.48465898179461
-19.02877237708538
-20.56761535099056
-22.103296752653225
-23.637944740735957
-25.173705526488728
-26.71274334812564
-28.257241652780355
-29.809405442296597
-31.371464720822985
-32.94567896536651
-34.53434252470316
-36.13979083715854
-37.764407343249175
-39.41063095470656
-41.080963926820445
-42.777979965900215
-44.50433238788036
-46.26276212757722
-48.05610538071308
-49.887300642645286
-51.75939488897306
-53.67554862396062
-55.63903950349624
-57.6532642204288
24.709987961281428
22.59650729534129
20.5176651144102
18.473531396854757
16.464097701605727
14.489259332014718
12.548800320434601
10.642381365652843
8.769530779716478
6.9296384248197445
5.1219525479383785
3.3455793534066687
1.599485094270061
-0.11749958638916941
-1.806673371563973
-3.4694563782918575
-5.10738100732162
-6.722081888638858
-8.315285271141041
-9.888798190023277
-11.444497723328096
-12.984320621120037
-14.510253558671016
-16.024324230299452
-17.528593464493262
-19.02514850498274
-20.516097567418704
-22.003565748087446
-23.489692330122846
-24.976629504293413
-26.46654249579473
-27.96161106542313
-29.464032332885992
-30.976024851528116
-32.49983384694732
-34.0377375164567
-35.592054271710445
-37.16515079246285
-38.75945074505104
-40.37744400441502
-42.021696202847615
-43.694858412041526
-45.399676747242204
-47.13900166316032
-48.9157966909095
-50.73314634371304
-52.594262896601364
-54.5024917222912
-56.461314842203954
23.659355112051777
21.582894222774883
19.540837412371296
17.53343160812442
15.56082966329489
13.623071070915614
11.720065902155397
9.851582120634264
8.01723633345133
6.216487949057148
4.4486366255154115
2.712822813338826
1.0080311279714678
-0.6669037698830313
-2.3132891511137332
-3.9325644463419156
-5.526290134498405
-7.096135702787403
-8.643867078843916
-10.171333915538787
-11.680457080185775
-13.17321666485914
-14.651640795272192
-16.1177954739405
-17.573775650861368
-19.021697673187052
-20.463693225394064
-21.90190483413292
-23.33848297782103
-24.775584810344988
-26.215374481070853
-27.660025009496565
-29.11172165199244
-30.5726666797803
-32.04508547095443
-33.531233804474624
-35.03340623009278
-36.55394537438621
-38.09525202912335
-39.659795853487275
-41.25012650581809
-42.86888500322287
-44.518815088428774
-46.20277436236174
-47.92374491824471
-49.68484318851384
-51.48932868976368
-53.34061132368128
-55.2422568638013
22.591678486918504
20.55208635154421
18.5467117451117
16.575992939423042
14.640256236429881
12.739695062587831
10.874352760955444
9.044109254470085
7.248671644703867
5.487568701938018
3.7601490993328275
2.065583150525429
0.4028677295028482
-1.2291660134920606
-2.831842574421092
-4.406630121503168
-5.955127103932816
-7.479047920396707
-8.980208108544714
-10.46050948889679
-11.921925659638855
-13.366488194942507
-14.796273851434472
-16.213393037363545
-17.61997974892871
-19.018183129817047
-20.41016076445861
-21.798073773752748
-23.184083744634222
-24.570351491924065
-25.95903762246032
-27.352304847196848
-28.752321966269037
-30.161269434428462
-31.58134639885535
-33.014779087729906
-34.46383041510245
-35.9308106548617
-37.41808902350642
-38.92810599713724
-40.4633861722734
-42.02655146226452
-43.620334401007725
-45.24759130308589
-46.91131500433155
-48.61464687919338
-50.36088780136754
-52.153507682235656
-53.99615318813508
21.507154944816893
19.50417997114338
17.53529439737068
15.601143544345115
13.702240300925986
11.838942401396526
10.011433957598893
8.219711444253942
6.463574204041528
4.742619408805931
3.0562412903600666
1.403634344098937
-0.2161998850855279
-1.8044428994120725
-3.362446745479278
-4.891719462343637
-6.393909042007877
-7.8707864565633745
-9.32422828244017
-10.7561994150194
-12.168736319310499
-13.563931207733967
-14.943917477389743
-16.31085667917532
-17.66692723213378
-19.014315040395523
-20.355206118375385
-21.691781283373995
-23.02621293405212
-24.360663898299382
-25.69728830467144
-27.038234407344447
-28.385649274630776
-29.741685234852632
-31.108507959665545
-32.48830605312263
-33.883302003710604
-35.29576434548374
-36.72802086263077
-38.18247265838903
-39.6616088937683
-41.16802198345487
-42.704423015235406
-44.27365713506593
-45.87871861228897
-47.522765268611806
-49.20913192042986
-50.941342447052776
-52.72312005803672
20.40596113174695
18.439242601904922
16.50655585767888
14.608770455429267
12.746600108537578
10.9205779173287
9.13103651238885
7.37809333783697
5.661641141282037
3.981343580296879
2.336635708475
0.7267289738137946
-0.8493797469372109
-2.3928956389082208
-3.905210584172388
-5.387885592962357
-6.842631690133203
-8.271289900938296
-9.675810945983155
-11.058235205709707
-12.420673453955896
-13.7652887920891
-15.094280143634116
-16.409867597495467
-17.71427981854194
-19.00974367969336
-20.29847621115363
-21.582678910990964
-22.864534417331527
-24.14620550583639
-25.429836346470665
-26.717555930090526
-28.011483557084645
-29.31373626620275
-30.62643807057249
-31.951730858644538
-33.29178680934417
-34.648822161898416
-36.02511217085977
-37.42300706482357
-38.84494881261721
-40.29348848269261
-41.77130395962282
-43.281217755843684
-44.826214626650454
-46.40945866214456
-48.03430949140271
-49.70433719169079
-51.423335449744926
19.288248339856477
17.357307005173514
15.460424201749122
13.598712593855192
11.773102190433015
9.984313258226294
8.232834930831483
6.51890977144233
4.84252435268744
3.203405727383549
1.6010234883649423
0.03459696134255946
-1.496893052167878
-2.9946886607286873
-4.460236139952108
-5.895164833939186
-7.30126447553393
-8.680461674000066
-10.034796270725328
-11.366398198227701
-12.677465400280848
-13.970243286426111
-15.247006106963259
-16.510040548733798
-17.76163177073645
-19.004052024297906
-20.239551936682894
-21.47035448056299
-22.698651604842937
-23.92660346468313
-25.156340159361523
-26.389965864804367
-27.629565231976763
-28.877211911389413
-30.13497905639736
-31.40495165226136
-32.689240512912
-33.98999778162652
-35.309433764408645
-36.64983491480041
-38.01358277529634
-39.403173662864006
-40.82123886371431
-42.27056507519581
-43.7541148001191
-45.275046360933196
-46.83673315810192
-48.44278174886715
-50.097048269738835
18.154136622551334
16.25836432729469
14.396777527605712
12.570752794948076
10.78145329368399
9.029799062779555
7.316443927372661
5.641759332140772
4.005825151166221
2.408427299368986
0.8490617597908123
-0.6730555415294863
-2.1589737288222692
-3.609987661951929
-5.027615205358346
-6.413571999853518
-7.769744647861769
-9.098163182224516
-10.40097362248516
-11.680411337004855
-12.938775830908831
-14.178407475062775
-15.40166658536262
-16.610915159409675
-17.808501482695576
-18.99674773133662
-20.177940624813285
-21.354325120746264
-22.528101094394966
-23.701422907692702
-24.87640174496802
-26.055110573611746
-27.239591576207975
-28.431865894162264
-29.633945520040854
-30.847847174845064
-32.07560800582311
-33.31930293867379
-34.58106351388421
-35.863098029473186
-37.16771280049562
-38.49733432876155
-39.85453215361892
-41.24204212598809
-42.662789812856154
-44.119913697921355
-45.6167877961616
-47.15704324585989
-48.74458838130191
17.003708059675997
15.142356248424928
13.315435299533037
11.524608702866194
9.771291206911041
8.056616101513812
6.381410250259128
4.746177201041923
3.1510884128622507
1.5959823579149293
0.08037100465135544
-1.3965470287408617
-2.8358675320402007
-4.238956974689488
-5.6074250645506165
-6.943094688121336
-8.247970303756487
-9.524205798984934
-10.774072732894023
-11.999929773154067
-13.204194012843542
-14.389314722614587
-15.55774996545326
-16.71194637986414
-17.854322326830296
-18.987254499100416
-20.113068009758372
-21.2340299110598
-22.35234604364246
-23.47016107934418
-24.589561596196408
-25.712582009765704
-26.841213178723095
-27.977413502095196
-29.123122328993844
-30.280275506630385
-31.450822897446898
-32.63674769938656
-33.84008740337586
-35.062956217899476
-36.30756878085008
-37.57626496308807
-38.87153554558295
-40.19604852216168
-41.55267574251586
-42.944519564927575
-44.37493913529432
-45.84757584836104
-47.366377478935775
15.836999047476949
14.009165983143525
12.216148431477128
10.459922361567486
8.742174311779525
7.064265244453124
5.427203498930043
3.831627209629473
2.277796198864199
0.7655930142273537
-0.7054675247344744
-2.136221162114296
-3.5278305128676735
-4.881756065478158
-6.199723174444645
-7.483686347285975
-8.735792087610728
-9.958341468359285
-11.153753487973795
-12.32453011797896
-13.473223793629348
-14.602407939413178
-15.714650966338578
-16.81249403425121
-17.898432744548057
-18.974902819353005
-20.04426973371646
-21.108822197672925
-22.17076933398008
-23.23224136316665
-24.295293587765524
-25.361913459715176
-26.43403051599401
-27.513528975049674
-28.602262797767644
-29.702073029263417
-30.814807249739548
-31.9423409718919
-33.08660082750332
-34.24958938567005
-35.43341143822811
-36.64030157378592
-37.872652839558825
-39.133046259353996
-40.42428093638512
-41.749404420731395
-43.11174296323258
-44.51493121034502
-45.96294081820242
14.653991464219416
12.858607950273338
11.098587908212057
9.376248297310935
7.6935696689015804
6.0521560926051015
4.453205812687029
2.8974930393434013
1.3853608394207104
-0.08327532412301808
-1.5089142227682477
-2.8924467853827993
-4.235126663857922
-5.53853493887672
-6.804540530249305
-8.035257869039821
-9.233003316970112
-10.400251694891972
-11.539594120212339
-12.653698167155254
-13.745271166730573
-14.817027266849696
-15.871658686719938
-16.91181143051915
-17.94006557831432
-18.958920149902376
-19.970782440466863
-20.97796165487032
-21.982666618217756
-22.987007311150137
-23.99299996596956
-25.002575460745604
-26.017590759452283
-27.039843163698738
-28.071087162640342
-29.113053689454368
-30.167471613013973
-31.23609130996286
-32.320710173607075
-33.423199920600254
-34.54553555298375
-35.689825820993406
-36.85834501049212
-38.05356584729067
-39.27819326870826
-40.535198760242494
-41.82785489196431
-43.159769615241956
-44.53491979570235
13.454602532758106
11.690415892743133
9.962331702821547
8.27303984919074
6.624839413011366
5.01959408538814
3.4587002957992503
1.9430684941045122
0.47311748139013315
-0.9512188237743344
-2.3304732417491287
-3.665617228508937
-4.958024491383224
-6.2094281606831725
-7.421873411489489
-8.59766739589772
-9.739328234476877
-10.849534643596765
-11.931077560862802
-12.986814892166176
-14.019630257266998
-15.032396370411348
-16.02794346938191
-17.009033008502236
-17.978336663473744
-18.93842056077025
-19.89173454154661
-20.840606197880124
-21.787239374542814
-22.73371680845321
-23.682006576163943
-24.633972032749487
-25.591384949033596
-26.55594158416226
-27.529281463595133
-28.513008665527263
-29.50871544886525
-30.51800808100512
-31.542534742000782
-32.5840153917477
-33.644273487465114
-34.72526942910879
-35.82913558970131
-36.958212755445416
-38.11508775648932
-39.30263201309609
-40.524040653516835
-41.782871779028696
-43.08308535828152
12.238673164513875
10.504229182959026
8.806849700071634
7.1496334569169875
5.535225191875679
3.9657658671079004
2.442858029986576
0.9675467780721161
-0.459683880530116
-1.838900104569842
-3.1706941058479865
-4.456148640353623
-5.696792197642743
-6.894547146902886
-8.051673136999069
-9.170707974131387
-10.254408034233252
-11.305690030883921
-12.327575677289104
-13.323140475852757
-14.295467561428499
-15.247607231401965
-16.182542530115356
-17.103161025360507
-18.012232725584703
-18.91239393939689
-19.80613677260275
-20.695803889085678
-21.5835881256375
-22.471536541946136
-23.361558499664557
-24.255437393190814
-25.154845694334142
-26.06136301860658
-26.976496968415066
-27.901706554544912
-28.838428038971376
-29.788103076951543
-30.752209062837153
-31.73229160033609
-32.72999902320312
-33.747118885628446
-34.78561632212009
-35.84767414422312
-36.93573449547857
-38.05254182630484
-39.201186876897395
-40.385151268575996
-41.60835220202918
11.005954523224432
9.299576992600379
7.631486274603127
6.005230557170814
4.423830334918377
2.8897226621636927
1.4047235109774556
-0.02999128194121564
-1.4138868394828414
-2.7470529693214742
-4.030172571397543
-5.26447701048734
-6.451691071322512
-7.593970279180041
-8.693833375646957
-9.754092607940974
-10.7777842483138
-11.768101438766207
-12.728331086928854
-13.661796150921493
-14.571804269401335
-15.461603337970482
-16.334344318977312
-17.19305130746315
-18.040598665616503
-18.879694881419944
-19.71287270108344
-20.542485023849515
-21.370706025125006
-22.1995369823211
-23.030816309870488
-23.866233358752957
-24.707345595214186
-25.555598837670843
-26.412350295522213
-27.278894214930254
-28.15648999149923
-29.04639265580883
-29.949885673206502
-30.868316022595625
-31.80313152925686
-32.755920423262154
-33.72845307704252
-34.72272584304133
-35.74100686455553
-36.78588366968979
-37.86031227969954
-38.96766746853124
-40.1117936998901
9.75609248891866
8.075859934931794
6.4354400974377075
4.838876668777708
3.2895993792583385
1.790361370306293
0.343198332410487
-1.0505901159927522
-2.3904373885651884
-3.676486761052594
-4.909550391688421
-6.091053442121007
-7.222966580444139
-8.307730302307277
-9.348174461110256
-10.347436184323733
-11.3088790084939
-12.236015632320969
-13.132436206307755
-14.001743586049525
-14.84749650498529
-15.67316119477477
-16.482071613177133
-17.277398138952755
-18.062124363346065
-18.83903144563407
-19.610689400114783
-20.379454635399128
-21.147473064587384
-21.916688137154793
-22.688853200788913
-23.46554767563424
-24.248196606910994
-25.03809324850436
-25.836424414859014
-26.644298417188207
-27.46277546971394
-28.292900509951178
-29.135738422257415
-29.992411684795886
-30.86414047581259
-31.752285275086876
-32.65839198011463
-33.58423952383065
-34.531889931086305
-35.503740684576684
-36.50257918723878
-37.5316390070826
-38.59465747167024
8.488609629453698
6.832328698678145
5.217740650211322
3.6494371594005632
2.1312945107874026
0.66640304965745
-0.7429770707083028
-2.0954334149498752
-3.390392960613428
-4.628090036167274
-5.809513532947404
-6.936337111773513
-8.010836528841953
-9.03579833046947
-10.014424041035209
-10.950233637348179
-11.84697161909569
-12.70851840517171
-13.538809162767103
-14.341761556786768
-15.121213328593555
-15.880870101872732
-16.624263386201328
-17.35471841276798
-18.075331191341714
-18.78895401694674
-19.498188568883194
-20.205385721632172
-20.912651213971806
-21.62185638675163
-22.33465328963028
-23.052493562569303
-23.77665061040306
-24.508244701533936
-25.248270729310555
-25.99762847279729
-26.757155279553288
-27.52766116454473
-28.309966374950633
-29.104941509452736
-29.913550302043006
-30.736895183909734
-31.57626572243809
-32.433190003501224
-33.30948897197108
-34.207333675576805
-35.12930526864903
-36.07845752490221
-37.05838148168168
7.202884194181948
5.568059079999415
3.977220808632288
2.435569078320803
0.947468393723662
-0.4836315936936782
-1.8552438131037698
-3.165859242511185
-4.4149314650461395
-5.60283312347134
-6.730788242513134
-7.800785189906103
-8.815475472568199
-9.778063631248301
-10.692193250437851
-11.561833604509841
-12.391170789933266
-13.184506421980547
-13.94616617160849
-14.680419641984242
-15.39141237862168
-16.083110201847788
-16.759255561295568
-17.423335243556497
-18.078558511113226
-18.72784460188228
-19.373818458859148
-20.01881357142298
-20.66488087679172
-21.31380277590298
-21.967111448540486
-22.626110795983152
-23.291901486164978
-23.965408718947508
-24.647412462081768
-25.338580027857976
-26.039500963664597
-26.750724314993874
-27.472798385832178
-28.206313168224188
-28.951945639917938
-29.710508136108498
-30.482999988456555
-31.270662591639244
-32.0750380047714
-32.89803112199337
-33.7419753532108
-34.60970164246909
-35.50461051715142
5.89812552608467
4.2819226762532185
2.712484708244663
1.1956883059419872
-0.26356723903382034
-1.6614501446212548
-2.99524727697821
-4.263376178747889
-5.465359976821232
-6.6017689799814185
-7.674134179984465
-8.68483879073214
-9.636994386412853
-10.534308164549255
-11.380947433256159
-12.18140669617534
-12.940381785657225
-13.662654474470584
-14.352989967329437
-15.01604870682636
-15.656313075246574
-16.278028865507405
-16.885160844381097
-17.48136133816013
-18.069950522957306
-18.653906980135524
-19.23586705943932
-19.818131654906107
-20.402679119381062
-20.99118320256772
-21.585035078164676
-22.185368714289357
-22.793089027548852
-23.408902437238858
-24.03334959692185
-24.666840222578998
-25.309690057733732
-25.962160115228247
-26.624498412378742
-27.296984470925103
-27.9799768857514
-28.673964276841303
-29.37961992762612
-30.097860379847603
-30.829908200408802
-31.5773590594763
-32.34225316116014
-33.12715094872806
-33.935212864907804
4.573345137277171
2.972552322972184
1.4218699179740593
-0.07206889572898828
-1.5037779835866756
-2.869020339240681
-4.164862332509388
-5.389680327482312
-6.543122573383034
-7.62603154130476
-8.640333573747155
-9.588903756758587
-10.475414314322341
-11.304174621457737
-12.079970242099286
-12.807907352701434
-13.49326765306946
-14.14137752423832
-14.757493881868008
-15.346707978685252
-15.913867388527862
-16.463515588112987
-16.999847948218132
-17.52668254332302
-18.047443965508478
-18.565158255321492
-19.08245710750805
-19.60158964182464
-20.12444022028025
-20.65255101804635
-21.187148296314945
-21.72917156667728
-22.279305067250668
-22.838011183490153
-23.405565636776636
-23.982094428924395
-24.567612669798685
-25.16206552807872
-25.765371632240228
-26.377469310791607
-26.99836609829555
-27.628191947185567
-28.26725657541374
-28.916111346665204
-29.57561602345162
-30.247010654001805
-30.931992751464197
-31.632799798818546
-32.35229696479921
3.227322497634078
1.638301121631249
0.10340270866536994
-1.3698910545699068
-2.7754490442502666
-4.108606398380873
-5.366221198736937
-6.546672884223043
-7.649806594445121
-8.676830478619733
-9.630175041129432
-10.513324749278297
-11.330632419719874
-12.08712642926602
-12.788319722863758
-13.440028105481934
-14.048203597679564
-14.618786880531234
-15.157581195704289
-15.670148602735058
-16.161728289491002
-16.63717570910031
-17.100920673696628
-17.556942147730368
-18.008757314031634
-18.45942249085587
-18.911543613997605
-19.367294224130067
-19.828439180643276
-20.296362630960715
-20.772099076643613
-21.256366678770867
-21.74960222452821
-22.251997428279495
-22.76353646043723
-23.284034785114187
-23.813179543358427
-24.350571843912828
-24.895771419264328
-25.44834417295217
-26.007913185742193
-26.57421376426164
-27.147153106730613
-27.726875126741774
-28.31383091783776
-28.908855259022747
-29.513249454547385
-30.128870670478324
-30.758227776044574
1.858564333516697
0.2771936041367646
-1.2452551001447607
-2.700344763354788
-4.081234459575683
-5.382810441787584
-6.60174400872869
-7.736477761826022
-8.787146292990197
-9.755440891197065
-10.64443028755665
-11.45835069140758
-12.202378459906605
-12.882397857532885
-13.504774738632776
-14.076144894205273
-14.603223505424571
-15.092639867553236
-15.550799463677613
-15.98377369475932
-16.397216171661114
-16.79630345965684
-17.185697514212496
-17.5695267127204
-17.951382312083954
-18.33432728471587
-18.72091474694744
-19.11321354251601
-19.51283893721743
-19.92098678648063
-20.338469931932423
-20.76575595032689
-21.2030057092947
-21.650112474799307
-22.106741563983284
-22.572370745402246
-23.046331758957308
-23.52785346299783
-24.01610721880167
-24.510255195559196
-25.009502323732374
-25.513152642600787
-26.020670779606327
-26.531749264962777
-27.046382325124164
-27.564946712936603
-28.08829002097431
-28.617826788021162
-29.155642547616708
0.46525590399392974
-1.1131328115900174
-2.6268696217915237
-4.066437763363806
-5.424214542725162
-6.6946196346170606
-7.8741720145655805
-8.961458479681696
-9.957022421266554
-10.863185949916534
-11.683821349068307
-12.424089072734672
-13.090159229047462
-13.688931971573231
-14.227769810325356
-14.714251934282434
-15.155957561392304
-15.560282392756783
-15.934289656164625
-16.284595107471766
-16.617283767502784
-16.93785509742034
-17.25119270482616
-17.561554449265365
-17.87257889247855
-18.187304330354433
-18.508197073577886
-18.83718614881923
-19.17570212248334
-19.524718268873443
-19.884792790349188
-20.256111234721295
-20.638528638320345
-21.031611250758683
-21.434677971647414
-21.84684185462523
-22.267052215056154
-22.694138019576823
-23.126853342623978
-23.563925750753064
-24.004108522241
-24.446237628772845
-24.889294398524726
-25.33247474556302
-25.775265789172067
-26.217530597991818
-26.659601677877124
-27.10238367983462
-27.547465636284844
-0.9547977107207146
-2.5354984321073264
-4.0447111214310345
-5.471693947016546
-6.807963038860668
-8.047459736169333
-9.186603155624397
-10.224233098881209
-11.161455707464185
-12.001409818927042
-12.748975325618796
-13.410445947160412
-13.993187932507068
-14.505303733044379
-14.955316160129875
-15.351884494730907
-15.70355992912619
-16.01858396184502
-16.30473018425817
-16.569187417695844
-16.81848040911339
-17.058423220984658
-17.294099959539146
-17.529867453875717
-17.769374802511376
-18.01559522926202
-18.270866340260902
-18.5369355725324
-18.8150083165612
-19.10579684399068
-19.40956875532794
-19.726194171340556
-20.05519132412005
-20.39577056326182
-20.746877086151535
-21.107232937042756
-21.475379005723557
-21.84971790043671
-22.228558677381976
-22.610164485288244
-22.99280423093706
-23.37480939184738
-23.754637095845943
-24.130940553321906
-24.502647865860997
-24.869050143686362
-25.229899743680868
-25.58551929045428
-25.936921966621064
-2.404242845792586
-3.993266994944922
-5.50264603248502
-6.920242898290185
-8.236625770125102
-9.445255690272337
-10.542529374111005
-11.527685372747419
-12.402591364130952
-13.171437260261722
-13.840362621995915
-14.417047606985612
-14.910294759056377
-15.329625047626163
-15.684906458023253
-15.986027868344753
-16.24262555777922
-16.463864935128615
-16.658276229496508
-16.833640054641847
-16.99691691863725
-17.154213785205194
-17.310780537363776
-17.471029467117464
-17.638571544785858
-17.816264059765338
-18.006265152922325
-18.21009169273789
-18.428677824597283
-18.662432310955438
-18.91129346349809
-19.17478104392862
-19.452044983445727
-19.74191115285626
-20.04292471839984
-20.353391855777474
-20.671420778530333
-20.994963176904136
-21.321857267549007
-21.64987372848176
-21.97676584080927
-22.300325180221403
-22.6184441967425
-22.929186989208723
-23.23086951942566
-23.522150418050682
-23.802133408996866
-24.07048222204102
-24.327548676742794
-3.8862643125086107
-5.4904503924019
-7.005248679005099
-8.416927227203196
-9.715012834491148
-10.892499779214077
-11.945874528830924
-12.87496939601395
-13.682670640835726
-14.374515091449519
-14.958213509805091
-15.443138862808743
-15.839814099555202
-16.15942802416405
-16.413400527193616
-16.61301083997908
-16.769095432017625
-16.891816234105146
-16.99049531935018
-17.073509060447655
-17.148232987529077
-17.22102787817782
-17.297257758951623
-17.381331226329102
-17.476758574169157
-17.58621845857303
-17.711629101239687
-17.85422023561854
-18.014603080733778
-18.19283655901191
-18.388488751312032
-18.6006932127987
-18.828200273466265
-19.06942383657358
-19.322484487208648
-19.58524995039221
-19.85537410968172
-20.13033592623431
-20.407479694309174
-20.684058138645163
-20.957279905343455
-21.224363021553735
-21.48259589878112
-21.729407427079543
-21.962447649002495
-22.179680409388176
-22.379489247630982
-22.560797632885212
-22.723204442561602
-5.404692606549974
-7.0318375242731435
-8.557937723925077
-9.967431753095214
-11.248706733860304
-12.394327596973982
-13.401030932236061
-14.269503756352208
-15.003983869922715
-15.611729015643643
-16.102406276047184
-16.487451566982145
-16.77944292571613
-16.991522174644338
-17.136889120123463
-17.228382156395362
-17.278150044352298
-17.297412354006532
-17.2963008352966
-17.283770745477124
-17.267569643066544
-17.254250987137898
-17.249220664290355
-17.256805944385583
-17.280338043241077
-17.322241222652373
-17.384123032765828
-17.466861807032657
-17.570688811136485
-17.695263513630316
-17.839741299028667
-18.002833607896573
-18.182860992942583
-18.377799956114647
-18.585324708132852
-18.802845193761055
-19.02754287402382
-19.256405866389706
-19.48626512672301
-19.71383341954489
-19.93574886870566
-20.14862490861422
-20.34910846340091
-20.53394816259923
-20.70007435086622
-20.844692559732216
-20.96539197700212
-21.060270272686815
-21.12807592223405
-6.964136975573103
-8.623153993732895
-10.167143827826505
-11.578439587938027
-12.844189097559017
-13.95660158312721
-14.912891266256707
-15.714949344627577
-16.3687972880877
-16.88388714364153
-17.2723182483097
-17.54803546227089
-17.7260638176164
-17.821820818613844
-17.850532928019796
-17.82676897691764
-17.764091652435724
-17.674819505038133
-17.569886179137207
-17.458780519750988
-17.349550332397
-17.248853283088614
-17.16204015468644
-17.09325794597221
-17.045562744246165
-17.02103466771659
-17.020889305987442
-17.04558190895512
-17.094902065587767
-17.168057789848692
-17.263748827795148
-17.380229663170766
-17.515363175743236
-17.666666241339392
-17.831348793353047
-18.006348024043383
-18.18835951501822
-18.3738671680752
-18.559173872295233
-18.740434897876792
-18.9136960537176
-19.074938682164507
-19.220133585079637
-19.345305972097744
-19.446613484863462
-19.520439270167362
-19.56350194224656
-19.57298408611993
-19.546680711835982
-8.570151959231247
-10.271261537628213
-11.840516943754393
-13.257821406343416
-14.508988877121228
-15.586000935695196
-16.486870690770612
-17.215162312887614
-17.779242918017587
-18.1913586071039
-18.466628494118503
-18.622041611971387
-18.675525081608086
-18.645131678680766
-18.548374378632378
-18.401717188340616
-18.22021712068689
-18.017302102107898
-17.804663734187947
-17.592241496289635
-17.38827529965762
-17.199405391907558
-17.030801682654847
-16.886308005837417
-16.768590224419807
-16.679280154511098
-16.61910990458394
-16.588033351344755
-16.585333127437
-16.60971273243428
-16.6593742677017
-16.732082910212576
-16.825219647731686
-16.935824056411562
-17.0606290597465
-17.19608970269897
-17.338408034861367
-17.483556241451122
-17.62730020343679
-17.765225714356724
-17.8927696321874
-18.005258295743644
-18.097955577867726
-18.16612296994808
-18.205094079400315
-18.21036585820807
-18.17770875304067
-18.103297767342035
-17.983866152917123
-10.229447646136135
-11.984409067674864
-13.58718425971688
-15.01486570277146
-16.251854899263783
-17.290115130549054
-18.128910997250806
-18.77410981663456
-19.23715665057931
-19.53385181262137
-19.683057899758335
-19.705446613098804
-19.622369468626154
-19.454906763653774
-19.223120731757916
-18.94551501043088
-18.638685013830223
-18.317132782548477
-17.993214626113094
-17.677189113732656
-17.37733529671281
-17.100115173758983
-16.850359305974465
-16.631459416270175
-16.44555630797732
-16.29371527166091
-16.176084240020757
-16.09203232459152
-16.040268109040603
-16.018938291652667
-16.025708077258674
-16.057825220683146
-16.11216990919607
-16.185292813177494
-16.273443688763983
-16.3725929258764
-16.478448429913204
-16.586470225528263
-16.69188518824374
-16.789704349216606
-16.874745278997143
-16.941662130993713
-16.984986002290775
-16.99917833155665
-16.978700080074137
-16.91809940944161
-16.812120456659454
-16.655835597966515
-16.444803281723118
-11.950157575897002
-13.77255133364854
-15.418073263735572
-16.860559654471267
-18.082955261671344
-19.077535598648698
-19.845454149204507
-20.395730613644
-20.743843959690846
-20.910111862979928
-20.918028594222378
-20.792703637772846
-20.55950243930929
-20.242947449531787
-19.865898821440197
-19.449003786407097
-19.01038333266396
-18.565513803914886
-18.127257694183726
-17.706000036896913
-17.309852232130545
-16.94489215418409
-16.61541664372043
-16.324189195945337
-16.072671377177222
-15.861231086472076
-15.689324257858411
-15.555649103720633
-15.458273705066581
-15.394738839200404
-15.362138563471461
-15.357181383749861
-15.376234938840337
-15.415357111991602
-15.470316400365638
-15.536604276804567
-15.609442195274521
-15.6837858405508
-15.754329213983672
-15.815511183653921
-15.861527205391543
-15.88634903179554
-15.883755353626345
-15.847376439348185
-15.770755925619808
-15.647432931142461
-15.471047584792583
-15.235472848069197
-14.934975156649294
-13.742183435429283
-15.64775700732389
-17.346319064638813
-18.807932316426065
-20.014104855626258
-20.957935672901495
-21.643365680928905
-22.083714559419256
-22.299744860208058
-22.31751021858098
-22.166220340097688
-21.876304376219352
-21.477791164812164
-20.999062676842772
-20.46598498023284
-19.901383622341292
-19.32480812527988
-18.752521212930688
-18.197649084014074
-17.670435947526663
-17.17855606004072
-16.727447346787734
-16.32064086127178
-15.960069041452439
-15.646342659810992
-15.378991570446335
-15.15666803780172
-14.977313871361073
-14.838294079096961
-14.736500551431046
-14.668429614830911
-14.63023732087622
-14.617776190463134
-14.626616905715242
-14.652058197482232
-14.689127955798499
-14.732578420493429
-14.77687820418194
-14.816203866745155
-14.844433799563827
-14.855147283824092
-14.841631748595823
-14.796901452214382
-14.713731016991412
-14.584707425014388
-14.4023041858128
-14.158981364233382
-13.847314961479269
-13.460158741509138
-15.61764319887114
-17.62473617895291
-19.387781387576656
-20.872474161709757
-22.059019614888935
-22.94212161179586
-23.52977795957134
-23.84116346484273
-23.903959094519216
-23.751491579478003
-23.419996804085113
-22.94623473160398
-22.36558722771161
-21.7106821235047
-21.010518849428554
-20.29002708136895
-19.569968460080528
-18.867087708482824
-18.194427465877098
-17.56173544533828
-16.97590890413581
-16.441437124927724
-15.960816117837378
-15.534920482852142
-15.163325330868012
-14.844576688396076
-14.576412375403354
-14.35593742867404
-14.179759172219434
-14.04408736078448
-13.944804710261632
-13.877512775045599
-13.837557672919456
-13.820039683518884
-13.81981031401159
-13.831460069442937
-13.849299903745832
-13.867339169246021
-13.879262829477721
-13.878410749817412
-13.857762026101831
-13.809927540558647
-13.727154226872972
-13.601344850163738
-13.424097416641544
-13.186768559844523
-12.880565331518667
-12.496669678677266
-12.026399451595047
-17.59146029248547
-19.721528994383128
-21.561705155328234
-23.07264912819769
-24.233590703688147
-25.042025538053043
-25.511807364003815
-25.670079163408243
-25.55357830162384
-25.204833208764207
-24.66867016931557
-23.989307672326227
-23.208170460081703
-22.36243315776928
-21.48421776792801
-20.60032200072943
-19.73234017974978
-18.89704569027853
-18.106923956028975
-17.37076993917305
-16.694288864306664
-16.08066030310678
-15.53104272498528
-15.045008063741083
-14.62090432991114
-14.256149613775069
-13.947463790609472
-13.691045572895337
-13.482702825227678
-13.317943693875854
-13.192035406484258
-13.10003677110666
-13.036809576812248
-12.99701334752984
-12.97508726863548
-12.965222611817547
-12.961328634386076
-12.956994723841431
-12.945451493097469
-12.919533600976816
-12.871647269540745
-12.79374578409355
-12.677316675013339
-12.51338476041792
-12.292535721655053
-12.004965309959548
-11.64055953724561
-11.189011166789317
-10.639977378210187
-19.682147553817348
-21.960414183280808
-23.8915700155222
-25.43051658513359
-26.55616160280912
-27.270591548932348
-27.596075128740534
-27.57060093653815
-27.242753281261038
-26.666660918474093
-25.89756969761404
-24.988360769198383
-23.987120323914407
-22.935701820848326
-21.8691202777305
-20.815575242082303
-19.79689962499127
-18.829258459260345
-17.923960070536424
-17.088281746235374
-16.3262467893912
-15.639317344179712
-15.026987315602145
-14.487273017887276
-14.0171072768734
-13.612647003047634
-13.269505969585982
-12.982924630460621
-12.747887992024063
-12.559201281941139
-12.411531747458618
-12.299423544815518
-12.217291454719792
-12.159398123644475
-12.119818703466102
-12.092396141061919
-12.070689944840119
-12.047921014435609
-12.016915052010315
-11.970047170929536
-11.899190575158245
-11.795672596110064
-11.650241932409
-11.45305161590828
-11.193662969487434
-10.861076532547525
-10.443796465031784
-9.929935117540897
-9.307364081506268
-21.912864140895046
-24.369121240453147
-26.40618949105841
-27.97247934004639
-29.047772067549943
-29.641474216104047
-29.787924627709433
-29.53988104367257
-28.961400940232213
-28.121155118627204
-27.086881199267644
-25.92131660647497
-24.679637370970468
-23.4082160028788
-22.144404139698977
-20.917023231489054
-19.747279005045662
-18.649874467867544
-17.634160876566163
-16.70522402383076
-15.86484897442947
-15.112339174314082
-14.445187279292565
-13.859607630212354
-13.350946593615149
-12.913989149123939
-12.543179777894522
-12.232774042736239
-11.976935006216866
-11.769786271374215
-11.60543121139782
-11.4779460089976
-11.381352501868788
-11.309575530613735
-11.256388489536114
-11.215350059467498
-11.179734624958176
-11.142458619828806
-11.096004986567149
-11.03234806671923
-10.942881560907256
-10.818352715055198
-10.648806610029318
-10.42354534723087
-10.131107989119482
-9.75927822687501
-9.295127721243166
-8.725103628202385
-8.035168660583182
-24.31286097984803
-26.98246726713977
-29.141140561610303
-30.73016649392402
-31.73229828371194
-32.16841623218419
-32.09017186728665
-31.570440960100484
-30.693427713349916
-29.545873100129945
-28.210234692085248
-26.760126197049736
-25.257864373189186
-23.75371573308737
-22.28634715299355
-20.884012490556614
-19.566096640561362
-18.34474594317556
-17.226412909696144
-16.21322172239041
-15.304116522036649
-14.495789924461562
-13.78340921850235
-13.161167028441774
-12.62268579200177
-12.16130409737867
-11.77026969168887
-11.442860040889794
-11.172447392368817
-10.952521729105843
-10.77668196122989
-10.638603208724028
-10.531986057121706
-10.45049215803962
-10.387669433079004
-10.336869361570198
-10.291158337438965
-10.243224827781406
-10.18528402878809
-10.108981882267825
-10.005300694320479
-9.864469209888657
-9.675880877183058
-9.428025213239863
-9.108438647790948
-8.703682886492237
-8.199360474804255
-7.580178481252388
-6.830071544120527
-26.919488988300095
-29.84459569634205
-32.1406299660586
-33.74143943035768
-34.636355730817414
-34.86408602373832
-34.50114186789316
-33.64778935079971
-32.41431754129713
-30.90961728360947
-29.233045130354558
-27.46965594295429
-25.688299594352262
-23.941813529799084
-22.268528408283768
-20.694433068614
-19.235526325533836
-17.900057394008655
-16.690495837338027
-15.605169224877859
-14.639567093237371
-13.78734243251224
-13.041055874092766
-12.392710387555418
-11.834120826610013
-11.357156476492136
-10.953887847745085
-10.616662402413702
-10.338128174781016
-10.11121951000786
-9.92911536324466
-9.785177671321149
-9.672875095714407
-9.585695808950728
-9.517051842572346
-9.460176739384167
-9.408017782317728
-9.353123852807062
-9.287529968195125
-9.202639746739989
-9.089107462543145
-8.93672202436216
-8.73429621606463
-8.469565963751766
-8.12910631283395
-7.69827317795877
-7.161182545938221
-6.50074116462265
-5.6987440508444145
-29.781038291489583
-33.01208011198774
-35.459933220508915
-37.05146068238722
-37.78871757676053
-37.73801554832521
-37.01161944931877
-35.7470056924722
-34.08791232536337
-32.169807575785775
-30.11066967170981
-28.006647748816714
-25.931458981514545
-23.9381985953368
-22.0624021505815
-20.32550720607371
-18.73817752473443
-17.3032087144339
-16.017911089870438
-14.875972179808194
-13.868855978226
-12.986816987030341
-12.21960862216796
-11.556957404593584
-10.988862509672735
-10.505768005458737
-10.098644066682066
-9.759004204171038
-9.478878164042529
-9.250754444369026
-9.067502077207266
-8.922278152377631
-8.80842526868739
-8.719361484489577
-8.648464242568924
-8.588949042753105
-8.53374323929502
-8.475355184162028
-8.40573897906626
-8.316155319489042
-8.197029326316146
-8.037806925170166
-7.826812371816949
-7.551111117178891
-7.196384562270816
-6.746826493233709
-6.1850749727268095
-5.49219760126072
-4.6477511845225115
-32.96083102941885
-36.55828949447298
-39.168570141828155
-40.71365828079405
-41.21879550713055
-40.79304959043719
-39.600165208323375
-37.8279088409256
-35.66222328058208
-33.26939503032363
-30.786555792164584
-28.318992548594245
-25.94203448284501
-23.70540102129562
-21.638411704174235
-19.755049254151352
-18.058357042018358
-16.543987887050072
-15.20291702812586
-14.023426567495228
-12.992499963962139
-12.096762238186686
-11.32308325789255
-10.658938600424134
-10.092600510331126
-9.613212666034782
-9.210787415875197
-8.87615259918544
-8.600866477926562
-8.377113056684497
-8.19758560869175
-8.055363095876366
-7.943782016174837
-7.856304765378863
-7.786384670398398
-7.727327298109717
-7.672147371375104
-7.61342056172011
-7.543129526972739
-7.452503792483455
-7.331853438240081
-7.170397112122082
-6.956085802361594
-6.675425366300157
-6.313303449183069
-5.852830561101998
-5.275210858912311
-4.5596650574106565
-3.6834342623792593
-36.543250918956254
-40.57961928767045
-43.35438681646936
-44.790188842538555
-44.95335636707341
-44.019349681783915
-42.226007882411615
-39.82836670802881
-37.06419955094542
-34.13352810507943
-31.19074767413337
-28.345722835617018
-25.669912120670162
-23.20439849138948
-20.967836838142926
-18.963311435565863
-17.18376585249033
-15.616044722063226
-14.243755749401764
-13.049205838362468
-12.014648919641832
-11.123042570825955
-10.35846576643898
-9.706310038006748
-9.153323916020147
-8.687565826832795
-8.29830252343835
-7.975877243121561
-7.711562804573726
-7.49740870914035
-7.326087169590585
-7.190740246822417
-7.084828496322959
-7.001980410370325
-6.9358412841926445
-6.879919797917269
-6.827430499531898
-6.77113043215379
-6.703148319049541
-6.61480495615546
-6.496423734656092
-6.337130550458116
-6.1246429099481094
-5.84504920713763
-5.482581638013795
-5.0193909886757115
-4.435339397471252
-3.7078380515916964
-2.8117686978753405
-40.64284638048417
-45.20451905143916
-48.1286429228294
-49.351017646792045
-49.00997054443212
-47.38441880835554
-44.818440420812905
-41.655339153203954
-38.19363733979979
-34.66652220200845
-31.239429215980344
-28.01835517129912
-25.06254309737445
-22.39739890004895
-20.025566103346144
-17.935499307959535
-16.107642696764195
-14.518634428446088
-13.144019035418793
-11.959896512779244
-10.943846825377175
-10.075379420684254
-9.336083131901624
-8.709595341933552
-8.181468508333653
-7.738983799780977
-7.370942412179037
-7.067452434875132
-6.819720893896191
-6.619855347278217
-6.460676129757282
-6.335538349486001
-6.238161569736408
-6.162464466677489
-6.102401453284642
-6.0517981852751
-6.0041829486386185
-5.952611122619874
-5.889480169961815
-5.806332864095339
-5.693646636534729
-5.540606946883619
-5.334862496161706
-5.062260310855223
-4.706560218377591
-4.249132763429222
-3.6686543171416552
-2.9408292917726255
-2.038190379118767
-45.418458853530716
-50.606754838937384
-53.631906557567575
-54.46970983567308
-53.3844671048534
-50.81675650637514
-47.26141937002228
-43.173562199574306
-38.91700392513759
-34.75028406340846
-30.836636394125684
-27.264478611768183
-24.069265641889974
-21.25213011906164
-18.793927479218077
-16.6649626856484
-14.831289233951852
-13.25853434502015
-11.914049853370758
-10.767985252918086
-9.793698066585868
-8.967776979780082
-8.269853671982798
-7.68231184928514
-7.189957858226941
-6.779689177191525
-6.44017964072947
-6.161589688562106
-5.935303714562566
-5.753693066325517
-5.609901351941053
-5.497647779707378
-5.411043877962116
-5.344418871061739
-5.292149086021232
-5.24848696271466
-5.2073855093619335
-5.162314371113799
-5.106064038308116
-5.03053504302461
-4.926509129217837
-4.783399100922473
-4.588973138551123
-4.32904793955288
-3.987144129473144
-3.5440996719029325
-2.977646891878715
-2.2619807903697784
-1.36738132936872
-51.0958569718184
-57.025103137885736
-60.039640527102605
-60.211862375158915
-58.02750748328579
-54.179635198947665
-49.37221515931843
-44.1927638340371
-39.06313858079562
-34.246300436826566
-29.879841481859273
-26.01471010162679
-22.648173102273134
-19.74785226374715
-17.26755939344455
-15.156924332404948
-13.366794127058425
-11.851949472626814
-10.572214697167368
-9.49266031488012
-8.583330120631079
-7.818748702150631
-7.177354371839129
-6.6409351046970215
-6.194105322071664
-5.823838676432131
-5.519059562100125
-5.27028966001832
-5.0693428373383185
-4.90906061954194
-4.783080327021802
-4.68562829951557
-4.611331133274225
-4.555038379933903
-4.511650640539578
-4.475947423647067
-4.442409545730232
-4.4050312716799755
-4.357117845348384
-4.2910645048987135
-4.198113333061186
-4.068083938663688
-3.8890723253492654
-3.647108728588796
-3.3257600333682538
-2.9056587117330306
-2.3639456060359714
-1.673639565510959
-0.8030013201989896
-58.00528977488181
-64.79267278636668
-67.56378168874684
-66.60750905282788
-62.80174974781956
-57.23049205508359
-50.874353538726176
-44.456669355371744
-38.42491163549827
-33.004599247609335
-28.27162670819832
-24.21413600206214
-20.77587922465778
-17.88300021335161
-15.459025345321797
-13.43239142603506
-11.739619584149594
-10.326121360300295
-9.14582015060032
-8.160255375214032
-7.337526366432555
-6.651254375293692
-6.079642233353582
-5.604658711659907
-5.2113482715886565
-4.8872548659009745
-4.621943970138356
-4.406606335432793
-4.233727998544463
-4.096812774630193
-3.9901452406422644
-3.90858383265612
-3.847375026232672
-3.8019806261893967
-3.7679109879027206
-3.74055758230602
-3.7150187787108044
-3.68591314770038
-3.6471750753233945
-3.591828076501783
-3.5117317823215997
-3.397298648642296
-3.2371747924770613
-3.0178740112947473
-2.7233430990023453
-2.3344214300292285
-1.8281485135745714
-1.1768923151761992
-0.34734631337113353
-66.64654553038142
-74.37980939953789
-76.43947197773939
-73.58924586457906
-67.40555719040847
-59.56229952724867
-51.36967292838422
-43.64198668331537
-36.774086637425164
-30.884360371598596
-25.93965925651658
-21.838806536691745
-18.45987041439693
-15.683797864207639
-13.404459916984608
-11.531619414385833
-9.990545929103796
-8.720261034318552
-7.671400562251462
-6.804145607034995
-6.086400467929674
-5.492263273706517
-5.000775820361811
-4.594916550361502
-4.260795388817423
-3.9870115380975912
-3.764140490172662
-3.584322180464394
-3.4409274035503317
-3.328283994128524
-3.2414477913761877
-3.1760061184889072
-3.127903530695285
-3.093281030214272
-3.0683209273382666
-3.0490901538590904
-3.0313752285590616
-3.010502378304467
-2.981136709362582
-2.937054992777398
-2.8708876767029476
-2.7738268772627395
-2.6352969769880024
-2.4425795765076623
-2.180368818521699
-1.830201131805458
-1.3696618385590709
-0.7712555476667313
-0.0009064358786345927
-77.80598877426132
-86.45227172111235
-86.86692094062428
-80.85799578916837
-71.2441243698216
-60.53092069862198
-50.32637351727237
-41.38385210493395
-33.90007259832456
-27.790797029756767
-22.865829527075462
-18.916335821540706
-15.751929126869062
-13.212365438703447
-11.168033825828267
-9.516221376315999
-8.176334394662543
-7.085373490530901
-6.194094772104012
-5.463918324743396
-4.864504732571893
-4.371881568702046
-3.9670042841232886
-3.6346526135231394
-3.362582941501028
-3.1408746095635727
-2.9614225915030588
-2.817540296466576
-2.7036448968446862
-2.615004037490867
-2.5475275361833774
-2.4975911203482055
-2.4618816629304865
-2.437255008840264
-2.420598496125587
-2.4086908142096983
-2.3980520405791674
-2.3847767203856343
-2.3643429341553643
-2.331390782535518
-2.279465053764266
-2.2007193787400916
-2.0855823727488105
-1.9223865557324604
-1.6969474494905887
-1.3920334548835864
-0.9865717214024932
-0.4543250435605637
0.2382147121704521
-92.78238361103215
-101.92976711459467
-98.8240260046893
-87.60488778632511
-73.23369034126867
-59.202917674126404
-47.12332543312225
-37.354873218142316
-29.682767435747117
-23.729320842070482
-19.121687030229698
-15.546964412372745
-12.759446603645934
-10.57193102863674
-8.843587956230678
-7.468845266572963
-6.368434883714311
-5.482570521380582
-4.765881951400942
-4.183695911887689
-3.709314963506389
-3.322024125545474
-3.005624758050115
-2.7473498936999556
-2.537055981261742
-2.3666155449354966
-2.2294563870918616
-2.120207964455992
-2.034426187401224
-1.9683753883600261
-1.9188514705705282
-1.8830339047648612
-1.8583567178709335
-1.8423902069373945
-1.8327260120395508
-1.826858533767105
-1.8220555994412728
-1.8152109026133236
-1.8026702853959602
-1.7800238212441533
-1.7418566529070048
-1.681454879925448
-1.59046989040402
-1.4585549807741645
-1.272992688413412
-1.0182935133997701
-0.675597142328517
-0.22140800024974694
0.3750701389825789
-113.81340751554248
-121.94301994656591
-111.53339101673053
-91.96764366987078
-71.60017147688764
-54.42839723482001
-41.23035266269898
-31.421067655990345
-24.199080454135164
-18.868048494108137
-14.900995491826691
-11.917996557207863
-9.64983153479318
-7.906142143837267
-6.551657054461562
-5.4894185620645155
-4.6492099171594345
-3.9796177617883792
-3.442576252695604
-3.0095927916161327
-2.6591142207173406
-2.374670566155385
-2.14355295455546
-1.9558617339960231
-1.8038135145262073
-1.6812309130154404
-1.5831622652914499
-1.505594390473425
-1.4452322219012392
-1.3993264272679806
-1.3655351191703258
-1.3418091198426025
-1.3262924546103403
-1.3172311055866683
-1.3128837455455802
-1.3114283017524968
-1.3108578374323407
-1.3088584467231492
-1.3026607638617795
-1.2888556176569252
-1.2631641274788292
-1.2201549499292472
-1.1529100439193987
-1.0526609601097818
-0.9084538408384155
-0.7069306825323377
-0.43219633047493033
-0.06520550896931909
0.41888696829065886
-145.03104820430892
-147.2501354870173
-121.98323280684875
-90.25032357228825
-63.94667077097444
-45.324166150527006
-32.57437913036193
-23.86377580906676
-17.833665931038624
-13.584430300781449
-10.533171452145766
-8.30196000427054
-6.642673692538293
-5.389711934622643
-4.43056218859973
-3.687411506905881
-3.105517958525479
-2.6457444467617814
-2.2796856218648083
-1.9864341826324057
-1.7504000169219314
-1.559816280710515
-1.405700652992913
-1.28112267829338
-1.180679807943061
-1.1001175538396137
-1.0360502750763625
-0.9857528766406207
-0.9470027703394015
-0.9179574785893991
-0.897057282602137
-0.8829449768838893
-0.8743964990618625
-0.8702572076095956
-0.8693790226687699
-0.8705535927000585
-0.8724361120502384
-0.8734533660678183
-0.8716880011928977
-0.8647289969027624
-0.8494763238950206
-0.8218873429165848
-0.7766578732050011
-0.7068525374439649
-0.6035594315565217
-0.45577534391505603
-0.2508906036746801
0.024303314767934903
0.3843665812377066
-193.51008921586595
-175.01783197927904
-121.80659175949398
-76.50479080364585
-48.87688415211698
-32.21773457405915
-22.023185163836608
-15.563827602414097
-11.327680147155927
-8.45846844389121
-6.4587715977590605
-5.029749121928282
-3.986049246050044
-3.2092165334050824
-2.621460932708657
-2.1704252724944304
-1.8200799479103473
-1.5451301202455783
-1.3274933529359223
-1.1540295800770481
-1.0150469239803903
-0.9032988878196582
-0.813299129341539
-0.7408453400458308
-0.6826831568854321
-0.6362652894166252
-0.5995762569451708
-0.5710028303949923
-0.5492365482789068
-0.5331987786387538
-0.5219814930399931
-0.5147986741260802
-0.5109443820462567
-0.5097541269034924
-0.5105664227045084
-0.5126812591779362
-0.5153116923136014
-0.5175237391762437
-0.5181581326211095
-0.5157250892363284
-0.5082600171738357
-0.4931245479434032
-0.46673596156405395
-0.4242181185467844
-0.3590177145601817
-0.26270547357088225
-0.12568728506573468
0.05954346145784717
0.2931747830202317
-271.69125814981317
-186.5599104318111
-92.31081686503263
-49.64581452949695
-28.57822363639409
-17.69137338114937
-11.59861626534815
-7.966900029806882
-5.682093291496272
-4.180139650955977
-3.156210793331309
-2.436662697936658
-1.9179335826869481
-1.5357998975280607
-1.2490664063149328
-1.0305221260176252
-0.8617247186317636
-0.7298876664686134
-0.6259650747038643
-0.5434409687002884
-0.4775451178307315
-0.42473385593911406
-0.3823394185146345
-0.34832871693491096
-0.3211345392889262
-0.2995354997391826
-0.2825692855474484
-0.26946892433960556
-0.25961510005421085
-0.2524996841033009
-0.24769703821027833
-0.24484054102768193
-0.243602344519821
-0.2436746654780273
-0.24475100363256463
-0.24650555393671558
-0.248568711363073
-0.2504958689192385
-0.2517255342708469
-0.2515208956338476
-0.24888600287792217
-0.24244331472194003
-0.2302536233127258
-0.20955543808394284
-0.1764153114614757
-0.1253879127134765
-0.04978228434583176
0.054736501177512054
0.1751782494715599
-357.3264031366428
-108.27166442567483
-43.76627723949063
-19.843016000731296
-10.565562404415715
-6.229335865901186
-3.9693641824581576
-2.675656946507008
-1.8839370567224254
-1.3732352039318823
-1.0298280832436522
-0.7909667498329478
-0.6201186290679477
-0.49503327151162946
-0.4016379118599538
-0.33073993087050635
-0.27616469536637833
-0.23366249464623579
-0.20024507853215479
-0.17377090247694538
-0.15267898048816742
-0.13581405587915096
-0.12230930626917491
-0.11150611841914815
-0.10289823133739207
-0.09609218640716533
-0.09077886074306907
-0.08671263017761799
-0.0836958316085481
-0.08156691639031632
-0.08019115290859369
-0.07945303481429078
-0.07924973347764808
-0.07948502789815448
-0.08006316486442011
-0.08088204427853918
-0.08182497041149417
-0.08274991750255678
-0.08347474789281173
-0.0837559480569654
-0.08325695318464021
-0.08149956173084172
-0.0777875814829242
-0.07108499378468036
-0.05982385187918082
-0.04163350654668796
-0.01319452955447975
0.028188263850678852
0.06915046421971882

SCALARS STRESS_YY float 1
LOOKUP_TABLE default
-0.0049521860696799536
-955.490136293563
-9.972361024497141
-9.995011848389243
-0.004951911994556468
-0.0049510877126639485
-0.0049497070615860395
-0.00494775978414097
-0.004945231517179849
-0.004942103798526887
-0.004938354097717479
-0.004933955813070767
-0.004928878294366612
-0.004923086894903506
-0.00491654299329447
-0.004909204048820115
-0.004901023682210237
-0.004891951760322755
-0.004881934507595886
-0.004870914657638892
-0.004858831619957371
-0.004845621660278354
-0.004831218176040153
-0.004815551989675981
-0.0047985516734563305
-0.004780143961202299
-0.004760254226381377
-0.004738807012007129
-0.004715726635176054
-0.004690937913368387
-0.004664366955715593
-0.004635942075946531
-0.004605594822319148
-0.004573261101424642
-0.004538882477595152
-0.004502407605607495
-0.004463793827067519
-0.00442300892151426
-0.00438003305281498
-0.004334860937507123
-0.004287504205945147
-0.004237994017862512
-0.004186383944193572
-0.004132753103452735
-0.004077209610587218
-0.0040198944093567945
-0.003960985430358832
-0.003900702190695604
-0.0038393108883942872
-0.0037771299806799163
-0.0037145364170969586
-0.0036519725702230943
-0.0035899539702048955
-0.0035290780338037564
-0.003470033922677196
-0.003413613783914471
-0.003360725618961169
-0.003312408145513146
-0.0032698481278834457
-0.0032344007074014414
-0.0032076134159546577
-0.0031912547889829668
-0.003187348727755168
-0.003198216045266822
-0.0032265250364713616
-0.0032753534869005563
-0.003348265196649214
-0.003449404965484071
-0.0035836173059604626
-0.0037565956491314445
-0.003975071026906196
-0.004247052212515701
-0.0045821332209255855
-0.004991889715141598
-0.005490393593340054
-0.00609488593173535
-0.006826664032403507
-0.0077122606998272225
-0.008785026642778693
-0.010087275310785015
-0.011673222226513236
-0.013613061905155543
-0.015998697883015556
-0.01895191409415009
-0.02263621611041655
-0.02727429759303268
-0.0331743178027013
-0.04077031050314961
-0.05068589598776985
-0.06383746945398538
-0.08160728329040001
-0.10614145770262517
-0.14090238155301194
-0.1916505593113662
-0.2688208746998644
-0.390546334244231
-0.6023981799742142
-0.9601710888083801
-1.9111820585563102
-3.1571024748800234
-15.611150889195493
-17.109472045877187
-481.0797699923567
-755.3971785326485
-466.14333629700093
-327.5339459170999
-248.82999920643755
-200.21068331969087
-167.16168343512516
-143.27610702817032
-125.16720447541024
-110.93096039051244
-99.40881527822708
-89.85856545329403
-81.78334730435293
-74.83880802902314
-68.77932502324255
-63.42546336251123
-58.643483731457344
-54.33200750056494
-50.413087069154805
-46.82607572623876
-43.523326381564104
-40.46711463298873
-37.62739943471507
-34.98016799864028
-32.50619532989735
-30.19010262826524
-28.019634091541594
-25.985095234727666
-24.078911835278245
-22.295279609243934
-20.629882349023397
-19.079661558354715
-17.642624279816044
-16.31767825617447
-15.104485062569289
-14.003322528989502
-13.014947670822227
-12.14045037731098
-11.381086054895013
-10.738071870161907
-10.212325466700907
-9.80411582400152
-9.512581239952459
-9.335045862870984
-9.266028506758252
-9.295779193330384
-9.40810297370291
-9.577208874057668
-9.763826920930153
-9.913998368733555
-9.975487816841316
-9.98799937178974
-10.003617122532104
-10.013677121139828
-10.019798657551629
-10.023408039155253
-10.025389335660995
-10.026278370845098
-10.026411538462234
-10.026009182754965
-10.02522160566981
-10.02415527834511
-10.022888279307116
-10.021479675275971
-10.019975371331029
-10.018411841911565
-10.016818558506888
-10.015219600845002
-10.013634749707748
-10.012080247987225
-10.010569348611423
-10.009112725408205
-10.00771879606749
-10.006393988649394
-10.005142971513859
-10.00396885903497
-10.002873400339004
-10.001857155112866
-10.000919658457482
-10.000059575467741
-9.999274845578428
-9.998562816388686
-9.997920366558798
-9.997344017468013
-9.996830033480837
-9.996374510823136
-9.995973455275095
-9.995622849079004
-9.995318707599385
-9.995057126384395
-9.994834319382107
-9.99464664913015
-9.99449064975271
-9.99436304356135
-9.994260752115306
-9.994180902532218
-9.994120829722247
-9.994078075293046
-9.994050383720023
-9.994035696322563
-9.994032143546875
-9.994038035986101
-9.994051854536542
-9.994072239948965
-9.994097982069503
-9.994128009014787
-9.994161376424842
-9.994197256955774
-9.994234930119143
-9.994273772521693
-9.994313248614088
-9.994352901989387
-9.994392347182474
-9.994431262050192
-9.99446938074497
-9.994506487208664
-9.99454240920955
-9.994577012893842
-9.994610197837835
-9.994641892564164
-9.994672050493296
-9.994700646317712
-9.99472767273375
-9.99475313751121
-9.994777060907655
-9.994799473404575
-9.994820413674189
-9.994839926769954
-9.994858062578336
-9.994874874451668
-9.994890418023111
-9.99490475018979
-9.99491792819873
-9.994930008915945
-9.994941048177735
-9.994951100191065
-9.994960217107339
-9.994968448640574
-9.99497584172147
-9.99498244021957
-9.994988284724908
-9.994993412374052
-9.994997856697827
-9.995001647508317
-9.995004810784957
-9.99500736862157
-9.995009339165215
-9.995010736560344
-9.995011570939202
-9.983247888459049
-9.948389619391634
-9.89134624115524
-9.813071249282228
-9.714522593608086
-9.596662302271275
-9.460456076631687
-9.306872864143738
-9.136884415727293
-8.951464834066972
-8.751590118571343
-8.53823771246395
-8.312386057120978
-8.075014158221279
-7.827101168052547
-7.569625987760095
-7.303566893085884
-7.029901186781256
-6.7496048803926545
-6.463652408000282
-6.173016374010173
-5.87866733682969
-5.581573630082398
-5.282701222551229
-4.983013617840172
-4.683471794568385
-4.38503418747421
-4.088656709537112
-3.7952928152228775
-3.5058936043161424
-3.2214079655630616
-2.9427827593621942
-2.670963038162924
-2.4068923028735476
-2.151512793406103
-1.905765811068974
-1.6705920701736234
-1.4469320758272417
-1.2357265246004512
-1.0379167242686886
-0.8544450284359177
-0.6862552816310563
-0.5342932699165592
-0.3995071717117238
-0.2828480032043821
-0.18527005240254102
-0.10773129542675441
-0.0511937884962812
-0.016624028732605822
-0.016623110141535946
-0.05119096832146841
-0.10772539081417776
-0.1852599719902237
-0.2828327598908955
-0.39948589307830185
-0.5342652063746862
-0.6862198123904002
-0.8544016654214763
-1.0378651140803483
-1.2356664486559892
-1.4468634488160976
-1.6705149369706185
-1.905680342203388
-2.1514192792545033
-2.4067911466968814
-2.6708547481205933
-2.942667939628281
-3.221287306647891
-3.5057678727333688
-3.7951628426001975
-4.088523381279437
-4.384898431073215
-4.683334567641733
-4.98287589599375
-5.2825639871855845
-5.581437856166967
-5.878533980740347
-6.172886361544025
-6.4635266225887795
-6.749484151627495
-7.0297862793265535
-7.303458496027034
-7.5695247045225535
-7.827007506959994
-8.074928523776753
-8.312308742124484
-8.538168891082025
-8.75152984046511
-8.951413019705624
-9.136840853010492
-9.306837206477265
-9.460427842593669
-9.59664087699348
-9.714507232052757
-9.813061081533718
-9.891340279858564
-9.94838676948979
-9.983246959359159
-0.016620347635910804
-0.05118248760289035
-0.10770763571891973
-0.18522966202534885
-0.28278692850591236
-0.39942191886931155
-0.5341808374585248
-0.6861131842552579
-0.8542713125899568
-1.0377099759106585
-1.2354858697027487
-1.446657174116518
-1.6702831026778817
-1.9054234619491723
-2.1511382266419123
-2.40648713434935
-2.6705293036581246
-2.942322878945669
-3.2209247048472416
-3.5053900330763215
-3.794772263777644
-4.088122723381845
-4.384490480489056
-4.682922201123125
-4.982462044263231
-5.282151598303495
-5.581029858838139
-5.878133247837246
-6.1724956740971715
-6.463148634435386
-6.749121354964681
-7.029440971408272
-7.303132747225177
-7.569220328028549
-7.8267260304235995
-8.074671163112601
-8.312076377818652
-8.537962047354554
-8.75134866758602
-8.95125727986548
-9.136709910125354
-9.306730020335387
-9.460342967751485
-9.59657646686467
-9.714461048642292
-9.813030511198221
-9.891322355564093
-9.94837819994752
-9.983244165429628
-0.0166157210236495
-0.05116828577930921
-0.1076779064161375
-0.18517891642471085
-0.2827102048876724
-0.3993148344240085
-0.5340396287016032
-0.6859347365522646
-0.8540531793281887
-1.0374503879242845
-1.2351837356073783
-1.4463120721983855
-1.6698952650000016
-1.904993751378357
-2.150668107441858
-2.4059786370273537
-2.6699849847110992
-2.9417457761146606
-3.2203182885148895
-3.5047581543647475
-3.7941190998703176
-4.0874527206541
-4.383808295890566
-4.68223264224417
-4.981770008605885
-5.281462012118558
-5.58034761592466
-5.877463148725356
-6.171842365946371
-6.462516552072463
-6.748514663407687
-7.02886351028197
-7.302587977474911
-7.568711281328618
-7.8262552617657315
-8.074240707021954
-8.3116877087325
-8.537616044691676
-8.751045586084627
-8.950996725809357
-9.136490824110293
-9.306550667246976
-9.4602009346507
-9.596468669535644
-9.714383747489762
-9.812979337223751
-9.891292347188386
-9.948363851305874
-9.983239486787074
-0.016609196674721716
-0.051148261979785836
-0.10763599685655212
-0.18510739204574422
-0.2826020826763398
-0.39916394955863277
-0.5338406906911417
-0.6856833700603864
-0.8537459504870695
-1.0370848170003923
-1.2347582969040303
-1.445826182142001
-1.6693492593419308
-1.9043888524926635
-2.150006382662917
-2.4052629489484616
-2.6692189343757784
-2.940933639972977
-3.2194649500061163
-3.5038690309166043
-3.7932000660872927
-4.086510028424661
-4.3828484920869935
-4.6812624846809445
-4.980796380839835
-5.280491837669132
-5.579387772490981
-5.876520382922424
-6.170923209077163
-6.461627237450145
-6.747661045765864
-7.02805098781973
-7.301821417078489
-7.567994947569957
-7.8255927502634055
-8.073634882869033
-8.311140650719498
-8.53712899600626
-8.75061891237586
-8.950629881445552
-9.13618232752446
-9.306298086360965
-9.460000883349558
-9.596316816202345
-9.714274836632065
-9.812907225250541
-9.891250053325908
-9.94834362463935
-9.983232890337575
-0.016600727536769888
-0.051122275112501114
-0.10758161890881635
-0.18501460919175106
-0.28246185421703673
-0.3989683000092197
-0.5335827811788421
-0.6853575499489941
-0.8533477902978128
-1.0366111237551094
-1.2342071130429428
-1.4451967692322738
-1.6686420678303255
-1.903605478736611
-2.1491495144803143
-2.4043363009103262
-2.6682271739870753
-2.939882305925758
-3.2183603635771276
-3.5027182015339657
-3.792010592079068
-4.085289993885506
-4.381606360702378
-4.680006991344561
-4.979536421848677
-5.279236360221273
-5.578145664199081
-5.875300361990621
-6.169733715842761
-6.4604763279036845
-6.746556287733094
-7.026999360492755
-7.300829214596171
-7.567067687374878
-7.824735087038912
-8.072850528912973
-8.310432303650373
-8.536498274767608
-8.750066302580318
-8.950154691192944
-9.135782654835898
-9.305970799485559
-9.459741615214446
-9.5961199743258
-9.714133629877924
-9.812813708743473
-9.891195192846435
-9.948317381825106
-9.983224329871717
-0.01659025316532592
-0.05109014400350809
-0.10751440272129997
-0.18489995235075352
-0.28228861186969123
-0.39872664951119496
-0.5332643081453217
-0.6849553100336587
-0.8528563480182352
-1.036026569785622
-1.2335270614019322
-1.4444203358890966
-1.6677698322810852
-1.9026394300729526
-2.1480929834959204
-2.4031938797455714
-2.6670046247410797
-2.938586459662231
-3.216999011063246
-3.5012999769694932
-3.790544851066902
-4.0837866866756825
-4.380075901894038
-4.678460126981299
-4.9779840947879235
-5.277689574767644
-5.576615350765454
-5.873797242623716
-6.168268171386238
-6.459058267606334
-6.745195022079233
-7.025703478041684
-7.2996064637208535
-7.565924863747903
-7.823677927852817
-8.071883614847561
-8.30955896965736
-8.535720530902747
-8.749384766103843
-8.949568531331687
-9.1352895516488
-9.305566918325704
-9.459421598384399
-9.595876951584511
-9.713959249479283
-9.812698190646518
-9.891127405796812
-9.948284945931581
-9.983213746164981
-0.01657769978488588
-0.051051647596644045
-0.10743389724101116
-0.18476267123481271
-0.282081249795906
-0.3984374926059031
-0.5328833339166543
-0.6844742584814867
-0.852268765502461
-1.0353278273495636
-1.2327143493084687
-1.4434926362249998
-1.666727871448535
-1.9014856130440836
-2.146831311664098
-2.4018298541319885
-2.6655451363366423
-2.9370396685467663
-3.215374215899663
-3.4996074763962337
-3.7887957984195624
-4.081992939292052
-4.378249866340373
-4.676614601340146
-4.976132109038279
-5.2758442303479285
-5.574789660251237
-5.872003970460497
-6.166519676569398
-6.457366349224638
-6.743570768640614
-7.0241571214534275
-7.2981472389384745
-7.564560875146412
-7.8224160233635365
-8.070729269093377
-8.308516177359776
-8.534791711936672
-8.748570683717288
-8.948868225119684
-9.134700287002952
-9.305084154180701
-9.459038975137354
-9.595586301186373
-9.713750629712077
-9.8125599456041
-9.891046254614842
-9.948246101740285
-9.983201067132464
-0.016562980349589473
-0.05100652522327476
-0.10733957089478752
-0.1846018821458748
-0.281838466311092
-0.3980990583042745
-0.5324375804934824
-0.6839115851708439
-0.851581686926794
-1.0345109917677822
-1.2317645294069017
-1.442408694612112
-1.6655107030040357
-1.900138066308329
-2.1453580914414188
-2.400237407372299
-2.6638415233435504
-2.935234421448469
-3.213478186225407
-3.4976326735312013
-3.7867552205364197
-4.079900398327669
-4.376119808386987
-4.674461923806883
-4.973971975830588
-5.273691886163139
-5.572660245129423
-5.869912335589217
-6.164480202369694
-6.455392766699946
-6.741675985010963
-7.0223530511067835
-7.2964446407682315
-7.5629691974598146
-7.8209432575635365
-8.06938181351425
-8.307298712711772
-8.53370708993891
-8.747619830642677
-8.948050062103608
-9.13401166912243
-9.304519830400919
-9.458591571356926
-9.595246328715152
-9.713506521529752
-9.812398122845467
-9.890951225691714
-9.948200596452228
-9.983186208053842
-0.01654599464280615
-0.05095447696190014
-0.10723081246605837
-0.18441656970443843
-0.28155876686720793
-0.39770931473441395
-0.5319244362821749
-0.6832640709292548
-0.8507912709336538
-1.0335715968721115
-1.230672518765182
-1.4411628287550537
-1.6641120707850428
-1.8985899922267708
-2.14366602183247
-2.3984087779016017
-2.661885610101892
-2.9331621778860484
-3.211302068033784
-3.4953664534711386
-3.7844137950291405
-4.07749958756273
-4.373676151513035
-4.671992470689014
-4.971494076746303
-5.271222980672167
-5.5702176513337625
-5.8675130408995555
-6.162140656887955
-6.453128680272811
-6.739502129017083
-7.020283066179395
-7.294490851584905
-7.561142435840242
-7.819252695295477
-8.067834806359283
-8.305900657235455
-8.532461294958711
-8.74652740521555
-8.947109822165498
-9.133220065047961
-9.30387089791607
-9.458076908369812
-9.594855100731511
-9.713225498429171
-9.812211749853532
-9.890841731385358
-9.948148140571456
-9.983169071823106
-0.016526629414134852
-0.050895164102818136
-0.10710693223196177
-0.18420558905832873
-0.2812404677917395
-0.39726597492858273
-0.5313409644250662
-0.6825280988987403
-0.8498932055524384
-1.0325046339444324
-1.2294326222226786
-1.4397486778027149
-1.6625249779618152
-1.8968337952673295
-2.141746952141289
-2.396335308402781
-2.659668285117508
-2.9308134275267714
-3.208836009504779
-3.4927986815079692
-3.7817611634992043
-4.074779984187394
-4.370908267441353
-4.669195566518703
-4.968687746499469
-5.268426915078988
-5.567451401682686
-5.864795784676209
-6.159490966360613
-6.450564295157392
-6.737039734339035
-7.017938076571218
-7.2922772032596335
-7.559072387573468
-7.8173366399368955
-8.066081094441781
-8.30431543449487
-8.531048355723104
-8.745288063846548
-8.946042804883394
-9.132321424669765
-9.30313395430997
-9.457492217506333
-9.59441045537437
-9.712905963700376
-9.811999736919354
-9.890717112545556
-9.948088409025663
-9.983149549292971
-0.01650475853651745
-0.050828209740297225
-0.10696716339031198
-0.18396766864911784
-0.2808817009240143
-0.39676650390164037
-0.5306839129576129
-0.6816996683857841
-0.8488827263090495
-1.0313045746149583
-1.2280385605654516
-1.4381592361851696
-1.6607417268717704
-1.8948611280832284
-2.1395919343898226
-2.394007504592259
-2.6571795661137405
-2.9281777612902307
-3.206069237831536
-3.4899182852201998
-3.7787860183811297
-4.071730109751102
-4.367804570450891
-4.666059580958832
-4.96554137160569
-5.265292152884378
-5.564350095387316
-5.861749359128083
-6.156520171804752
-6.44768895545057
-6.734278500829355
-7.015308188838061
-7.289794258036434
-7.556750117298097
-7.815186702476185
-8.064112875709256
-8.302535865890572
-8.529461748560465
-8.74389596311616
-8.944843864951203
-9.131311309786208
-9.302305266937129
-9.456834457800266
-9.593910015292197
-9.712546159312076
-9.811760882733205
-9.890576641608877
-9.948021042575359
-9.983127519712468
-0.016480243213999657
-0.050753199521139436
-0.10681066384745685
-0.18370141360793557
-0.28048041928326706
-0.3962081272799103
-0.5299497271002536
-0.6807744115361323
-0.847754637957777
-1.0299653982583283
-1.2264835041473658
-1.4363868939510294
-1.6587539664168185
-1.892662946227872
-2.137191285508804
-2.3914151048842647
-2.6544086770495148
-2.9252439554555085
-3.2029901500198736
-3.486713351470036
-3.775476205496384
-4.068337637540159
-4.364352628750693
-4.66257204323325
-4.962042506864125
-5.26180633739353
-5.560901525536814
-5.8583617667631085
-6.153216543194666
-6.444491255085975
-6.731207401276373
-7.012382807859538
-7.287031904287801
-7.554166046133507
-7.812793883433439
-8.061921773508168
-8.300554237005507
-8.527694455663653
-8.742344809952872
-8.943507454506172
-9.13018492888311
-9.30138080063475
-9.456100337304607
-9.593351203266543
-9.71214417666709
-9.811493881191556
-9.890419526383736
-9.947945649518486
-9.9831028512529
-0.01645293226389377
-0.050669682592898724
-0.10663651841840505
-0.1834053099041424
-0.28003440393674195
-0.39558784171584405
-0.5291345640326499
-0.6797476132519851
-0.8465033403270081
-1.0284806245248066
-1.2247601127304002
-1.4344234844532557
-1.6565527480224616
-1.8902295726612728
-2.134534660550548
-2.388547162296693
-2.651344138580664
-2.922000070385815
-3.199586419424537
-3.483171240149539
-3.7718188442903116
-4.06458951843403
-4.360539294949426
-4.658719776157438
-4.9581780118065115
-5.257956429371455
-5.557092816715739
-5.85462035673723
-6.149567713308339
-6.440959167954476
-6.7278148066762675
-7.00915075620536
-7.2839794690153585
-7.55131005648718
-7.8101486692829765
-8.059498924102853
-8.298362375855021
-8.525739033912952
-8.740627921049303
-8.94202767328972
-9.128937178446332
-9.300356250755945
-9.455286338519603
-9.592731260907115
-9.711697969531336
-9.811197329605942
-9.89024491465564
-9.947861807781013
-9.983075401644268
-0.01642266245991042
-0.05057717276700213
-0.10644374151239733
-0.18307772937865696
-0.2795412722706869
-0.3949024273267061
-0.5282343104620439
-0.6786142348471991
-0.8451228589293751
-1.0268433517165019
-1.2228605823808225
-1.4322603403531735
-1.6541285912411041
-1.887550773296298
-2.1316111383127407
-2.3853921401756697
-2.6479738736901632
-2.918433565709891
-3.1958451199751803
-3.479278716752938
-3.7678004678802717
-4.06047212742086
-4.3563508579415995
-4.654489052152366
-4.953934209527485
-5.253728867299737
-5.552910585246773
-5.850511983638983
-6.1455608336482594
-6.437080199574613
-6.7240886323066436
-7.005600413398711
-7.280625849194459
-7.548171614513106
-7.807241145222574
-8.056835079155867
-8.29595174463907
-8.523587695668958
-8.738738292709211
-8.940398327747742
-9.127562691736285
-9.299227082234612
-9.45438874855219
-9.59204727090113
-9.711205369479272
-9.810869738558196
-9.89005189973298
-9.94776906744119
-9.983045018954307
-0.016389258945066487
-0.05047514993852786
-0.10623128039531649
-0.18271693578799875
-0.2789984878653504
-0.3941484624794116
-0.5272446033998293
-0.6773689419090183
-0.8436068809537138
-1.0250463018044054
-1.2207767003252543
-1.429888359032662
-1.6514715602504573
-1.884615844954014
-2.1284093209518744
-2.3819380234568324
-2.6442853303811154
-2.9145314340141044
-3.191752870248792
-3.4750221060437037
-3.763407185325925
-4.0559714333181285
-4.351773218823408
-4.649865773948266
-4.949297070621152
-5.249109752959525
-5.548341124793682
-5.846023191465784
-6.141182755138476
-6.432841562910135
-6.720016507154397
-7.0017198775472504
-7.276959664322705
-7.544739912461098
-7.8040611264081825
-8.053920725083172
-8.293313546733174
-8.521232403130778
-8.73666868251562
-8.93861300027311
-9.126055896046964
-9.297988575544812
-9.45340369471491
-9.591296183319747
-9.710664104203316
-9.810509543626658
-9.889839527058172
-9.9476669537807
-9.983011542555655
-0.01635253575727713
-0.0503630618027433
-0.1059980190798484
-0.1823210920164855
-0.278403372214997
-0.39332234125803955
-0.526160854653626
-0.6760061369846815
-0.8419487973065194
-1.023081872944699
-1.2184999088490522
-1.4272980786514662
-1.648571352681783
-1.88141371735526
-2.124917449348085
-2.3781724473624095
-2.6402656234618678
-2.9102803552630236
-3.18729599981436
-3.470387469358185
-3.7586248688124044
-4.051073194581445
-4.346792093762928
-4.644835682892197
-4.9442524252291165
-5.244085065402384
-5.543370620391865
-5.841140425806369
-6.136420236573409
-6.428230381280367
-6.715585969566832
-6.997497152085602
-7.27296943279001
-7.541004033397096
-7.800598309929898
-8.050746221434748
-8.290438850862
-8.518664978003454
-8.734411704437793
-8.936665129938586
-9.12441107959006
-9.296635880514177
-9.452327186271532
-9.590474846578704
-9.710071819151487
-9.810115119289014
-9.88960680209337
-9.947554970919144
-9.982974804276953
-0.016312296436316487
-0.05024032589687888
-0.10574278299249551
-0.18188826862499408
-0.27775311852576623
-0.3924202939598098
-0.5249782794369096
-0.6745199977249254
-0.8401417515804557
-1.02094220045174
-1.2160213793642982
-1.4244797661831043
-1.6454174022850485
-1.8779330708716941
-2.121123536137513
-2.3740828456837675
-2.6359016977942473
-2.905666874457366
-3.1824607404902956
-3.465360808447712
-3.7534393687648717
-4.045763184156884
-4.34139324696485
-4.639384598166438
-4.93878620654962
-5.238640906680947
-5.5379853942559
-5.835850277577923
-6.131260184167741
-6.42323392164121
-6.710784692246192
-6.992920360651198
-7.2686437749675274
-7.536953141011361
-7.796842450069974
-8.04730196065105
-8.287318734652896
-8.515877228407902
-8.731959939036292
-8.934548106221442
-9.122622469275006
-9.295164079021902
-9.451155163213858
-9.589580043733585
-9.70942610293735
-9.809684795289993
-9.889352699651887
-9.947432606108428
-9.982934629734286
-0.016268334746045277
-0.050106332049875135
-0.10546434449699893
-0.1814164539190668
-0.277044807910622
-0.3914384110390845
-0.5236919296809721
-0.672904521159364
-0.8381786967918328
-1.0186192273157404
-1.2133320978928757
-1.4214235188583924
-1.641998997083648
-1.8741624719041483
-2.117015518546196
-2.3696566210100634
-2.6311805155683814
-2.9006776053086702
-3.1772334454973756
-3.459928298924928
-3.747836760119042
-4.040027446862507
-4.335562757272934
-4.633498690542731
-4.932884729472535
-5.232763783016451
-5.532172187071774
-5.830139762022171
-6.125689925828781
-6.417839861754871
-6.70560074007122
-6.9879779934513095
-7.263971646185407
-7.532576697512345
-7.792783559710702
-8.043578551809805
-8.283944449904489
-8.512861095186905
-8.72930606065508
-8.932255377351888
-9.12068432080092
-9.293568257780382
-9.449883553026233
-9.588608534752547
-9.70872451700952
-9.809216875825545
-9.88907617483935
-9.947299334834135
-9.982890839935022
-0.016220435594554772
-0.049960445304619405
-0.10516142933805961
-0.18090356569403498
-0.2762754282793818
-0.3903726709503448
-0.5222967326769834
-0.671153574887152
-0.836052460800492
-1.0161047854179672
-1.210422963379
-1.418119380660337
-1.6383054149109142
-1.8700905280090294
-2.1125814333586934
-2.3648813394669665
-2.6260892703952132
-2.89529946295131
-3.1716008397503557
-3.454076556733203
-3.7418036233341505
-4.033852593068933
-4.329287322294367
-4.6271647945815175
-4.926535008340462
-5.226440925471956
-5.525918478870661
-5.823996636998271
-6.119697524117272
-6.412036595159172
-6.700022864536189
-6.982659188757137
-7.258942603087792
-7.527864712924915
-7.7884121409252876
-8.039567031196325
-8.280307612177635
-8.509608819962976
-8.726442983754254
-8.929780575125701
-9.118591022594966
-9.29184359244242
-9.44850833636348
-9.5875571055644
-9.707964630210425
-9.808709661963107
-9.888776175887475
-9.947154626803115
-9.98284325321642
-0.016168376083315117
-0.04980200932273915
-0.1048327242307745
-0.1803474649418284
-0.2754418962034819
-0.3892189723169137
-0.5207875356284943
-0.669260956018717
-0.833755821507244
-1.013390688698249
-1.2072849003207555
-1.4145574756488346
-1.6343260783579359
-1.865706065066653
-2.1078096165642553
-2.3597449527528136
-2.620615631272865
-2.8895199289983164
-3.1655503047912736
-3.447792941429368
-3.7353273641332674
-4.027226132679392
-4.322554604221712
-4.620370763622534
-4.919725118258777
-5.219660654592106
-5.519212853891777
-5.817409764965909
-6.113272132268564
-6.4058135782039045
-6.694040838903154
-6.976954053476074
-7.253547107156985
-7.522808029355169
-7.78371944810504
-8.035259102810949
-8.276400417561035
-8.50611313746075
-8.723364030579363
-8.927117658135511
-9.11633721527964
-9.289985444435535
-9.447025622833335
-9.586422624817207
-9.707144058832164
-9.808161477660638
-9.888451659117651
-9.946997952928616
-9.982791687456544
-0.01611192669993411
-0.049630350342952934
-0.10447688567990276
-0.1797459717376344
-0.2745410821998875
-0.38797317098666406
-0.5191591568242719
-0.6672204587574901
-0.8312815929618314
-1.010468839665383
-1.2039089873709239
-1.4107281600260966
-1.6300507313278854
-1.8609983289979946
-2.102688930507905
-2.354236050585348
-2.6147480197910347
-2.883327352556155
-3.159070202243045
-3.4410659003174366
-3.72839657620003
-4.020136853936209
-4.315353621990758
-4.613105872291564
-4.912444604728681
-5.212412793791195
-5.5120454142678685
-5.81036952346591
-6.10640439799223
-6.399161723771167
-6.687645838576554
-6.970854027139024
-7.24777686951841
-7.517398644110376
-7.778697787282989
-8.030647412172762
-8.272215889678343
-8.502367494900394
-8.720063122631993
-8.924261075553442
-9.113917928501154
-9.287989472057998
-9.445431738117446
-9.585202109230952
-9.706260512831761
-9.807570699896761
-9.888101606309455
-9.946828793475783
-9.98273596265829
-0.01605085274509932
-0.04944478178381262
-0.10409255012409524
-0.17909688350784103
-0.2735698397993156
-0.38663112254627263
-0.517406444236757
-0.6650259516081634
-0.8286227235705432
-1.0073313507643782
-1.2002866037123052
-1.4066221950429851
-1.6254696396074246
-1.8559572147427097
-2.097209021578495
-2.3483441469314883
-2.608475924264146
-2.876711291161098
-3.152150240006153
-3.4338853579161497
-3.721001451527507
-4.0125752518977835
-4.307675194775957
-4.605361271625937
-4.904684946787279
-5.204689136725452
-5.504408247764371
-5.80286826929494
-6.0990869201627484
-6.392073846675243
-6.680830871559646
-6.964352293961985
-7.2416252414589755
-7.511630075901697
-7.773340855594925
-8.025725857055953
-8.267748160250328
-8.498366301479475
-8.716534998677325
-8.921205953813192
-9.111328737078283
-9.285851757486773
-9.443723323731279
-9.583892798548089
-9.705311848977342
-9.806935793398777
-9.887725044737396
-9.946646647489274
-9.98267590399735
-0.01598491598824392
-0.049244609542024254
-0.10367834562325484
-0.17839799600297868
-0.27252503875768896
-0.38518873083071403
-0.5155243423360298
-0.6626714653164552
-0.8257724078049553
-1.0039706822620098
-1.1964095951691016
-1.40223094303059
-1.620573818103191
-1.850573525490556
-2.091360611743259
-2.342060003648582
-2.6017902547440452
-2.8696628959236437
-3.144781885783704
-3.4262431556128945
-3.7131342435073096
-4.004534011845559
-4.299512442230124
-4.597130502352094
-4.896440079286178
-5.196483974342472
-5.496295955225879
-5.7949008619622235
-6.091314763920612
-6.384545166129166
-6.673591264195799
-6.957444248003293
-7.23508765547139
-7.505497778621227
-7.767644125083052
-8.02048993911263
-8.262992786840101
-8.494105211155103
-8.71277546209274
-8.917948308708116
-9.108565938654428
-9.283568951452775
-9.441897450867057
-9.582492241259004
-9.704296131731738
-9.806255350480255
-9.88732107023527
-9.946451043665817
-9.982611345305319
-0.015913876559795703
-0.04902913809068332
-0.10323290523633366
-0.1776471272289477
-0.2714036029475677
-0.38364200316231223
-0.5135079679794434
-0.6601512926566238
-0.8227242128570471
-1.0003797984040592
-1.1922704621882636
-1.3975465890735157
-1.6153552876090074
-1.844839265423314
-2.085135827567206
-2.335375995527133
-2.5946837432700414
-2.862175345557434
-3.1369588328976334
-3.418133546751037
-3.7047897882440615
-3.996008553330319
-4.290861347358342
-4.588410072334943
-4.887706980386949
-5.187794687691901
-5.487706243843009
-5.786465252484012
-6.083086040120371
-6.376573871077588
-6.665925207803197
-6.950128016829689
-7.228162121983068
-7.4989996075658
-7.761605275391574
-8.014937160530785
-8.257947111594076
-8.489581442192447
-8.708781660643849
-8.914485285573413
-9.105626755144863
-9.281138437520577
-9.439951749829177
-9.580998392247993
-9.703211702737141
-9.805528136628144
-9.886888873668465
-9.946241552862476
-9.98254213309296
-0.01583749511712851
-0.04879767744621244
-0.10275488226842677
-0.17684214468652204
-0.270202553412632
-0.38198711301992505
-0.5113526964339838
-0.6574601013493928
-0.8194722217713628
-0.9965523437730095
-1.187862571979748
-1.3925623910185663
-1.6098073642053279
-1.8387479694537054
-2.0785285706510175
-2.3282865211047525
-2.587151394083037
-2.8542443343810935
-3.1286775238227484
-3.409553752857232
-3.6959660900565936
-3.9869976410244083
-4.28172138837088
-4.579200104671569
-4.878486330823158
-5.178622413077276
-5.478640592777668
-5.777563144002247
-6.074402555499844
-6.368161754609809
-6.657834372251539
-6.9424050494395075
-7.220849787215714
-7.492136343317769
-7.755224680204538
-8.009067470232203
-8.252610665068357
-8.48479413716911
-8.7045524020109
-8.910815430416628
-9.102509560393454
-9.278558518034378
-9.437884556778727
-9.579409723625725
-9.702057259836746
-9.804753142454764
-9.886427771130503
-9.946017802398778
-9.982468131171967
-0.015755535309284863
-0.04854955106814263
-0.10224296760052454
-0.1759809962663561
-0.2689190570645832
-0.3802204708404
-0.509054258509948
-0.6545930614988151
-0.8160111948528668
-0.9924828419879779
-1.1831803973610546
-1.3872729607632537
-1.6039249846977506
-1.8322950738523454
-2.07153493377216
-2.3207884639424643
-2.579190988914136
-2.845868619786634
-3.119937737311675
-3.4005045871953397
-3.686664977643799
-3.9775040691079093
-4.2720962463738354
-4.569505063388723
-4.8687832519835785
-5.168972786622991
-5.4691049981702085
-5.768200731160935
-6.065270540381459
-6.359314924088023
-6.649324592853034
-6.9342807745821915
-7.213155558032641
-7.484912278709377
-7.7485059525509845
-8.0028837643993
-8.246985619501004
-8.479744767378941
-8.700088508532389
-8.906938995063442
-9.09921413668901
-9.275828623867712
-9.435695079504608
-9.577725350155776
-9.70083194664388
-9.80392964268849
-9.885937238315151
-9.945779492367084
-9.982389225925342
-0.0156677665689835
-0.0482841048143281
-0.10169590926590466
-0.1750617451174672
-0.26755048165057804
-0.37833880387301866
-0.5066088499287407
-0.6515459889605895
-0.812336751200033
-0.9881669190435618
-1.1782197850602343
-1.381674580078863
-1.5977050718145986
-1.8254783319447583
-2.06415366739427
-2.3128817094857848
-2.57080365293163
-2.8370506351743185
-3.1107432454579023
-3.390991152355091
-3.6768928378854793
-3.967535426346994
-4.261994596275342
-4.559334564267473
-4.858608130366873
-5.158856775809822
-5.459110805050374
-5.758389525641246
-6.055701461140807
-6.3500445940188275
-6.640406637338378
-6.925765335960343
-7.205088799950331
-7.477335874749269
-7.741456554439768
-7.996392446269108
-8.241077296089534
-8.47443758577358
-8.695393214851189
-8.90285827953521
-9.095741962906615
-9.27294955032993
-9.433383584080495
-9.575945170707278
-9.699535453732047
-9.803057262920166
-9.885416949487775
-9.945526414175013
-9.982305332328899
-0.01557396729613636
-0.04800071706253872
-0.10111253450008961
-0.17408260890921134
-0.2660944575897495
-0.37633924593402623
-0.504013254218977
-0.6483155063296295
-0.8084455723741506
-0.9836015537835803
-1.1729782564773346
-1.375765554460844
-1.591146943186545
-1.8182982794039837
-2.0563867016346835
-2.3045697231356224
-2.5619944874313
-2.8277971748941173
-3.101102547611476
-3.3810236190816405
-3.6666614347816866
-3.957104949644598
-4.251430988851965
-4.54870427882196
-4.847977536474073
-5.148291606046375
-5.448675634166067
-5.7481472757451035
-6.045712925136005
-6.340367969093041
-6.6310970601239045
-6.916874411202664
-7.196664114802969
-7.469420491635681
-7.734088476492424
-7.98960405050113
-8.234894731118905
-8.46888013275948
-8.690472612316956
-8.898578015044487
-9.092096537127548
-9.269923721591015
-9.430951604405816
-9.574070027260653
-9.698168132547213
-9.802136054882924
-9.884866821511906
-9.9452584715272
-9.982216400770454
-0.015473928420911331
-0.047698810080162524
-0.10049177454234615
-0.1730420039282321
-0.2645489473464946
-0.37421943802190816
-0.5012649804394518
-0.6448992233053863
-0.8043356304653868
-0.9787853582363002
-1.1674553441821167
-1.3695466088461332
-1.5842527685022325
-1.8107587541722197
-2.048239729262114
-2.2958601956088693
-2.552773275842297
-2.818120158198672
-3.0910296886204875
-3.370618094218889
-3.655988821693369
-3.94623247444597
-4.240426832501921
-4.537636940051193
-4.836915246818187
-5.137301790868753
-5.437824412169246
-5.737498988333907
-6.03532968621245
-6.3303092252972775
-6.621419151418514
-6.907630121795117
-7.187902204875483
-7.46118520115822
-7.7264189935025485
-7.982533937634553
-8.228451305934009
-8.463083799373303
-8.685336144152457
-8.89410579108673
-9.08828373677604
-9.266755486181193
-9.428402176636808
-9.5721018830498
-9.696731123227137
-9.801166581068001
-9.884287063436496
-9.944975704090805
-9.9821224247309
-0.015367457370257576
-0.04737786275254274
-0.09983269241403159
-0.17193859443523296
-0.2629123230620509
-0.3719776409138724
-0.49836241720975005
-0.6412959383097507
-0.800006443005969
-0.9737188908241239
-1.1616529676826988
-1.363021329390579
-1.5770280797234792
-1.8028674764743327
-2.0397228557722222
-2.2867657622368602
-2.5431552702659497
-2.8080374799167753
-3.0805451695131825
-3.3597975862574456
-3.644900355674225
-3.93494549095905
-4.229011483797363
-4.526163459180742
-4.825453378248888
-5.125920274941589
-5.426590514199613
-5.72647806190317
-6.024584759302455
-6.319900597321455
-6.6114039890225555
-6.898062041408306
-7.178830830574199
-7.452655687194724
-7.718471502100245
-7.975203064228957
-8.221765445899095
-8.457064452480312
-8.679997155529351
-8.889452530266494
-9.084312219383671
-9.263451446200097
-9.425740100655629
-9.57004402150735
-9.695226497559009
-9.800150009502186
-9.883678232116301
-9.944678314105479
-9.98202344946203
-0.015254382545922152
-0.04703742482385209
-0.09913451395162243
-0.17077134780681158
-0.2611834532507564
-0.3696128608698701
-0.4953050046465801
-0.6375058635047024
-0.7954593573683446
-0.9684050057432887
-1.1555758524905573
-1.3561966559545322
-1.569482339647231
-1.7946366948795087
-2.0308513231777594
-2.2773048034603334
-2.533162066382844
-2.797573956236604
-3.0696769594285533
-3.3485930776285655
-3.633429823338808
-3.9232803159042056
-4.21722345666663
-4.514324163222039
-4.813633644379636
-5.114189699520541
-5.415017028383279
-5.715127540086286
-6.013520653068563
-6.309183580756702
-6.601091600968595
-6.888208310418451
-7.169485868914736
-7.443865241089933
-7.710276446849872
-7.967638834519162
-8.214861393599264
-8.450843126752256
-8.674473502793356
-8.884633014569522
-9.080193867126436
-9.260020822826265
-9.422972230730688
-9.567901267705384
-9.693657418329638
-9.799088219570077
-9.88304129442613
-9.944366696197918
-9.981919581738723
-0.0151345583188216
-0.046677132790549525
-0.09839666238517664
-0.1695395959875423
-0.2593617994555695
-0.36712498972573115
-0.4920934259592622
-0.6335308755285562
-0.7906978676078242
-0.9628492421169743
-1.1492319968334508
-1.349083430409533
-1.5616295746338138
-1.786083905024499
-2.0216463148486037
-2.267502334489059
-2.522822575267733
-2.786762374666324
-3.058461618387609
-3.3370447137182793
-3.6216206884843833
-3.9112833901668775
-4.205111760677259
-4.502170163840995
-4.801508744493477
-5.102163800540931
-5.4031581521293575
-5.7035014951916425
-6.0021907298794215
-6.298210258036613
-6.59053224747226
-6.878116864537565
-7.159912480241527
-7.434855858788968
-7.701872341136991
-7.959876039462319
-8.207770061670514
-8.444446788223665
-8.66878822604981
-8.879666466776671
-9.075944278382849
-9.256475860869886
-9.42010779756087
-9.56568023401497
-9.69202831634085
-9.797983919748052
-9.882377696609687
-9.944041470650923
-9.981811000729731
-0.015007870551578595
-0.04629672754322689
-0.09761879680185936
-0.1682431038398411
-0.25744752375219493
-0.364514960783179
-0.48872982067545445
-0.629374794511427
-0.7857279670526591
-0.9570602569768636
-1.142633190754734
-1.3416970063591864
-1.553489078009783
-1.777232648249139
-2.0121358494136325
-2.2573909929087086
-2.512174101567112
-2.775644658139563
-3.046945541274355
-3.325203119349858
-3.6095274724933932
-3.8990127135130486
-4.192737379609102
-4.489764868646422
-4.789143895913886
-5.089908950124777
-5.391080730688699
-5.691666551807407
-5.99066070268241
-6.287044757230652
-6.57978783081202
-6.86784678563109
-7.150166390742119
-7.425679446744236
-7.693306889232032
-7.951957888986354
-8.200529970536756
-8.437909174152306
-8.66297028933882
-8.874577190726791
-9.071583309461555
-9.252832275037509
-9.41715876389888
-9.563389591715342
-9.690345086397452
-9.796840778131944
-9.881689441255894
-9.94370352042068
-9.981697970131487
-0.014874242725892106
-0.04589607393963746
-0.09680085486053303
-0.16688214507768562
-0.25544160818600625
-0.3617849220392748
-0.4852180216249389
-0.6250436942338966
-0.7805585402517812
-0.9510503065610558
-1.1357955930344454
-1.3340579265597703
-1.54508619128508
-1.7681133981883077
-2.0023557725809065
-2.247012133828136
-2.501263538311558
-2.764273154152827
-3.0351863343848082
-3.3131308543968103
-3.5972172794013444
-3.8865394283794834
-4.180174902309325
-4.477185646748375
-4.776618521426019
-5.077505852736875
-5.378865948817888
-5.679703560859036
-5.979010278650322
-6.275764852936799
-6.568933441784416
-6.8574697828475815
-7.140315298262758
-7.416399143501591
-7.684638215911096
-7.943937143196591
-8.193188276162633
-8.431271713821847
-8.657055392541004
-8.869395274007754
-9.067135669552025
-9.249109740484577
-9.41414021588575
-9.561040370211654
-9.688615303509756
-9.79566356664126
-9.880979172500624
-9.943354032188054
-9.98158085164306
-0.014733642744918285
-0.04547518251252969
-0.09594310012313167
-0.16545758646641762
-0.25334598731399094
-0.3589384284975501
-0.4815638181282327
-0.6205462466471514
-0.7752017983489143
-0.9448357808925163
-1.1287403719088895
-1.326192675044295
-1.536453171157985
-1.7587645442737307
-1.992350856731794
-2.2364170432051047
-2.4901486897006975
-2.752712060851146
-3.0232543369343516
-3.3009040212519745
-3.584771478480544
-3.873949565570186
-4.1675143185463845
-4.464525661092406
-4.764028103910655
-5.065051407696757
-5.36661118672671
-5.667709434727886
-5.9673349595977445
-6.264463718663338
-6.5580590514386365
-6.847071812022257
-7.130440408723567
-7.407090763622217
-7.67593620967643
-7.935877348047451
-8.185801892836679
-8.42458453469816
-8.651086858838706
-8.86415735645513
-9.062631571863184
-9.24533243011664
-9.411070792106692
-9.558646285489333
-9.686848460507521
-9.7944583197669
-9.880250269973047
-9.942994541663932
-9.9814601198545
-0.01458609044953496
-0.045034233468185025
-0.09504617443690577
-0.1639709810997556
-0.251163695155324
-0.3559806555089926
-0.47777524808095184
-0.6158941043242074
-0.7696737624583996
-0.9384377972907669
-1.121494416299841
-1.3181345117737129
-1.5276301512802846
-1.749233482111557
-1.9821760192383109
-2.2256682812023563
-2.4788997344103114
-2.7410390031765846
-3.0112343010280536
-3.2886140379181956
-3.5722875582326545
-3.8613459656912177
-4.154862993467923
-4.451895880784573
-4.751486220946515
-5.052660750246768
-5.3544320518573025
-5.655799154259082
-5.955748009192283
-6.253251839932092
-6.547271356619062
-6.836754841167459
-7.120638110210764
-7.397844370318186
-7.667283985268763
-7.927854180565447
-8.178438715504946
-8.417907557930526
-8.645116601274292
-8.858907467551653
-9.058107443594329
-9.241529600919502
-9.407973152225944
-9.556224099281806
-9.685056228233838
-9.793232508641621
-9.879506951955006
-9.942626983428724
-9.981336378665281
-0.014431665889936607
-0.04457360317816628
-0.09411115587998564
-0.16242467167989139
-0.2488990280317105
-0.35291863534439916
-0.47386292199665325
-0.6111023249102123
-0.7639948002258721
-0.931882859191038
-1.1140911251645618
-1.3099243986698523
-1.518666208806442
-1.7395778219475808
-1.971897671732565
-2.21484116866583
-2.4676008432873884
-2.7293467735355037
-2.9992272449639916
-3.276369591737857
-3.5598811667884926
-3.8488503911518777
-4.1423478351252605
-4.43942728738408
-4.739126772692331
-5.040469483737603
-5.342464598234536
-5.644107958519063
-5.944382596974099
-6.242259097206357
-6.536695787466261
-6.8266387693521
-7.111021791281429
-7.388765982625595
-7.6587794706331795
-7.919956908116864
-8.171178945552462
-8.411311686662405
-8.639206171461606
-8.853697935353372
-9.053606696980625
-9.237736231236845
-9.404874486847284
-9.553794010244403
-9.683252739296591
-9.79199523113727
-9.878754388234706
-9.942253745576334
-9.981210379310742
-0.014270518446933167
-0.044093893427886055
-0.09313962281838384
-0.16082190480739822
-0.24655772494126316
-0.34976151949972656
-0.4698403825401385
-0.6061898422185081
-0.7581902214902925
-0.9252035875242317
-1.1065712836011357
-1.3016120270551559
-1.509620547093408
-1.7298667278084596
-1.961595214044015
-2.2040254314150935
-2.4563519668970075
-2.717745252967773
-2.9873524961377513
-3.2642987901538856
-3.5476883549633804
-3.8366058446209133
-4.130117670420865
-4.427273289810711
-4.727106416882721
-5.028636115818944
-5.330867745230607
-5.632793728071146
-5.933394128875001
-6.23163702733672
-6.526478684571497
-6.8168635056642195
-7.101723809280055
-7.379979422093741
-7.6505371226055185
-7.912289965427648
-8.164116523273094
-8.404880089922067
-8.633427892796337
-8.848590368975739
-9.049180563185441
-9.233993710462801
-9.401807069825404
-9.551380078198745
-9.681454896189742
-9.790757418595637
-9.877998823038894
-9.941877729331832
-9.981083040063723
-0.014102876904088735
-0.043595963700598706
-0.09213372465995207
-0.15916695745849152
-0.2441471674415241
-0.3465208695982789
-0.4657245035392239
-0.601179989320191
-0.7522909397931881
-0.9184395329429698
-1.0989840355891185
-1.2932569579102449
-1.5005638074821301
-1.7201824016237466
-1.9513626883097615
-2.1933270188574308
-2.445270810148398
-2.70636353055239
-2.9757499415083535
-3.2525515264049663
-3.535868039589418
-3.8247791110196503
-4.118345845835207
-4.415612363251325
-4.715607225189069
-5.017344711694797
-5.319825907578855
-5.62203957233784
-5.922962773485625
-6.221561271485377
-6.516789652615528
-6.8075912140599515
-7.092897613478703
-7.371628302961588
-7.642689774596997
-7.904974652025617
-8.157360669172398
-8.398709583814394
-8.627866079595226
-8.843656715880853
-9.044888990126456
-9.230350582126439
-9.398808853847212
-9.549010682112137
-9.67968270436091
-9.789532059647506
-9.877247708341006
-9.94150241379134
-9.98095546766891
-0.013929060498470758
-0.04308096675576678
-0.09109626006695049
-0.15746527701717872
-0.24167660122975088
-0.34321098021959995
-0.46153593312975727
-0.5961010797889514
-0.7463342075713146
-0.9116380784530935
-1.0913879647054505
-1.2849298880645406
-1.4915795248941186
-1.710621728575609
-1.9413106107835605
-2.182870115454764
-2.4344950132968743
-2.6953522407748913
-2.9645825054959243
-3.241302079828217
-3.524604706254717
-3.8135635413803404
-4.1072330701877
-4.404650928125677
-4.704839575653901
-5.006807777628709
-5.309551848263752
-5.612056631126189
-5.913296192648945
-6.212234216631518
-6.507824096213145
-6.799008728611451
-7.084720026511738
-7.36387816839969
-7.6353906180807245
-7.898150951308045
-8.151037534879062
-8.39291211052949
-8.622618342530632
-8.838980394190092
-9.040801604389141
-9.226863340554512
-9.39592410952723
-9.546719012081924
-9.677959630495998
-9.788334441335241
-9.876509847714622
-9.941131925931412
-9.98082898055599
-0.013749491089313004
-0.04255038791520338
-0.09003076346454186
-0.15572363639953402
-0.2391573819894024
-0.3398492375508597
-0.4572995864547409
-0.5909870542117377
-0.7403644341207509
-0.9048554435799472
-1.0838522959436743
-1.276714057414374
-1.4827657441913291
-1.7012981022302134
-1.9315680012715664
-2.172799366056484
-2.4241845610457338
-2.6848861409193367
-2.9540388772909503
-3.230751972307677
-3.5141113722282795
-3.803182098255599
-4.097010517722633
-4.394626485807292
-4.695045296160236
-4.997269387836743
-5.300289765477441
-5.6030870995886435
-5.904632483865818
-6.203887836486966
-6.499805942235288
-6.791330142048462
-7.077393685849831
-7.356918773556877
-7.628815317874306
-7.8919794706959365
-8.14529196279296
-8.387616314128483
-8.617796979248599
-8.834657498985269
-9.036998736350522
-9.223597280385636
-9.393204107505735
-9.544543595014993
-9.676312985851172
-9.787182407498147
-9.875795550764062
-9.94077111591369
-9.980705133864081
-0.013564706597784415
-0.04200608845092102
-0.08894160079120095
-0.1539503061403127
-0.2366032485790035
-0.3364565183816035
-0.45304519426376144
-0.5858782004211198
-0.7344340969200629
-0.8981578029729957
-1.0764582338868758
-1.268706814653204
-1.4742368168531148
-1.6923434508310655
-1.9222846330725303
-2.1632823390157068
-2.414524444273134
-2.6751669531954185
-2.9443365120108282
-3.2211331045724862
-3.504632832146523
-3.7938906837687068
-4.08794321087657
-4.385811028397354
-4.686501073980323
-4.9890085675351346
-5.29231862417699
-5.595407484914059
-5.8972433406114275
-6.196786735952151
-6.492990550981739
-6.7847995683883795
-7.0711496447904505
-7.350966513934597
-7.623164259024466
-7.886643500188015
-8.140289351503561
-8.382969210054227
-8.613530447244823
-8.83079807995535
-9.03357250625229
-9.220627397121724
-9.390707842141389
-9.54252885297833
-9.674774333976236
-9.786096634068116
-9.87511679797226
-9.940425637614275
-9.98058574626047
-0.013375375788182708
-0.04145035353933668
-0.08783407566309087
-0.15215524564231542
-0.23403062714162304
-0.3330576348001375
-0.44880791488981164
-0.5808219573256983
-0.7286047587923148
-0.8916225345858829
-1.069300455052683
-1.2610213618793464
-1.4661254006377435
-1.683910489402775
-1.9136335295864333
-2.1545122543466793
-2.405727602214098
-2.6664264993961724
-2.9357249329492756
-3.212711198542205
-3.496449211096902
-3.785981772970449
-4.080333703058208
-4.3785147403394635
-4.679522146499802
-4.982342944404676
-5.285955741700473
-5.589332101532938
-5.8914374348251455
-6.191231401029143
-6.487667816097176
-6.779694077836556
-7.06625012976055
-7.34626699484037
-7.618664920287003
-7.882351183898484
-8.13621762145672
-8.37913794296896
-8.60996491395883
-8.827527485859427
-9.030627967285042
-9.218039335444708
-9.388502794226907
-9.540725692376911
-9.673379921585452
-9.78510092048369
-9.87448741555488
-9.940102034235977
-9.980472928501559
-0.013182314619471391
-0.04088594544043023
-0.08671454735386508
-0.15035031615657624
-0.23145897039441476
-0.32968183101072746
-0.44462901849599024
-0.5758738140030899
-0.7229482056775998
-0.8853396153374659
-1.0624887753681747
-1.253788701934889
-1.4585846886689207
-1.6761752262451353
-1.9058137378063038
-2.1467110081815477
-2.398038176727866
-2.658930159454237
-2.928489365368306
-3.205789574621517
-3.4898798519143646
-3.77978837677092
-4.074526082783873
-4.373090010024448
-4.6744662879096825
-4.97763267987661
-5.281560635446665
-5.58521680960728
-5.887564023411146
-6.187561653357844
-6.484165450045438
-6.776326798886561
-7.062991447370475
-7.343097734189601
-7.615574365806435
-7.8793377958793975
-8.133289272206927
-8.376311624666663
-8.60726587642208
-8.824987768942565
-9.028284299804508
-9.21593038042721
-9.386665728895826
-9.539192121052146
-9.672171130546737
-9.784222495949018
-9.873923259596776
-9.93980782867477
-9.98036911365155
-0.01298650433732762
-0.04031616252535519
-0.085590562224382
-0.148549518623605
-0.22891113721988643
-0.3263633399193915
-0.44055665424322865
-0.5710983180498344
-0.7175477225007475
-0.8794131854064483
-1.056150017491304
-1.2471598165057278
-1.4517908988774026
-1.6693397570965733
-1.8990534137077515
-2.140132529469726
-2.3917351147683927
-2.652980689404525
-2.922954735937511
-3.200713295931543
-3.485287565936977
-3.7756883604057156
-4.070910321445461
-4.369935769696459
-4.671738106069439
-4.97528469032255
-5.279539138712877
-5.58346299910215
-5.886016777516655
-6.186160305068787
-6.482852448225251
-6.775050178555691
-7.061707030485549
-7.341770986808165
-7.61418184251577
-7.877868107607558
-8.131743518920466
-8.374703240332186
-8.605619839709343
-8.823339139688176
-9.02667604834308
-9.214410484758284
-9.385283523246219
-9.537993889168899
-9.671194948080778
-9.78349233868477
-9.87344240843171
-9.939551618152356
-9.98027708881591
-0.01278911153468787
-0.039744905038245015
-0.08447100059056822
-0.1467692601498123
-0.2264138187596001
-0.32314200863257003
-0.43664671309765124
-0.5665702099170111
-0.7124995280666898
-0.8739633063248387
-1.0504301072788649
-1.2413081080585295
-1.4459460601315728
-1.663635385889691
-1.89361326016261
-2.1350665104063173
-2.387136160445526
-2.648922439060199
-2.91949007613635
-3.1978737149894947
-3.483083279183259
-3.7741091452236604
-4.069926987863264
-4.369502181925943
-4.671793662798688
-4.975757166409503
-5.280347788163433
-5.5845218184371355
-5.8872378295312995
-6.1874570053375875
-6.484142720110597
-6.776259386698191
-7.062770607551689
-7.342636673438422
-7.614811465932506
-7.878238829848325
-8.131848491396727
-8.37455160736597
-8.605236039702818
-8.8227614590748
-9.025954390375185
-9.213603322738148
-9.384454016302167
-9.537205148315024
-9.670504451188421
-9.782945505582408
-9.873065361810438
-9.939343172457063
-9.980200028169095
-0.012591510548186857
-0.03917674867413101
-0.0833662414756533
-0.14502865366733042
-0.22399801846020884
-0.3200640040173004
-0.43296380163393233
-0.56237570328563
-0.707914394084307
-0.8691279429809539
-1.0454964342943585
-1.236432144830128
-1.441281137932998
-1.659326117742022
-1.8897903647911125
-2.1318425586495358
-2.3846022841906933
-2.6471460152610855
-2.918513372744808
-3.1977134621756447
-3.4837311086892715
-3.7755328233409697
-4.072072353499026
-4.372295690516109
-4.675145429359413
-4.979564396429112
-5.284498483058673
-5.588898642588375
-5.8917220279772575
-6.191932264739572
-6.488498870180645
-6.780395844606101
-7.066599473508923
-7.346085391657914
-7.617824971240912
-7.880781106069161
-8.133903473632198
-8.376123366232088
-8.606348191438773
-8.823455751687215
-9.026288422508918
-9.213647359123735
-9.384286871772778
-9.536909121561226
-9.670159300147382
-9.782621468834105
-9.872815244869855
-9.939193534894926
-9.980141527000907
-0.012395308483958534
-0.03861702715387061
-0.0822883482112513
-0.14334985636001263
-0.22169959515647109
-0.3171826118241494
-0.4295823454909473
-0.5586139357444795
-0.7039194784467209
-0.8650652055970323
-1.0415405180241635
-1.2327587555425952
-1.4380595504051452
-1.6567125778922738
-1.8879224932068468
-2.1308348271069932
-2.384542603777037
-2.6480934429839307
-2.920496913948579
-3.200731919689204
-3.487753906908855
-3.780501716491896
-4.077903912610271
-4.37888445284102
-4.682367586848
-4.98728189621307
-5.29256341210193
-5.597157770352958
-5.900021384581093
-6.200121637082045
-6.496436104569399
-6.787950851042637
-7.073657833589975
-7.352551478977549
-7.623624499726509
-7.885863028105576
-8.13824115594641
-8.379714977215176
-8.60921623930535
-8.825645718622889
-9.027866445938056
-9.214696917743252
-9.38490444152233
-9.537198775210808
-9.670226234428458
-9.78256445521163
-9.872718014388003
-9.939115124714586
-9.980105636382037
-0.012202373319871729
-0.03807192538708115
-0.08125127854458758
-0.14175845370151152
-0.21955988033309848
-0.31455914575298083
-0.42658784504724845
-0.5553986191991458
-0.7006604092918274
-0.8619558951372857
-1.0387810297371403
-1.2305465294624118
-1.4365811347959507
-1.6561364199987447
-1.8883929026605983
-2.1324671862352758
-2.387419860329567
-2.6522638840201083
-2.92597318584939
-3.207491229538796
-3.4957393153957277
-3.7896244121353018
-4.088046341731684
-4.389904169155981
-4.694101678251137
-4.999551843936969
-5.305180238361189
-5.609927334105732
-5.912749690621179
-6.212620030609415
-6.508526231205137
-6.7994692704251065
-7.0844601828276
-7.362516090121874
-7.632655382690268
-7.893892137250547
-8.145229864698388
-8.385654690601294
-8.614128079563063
-8.829579224104975
-9.030897228752544
-9.216923231170455
-9.386442614774142
-9.538177480796968
-9.670779562761043
-9.78282378253605
-9.872802664164581
-9.939121839532024
-9.980096897967613
-0.012014865699986554
-0.037548585194303596
-0.08027112369810152
-0.1402838974122822
-0.21762638316941252
-0.3122639866345662
-0.42407831098781834
-0.5528599257767253
-0.6983036639928156
-0.860006404577998
-1.0374672300483077
-1.2300897883689559
-1.437186636173641
-1.6579852988272297
-1.8916357524669096
-2.137219014552362
-2.393756522281551
-2.660219981495106
-2.9355413811834947
-3.2186228893069173
-3.5083463722960193
-3.8035823113551865
-4.103197922503819
-4.406064322213816
-4.71106261500609
-5.017088812678986
-5.323057525938702
-5.627904397508065
-5.930587270934002
-6.230086111145207
-6.525401711542427
-6.815553238122643
-7.099574674262582
-7.3765102408594005
-7.645408875836235
-7.90531786530903
-8.155275726558429
-8.394304450465373
-8.621401219212403
-8.83552972403141
-9.035611217786155
-9.220515448682058
-9.389051634724296
-9.539959653337009
-9.671901637304572
-9.78345418660409
-9.873101425548686
-9.93922915589878
-9.980120378379223
-0.01183527507325044
-0.03705522590315602
-0.07936638192887568
-0.1389600077359503
-0.21595360018585397
-0.31037777643516584
-0.42216591352369015
-0.5511466528599412
-0.697039296796734
-0.8594520395039768
-1.0378828945783214
-1.2317231103859032
-1.4402628038592136
-1.6626984962717397
-1.898142201182861
-2.1456316957992003
-2.4041416017234445
-2.6725949083101
-2.9498745898803547
-3.234834995238417
-3.5263127217201635
-3.8231367242263157
-4.124137450725524
-4.428154837227656
-4.734045035687556
-5.040685786659758
-5.346980383604368
-5.65186020696743
-5.954285833427636
-6.253246748590308
-6.547759710414018
-6.836865826106948
-7.119626417488001
-7.39511775977458
-7.66242478648773
-7.920633860200498
-8.168824715147379
-8.406061683918399
-8.631384327771348
-8.843797598184242
-9.042261667122272
-9.225681575169343
-9.392896860651955
-9.542671348947149
-9.673683299699295
-9.78451613048346
-9.873649958369956
-9.939454225689287
-9.980181702360468
-0.011666461015197083
-0.036601282782024125
-0.07855827351713729
-0.1378255528717478
-0.21460395018721412
-0.3089927974264298
-0.4209788866646993
-0.5504287206041826
-0.6970840806774914
-0.8605608351929444
-1.0403508152085013
-1.2358265017134187
-1.4462481978437867
-1.670773306375295
-1.908467296616859
-2.1583159261757814
-2.4192382808647377
-2.690100208776399
-2.9697277499077166
-3.256920198303022
-3.550462476430842
-3.8491365489085885
-4.151731652368217
-4.457053167617671
-4.763930007540609
-5.071220438210631
-5.3778162901599735
-5.682645550927253
-5.984673359244024
-6.282901444878002
-6.576366077027082
-6.864134598774429
-7.145300635891743
-7.418978076513321
-7.684293923886552
-7.940380129418737
-8.186364517538866
-8.42136091838682
-8.644458630236354
-8.85471134059577
-9.051125644296048
-9.232649308561811
-9.39815944949385
-9.546450801883246
-9.676224284523574
-9.786076086541154
-9.874487526632201
-9.939815965625424
-9.980287083829309
-0.011511700816319692
-0.03619756706619359
-0.07787110572248523
-0.13692492136826395
-0.21364886010720596
-0.30821457411812614
-0.4206637387902221
-0.5509000675384219
-0.6986851434215193
-0.8636379640387959
-1.0452379829591616
-1.2428313319716178
-1.4556398276172597
-1.6827723050860712
-1.9232377839226786
-2.1759599526199844
-2.439792461742109
-2.7135345354943574
-2.995946446549824
-3.285764445238515
-3.5817147882377505
-3.8825265704697927
-4.186943123905211
-4.493731805626862
-4.80169205266281
-5.109661631387835
-5.416521053359177
-5.721196166790055
-6.022658963577182
-6.319926665867195
-6.612059174300258
-6.89815497307325
-7.177345595652847
-7.448788760476196
-7.7116602891868835
-7.9651449219848685
-8.208426146533808
-8.440675159094141
-8.661039080409696
-8.868628554690474
-9.062504868483096
-9.241666737757289
-9.405036926334871
-9.551448877558611
-9.67963356323256
-9.788206779879697
-9.8756571522345
-9.94033513671119
-9.980443353818977
-0.011374744693404493
-0.035856452159250374
-0.07733269838331136
-0.13630890734728673
-0.21317003373183963
-0.30816374451632733
-0.42138783252839584
-0.5527820248924668
-0.7021241961276286
-0.8690308477887009
-1.0529615811644895
-1.2532271729632338
-1.4690007704023855
-1.6993316544938273
-1.943160979724711
-2.1993388837240793
-2.4666423700728455
-2.7437933978362175
-3.0294766587873823
-3.3223565831754724
-3.6210931829903608
-3.924356413859272
-4.23083880900481
-4.5392662082397885
-4.848406469091751
-5.1570761042518
-5.464144838439121
-5.768538118097477
-6.069237639057194
-6.365279981135592
-6.655753455219342
-6.939793278868396
-7.216575202175202
-7.485307707480146
-7.745222906319717
-7.995566255373172
-8.235585211753303
-8.464516947395174
-8.681575243630979
-8.88593669112786
-9.076726327622683
-9.253002857017353
-9.413743608530213
-9.557829414408642
-9.684029608904266
-9.790987380012233
-9.877205738925525
-9.941034409798483
-9.980657984020258
-0.01125988030539582
-0.035592091759847344
-0.07697488353788562
-0.13603563329881263
-0.21326094301107568
-0.30897825852164673
-0.42334241204559664
-0.5563272691109531
-0.7077224747481008
-0.8771351147003179
-1.0639959455291106
-1.267569709890058
-1.486968945368199
-1.721170620140014
-1.9690348871527683
-2.22932523891149
-2.500729364479466
-2.781880054382162
-3.0713755626804087
-3.3677989127079213
-3.6697357184323978
-3.975790182116524
-4.284599015938681
-4.594843117368464
-4.905256902308819
-5.214635264432323
-5.521838182951219
-5.825793043904476
-6.12549477216392
-6.420003893941333
-6.708442663525763
-6.989989394838281
-7.263871139859233
-7.529354853260887
-7.785737177702487
-8.032332978218976
-8.268462748564861
-8.493439008221806
-8.706551807108667
-8.9070534569127
-9.094142613623536
-9.266947846370133
-9.424510842994373
-9.565769423549296
-9.689540559199312
-9.794503625647794
-9.879184157546824
-9.941938412975102
-9.980939104524815
-0.01117200869093704
-0.0354206772496346
-0.07683409588489587
-0.1361716413980667
-0.21402859157039467
-0.3108159755362696
-0.4267461748927944
-0.5618244757237686
-0.7158465432096979
-0.8884015733159132
-1.0788806819655703
-1.2864899297428685
-1.5102672560974297
-1.7491025144244872
-2.0017597585299844
-2.266900929499495
-2.543110125490481
-2.82891769934946
-3.1228235133858444
-3.4233187798810323
-3.7289060228382755
-4.038116805067007
-4.349526969236603
-4.661769238029403
-4.973543103874423
-5.283622011003382
-5.590857890976755
-5.894183157501803
-6.192610297889716
-6.485229218493615
-6.771202511407701
-7.0497588115297685
-7.32018440881378
-7.581813272064312
-7.834015629837225
-8.07618524243625
-8.307725488545842
-8.528034381437216
-8.73648862441961
-8.932426814443417
-9.115131906464153
-9.283813060754525
-9.437587010795845
-9.575459111024953
-9.696304252049313
-9.798847865530862
-9.881647282410107
-9.943073755851223
-9.981295514145724
-0.011116734310938403
-0.03536074355961172
-0.07695207525731962
-0.13679319233365983
-0.21559561271224836
-0.3138577513322084
-0.4318495092350911
-0.5696038272875747
-0.7269151416231932
-0.9033444137766258
-1.098230175297674
-1.3107048352672823
-1.539715356948691
-1.7840473203377085
-2.0423513498876007
-2.3131708976317342
-2.5949704248513417
-2.886163112161729
-3.1851373391849953
-3.4902813019571504
-3.8000052696255646
-4.1127611144054805
-4.427058873975234
-4.74148021826994
-5.054688790068924
-5.365437469035357
-5.672572671321797
-5.975035842122385
-6.271862328115294
-6.562177832416348
-6.845192658740618
-7.1201939465561885
-7.386536087262099
-7.6436294956877
-7.890927893140922
-8.127914239911103
-8.354085438821697
-8.568935917621204
-8.771940188469376
-8.96253447880671
-9.140097529401732
-9.303930663669322
-9.453237247736947
-9.587101683291822
-9.704468105522063
-9.80411899617697
-9.884653967421375
-9.9444690252001
-9.981736681467506
-0.011100472604800515
-0.03543353509332681
-0.07737670782173789
-0.13798782077347338
-0.2181027802020188
-0.31831112715081217
-0.43893954749969866
-0.5800435654213838
-0.7414073067195304
-0.9225508963526615
-1.122744774020996
-1.3410299862373856
-1.5762433513432037
-1.8270462989889855
-2.0919561555254353
-2.3693786762181355
-2.6576407047724064
-2.9550219595717646
-3.259785092009504
-3.570203323875422
-3.8845851367069764
-4.201295647045141
-4.518774450494442
-4.835549848679376
-5.150249483427142
-5.461607490393571
-5.768468349810397
-6.069787656200836
-6.3646300544347465
-6.65216459863599
-6.931657786415475
-7.202464507005798
-7.464017120879264
-7.715812863354807
-7.957399737965742
-8.188361039165345
-8.408298620401965
-8.616815003966249
-8.813494414604712
-8.99788281106952
-9.169466988842473
-9.32765283409664
-9.4717428240557
-9.600912892366802
-9.714188810257616
-9.81042227529112
-9.888266949310344
-9.946154745815434
-9.982272734603217
-0.011130579363628934
-0.03566344649458253
-0.0781630399311275
-0.13985620959658074
-0.22171203064675288
-0.32441476314006934
-0.44834622576369776
-0.5935778240533489
-0.7598720464468117
-0.9466928475942178
-1.1532240006267522
-1.378394234969171
-1.6209077932383629
-1.8792789429655965
-2.151868962353616
-2.436924175519991
-2.732613728760594
-3.0370659605317893
-3.3484024083777952
-3.664768700821954
-3.984361787795768
-4.305453158229411
-4.626407869634688
-4.945699365842648
-5.261920182447915
-5.573788734114542
-5.880152444372543
-6.179987519411005
-6.472395685876688
-6.756598212467852
-7.031927520246343
-7.297816660970422
-7.553786910260764
-7.799433685974888
-8.034410965040012
-8.258414336636475
-8.471162797761316
-8.672379370771036
-8.861770602807523
-9.039004994770522
-9.203690403809343
-9.355350468573217
-9.493400121042267
-9.617120273076292
-9.725631800000986
-9.817868987744685
-9.892552664208347
-9.948163299909602
-9.98291443742119
-0.011215507446858952
-0.03607855711185193
-0.07937450776262744
-0.14251446184316618
-0.22661012266288832
-0.33244379551443975
-0.46044958686683807
-0.610706040536797
-0.7829399196473941
-0.9765403604024158
-1.1905822165985769
-1.423857102783071
-1.6749104393977772
-1.9420827071358038
-2.2235531235999466
-2.5173840498607882
-2.821564600114352
-3.1340521443258695
-3.45281064094287
-3.7758449954761018
-4.101230894184728
-4.427139797098969
-4.75185898168137
-5.073806701168605
-5.391542657813567
-5.703774090654676
-6.009357842153028
-6.307298802154747
-6.596745135457756
-6.876980686044059
-7.147414921871377
-7.407570743772936
-7.657070435200435
-7.895619979721121
-8.12299192374772
-8.339006915965504
-8.543514013913466
-8.736369813964092
-8.917416435424677
-9.086458372589286
-9.243238221761647
-9.387411293888073
-9.518519137400562
-9.635962021097669
-9.738970463105929
-9.82657593923022
-9.897580962751874
-9.950528797807534
-9.983673149854365
-0.01136499789598433
-0.036711283213558765
-0.08108443785083075
-0.1460968710758065
-0.23301309202369547
-0.3427163447654067
-0.4756886275582169
-0.6320043171348801
-0.8113369587184551
-1.012978189153091
-1.2358672697704796
-1.4786293418218361
-1.7396202922564896
-2.0169760308704516
-2.30866402056693
-2.6125350512287664
-2.9263734800833276
-3.247944450696234
-3.5750369219412175
-3.9055016636839426
-4.237283686921852
-4.568448857500893
-4.897204683571922
-5.2219154618797905
-5.5411121152791125
-5.853497154858863
-6.157945259049597
-6.45349998453613
-6.739367116291923
-7.014905133285564
-7.279613218702887
-7.533117185009487
-7.775153619972373
-8.005552494065942
-8.224218406321734
-8.431110587399843
-8.62622172752695
-8.809555654540656
-8.981103855131643
-9.140820810831764
-9.288598110151751
-9.424237300105535
-9.547421453860805
-9.65768545732181
-9.754385055643908
-9.836664751224516
-9.903424707956823
-9.953286892248292
-9.984560769722076
-0.01159031449734138
-0.037599178888397145
-0.08337788927861273
-0.15075931903181694
-0.24117170601963672
-0.35560146414350047
-0.49457207005162673
-0.6581392020830564
-0.8459014833575611
-1.0570254500345997
-1.290282773999987
-1.5440973461336576
-1.8165995840397737
-2.105685262701286
-2.4090762601148925
-2.7243808347349887
-3.049151373704052
-3.3809379344413615
-3.717336312548777
-4.056029776288796
-4.394823987432301
-4.7316749624177135
-5.064710205480104
-5.392243361774712
-5.712782893632622
-6.025035380789845
-6.327904092672515
-6.620483485466557
-6.902050247702514
-7.172051464146748
-7.430090396757085
-7.675910300630878
-7.909376607986543
-8.13045772921106
-8.339204640882974
-8.535729358793077
-8.720182331954003
-8.892728742506957
-9.053523657382321
-9.202685951247137
-9.340270906859802
-9.46624139897179
-9.580437581140384
-9.682545021652121
-9.7720612750642
-9.848260929764404
-9.910159239512002
-9.956474528318633
-9.985589653384416
-0.011904533502845815
-0.038785925573794566
-0.08635392869390329
-0.15668346639246086
-0.25137817777032656
-0.37152889795655286
-0.517691541594365
-0.6898844832565045
-0.8876044934576187
-1.1098593864777395
-1.3552148229644931
-1.6218522220819813
-1.9076344858164453
-2.210176211972761
-2.5269152448157364
-2.8551827427846046
-3.1922693848116994
-3.5354858427425566
-3.882216172413215
-4.229963283076676
-4.576386104896693
-4.919328467173392
-5.2568400156912425
-5.58718973243478
-5.908872778208689
-6.220611465792518
-6.5213511984779275
-6.8102521875552995
-7.086677704194459
-7.350179537275071
-7.6004812287718675
-7.8374595505767335
-8.061124577695466
-8.27159860803792
-8.469094082236435
-8.653890570678321
-8.82631082130329
-8.986695801682922
-9.13537862314075
-9.272657203433097
-9.39876550819783
-9.513843209653965
-9.617903614138005
-9.710799737815975
-9.792188452403163
-9.861492679981438
-9.917861687787983
-9.960129620872973
-9.986772512531457
-0.012322903679441999
-0.04032256199835388
-0.09012845630914365
-0.16408195114159457
-0.26397447658636375
-0.3910011239976063
-0.5457377795024697
-0.7281417468919902
-0.9375745075354075
-1.17284414808195
-1.4322641286638018
-1.713724506871812
-2.0147714843822184
-2.3326911839085938
-2.6645938517731156
-3.0074951581311677
-3.358391868796465
-3.7143298262155664
-4.072462845788502
-4.430101761202126
-4.784753405200198
-5.134149769182685
-5.476267937169804
-5.809341637182854
-6.131865403520983
-6.442592409266836
-6.740527024581411
-7.024913098511108
-7.295218865509537
-7.551119256139597
-7.792476256073073
-8.019317818167023
-8.231815696018309
-8.43026243958603
-8.615047677795285
-8.786633711764235
-8.945530356914489
-9.092268903385488
-9.22737501201525
-9.3513403274384
-9.464592570909819
-9.56746387239928
-9.66015711462213
-9.742710090585083
-9.81495732098661
-9.876489438361228
-9.92661012089659
-9.964290651304292
-9.988122284378788
-0.01286329651827628
-0.04226902210175659
-0.09483773685863389
-0.17320487328723055
-0.2793626697669188
-0.4146082918327513
-0.5795206535304436
-0.7739656597283953
-0.997127941211948
-1.2475657696319318
-1.523284810037121
-1.8218257420158919
-2.1403605592286166
-2.4757925059484616
-2.8248550634036977
-3.1842060766363462
-3.550513926496631
-3.920533517237847
-4.2911706967608785
-4.659534497309176
-5.022977241767229
-5.379123084014223
-5.725885935006439
-6.06147797592836
-6.384410089686543
-6.693485571834215
-6.987788432707848
-7.266667495036586
-7.529717345009782
-7.776757026168292
-8.007807187869687
-8.223066224215668
-8.422885772376583
-8.607745786550122
-8.778229268512302
-8.934996619301128
-9.078759480020821
-9.210253852651505
-9.330212233890855
-9.439334455701196
-9.538256905093384
-9.627519791805177
-9.707532145952218
-9.77853425802608
-9.8405573206696
-9.893380095520785
-9.936482508654999
-9.968996175801424
-9.989651972646488
-0.013546772557958886
-0.04469606958958722
-0.100642837301974
-0.18434793048201426
-0.2980178631239071
-0.4430468500588072
-0.619994025905465
-0.8285952001091255
-1.0678064129577958
-1.3358748383217134
-1.6304313492066884
-1.9485983739677541
-2.287106515654547
-2.6424137243649106
-3.01082150577899
-3.3885836022548754
-3.772003676442673
-4.157519651395052
-4.541773425562507
-4.921665619631174
-5.2943957837904785
-5.6574890809501515
-6.008810864591716
-6.346570804497121
-6.669318303419422
-6.975930921361519
-7.265597410587737
-7.537796791178604
-7.792274687650808
-8.02901792158947
-8.248228128377923
-8.450294949035722
-8.635769148138401
-8.805335830327962
-8.959787773082455
-9.099998762788704
-9.226896714467166
-9.341436271562825
-9.444570519790613
-9.537221407050248
-9.620248438946831
-9.694415215265323
-9.760353386868237
-9.818523644317239
-9.869173398912258
-9.912290883935267
-9.947555488373421
-9.9742842377976
-9.99137445690137
-0.014398298143448895
-0.04768774620288446
-0.10773523751245219
-0.19786268424071543
-0.3205044837380174
-0.4771428964961122
-0.6682867702302957
-0.8934924120165849
-1.1514227411749787
-1.4399387195151803
-1.756215596200293
-2.096875775982368
-2.45813009202869
-2.835919839614821
-3.2260529609074373
-3.624329099358074
-4.026649702976877
-4.429110806062819
-4.828077447080919
-5.2202398104687155
-5.602652070619495
-5.972755556623922
-6.328388258919519
-6.667782892425569
-6.989555752741091
-7.292688492728038
-7.576504745536338
-7.8406432616610875
-8.085028940452414
-8.309842843367395
-8.515491993295832
-8.702579502317327
-8.871875335762851
-9.024287816506122
-9.16083580049279
-9.282621311548661
-9.390802308844584
-9.48656517168222
-9.571096420987516
-9.645553153783707
-9.711031643980931
-9.768533559046979
-9.818929257239972
-9.862917663470144
-9.900982273658366
-9.933342907598142
-9.95990291896355
-9.980191678042189
-9.993302268063964
-0.01544765827844001
-0.051344489468801796
-0.11634396759337289
-0.21416959214026882
-0.34749688559923353
-0.5178816071366188
-0.7257416689828289
-0.9703907123670739
-1.2501178836168738
-1.5623056967526883
-1.9035761543086183
-2.2699545733589512
-2.657040761636419
-3.0601781517959417
-3.4746130179525614
-3.8956377356957494
-4.31871398643116
-4.739573665224174
-5.154296892882199
-5.5593678741852575
-5.95171034874596
-6.328705051986223
-6.6881919721713325
-7.02846030375232
-7.348228913382345
-7.646619908647692
-7.923127581833365
-8.177584634985099
-8.410127211464182
-8.621159888086323
-8.811321437081851
-8.981451858204275
-9.132560912846525
-9.265798164754587
-9.382424344003487
-9.483783699005894
-9.571276882013631
-9.646333822879239
-9.710385980223744
-9.764837316531407
-9.811033321435051
-9.85022740475807
-9.883543997143217
-9.91193773093583
-9.936148127999743
-9.956649294108752
-9.973594212017222
-9.986753336903336
-9.995447328321811
-0.016730626689707352
-0.05578712866847352
-0.1267447451325735
-0.23377465382000512
-0.37980558039993667
-0.5664445327878844
-0.7939644403843483
-1.0613553824715587
-1.3664317010604066
-1.7059839986009844
-2.0759630374500775
-2.471681918563238
-2.888023492121075
-3.319641494071309
-3.7611460973970097
-4.207267090388818
-4.652990453245529
-5.093666466021147
-5.525089485492585
-5.943551090533098
-6.345869393278788
-6.729397973711171
-7.092018178022385
-7.432118502375303
-7.748564543505331
-8.04066261121492
-8.308119629679389
-8.551001456012436
-8.769691253369386
-8.964849097682533
-9.137373586882344
-9.288365866137752
-9.419096183398175
-9.530972843555684
-9.625513231852253
-9.704316421552168
-9.769036761483878
-9.821357750292336
-9.862965441256012
-9.895520581278904
-9.920628667376189
-9.939807102707507
-9.954448651549846
-9.965780428494014
-9.974817712764631
-9.982311953930015
-9.988692431203129
-9.994001144876796
-9.99782065415275
-0.018290475718925704
-0.061162041055557004
-0.13927175100476535
-0.2572908107635897
-0.41841083531701867
-0.6242571393665871
-0.8748858572613978
-1.1688596686845507
-1.5033912471416682
-1.874539469090326
-2.2774411810683506
-2.7065609117933964
-3.155942102510681
-3.619445823932986
-4.090966093770084
-4.564614352046888
-5.034869003351872
-5.496688906002447
-5.94559209800242
-6.377702822591338
-6.789771060004523
-7.1791693534598915
-7.543871838004144
-7.882420155005345
-8.19388047375949
-8.47779524297038
-8.73413263773441
-8.963236011080497
-9.165775043081618
-9.342699729269611
-9.495197874782
-9.624656363352626
-9.732626147139925
-9.820790646603141
-9.890937050041998
-9.944929850273038
-9.984685842592807
-10.012149726097121
-10.029269393451791
-10.03796995866311
-10.04012555500024
-10.037527935454092
-10.031850925968001
-10.024609817655598
-10.017114840305029
-10.010417936457252
-10.00525215430495
-10.001963098741204
-10.000432021683903
-0.020179938633400604
-0.06764785280754884
-0.1543329126349764
-0.2854656451740656
-0.46450598545756694
-0.6930497693088741
-0.9708408808077179
-1.2958809721062472
-1.6646213544667956
-2.072216634460112
-2.512817234661729
-2.9798780010303294
-3.466462254131807
-3.9655242885103856
-4.470157794754343
-4.973802344424293
-5.4704044306227555
-5.954533245752669
-6.421454214964442
-6.86716524313915
-7.288401736396489
-7.682616854816443
-8.047943302755737
-8.383142431732598
-8.687545667465113
-8.96099240079144
-9.203767594766163
-9.416541521355182
-9.600313289702823
-9.756359182956409
-9.886186286344268
-9.991491459891717
-10.07412537382906
-10.136061069024128
-10.179366314171398
-10.206178892290188
-10.218683849460358
-10.21909166898225
-10.209616287072713
-10.192451837375476
-10.169746997770728
-10.143575814175925
-10.115903892889065
-10.088548887400258
-10.063134260241613
-10.041035377554415
-10.023317095364202
-10.010662122506805
-10.003289594227057
-0.022463779264224937
-0.07546421379406276
-0.1724298880813122
-0.31921749124532905
-0.5195536509290495
-0.7749363042879828
-1.0846700355465917
-1.446023014607059
-1.854483681081689
-2.304089180978046
-2.7877950925789996
-3.2978569194559864
-3.8261974969079957
-4.364739929823479
-4.905691983521688
-5.441774122644688
-5.966388984003669
-6.473734571618617
-6.958866705369943
-7.417718258873357
-7.847083638747485
-8.24457700816224
-8.608572186451969
-8.938131193095675
-9.232927241954414
-9.493166779618823
-9.719514003683738
-9.91302025693788
-10.075059803968745
-10.20727276600477
-10.311515410830733
-10.3898175506148
-10.444346470549045
-10.477376572927419
-10.49126375412066
-10.488423417396517
-10.471310947523357
-10.442403422189
-10.404181302027304
-10.359108820551786
-10.309611785172777
-10.25805150113755
-10.206693543531859
-10.157670132220886
-10.112934914850351
-10.074209037779688
-10.04291748719617
-10.02011481375548
-10.006399512349653
-0.025222184331073316
-0.08488338166837489
-0.1941844060705462
-0.3596828760119515
-0.5853592303708363
-0.8725163387378728
-1.219850032286233
-1.6236717540046008
-2.0782522022637218
-2.5762474509375983
-3.109166851534934
-3.6678445065664844
-4.242882110306277
-4.825039067683278
-5.405554622736393
-5.976395086398263
-6.530426334467425
-7.061517114371675
-7.5645822500405435
-8.03557671195773
-8.471452018681896
-8.87008591346251
-9.230195068486108
-9.551239017451577
-9.833321845696544
-10.077096546999055
-10.283675494496777
-10.454549225243401
-10.591514720619084
-10.696613569082004
-10.772079799470935
-10.820296740604215
-10.843761962920492
-10.845059158657211
-10.826835691049457
-10.791784466948354
-10.742628743063015
-10.682108450605202
-10.612966607307154
-10.537934374861909
-10.459713312102693
-10.38095337151508
-10.304225192453472
-10.231985264629126
-10.16653257673719
-10.109955433589084
-10.06406722637264
-10.030330076951946
-10.00976544725876
-0.028555281105698938
-0.09624564887746068
-0.22037328177271276
-0.4082793566576195
-0.6641677169829866
-0.9890088121521244
-1.3806630935756976
-1.8341953566293618
-2.3423355101694
-2.8960325585953877
-3.4850473268349593
-4.098534561529287
-4.725574631112765
-5.355626965354158
-5.978889615702479
-6.586560325685978
-7.171003301666406
-7.725832062269658
-8.245922371773238
-8.727370687147342
-9.167413282718332
-9.56431980492916
-9.917272944406088
-10.226243589111474
-10.491868526273594
-10.715335673766226
-10.89828003997594
-11.042692167759789
-11.15083970265998
-11.225201902427077
-11.268416326644287
-11.283236561120905
-11.272499593815539
-11.239101325407933
-11.185978633474445
-11.116096387005873
-11.032437807270956
-10.937996577465617
-10.835769108185573
-10.728745364268667
-10.619896650711437
-10.512158744505765
-10.408408751370803
-10.311434070115606
-10.223891872627215
-10.14825756389501
-10.086760782805003
-10.041307645477069
-10.013388118386416
-0.03258921089463185
-0.1099800822654875
-0.2519753965861492
-0.4667894841628655
-0.7587922787948298
-1.1284280635238804
-1.5724178217118083
-2.084201954820592
-2.6545593817368003
-3.272329197658056
-3.925161893214401
-4.6002365900595015
-5.284895786278633
-5.967166453036347
-6.636153145652896
-7.282303071218323
-7.8975537087892125
-8.475380355792161
-9.010764232247508
-9.500102221464019
-9.941077793765958
-10.332509941457783
-10.674193705229685
-10.966742577898316
-11.211440044824084
-11.410104932030787
-11.564973145680858
-11.678596790617009
-11.753760498682013
-11.793414006480308
-11.800619519666569
-11.778512113378047
-11.730271282273918
-11.659101716434064
-11.568221399922155
-11.460855176480035
-11.340231979780457
-11.209583969433659
-11.072145840515086
-10.931152580629345
-10.789833936118981
-10.651403823180665
-10.519042889388727
-10.395872408667534
-10.28491769176993
-10.189059229737602
-10.110969872996426
-10.053036492680462
-10.017264775663445
-0.037484378469398005
-0.12663269140505817
-0.2902353595204057
-0.5374740574562236
-0.8727865092532463
-1.2958175600179653
-1.8017391601069523
-2.381873537227839
-3.0245270926543784
-3.7159322147112026
-4.441199160289592
-5.1851967375451125
-5.933303785386692
-6.671998467282875
-7.389275231350865
-8.074897429768198
-8.720505996330653
-9.319611390017474
-9.867498126494652
-10.361069891423769
-10.79865973811761
-11.179825320206994
-11.505144330175778
-11.776020857612705
-11.994509553848198
-12.163161413164904
-12.284892650553985
-12.362876493737495
-12.400456599879064
-12.401080133756489
-12.368248190715379
-12.305481116364202
-12.216296286377265
-12.104196002549044
-11.972663289846924
-11.825163511755058
-11.665149836514685
-11.496070671608567
-11.321377231829267
-11.144529416784863
-10.968998149761104
-10.798262279851217
-10.635798085015425
-10.485059351281478
-10.349445962044772
-10.232258932498482
-10.136639888100337
-10.06549312841014
-10.021388645780819
-0.04344678315594397
-0.1469051140004145
-0.33675070641018956
-0.623226440630869
-1.010677318955069
-1.4975627049972469
-2.076951589273546
-2.737400565656671
-3.464080120734789
-4.240005567703529
-5.0472416561724724
-5.867978013675608
-6.685408158089514
-7.484380534729915
-8.251820524739387
-8.976944743014535
-9.651302527998325
-10.268685264186791
-10.8249438876289
-11.317750664276076
-11.746334969772068
-12.111215793579653
-12.413947025879718
-12.65688582471946
-12.842989738176529
-12.975644784063142
-13.05852425015646
-13.09547639219474
-13.090438282241397
-13.047372617032114
-12.970224181963076
-12.86289275959011
-12.72921947950222
-12.572983862487394
-12.397909069874938
-12.207673098458134
-12.005923844397485
-11.79629608598922
-11.582428501683378
-11.367978848276142
-11.15663537992427
-10.952122502519277
-10.758198544707163
-10.578643406667144
-10.417233746656297
-10.277703312672108
-10.16368605283768
-10.07863976997761
-10.025748339314106
-0.050743774264214725
-0.1717083918808613
-0.39359274044548553
-0.7277851363445218
-1.1782829291197225
-1.741813035520856
-2.4085889623714944
-3.1635503404111005
-3.98788842802744
-4.8606562693127096
-5.76028888615393
-6.6659055334381225
-7.558319902545932
-8.420734472268549
-9.239135004129475
-10.002427547904372
-10.702373644005444
-11.333382117751112
-11.892211225951677
-12.37762612912852
-12.790046310172631
-13.131207441787204
-13.403853372160954
-13.611466812315108
-13.758042026703926
-13.84789917139624
-13.885537603226066
-13.875524185326864
-13.82241205044304
-13.73068521067367
-13.604724631095324
-13.448791774723551
-13.26702607822752
-13.063453266045983
-12.842001813470635
-12.606525202360004
-12.36082786433774
-12.108692871230256
-11.853909511571121
-11.600298889939047
-11.351735610608573
-11.112163470441823
-10.885602905453386
-10.676147735354764
-10.48794856307645
-10.325180051864463
-10.19198926582095
-10.092422363635631
-10.030327211328885
-0.059726253746282376
-0.20223871789873726
-0.4634761260865494
-0.8560300674226182
-1.3831516355305158
-2.039057118347137
-2.8100774531003623
-3.6764134510946125
-4.614207607352919
-5.597649986312238
-6.600887119417809
-7.599578976837487
-8.572029663240329
-9.49988713158523
-10.368457428113441
-11.16670781721179
-11.887043260257549
-12.524937159222976
-13.078485474623106
-13.547937952452685
-13.935244597534414
-14.243641725091356
-14.477290830530233
-14.640975307250157
-14.739854440319675
-14.779270633515925
-14.764603967942124
-14.701167465496043
-14.594136446606822
-14.448505827460064
-14.269069880699632
-14.060419737695526
-13.826954645035652
-13.572903647036512
-13.302354919599
-13.019290415573284
-12.72762379511063
-12.431239809516706
-12.134033389390064
-11.839946665004007
-11.5530020283288
-11.277329143688887
-11.01718354582238
-10.776954156789245
-10.561156745587434
-10.374410098801471
-10.221391531481805
-10.106768412057928
-10.035102661152308
-0.07086042768362177
-0.24008568233803662
-0.5500002053247717
-1.0144007926351617
-1.635173991111387
-2.4029125847853705
-3.2986565554672285
-4.296387684330761
-5.365849783440153
-6.475298313542874
-7.593877705610454
-8.693447274538455
-9.749795533019833
-10.743276715801095
-11.658963415329602
-12.486436499857039
-13.219335071745036
-13.854774352855847
-14.392716562294133
-14.835355455777881
-15.186553176518046
-15.4513503112621
-15.635556986831148
-15.745424064800154
-15.787388191081519
-15.767881744282903
-15.693197796532857
-15.569400400760625
-15.402271361509852
-15.197285791676505
-14.95960998237531
-14.694116281622113
-14.405410714999796
-14.097869953104835
-13.775684926129227
-13.442908909244496
-13.103508263528159
-12.7614142285326
-12.420574235757464
-12.085001157537576
-11.758818732054086
-11.446301122291313
-11.15190418974332
-10.880285618287314
-10.63631055289054
-10.425038987204294
-10.251690832502065
-10.121584531671715
-10.040045346302142
-0.08477395396072884
-0.2873894315572807
-0.6579975560817382
-1.2114949566851467
-1.947447103486802
-2.8512221138384852
-3.896629144931392
-5.049478364120692
-6.271425702934579
-7.523548670192179
-8.769268317462705
-9.97642725143101
-11.118505797611093
-12.175080533425536
-13.131694930155628
-13.979329052030694
-14.713639308983156
-15.334105759034298
-15.843185788132171
-16.245537119204474
-16.5473439777624
-16.755758945579974
-16.878458942619044
-16.92330549694363
-16.89809543571762
-16.81038695959813
-16.667386638872188
-16.475884386903097
-16.242225380960416
-15.972309872210982
-15.67161366120392
-15.345223615687354
-14.997883938760815
-14.634049956959599
-14.257947008215723
-13.873632594392136
-13.4850603481698
-13.096144572496401
-12.710824160371214
-12.333124605283366
-11.96721657462366
-11.617469144091004
-11.288495287233756
-10.985186599243875
-10.71273354928659
-10.47662687765606
-10.28263520100543
-10.136753616218346
-10.04511826915027
-0.10232422232077099
-0.34707284596363386
-0.7940457583280405
-1.4589373572886308
-2.3375102170055273
-3.4075885051947212
-4.633068215233667
-5.9690188146191225
-7.366925204312546
-8.779302980750325
-10.163215335757865
-11.482524928074909
-12.708956657943116
-13.82219623717319
-14.809308005837277
-15.663746670972898
-16.384190055476658
-16.97335802519508
-17.436922995492974
-17.782568363873985
-18.019215514288845
-18.156416803791515
-18.203898694113498
-18.171233114680202
-18.06761374270591
-17.90171522462837
-17.681616078375797
-17.414769225347744
-17.10800728079196
-16.767572604868384
-16.39916456584027
-16.007998466416396
-15.598872159664102
-15.176237579626154
-14.744275287788707
-14.306970740939748
-13.868191361915542
-13.431763676273281
-13.001549788380514
-12.581522322115578
-12.175836646167586
-11.788898735736709
-11.425426382443499
-11.09050065316211
-10.789603544429134
-10.528636761063293
-10.313915614516329
-10.1521314125617
-10.050275670406556
-0.12470140103392469
-0.42319119249251935
-0.9672323534853695
-1.772662210235382
-2.8291344370171494
-4.103545415559744
-5.546158653551651
-7.097943876332764
-8.69770811130698
-10.28797467345163
-11.819074204064059
-13.25137998750501
-14.555947007794801
-15.713975788582369
-16.715546414981866
-17.55800603777311
-18.244293630770322
-18.781383921007098
-19.178947356695137
-19.4482612612462
-19.60136784941945
-19.65045301755004
-19.607410502542656
-19.48355452714768
-19.289446935242857
-19.034809710167416
-18.72849920434013
-18.37852357933075
-17.99208947735574
-17.575667689758863
-17.13507056907551
-16.6755362299277
-16.201816305451526
-15.718265275176712
-15.228930250490194
-14.737640672100678
-14.24809769991269
-13.763963203131455
-13.288948214945032
-12.826900513664185
-12.381890626210025
-11.958294999538495
-11.560874317720415
-11.194843924796213
-10.865932040326753
-10.580419986339658
-10.345157151612181
-10.16754221122126
-10.055461626845304
-0.15358741566846357
-0.521469988139394
-1.1903209020773997
-2.174837727962399
-3.45495090202464
-4.981655443735235
-6.686421003245557
-8.491779616501429
-10.320968701725892
-12.10525406622531
-13.788417789065187
-15.328593052152666
-16.69803751193303
-17.881568354620832
-18.87431956922958
-19.679323573765856
-20.305241896143237
-20.76441739645381
-21.071310089288353
-21.24130927104911
-21.289877825697843
-21.23197006663987
-21.081663462401803
-20.85195064312363
-20.554647002677363
-20.200378552228432
-19.79862319461814
-19.357785764761132
-18.885292926942114
-18.38769845189542
-17.87079271485122
-17.33971267552957
-16.79905031893653
-16.252958716557806
-15.705255641529668
-15.159525137711611
-14.619217673372125
-14.08774955553799
-13.568602171325567
-13.065421368942623
-12.582116882791873
-12.122961106740103
-11.692685661273693
-11.296572999149085
-10.940538677221294
-10.631197889509831
-10.375907567077828
-10.182773201478513
-10.060608195500615
-0.19140733625245598
-0.6501521318280776
-1.4815671393856364
-2.6968084280583025
-4.260365094745954
-6.099969100696452
-8.121152315582323
-10.222532986851693
-12.30869641929482
-14.298970914849775
-16.131825204730855
-17.76560236660622
-19.1767458278087
-20.35667577422815
-21.30823243958048
-22.042287712294282
-22.574844610188094
-22.92473877288531
-23.111929495296867
-23.156303356192318
-23.076890538391492
-22.89139494756684
-22.615951838942692
-22.265043209674264
-21.85151755283213
-21.38667479185405
-20.880388721359257
-20.341248143829706
-19.776704475099645
-19.193218340301936
-18.596401019455232
-17.991148887738312
-17.38177051511308
-16.77210705923132
-16.165647162289265
-15.565637858222946
-14.97519308814417
-14.397401360192866
-13.8354339055754
-13.292654387060772
-12.772730796263257
-12.279749581798331
-11.818331180770002
-11.393744823512707
-11.012018558460184
-10.680037764739078
-10.40562204969168
-10.197566814669878
-10.065632863289308
-0.2417380548933341
-0.8213677296808446
-1.867615512604587
-3.3836830087934158
-5.309470394442387
-7.538486395019323
-9.940520920498672
-12.383650197716563
-14.751049003773218
-16.9507883484124
-18.919083665995302
-20.61874123007094
-22.034853197194856
-23.169467236086625
-24.03639118637676
-24.656751905677453
-25.055528287750594
-25.259036804964634
-25.293230610012856
-25.182636457012023
-24.949760888868546
-24.614823579403076
-24.19570707325127
-23.70804130423576
-23.16536540692843
-22.579327987624854
-21.959900762030856
-21.31559022757165
-20.653638761923222
-19.9802110413324
-19.300564599217008
-18.619205183357394
-17.940028669984187
-17.266451900536634
-16.601535088295904
-15.94809850646235
-15.308836086490821
-14.686428369454852
-14.083656990917058
-13.50352255513385
-12.949367360498288
-12.425003927287491
-11.934849527024427
-11.484065681569385
-11.07869953160909
-10.725820675700739
-10.43364235290251
-10.211610040963844
-10.070434932949277
-0.30999388272066675
-1.0534155568250099
-2.388241189195471
-4.301640089140326
-6.694106981630297
-9.408557199183864
-12.265839071427107
-15.096103474156633
-17.759818338361992
-20.157185819516638
-22.228197531634017
-23.9469243170362
-25.31338744682075
-26.345351930996284
-27.07130450647533
-27.52506364917009
-27.741983681835936
-27.756491634045602
-27.600636192852463
-27.303352392419605
-26.890202113671023
-26.383411310936594
-25.802077936806185
-25.162466129123846
-24.478332738815226
-23.761253626904022
-23.02093153687996
-22.265476702723333
-21.50165722713242
-20.73511980439182
-19.970583381040804
-19.212009402954475
-18.46275276143745
-17.725697663057137
-17.003382557148324
-16.29811804871506
-15.612101451331965
-14.94753132117737
-14.306724976871008
-13.692241667330975
-13.107013714069055
-12.554487608519729
-12.038776582692837
-11.56482530099886
-11.138585477467212
-10.767197589757373
-10.45916765906768
-10.224519193160713
-10.07489027615515
-0.40461864987664464
-1.3746918899425995
-3.104340725026132
-5.549822708799355
-8.547915140633759
-11.866539937215723
-15.260524317768642
-18.515339135254898
-21.471193495753656
-24.02872225337921
-26.142239302778783
-27.807189745930984
-29.046748876157103
-29.90029725702403
-30.41474034950182
-30.63860671479282
-30.618409610094567
-30.39666184277818
-30.01100436589509
-29.49403254628711
-28.873525330192436
-28.17288123003208
-27.411637767340224
-26.606001229908717
-25.76934664739514
-24.912668733567788
-24.044977137329695
-23.17363657186442
-22.304656246012687
-21.442934832626523
-20.59246783352502
-19.75652417854738
-18.9377985548236
-18.13854549145653
-17.360700726186455
-16.605994900263543
-15.876064178035488
-15.172561966216172
-14.497275512264682
-13.852250807262935
-13.239928948579287
-12.66329698541741
-12.126056267881415
-11.632811207276644
-11.18928040809724
-10.802528952656061
-10.481213337033505
-10.235817807828028
-10.078843566169931
-0.5392468242799477
-1.8307176627293003
-4.111834664747637
-7.280150548178597
-11.068350788333273
-15.133435396605922
-19.143926220081777
-22.838027560313996
-26.046134356544982
-28.685839393093794
-30.742613405436657
-32.247112106622005
-33.25541518538137
-33.83445290176306
-34.05251287286997
-33.973753518706815
-33.655505810941946
-33.14734208946862
-32.491169746476146
-31.721856618576318
-30.868082484059343
-29.953239602130697
-28.996287846321742
-28.01252037478322
-27.014224969900628
-26.011242064410194
-25.01142833987427
-24.02103802208412
-23.045034700305187
-22.087345917818308
-21.151071647443775
-20.238656482045975
-19.35203414687288
-18.492751873245332
-17.662081289832553
-16.86112177682419
-16.0909016553252
-15.352482106634326
-14.647068298276585
-13.976131834034291
-13.34154840850614
-12.745754588256892
-12.191928165185205
-11.684197570814217
-11.227886783940473
-10.829801057704493
-10.498552028738626
-10.244904163082673
-10.08209658386243
-0.736812514742323
-2.497269004833127
-5.566716793946394
-9.731083589606992
-14.551296162591463
-19.522313597268727
-24.2070012527605
-28.305845169932482
-31.66512371953024
-34.248444176347704
-36.09682563602466
-37.29302196239166
-37.93580215227853
-38.1240659354267
-37.94840217769542
-37.48751721249052
-36.80751424952589
-35.96266140375019
-34.99681352296035
-33.945016308737706
-32.8350495182445
-31.68880018291888
-30.52343083985042
-29.352345715623752
-28.18597508588851
-27.032404081628794
-25.897872536117955
-24.787170168093866
-23.703948153241875
-22.65096480485945
-21.630280066939363
-20.643410974697282
-19.691458188377716
-18.775212123584037
-17.89524602434194
-17.05200247853293
-16.245879275877115
-15.477320068659832
-14.746914932040168
-14.055515585540423
-13.404369774298807
-12.795279350327094
-12.230787442780407
-11.714402415770016
-11.25087022824003
-10.846510471885939
-10.509629088068632
-10.251003011218625
-10.084390328796696
-1.0378481065788803
-3.506159100964635
-7.731990308441869
-13.28630991645596
-19.445046889125003
-25.474084526538388
-30.82562359132015
-35.20012535645392
-38.51169348805056
-40.81536160055207
-42.23864060372242
-42.93325646104088
-43.047320163327115
-42.71212545807781
-42.037776580550556
-41.113459153972364
-40.009785933830074
-38.78180247364213
-37.471951044219914
-36.11269303829498
-34.728699735732405
-33.33862123011858
-31.956484407263154
-30.592782324591838
-29.255315094779583
-27.949834710625765
-26.680537234321772
-25.450437254232682
-24.261652190988794
-23.115618069663924
-22.0132536836147
-20.955086488178587
-19.941350894353185
-18.972067713878758
-18.047112190036295
-17.16627720382137
-16.329337751994384
-15.536122527702187
-14.78659826191621
-14.080972275773474
-13.419818390667155
-12.804231120796928
-12.236013639361683
-11.717907902002588
-11.253882527426299
-10.849505816151668
-10.512441239328737
-10.25309322644643
-10.085377205608069
-1.5183199722862675
-5.099036930810515
-11.069086917992482
-18.578432422642354
-26.43140323705012
-33.596876005799665
-39.45961003486282
-43.81538058581563
-46.736145380105484
-48.42917965338863
-49.13915184759513
-49.096684314800356
-48.497617929897764
-47.49890428269323
-46.221983587776684
-44.75871641405858
-43.17752658956696
-41.528812285506426
-39.84936324001083
-38.16581902984635
-36.49731029393074
-34.857445259622466
-33.25578932443254
-31.69895994846832
-30.191433148524215
-28.73613534056399
-27.334876095712243
-25.98866329544297
-24.697931536359505
-23.462706736787
-22.282724114198334
-21.157512532816313
-20.086455280362586
-19.068835336247087
-18.103871930311882
-17.190754503497367
-16.328679938313478
-15.51689899498669
-14.754778105388006
-14.041882824746938
-13.378089072710106
-12.763727688468608
-12.199767254129528
-11.68804165362376
-11.23153723374045
-10.834775866471478
-10.504363923991106
-10.249798777834624
-10.084577048234763
-2.3323544436772448
-7.746666880153856
-16.424799378731837
-26.670306025801658
-36.5368239459129
-44.68635625880443
-50.610425587006254
-54.391154588286604
-56.38929865389882
-57.02357747923537
-56.66970466189248
-55.628863549413566
-54.12851518438441
-52.334515992326565
-50.365116259552764
-48.30328839360873
-46.206490989204404
-44.11400444005146
-42.05228523529364
-40.03881004042831
-38.08480892999624
-36.19719739055018
-34.3799366008666
-32.634988016866984
-30.96298076339534
-29.363675816587723
-27.836286310431024
-26.37969586661988
-24.99260458630613
-23.673623757464078
-22.421334353652817
-21.23432028085731
-20.111184553734237
-19.05055480311443
-18.0510835028758
-17.111447906259983
-16.230354795979764
-15.406555684679887
-14.638878917956742
-13.926285987233722
-13.26795982483742
-12.663432310002941
-12.112756190369891
-11.616724154140424
-11.17714085766122
-10.797178423004995
-10.481911670922885
-10.239224876158872
-10.081306480928689
-3.8202733913493363
-12.441037372008399
-25.41865384587365
-39.366322189379574
-51.23502759846365
-59.664327644839176
-64.68232988049814
-66.97720214900824
-67.32040303903689
-66.35648965329675
-64.56262341972042
-62.271458159067066
-59.70698274964269
-57.016538095683174
-54.29515627618612
-51.60283257271008
-48.976372524704374
-46.43737725996654
-43.99757694485396
-41.66237537093107
-39.43319792760852
-37.30904174298611
-35.28749413324803
-33.36539639422593
-31.539270673599816
-29.80558834108711
-28.16093219952657
-26.602087558920395
-25.126085663459676
-23.730215272935023
-22.4120130830053
-21.169240295684585
-19.999850488406395
-18.901952641616376
-17.873772571250854
-16.913615969385923
-16.019836744309874
-15.190815364467658
-14.424953426969818
-13.720692559376147
-13.076567608613498
-12.491304899569084
-11.963974375910881
-11.494197578793347
-11.082403151078768
-10.730126024778695
-10.440425965926659
-10.218717396346054
-10.074564387800399
-6.863789594625563
-21.428259744466732
-41.30894563548499
-59.61531877153492
-72.40525046481048
-79.26104657335476
-81.68023073600725
-81.22051236350424
-79.05135547853088
-75.94514490227021
-72.38304138887678
-68.65416897611857
-64.9270402604578
-61.29619295565702
-57.81145928251246
-54.49600991530712
-51.35739169638383
-48.39425231387756
-45.60042160734953
-42.967372789529065
-40.48568919652586
-38.14591974973234
-35.93905869673312
-33.85679503594429
-31.891621674228666
-30.036860176500788
-28.28663572140727
-26.635823604016256
-25.07998029957758
-23.615266869682664
-22.23836921511574
-20.946417658779247
-19.736907152242967
-18.607618793847305
-17.556543199131852
-16.581806540791483
-15.681600816214539
-14.854121212264811
-14.097515472667395
-13.409853073650334
-12.789125731874202
-12.233294638781292
-11.74040161754198
-11.308755826144141
-10.937185676859098
-10.625304463788082
-10.373735454507644
-10.184538060917262
-10.062849298847018
-13.92253619765769
-40.516790771977604
-70.45974302428854
-91.85523307292138
-101.46393646661126
-103.2514268094855
-100.72674302977407
-96.12070763862258
-90.67349740041338
-85.0359129251611
-79.53191020848959
-74.31041049872148
-69.42842726033726
-64.89591244015475
-60.699790038828624
-56.816767214459745
-53.22008247786249
-49.882968951663265
-46.78033661361008
-43.88949388817861
-41.19035890048332
-38.66540837667239
-36.299500486628965
-34.079645791269265
-31.994765717353857
-30.03545853625586
-28.193781981016752
-26.463055659324223
-24.83768319912529
-23.312992399234254
-21.885090866143234
-20.550734313763847
-19.307204672886478
-18.152195298352265
-17.083700845444596
-16.09990984663987
-15.199098757586366
-14.37952744455048
-13.639338059233944
-12.976462441042067
-12.388548173712085
-11.872920660090163
-11.42660749211599
-11.046457604871861
-10.729376136191764
-10.472629432521826
-10.274007377050047
-10.131554266260135
-10.043900697358808
-34.84847046454257
-84.06196332427477
-125.79193438878869
-138.92318201926912
-137.1353022769415
-129.26442280632625
-119.59083202281303
-109.89605369893302
-100.85134986549599
-92.6523025306235
-85.3006068730746
-78.7254031342076
-72.83512223131403
-67.5388755070586
-62.75450672474457
-58.41084790349359
-54.44754991205679
-50.813997359614696
-47.467975084708684
-44.37436840889988
-41.50400344408527
-38.83265488867762
-36.34021514868006
-34.010006006911894
-31.82821095110687
-29.783407211691348
-27.866178993389628
-26.06879614168545
-24.384945063461068
-22.809500935033604
-21.338332039732002
-19.96812850324569
-18.696248784753642
-17.52057809105429
-16.439393471939066
-15.451230804587638
-14.554749292878965
-13.748589672395338
-13.031223334327873
-12.400791614263847
-11.854938506864142
-11.390647685877124
-11.004108282555933
-10.690655406122865
-10.444856305691431
-10.260805420375695
-10.132509115187961
-10.053535889096933
-10.014566390449808
-100.67504931207999
-200.9864356872988
-211.68823137498603
-194.45836008724797
-172.36360112527834
-152.02201809786146
-134.68415228345404
-120.175716281293
-108.02023423361513
-97.75189397896331
-88.98499879794484
-81.41624303338914
-74.81085026558158
-68.98742949439942
-63.8052666444335
-59.15448959790194
-54.94867791042664
-51.119360077287304
-47.61191563827166
-44.3825090651066
-41.39577956422335
-38.62308629195485
-36.04116395972411
-33.63108376917775
-31.377443172629796
-29.267728335686574
-27.291807760182145
-25.44152599585462
-23.71037391401083
-22.093217462402567
-20.586070742331607
-19.18590204457361
-17.89046342383848
-16.69813566779498
-15.607781249056554
-14.618598116928172
-13.729967045793495
-12.941284766075714
-12.251774367692443
-11.66026373709816
-11.164922678825404
-10.76295131339403
-10.45021956286101
-10.220876914904652
-10.0669960967343
-9.978398562744816
-9.94289150776638
-9.946769513516452
-9.972380969947618
-452.9797790352186
-376.81945814414223
-294.3601534529607
-235.76485648236408
-194.36581423350773
-164.45114454378182
-142.02117967019666
-124.64431280391888
-110.79162596244484
-99.47680961844739
-90.04071154448117
-82.02927527006767
-75.12108953484
-69.08323468569
-63.74345467043038
-58.97210858667103
-54.67014944777051
-50.76092538866536
-47.18446729504556
-43.89343177681614
-40.85016954074298
-38.02457356835037
-35.3924770287245
-32.93444483121104
-30.634851034776354
-28.48116645219209
-26.4634024902612
-24.573672138767662
-22.80583932944419
-21.15523508898378
-19.618423953533018
-18.193007614240415
-16.87745512489529
-15.670950473912992
-14.573249043988447
-13.58453450369755
-12.705266962028144
-11.936011645100635
-11.277234691728944
-10.729048545380035
-10.290883328984522
-9.961051912583043
-9.736164738170492
-9.610336941153712
-9.574121746872493
-9.613125640815149
-9.706387885239531
-9.824959362321344
-9.930953177587226

SCALARS STRESS_XY float 1
LOOKUP_TABLE default
0.005917378308294067
598.1284581576917
-0.03073467703531241
0.005960666176101885
0.011834429522972785
0.023667548208542034
0.035498035446967766
0.047324551091232486
0.0591457256858004
0.07096015074194015
0.08276636899497
0.09456286473107453
0.1063480541489071
0.11812027577706863
0.1298777809934787
0.14161872466444225
0.15334115594559397
0.16504300925293608
0.1767220955058632
0.18837609365888142
0.20000254261021874
0.21159883360017567
0.2231622031079804
0.23468972641532543
0.2461783119505301
0.2576246965138511
0.2690254415606092
0.2803769306848358
0.29167536851023695
0.30291678115555576
0.314097018516464
0.3252117586310395
0.33625651431946607
0.34722664243759593
0.35811735610318995
0.36892374013148654
0.3796407700939701
0.3902633354547425
0.4007862671422186
0.4112043700568395
0.4215124610176922
0.43170541270378565
0.4417782042021582
0.45172597876293913
0.46154410957129804
0.47122827421830193
0.4807745387945575
0.49017945260775597
0.49944015450387536
0.5085544921248542
0.5175211554432222
0.5263398261620553
0.5350113448997729
0.5435378982749968
0.5519232285052003
0.5601728685401672
0.568294406437273
0.5762977834337697
0.5841956310471998
0.592003653914031
0.5997410664814564
0.607431093630787
0.6151015478443289
0.622785498597831
0.6305220537062788
0.6383572774963671
0.6463452772858177
0.6545494982916384
0.6630442781400702
0.6719167267996113
0.6812690168815054
0.6912211946185748
0.7019146556535469
0.7135164751533084
0.7262248433377144
0.740275941593028
0.7559527105108466
0.7735961231598918
0.7936198055469648
0.8165291728357333
0.842946722595314
0.8736458205138082
0.9095963492100604
0.9520271606984596
1.0025126980766947
1.0630949739179165
1.136458250365414
1.226183932087904
1.3371304278752465
1.4760128932224263
1.6523123261373023
1.8797461985081807
2.1787347308233516
2.5807169612214937
3.136095352602693
3.9298129553223613
5.114466772464709
6.988321185934903
10.215686860029589
16.52738993635051
32.23369349119992
81.97707136343716
359.1930059139916
384.10635712732625
121.12117778921478
55.04042474565962
30.691727607611057
19.71555455061552
13.784611644932559
10.212312747781901
7.893113327059678
6.304442731535838
5.170591653486251
4.3344549707975855
3.7010559752600916
3.210210964301921
2.822284134040723
2.5103134815586463
2.255444811652316
2.0441746375893626
1.8666268754407813
1.7154429349707914
1.585047862896865
1.4711537368410221
1.3704165986056798
1.2801950415202143
1.198377500434715
1.1232568571309458
1.053438207683878
0.9877702638798307
0.9252938805476915
0.865203212715431
0.8068163763422468
0.7495534429914519
0.6929202899245694
0.6364973521202362
0.5799327533749071
0.5229396878436783
0.4652983371247873
0.406863107215714
0.34757664678663286
0.28749310982503334
0.22681470216933736
0.16594815413153008
0.10559223907548192
0.046875460052821255
-0.008422178264353278
-0.05750177798866728
-0.09592333565175268
-0.11659224939312271
-0.10867543818282642
-0.06334428912926027
-0.06332828578128506
-0.10844642192860643
-0.1156423516346728
-0.09355713482752227
-0.05303290126919561
-0.0013297732797029043
0.05684213819487926
0.11834972331034166
0.18104357868299376
0.24341067214097045
0.3043660869182657
0.36312394711009455
0.41911470855537775
0.4719304237488432
0.5212873378739722
0.5669994707018777
0.6089593042302457
0.6471231549718761
0.6814996971707946
0.7121406555799086
0.7391330362983637
0.7625924884966357
0.7826575348035364
0.7994845015921017
0.8132430401398698
0.8241121671826237
0.8322767762536869
0.837924584393847
0.8412434857597522
0.8424192867783901
0.841633798356962
0.8390632602752277
0.8348770720910282
0.8292368040942681
0.8222954612117952
0.8141969726560451
0.8050758804275022
0.7950572003589677
0.7842564306728584
0.7727796843832464
0.760723923496538
0.748177274967891
0.7352194101979498
0.7219219718890388
0.7083490340565772
0.6945575829162016
0.6805980080982914
0.6665145953955333
0.6523460137987709
0.6381257909034519
0.6238827720865956
0.609641559901338
0.5954229311989985
0.5812442300814719
0.5671197357132319
0.5530610045731884
0.5390771869791803
0.5251753183831982
0.5113605860903234
0.4976365722855429
0.4840054744577582
0.47046830445108656
0.4570250673916359
0.4436749218250329
0.4304163223964246
0.4172471463975519
0.40416480548166306
0.39116634377883414
0.37824852365686334
0.365407900214862
0.3526408856018709
0.3399438042084568
0.32731293959244395
0.31474457404978196
0.302235021667602
0.28978065551025545
0.2773779296345978
0.2650233966044877
0.2527137209936918
0.24044568936583993
0.22821621724965724
0.21602235342446138
0.203861281933081
0.19173032217032654
0.17962692718396556
0.16754868062370926
0.1554932924696844
0.1434585936598119
0.13144252991273053
0.1194431548355579
0.10745862241509421
0.09548717903079029
0.08352715507000719
0.07157695620336146
0.059635054452999256
0.04769997901052223
0.035770306910840335
0.023844653611527676
0.011921663437143935
0.011744305737345462
0.023074398985547206
0.03392892063410436
0.04430555611288049
0.054202170222511795
0.06361682349659281
0.07254778495463302
0.08099354146353771
0.08895280386401223
0.09642451005115693
0.10340782524398844
0.10990213962548531
0.11590706354680805
0.1214224205098861
0.12644823812996508
0.1309847372397173
0.1350323193348654
0.13859155254154765
0.14166315625305892
0.14424798462413965
0.14634700905565523
0.14796129981291845
0.1490920069589785
0.14974034070641246
0.1499075513404575
0.14959490885016175
0.14880368240176667
0.14753511980414594
0.14579042708188902
0.1435707483129752
0.1408771458975723
0.13771058138012088
0.13407189698274635
0.12996179804364877
0.12538083649906615
0.12032939559506489
0.11480767601541289
0.10881568359124615
0.10235321880370926
0.09541986825158111
0.08801499828766993
0.08013775102091492
0.07178704285017959
0.06296156574009538
0.05365979140028425
0.04387997854188965
0.03362018337356661
0.02287827346977417
0.011651945143391861
0.023303247760318578
0.04575529271119339
0.06723854294273078
0.0877576128189203
0.10731677298253783
0.12591991565086097
0.14357052692400443
0.16027166584881636
0.17602594995840576
0.19083554697190191
0.20470217231452992
0.21762709210466766
0.22961113122989663
0.2406546861392637
0.25075774196911027
0.259919893610376
0.26814037034048527
0.2754180636382685
0.28175155781612005
0.28713916311057935
0.29157895087306773
0.29506879053757645
0.29760638802087086
0.29918932524720576
0.2998151005125563
0.2994811693663895
0.2981849857306367
0.29592404299237063
0.29269591477560536
0.2884982951324192
0.28332903787812924
0.2771861947762074
0.2700680523291627
0.26197316685437655
0.252900397552771
0.24284893727490553
0.23181834064458806
0.21980854922281934
0.20681991335038097
0.19285321030148833
0.17790965838134054
0.16199092657287179
0.14509913933540775
0.1272368761517654
0.10840716541746158
0.08861347226089979
0.06785967990833154
0.04615006422436989
0.023489261052122245
0.046603920749237776
0.09150555974281582
0.13446977840449803
0.17550583340290676
0.21462228917010032
0.2518269486537856
0.2871267981149017
0.32052796546330603
0.35203569156786674
0.3816543139029054
0.40938726184718766
0.43523706291523245
0.45920535918496075
0.4812929331546165
0.5014997422561398
0.5198249612514894
0.5362670317492286
0.5508237180859484
0.5634921688250458
0.5742689831571444
0.583150281503705
0.5901317796489276
0.5952088657288788
0.5983766794734773
0.5996301930973806
0.598964293225131
0.5963738632950858
0.5918538658924067
0.5853994244501529
0.577005903782586
0.5666689889047958
0.5543847615800221
0.5401497740496022
0.5239611193598009
0.5058164976978661
0.4857142781129406
0.4636535549844625
0.4396341985680806
0.4136568989131009
0.38572320243287717
0.35583554036148857
0.3239972483210098
0.29021257620491514
0.2544866875608369
0.21682564765014384
0.17723639938043353
0.13572672632045163
0.09230520202776926
0.04698112497528818
0.0698994255911337
0.13724574038369697
0.2016863498822853
0.26323520886406254
0.32190522175025543
0.37770813912273116
0.43065447538498236
0.4807534467973024
0.5280129290200672
0.5724394331975595
0.6140380995528676
0.6528127074052283
0.68876570047873
0.721898226366358
0.7522101889696817
0.7797003127454337
0.8043662176244732
0.8262045034468496
0.8452108428016002
0.8613800811915561
0.874706343461366
0.8851831455009062
0.8928035102277505
0.8975600868905864
0.899445272816537
0.8984513367209654
0.8945705427120378
0.8877952741679198
0.8781181566676362
0.8655321791708641
0.8500308126331659
0.8316081252281025
0.8102588933547908
0.7859787075629041
0.7587640725176641
0.7286125000832773
0.6955225945504
0.6594941290151478
0.6205281118570297
0.5786268422181452
0.5337939533543339
0.48603444268172813
0.435354687306271
0.38176244381623453
0.3252668311080459
0.2658782950050508
0.20360855347321083
0.1384705212695091
0.07047821293470706
0.09318713171754592
0.18297070390055348
0.26888080291593497
0.3509361651548296
0.4291541040699923
0.5035503729320956
0.5741390559267116
0.6409324865312813
0.7039411919944228
0.7631738626087278
0.8186373443832905
0.8703366536507177
0.9182750120813358
0.9624539005622408
1.0028731303693963
1.0395309300661868
1.0724240465873056
1.1015478589664518
1.1268965032253253
1.1484630069800446
1.1662394323491716
1.180217025817798
1.1903863737644513
1.1967375623866228
1.1992603408220646
1.197944286315053
1.1927789702898222
1.1837541242306195
1.1708598042923555
1.1540865535734857
1.1334255609834463
1.1088688156127309
1.0804092555097125
1.0480409097282029
1.011759032474395
0.9715602281355504
0.9274425658984298
0.8794056826379327
0.827450872670276
0.7715811629036792
0.7118013718805002
0.6481181511294366
0.5805400072047758
0.5090773027726982
0.4337422350761454
0.35454879011415374
0.2715126709092131
0.18465119828140322
0.09398318264735298
0.1164643528003408
0.22867521463087864
0.33604553631247147
0.43859894680752987
0.5363572601693587
0.6293403051993878
0.7175657907513263
0.8010492053232678
0.8798037494245659
0.9538402990573476
1.023167398527775
1.0877912807219028
1.1477159129253867
1.202943066218357
1.2534724064693794
1.2993016049461261
1.3404264665851673
1.3768410740140988
1.4085379454403233
1.4355082045891256
1.457741760943542
1.4752274985820666
1.4879534720022725
1.4959071073736139
1.499075407711982
1.4974451605419925
1.4910031466518732
1.47973634857527
1.4636321574727718
1.4426785770899229
1.4168644234712344
1.3861795190997084
1.3506148800870135
1.310162895032878
1.2648174940920183
1.2145743067171983
1.1594308065114267
1.099386441522305
1.0344427482195235
0.9646034473393835
0.8898745196825812
0.8102642598872559
0.7257833061408329
0.6364446437399496
0.5422635803837933
0.4432576910978174
0.3394467307069907
0.23085251183607347
0.11749874652890727
0.13972832824992704
0.2743538972070325
0.4031727536044758
0.5262135570475106
0.6435027358593454
0.75506428449443
0.8609196040443264
0.9610873841650802
1.0555835245512184
1.144421093914561
1.227610324277437
1.3051586383014273
1.377070707307154
1.4433485375705186
1.5039915825040755
1.5589968783208505
1.6083592007940912
1.6520712408131064
1.690123796460023
1.7225059794103337
1.7492054335522904
1.7702085638048293
1.7855007731908141
1.795066706283611
1.7988904972618163
1.7969560208628468
1.7892471445744356
1.7757479804500595
1.7564431349774587
1.7313179554476252
1.7003587712490416
1.6635531285309828
1.620890016615882
1.572360084505419
1.5179558457600828
1.4576718699400586
1.3915049587253105
1.3194543047281024
1.241521630898068
1.1577113083213484
1.06803045012163
0.9724889790706729
0.8710996664226518
0.7638781394444542
0.6508428550665539
0.5320150370574449
0.4074185741772036
0.27707987681355
0.1410276897331935
0.16297620475387173
0.3200012019585058
0.4702544148702865
0.613769698474093
0.7505782305817652
0.8807082780577553
1.004185013771061
1.1210303822398417
1.2312630117080565
1.334898170208568
1.4319477629910522
1.5224203685852533
1.6063213107133096
1.6836527631828182
1.7544138849198587
1.81860098230487
1.8762076959983998
1.9272252095290456
1.9716424769837206
2.0094464672248518
2.040622422175962
2.065154126801296
2.083024188519235
2.0942143239147004
2.098705650658468
2.0964789826675787
2.0875151266188414
2.0717951779538275
2.049300814578968
2.020014586484762
1.983920199483855
1.9410027912837924
1.891249198052708
1.834648209568432
1.7711908109728884
1.7008704090588744
1.6236830408986793
1.539627562504986
1.4487058150964467
1.3509227663859802
1.2462866242091761
1.1348089196750246
1.0165045569043631
0.8913918263611817
0.7594923787104307
0.6208311561064008
0.47543627784997633
0.3233388774138759
0.16457288795742495
0.18620501794315603
0.36561137058493764
0.5372821890299712
0.7012567144776363
0.8575710302972299
1.0062577983614103
1.1473460539397062
1.2808610567298224
1.4068241953441323
1.5252529423570087
1.636160856832138
1.7395576311293734
1.8354491787207297
1.9238377596899108
2.0047221405904585
2.0780977853662197
2.143957074087152
2.2022895463365932
2.253082166192285
2.2963196058406465
2.3319845449936567
2.360057983419828
2.3805195640028125
2.3933479038901577
2.3985209314024023
2.396016226467168
2.38581136245359
2.367884247338694
2.3422134621844473
2.3087785949526984
2.2675605676628874
2.218541954877277
2.161707291471483
2.0970433675616613
2.0245395083563054
1.9441878366040695
1.8559835151623432
1.7599249670569665
1.6560140702703585
1.5442563243234502
1.4246609855370074
1.2972411677289006
1.1620139049757194
1.019000172918096
0.8682248650379057
0.709716720294278
0.5435081984841245
0.3696352997760261
0.1881373249917628
0.20941167416908749
0.41117840214152146
0.6042474067212896
0.7886635315610321
0.9644679416530791
1.131697831334953
1.290386198915646
1.4405616850714742
1.5822484718750374
1.7154662390623838
1.8402301739658533
1.9565510314135328
2.0644352398132546
2.1638850495866344
2.2548987201386126
2.337470741586618
2.4115920875371195
2.4772504953106216
2.5344307701291227
2.5831151099298926
2.623283447609525
2.654913807659025
2.6779826743191526
2.6924653685232762
2.6983364310364837
2.6955700093304618
2.684140245853227
2.6640216654193596
2.635189559510185
2.5976203653196657
2.551292037383801
2.49618440959436
2.4322795453447856
2.3595620734850007
2.2780195076320524
2.18764254626093
2.0884253508210473
1.980365798961179
1.8634657097534928
1.7377310376081996
1.603172031374903
1.4598033549313076
1.3076441654013549
1.1467181449833797
0.9770534822609763
0.7986827988025578
0.6116430168362825
0.4159751638281145
0.21172410993210994
0.23259293244962193
0.45669601945909427
0.6711410139591585
0.8759786028393959
1.071255227753509
1.2570127666555906
1.4332882902787734
1.6001138902184753
1.7575165749748476
1.905518230041992
2.0441356379323774
2.17338055387903
2.2932598329000102
2.403775603854496
2.504925486143206
2.596702844781638
2.6790970796490927
2.752093944855056
2.815675894309672
2.8698224497636367
2.9145105877642883
2.949715142149298
2.9754092188951993
2.9915646203287665
2.998152275871818
2.9951426766295737
2.9825063112874526
2.9602141008607576
2.928237829933191
2.8865505720577977
2.835127106984075
2.7739443273777185
2.7029816326139047
2.6222213071219835
2.5316488806384267
2.43125346756845
2.321028082443929
2.2009699282730595
2.071080654343044
1.9313665797929
1.7818388790476365
1.6225137249595105
1.4534123853001941
1.2745612680408918
1.085991910709675
0.8877409090213522
0.6798497799175346
0.4623647541835959
0.23533649391973596
0.2557453866543925
0.5021576361246348
0.7379535267551475
0.963189852972685
1.1779185458890709
1.3821863305612423
1.5760344667848067
1.7594985695611185
1.9326085050355073
2.0953883574013568
2.24785646208039
2.3900255003429773
2.5219026504477915
2.64348979036561
2.7547837471911016
2.855776588426541
2.946455950435637
3.0268053995398203
3.0968048214008537
3.156430834548867
3.2056572241254533
3.244455392148213
3.2727948208124436
3.2906435455688534
3.29796863493849
3.294736674172589
3.2809142500339252
3.2564684341098955
3.2213672621505873
3.175580206975162
3.119078642495551
3.05183629638287
2.973829688832396
2.8850385547521666
2.785446246556186
2.675040114561481
2.5538118617439354
2.4217578693647446
2.2788794897181437
2.1251833019602127
1.9606813266781904
1.7853911945870848
1.5993362644867133
1.4025456853307487
1.1950543970945837
0.9769030649728392
0.7481379413286122
0.5088106498392747
0.25897788635418534
0.27886544797090107
0.5475563241291269
0.8046749869057239
1.0502846248554096
1.2844428876665244
1.5072015217025667
1.7186060979802065
1.9186958281336575
2.1075034635397767
2.2850552724770985
2.4513710899606944
2.6064644347947876
2.7503426883030015
2.8830073291642186
3.00445421887955
3.1146739324776367
3.2136521292304505
3.3013699583612395
3.3778044949187302
3.4429292012706343
3.4967144099191882
3.539127823612212
3.5701350289748697
3.5897000201746616
3.5977857293549924
3.594354560767389
3.579368925750092
3.5527917758360097
3.514587131377838
3.4647206031386437
3.4031599043173135
3.3298753504439165
3.2448403444917897
3.148031844422259
3.039430810208644
2.91902262714539
2.786797501998429
2.642750828260288
2.486883516441805
2.3192022850021035
2.139719907172258
1.9484554085736705
1.7454342102130602
1.5306882111349625
1.3042558047396786
1.0661818225789192
0.8165173993084047
0.5553197524173799
0.2826518704123876
0.30194932774869604
0.5928847823819172
0.8712949192439643
1.1372496284433402
1.3908125219929064
1.632040550619007
1.8609837222348853
2.0776849169777565
2.2821797932822965
2.474496779178035
2.654657142759439
2.8226751356601003
2.9785582033092965
3.1223072557489435
3.2539169928860288
3.373376278200666
3.480668555116434
3.575772300481649
3.6586615098901727
3.729306209854087
3.7876729921454517
3.8337255659874154
3.867425324036915
3.888731918417869
3.89760384337544
3.8939990213388977
3.877875389424911
3.849191483569391
3.8079070176159364
3.753983454767849
3.6873845688131315
3.6080769925268195
3.516030750527362
3.411219773724066
3.2936223923185772
3.163221804006006
3.0200065137560967
2.863970741206093
2.6951147913138085
2.5134453835225004
2.3189759342583085
2.1117267871938403
1.8917253852996883
1.659006378325069
1.4136116590136423
1.1555903211064045
0.8849985319745486
0.6018993126075433
0.3063622177149682
0.3249930207700191
0.6381353062397505
0.9378022906097376
1.2240708920858858
1.4970109414276545
1.7566847834780104
2.0031469899399212
2.2364441775588015
2.4566149254329006
2.6636897848583603
2.857691374900793
3.0386345567737463
3.206526680041982
3.3613678937285636
3.503151515512129
3.631864452396554
3.7474876664681878
3.849996679639846
3.939362111624264
4.0155502457136985
4.07852361731299
4.12824162057437
4.164661128828934
4.187737124860716
4.1974233374267085
4.193672880709453
4.176438893651152
4.14567517631114
4.101336820561212
4.043380832516191
3.9717667441270716
3.886457211326596
3.7874185959997186
3.674621528906943
3.5480414504340585
3.4076591257276347
3.2534611304572203
3.0854403030278945
2.903596158615033
2.7079352599455597
2.4984715392249193
2.2752265651567596
2.0382297484935608
1.7875184790887344
1.5231381870316578
1.2451423200641782
0.9535922292230734
0.6485569544639764
0.33011290197678755
0.3479922891074271
0.6832997583160285
1.0041854709281253
1.3107337169048303
1.603020812573168
1.8811146908596919
2.1450746127323828
2.3949509931689423
2.630785334544921
2.8526102600109353
3.0604496391905056
3.2543187984646953
3.4342248080633224
3.600166838251258
3.7521365770745807
3.8901187023634964
4.014091400974335
4.124026928597779
4.219892203863263
4.301649430876495
4.36925674477146
4.422668875297068
4.4618378238760315
4.486713550027133
4.497244663419785
4.493379118142549
4.4750649061236425
4.442250746847186
4.394886770714871
4.332925193498506
4.256320979367762
4.1650324899489695
4.059022116734264
3.938256893999881
3.8027090890809734
3.6523567665370957
3.487184322329903
3.307182983661802
3.112351269618032
2.902695407206402
2.678229696799337
2.4389768204079867
2.184968085638119
1.9162435976055074
1.6328523505824704
1.3348522306989705
1.0223099206560358
0.6953006971239798
0.3539081113973862
0.3709426466380982
0.7283695407903791
1.0704321967972106
1.3972226347851715
1.7088239312301963
2.005309802486851
2.2867443198532946
2.553181748588341
2.8046665028475957
3.041233208174445
3.262906862973825
3.4697030902998467
3.661628471306444
3.838680951830993
4.000850313771771
4.14811870322498
4.280461207692021
4.397846475074618
4.500237367673058
4.587591644864335
4.659862668647696
4.717000126790827
4.758950768794187
4.785659150384973
4.797068382711415
4.793120882809759
4.7737591222864975
4.738926371418465
4.688567436106094
4.622629385245808
4.5410622661402
4.443819805518143
4.330860093601909
4.202146248460187
4.057647057560557
3.8973375930562253
3.7211997968647488
3.529223031065624
3.3214045885563506
3.0977501582528264
2.8582742384435855
2.6030004912296887
2.3319620302789206
2.045201633444223
1.7427718711792064
1.4247351411221885
1.091163598720082
0.7421389733928572
0.3777522595513959
0.39383934441449764
0.7733355695795359
1.136529538029508
1.483521370515331
1.814401183012679
2.129248668774234
2.428132822670531
2.711111799208547
2.9782328951774386
3.229532647531314
3.465037036920644
3.6847617872141822
3.888712751408469
4.076886374474291
4.249270223958005
4.405843579508602
4.546578072929994
4.671438370845468
4.780382892622175
4.873364556774472
4.9503315496566085
5.0112281108804995
5.055995330464539
5.0845719533128815
5.096895187121964
5.0929015103189155
5.072527477037988
5.035710516456205
4.982389724093643
4.9125066428283475
4.826006031442741
4.722836618471543
4.602951838992197
4.46631055174448
4.312877733619121
4.1426251481144405
3.9555319838345184
3.7515854584760437
3.530781383053097
3.293124680401256
3.0386298511813337
2.7673213798030343
2.479234071875958
2.174413313980974
1.8529152458103475
1.5148068339975223
1.1601658363539278
0.7890806447558931
0.40164999455774053
0.41667735703698416
0.8181882506553504
1.2024638677149735
1.5696128089532202
1.9197325104958707
2.252908830405634
2.569215788695355
2.8687154510679385
3.151457946196802
3.417481606015926
3.6668132183272757
3.8994683809823982
4.115451946990188
4.314758550104271
4.497373200792007
4.6632719429027345
4.81242256186704
4.9447853358576666
5.060313821964245
5.158955670121564
5.240653458239242
5.305345542674374
5.352966918869987
5.383450087675074
5.3967259234322755
5.392724540508672
5.3713761554064785
5.3326119419775155
5.276364877586261
5.202570578237319
5.1111681207669735
5.002100850158335
4.875317169900349
4.730771313020838
4.568424091035796
4.388243617557639
4.19020600271123
3.9742960137755077
3.7405076966882556
3.4888449522210396
3.2193220596867875
2.931964140100281
2.6268075497564136
2.3039001942420283
1.963301751980239
1.6050837955206045
1.2293297980602298
0.8361350120321116
0.4256062060791079
0.4394513701588703
0.8629174588614892
1.268220836304782
1.6554789678534865
2.0247968877734266
2.3762667970940345
2.709967826526066
3.0259659534700103
3.324314061685739
3.6050521318399182
3.86820755100501
4.113795529184638
4.341819611065962
4.552272271481403
4.745135583481152
4.920381948418705
5.077974878053864
5.217869819398
5.340015013751403
5.444352382172745
5.530818430454602
5.599345167485465
5.649861031668912
5.682291820846408
5.696561621878004
5.6925937366822925
5.670311602077354
5.6296397012438275
5.570504464958356
5.492835160978648
5.396564770081606
5.281630847177291
5.1479763658051185
4.995550543984221
4.8243096489513
4.6342177777682485
4.4252476100796585
4.197381128502716
3.9506103012382345
3.6849377204919964
3.400377189247429
3.0969542478426053
2.7747066306664676
2.4336846421642466
2.0739514402601444
1.6955832142551925
1.2986692433299303
0.8833118209525989
0.44962602982561173
0.46215576943372305
0.9075125198010054
1.3337853505106099
1.7411009773471942
2.129572303594383
2.4992980369064797
2.850362483303572
3.1828355059498445
3.49677263588956
3.792215321593198
4.069191304037489
4.327715104087617
4.567788609122268
4.789401746217177
4.992533229692572
5.1771513714459285
5.343214943194945
5.490674080582323
5.619471219978488
5.729542059711311
5.820816538413312
5.89321982412848
5.946673308727215
5.981095603071626
5.996403529195829
5.992513106508564
5.969340529654496
5.926803136223264
5.864820362884738
5.783314688799939
5.682212565296231
5.5614453307389855
5.420950109378913
5.260670692602183
5.080558400527668
4.880572921253391
4.6606831242752005
4.420867843693745
4.161116625807114
3.881430434544764
3.581822306993045
3.262317949995956
2.922956267513186
2.5637898070867076
2.1848851124722257
1.7863229682733905
1.368198521237316
0.9306212618766021
0.4737148491961597
0.48478463107773806
0.9519621951452376
1.399141557708008
1.8264590671753118
2.2340357544970773
2.6219769777683597
2.9903722564952755
3.3392952816543917
3.6688040872056105
3.9789413683869013
4.269734932014598
4.541198264142121
4.7933312006336335
5.026120686690938
5.239541611948494
5.433557708473565
5.608122499882553
5.76318029069516
5.898667186101984
6.014512133357378
6.110637977116316
6.186962522139288
6.243399597821372
6.279860120043653
6.29625314679371
6.292486924851391
6.268469925565811
6.224111868384471
6.159324731255279
6.074023747346387
5.968128387675463
5.841563329217416
5.69425940788222
5.526154555358035
5.33719471828713
5.127334757526397
4.896539324362429
4.644783709522773
4.372054659665063
4.0783511547357385
3.7636851382177356
3.428082190812673
3.071582136580857
2.694239569066199
2.2961242833849314
1.8773215987759821
1.4379325547332822
0.978073962610596
0.4978782934459004
0.5073317143339634
0.9962546719845711
1.4642728366661317
1.9115325626453443
2.3381632491996864
2.744277022800506
3.1299686219796516
3.495315469329448
3.8403779146123616
4.165199632645308
4.469808159533401
4.754215551018872
5.018419147010137
5.262402426905562
5.486135941048619
5.689578304485863
5.872677240212479
6.035370660180084
6.177587773535782
6.2992502127637
6.400273169702383
6.480566534647457
6.540036032959291
6.5785843548086955
6.596112274744623
6.592519758764199
6.567707057423113
6.521575784241204
6.454029979181407
6.364977157372948
6.254329343439116
6.122004091759952
5.9679254928109025
5.79202516529614
5.594243233204989
5.374529286120518
5.132843320101916
4.869156655337778
4.583452825434751
4.275728431740175
3.9459939545353073
3.594274511262124
3.220610550195156
2.8250584661964533
2.4076911234311025
1.9685982681657177
1.5078868131169165
1.0256809732930439
0.5221222319116486
0.5297904561466533
1.0403775568281675
1.5291617955905623
1.9962998907022715
2.4419298259460014
2.8661705814464344
3.269122080717114
3.650865336531832
4.01146277770668
4.35095873860829
4.669380093191616
4.9667370155578014
5.243023849447805
5.498220069751373
5.7322913199451175
5.9451905103801135
6.136858963493687
6.307227593311644
6.456218107961138
6.583744225329407
6.689712893486668
6.774025508896674
6.836579126879231
6.877267660128187
6.895983062311379
6.892616494943983
6.867059476685174
6.819205015035526
6.7489487210373085
6.656189908023321
6.540832675687365
6.402786980742604
6.241969695208254
6.058305652939896
5.851728684344152
5.6221826383146425
5.369622389330859
5.094014826379831
4.795339818851932
4.473591152931791
4.128777430217186
3.760922918371106
3.370068341646057
2.9562715970551547
2.519608379908206
2.0601727003893058
1.5780772709113213
1.073453742104206
0.5464527636496974
0.55215396837375
1.0843178749246818
1.5937902784817064
2.0807385974686574
2.545309584522853
2.9876291184255113
3.4078022263039798
3.8059133166627035
4.182026603285782
4.536186699776184
4.868419364530561
5.178732376219575
5.467116520376862
5.733546668478576
5.977982931879148
6.200371874142381
6.4006477666627415
6.578733873961648
6.734543756588794
6.867982581217543
6.978948429201403
7.067333596488419
7.133025879427203
7.175909842542845
7.195868065771675
7.192782369948229
7.166535020456042
7.117009909901541
7.044093721401849
6.9476770745668
6.827655656543223
6.683931340499074
6.516413293695544
6.325019076814925
6.109675735453322
5.870320883740282
5.606903778764286
5.319386383078923
5.007744410885493
4.671968351609102
4.312064462600062
3.928055720501029
3.51998271855664
3.0879044947894467
2.631899273606938
2.152065100995192
1.6485203511849933
1.121404080462428
0.5708762017583912
0.5744150379161661
1.128062075684188
1.658139381015871
2.164825378841474
2.64827573495252
3.1086232229900492
3.5459778363055223
3.9604271229973707
4.352036721887822
4.720851076954432
5.066894307802226
5.390171214114879
5.690668392689504
5.968355446571956
6.2231862669494715
6.455100369857858
6.6640242713112245
6.849872886160391
7.012550937807619
7.151954367797523
7.2679717362063405
7.360485605654624
7.429373903617996
7.474511259480159
7.495770314388069
7.4930230034503875
7.46614181112376
7.415001001687145
7.33947782755323
7.239453718745262
7.11481545719975
6.965456339583441
6.791277332078178
6.592188220047353
6.36810875469966
6.118969797773787
5.844714463857097
5.545299258417189
5.220695207702074
4.870888974573068
4.495883952104095
4.095701324305705
3.6703810807512274
3.2199829692012667
2.7445873676153196
2.2442960541587773
1.7192328511352013
1.1695441161870173
0.5953990516542752
0.596566130161713
1.171596045009596
1.7221894771607604
2.248536125834396
2.7508006649939745
3.2291227010028365
3.6836169903403824
4.114373893192367
4.521460038150275
4.904919173016639
5.2647731768821036
5.60102320907081
5.913650971315666
6.202620060625851
6.467877391661238
6.709354669021929
6.926969891655456
7.120628873558935
7.290226767040709
7.435649576976307
7.556775656663698
7.653477178072923
7.7256215714049565
7.773072930858518
7.795693385374059
7.793344434824502
7.765888253579005
7.71318896458276
7.635113888070289
7.531534769711466
7.402328993347698
7.247380783554789
7.066582403025996
6.85983534914558
6.627051553291244
6.368154585181067
6.083080863026775
5.771780868509511
5.434220363496113
5.070381603081116
4.680264536990867
4.263887988631329
3.8212907981379685
3.3525329127466947
2.857696404687276
2.3368863936188524
1.7902318475238244
1.217886232925262
0.6200279823746566
0.6185993961920554
1.2149051254559664
1.7859202579695528
2.3318459866030183
2.8528560288704203
3.3490966927121666
3.8206872181466087
4.26772036782698
4.690263238948953
5.0883582687452575
5.462024406010045
5.811258421649924
6.1360363321772775
6.436314911326197
6.712033266569507
6.9631144591299
7.1894671481818495
7.3909872422047265
7.567559542825897
7.719059368997803
7.845354151832559
7.946304992907112
8.021768181279466
8.071596666725238
8.09564148881368
8.093753163390023
8.065783029670882
8.011584562565815
7.931014655951929
7.823934883388817
7.690212743201006
7.529722894946386
7.342348394047577
7.127981930712774
6.886527078306246
6.617899555017023
6.322028500973956
5.9988577709746576
5.648347240703252
5.270474121700708
4.865234277493243
4.432643530212973
3.97273894374325
3.4855800659700207
2.9712501091958763
2.429857044133369
1.861534579288114
1.2664429939945985
0.6447697899527071
0.6405066842759842
1.2579741452566326
1.8493107840945417
2.4147294472019447
2.9544128598205774
3.468513819419059
3.9571556814253723
4.420433107248712
4.858413043945392
5.271135904703147
5.658616919568506
6.020847626518035
6.357797474070569
6.669415508123194
6.955632117510254
7.216360814905131
7.4515000321344065
7.660934911526736
7.844539077672119
8.002176376830821
8.133702574066485
8.238967001020562
8.317814149987248
8.370085212552205
8.395619563453167
8.394256192520844
8.365835089418292
8.310198587504805
8.227192674408041
8.11666827775622
7.978482535053257
7.8125000567793785
7.6185941915448225
7.396648301458771
7.146557054781732
6.868227741486273
6.561581615518313
6.226555265331961
5.863102011735867
5.47119332919393
5.050820283536409
4.6019949756052885
4.124751976667607
3.619149737542385
3.0852719493693037
2.523228829820798
1.9331583044377842
1.3152270486212658
0.6696313518518003
0.6622795561481993
1.3007874573073688
1.912339553706354
2.4971604333808237
3.0554417093659754
3.5873423624441583
4.092989393382593
4.572478751224675
5.025876503563957
5.45322021453933
5.854520496629204
6.229762703145251
6.578908729582448
6.901898893719183
7.198653866487881
7.469076628074898
7.71305442648869
7.930460718812897
8.121157078513304
8.284995055405748
8.42181797815191
8.531462692395671
8.613761230758541
8.668542413861456
8.695633384277446
8.69486107778621
8.666053638423802
8.609041785648333
8.523660143336377
8.40974854133831
8.26715330092156
8.095728515575438
7.895337338384287
7.6658532864237845
7.40716157148785
7.119160464861805
6.801762701820872
6.454896929103757
6.078509195820106
5.672564485038405
5.237048279764822
4.771968153209645
4.277355369114608
3.7532664735441426
3.1997848550322643
2.617022245296054
2.005120127993224
1.364251018271773
0.6946195712135093
0.6839093086709835
1.3433289892962443
1.974984587680054
2.5791124359704796
3.1559128165531813
3.705550478348668
4.228155480529528
4.723824326458216
5.1926213499396
5.634580315726871
6.049706196616465
6.437977090443267
6.799346241783595
7.133744135149645
7.441080628936029
7.721247102210594
7.97411858959456
8.199555882926758
8.397407582008201
8.567512080414788
8.709699476090417
8.82379340011945
8.909612760608628
8.966973401954077
8.995689682863167
8.995575979272218
8.966448120732187
8.908124770864324
8.820428764065442
8.70318841181359
8.556238792581675
8.379423039556436
8.172593640084598
7.9356137599692325
7.668358604475758
7.370716826155095
7.042591987380995
6.683904082829542
6.294591124034434
5.874610784631216
5.4239421010106135
4.942587218838809
4.430573171324122
3.887953670248698
3.3148108857067298
2.711257185215783
2.077436797471456
1.4135273606321814
0.7197413096299945
0.7053870015910568
1.3855823063700554
2.0372235341035174
2.6605586625909208
3.2557963105721486
3.823106454509519
4.3626214915830115
4.874437607499503
5.358616406935397
5.815186764302739
6.24414685300153
6.6454663124476525
7.019088513945546
7.364932888755344
7.682897284528514
7.972860319588827
8.234683708151325
8.468214533510253
8.673287450364429
8.84972680165697
8.997348639557089
9.115962644390013
9.205373939330133
9.265384802462814
9.29579628130637
9.296409718022815
9.267028196277623
9.207457922968889
9.117509559851282
8.996999521382204
8.845751255860897
8.663596527168114
8.450376714113927
8.205944143548319
7.930163472006507
7.622913128758034
7.284086830705583
6.913595176657522
6.51136732510877
6.077352755791117
5.611523110972149
5.113874107773126
4.584427507709882
4.023233124264019
3.430370843583399
2.8059526275252957
2.1501244621405347
1.4630682085610796
0.7450033070845532
0.7267034919924171
1.4275306877106781
2.0990337943180535
2.741472218749621
3.3550624506783335
3.9399790097663456
4.496355758867709
5.024287537109382
5.523832065907553
5.995012080815519
6.437817642704264
6.8522085830957336
7.238117040490064
7.595450047210525
7.924092129551134
8.223907887781952
8.494744526749388
8.736434312330257
8.94879693370099
9.13164175621002
9.284769954480957
9.407976520101961
9.501052142823665
9.563784968441523
9.595962240485745
9.59737183637162
9.567803711711427
9.507051269035225
9.414912669188794
9.291192105114478
9.135701058570826
8.948259560619102
8.728697476395734
8.476855833751543
8.192588213838267
7.8757622196661545
7.526261035980501
7.143985090650204
6.728853824042423
6.280807568611171
5.79980953623839
5.285847905689988
4.738937996958086
4.159124513284476
3.5464838253121096
2.9011262652328362
2.2231983919242158
1.5128851811052009
0.7704120874996241
0.7478494762500338
1.4691572186409427
2.160392672951355
2.8218263216549975
3.453681907638752
4.056137645270636
4.629327818247611
5.173344712908063
5.688240834725235
6.174031355515781
6.630696739603716
7.058185498749384
7.456417027957517
7.825284477401022
8.164657619470635
8.474385674286548
8.754300061829575
9.004217054023103
9.223940305482962
9.413263247156449
9.571971332579357
9.699844131846277
9.79665727354198
9.862184239702133
9.89619802330445
9.898472661738884
9.868784663116099
9.806914345126746
9.71264710840664
9.585774667950176
9.42609626706839
9.23341989870698
9.007563558584367
8.748356553604385
8.455640887369128
8.12927274237149
7.7691240755483415
7.375084340423787
6.947062345022804
6.4849882501236795
5.988815707283919
5.458524130406554
4.894121088459377
4.295644800386844
3.6631667062445814
2.9967940812187184
2.296672651541051
1.5629891634306692
0.795973848204178
0.7688155403629413
1.5104448999991769
2.221277554616199
2.901594550407043
3.551626091333823
4.171553051121391
4.761508894090346
5.321581947650082
5.851817968148049
6.352222941575418
6.822766061453523
7.2633828280416965
7.673978215692092
8.054429858798027
8.404591211113422
8.724294638230685
9.01335440855332
9.271569554005817
9.498726577908135
9.694601993726993
9.858964684650708
9.991578080042023
10.092202150643232
10.160595229829571
10.196515673183985
10.199723373081763
10.169981148779796
10.107056035663515
10.010720499784687
9.880753605588783
9.716942165763015
9.5190819025026
9.286978649087688
9.020449619567298
8.719324772592826
8.383448292977175
8.012680211429117
7.606898179156101
7.165999409633764
6.689902794839671
6.178551197641764
5.631913915874039
5.049989306912138
4.4328075543064855
3.780433550342842
3.0929698602402707
2.3705597251515385
1.6133900523034568
0.8216943315862774
0.7895922194954259
1.5513767766211335
2.2816661101988363
2.980751136608747
3.648867529717253
4.286197575097638
4.89287245658741
5.468974911393457
6.014542188639518
6.529569246053621
7.014012120435363
7.4677914096387
7.890795806951567
8.282885632924213
8.643896314725401
8.973641768877144
9.271917649589424
9.538504431726786
9.773170304490328
9.975673859074686
10.14576656065816
10.283195001985458
10.387702942385355
10.45903314216202
10.496929007852149
10.501136068785463
10.471403309602426
10.407484386865612
10.30913876064302
10.176132773863301
10.00824071336243
9.805245886924146
9.566941750175015
9.293133116001995
8.9836374772211
8.638286470556022
8.256927506617998
7.839425586492153
7.38566532079171
6.895553161628071
6.369019851865165
5.806023089346831
5.206550396487082
4.570622177674625
3.898294938503385
3.1896646318683883
2.4448700864832373
1.6640964635318773
0.847578676992655
0.8101700677500245
1.5919360870311086
2.3415365359934963
3.0592712998497933
3.7453803047655576
4.400045760319628
5.023394859452534
5.615502864661851
6.17639650764804
6.706057629374463
7.2044269886103685
7.67140816946527
8.106871522068971
8.510658075394474
8.88258336704645
9.222441141499356
9.530006875615172
9.805041098085297
10.047292477521056
10.256500662094902
10.432398861722024
10.574716171567946
10.68317964308513
10.757516115639252
10.79745382797331
10.802723834261851
10.773061254170244
10.708206390149659
10.607905748202377
10.471913000425964
10.299989928852458
10.091907390471507
9.847446342818433
9.566398968213917
9.248569932600917
8.893777812040373
8.501856716280642
8.07265813440489
7.606053022445996
7.101934147033338
6.560218692586316
5.980851132340824
5.363806355582777
4.709093034860736
4.016757207741964
3.28688603780175
2.5196117091084713
1.7151153975346791
0.8736312508210422
0.8305397392319278
1.6321064365779763
2.4008678291902155
3.137131632932674
3.841140551723445
4.513074959526511
5.153056066937982
5.761149492672679
6.3373691584147185
6.881681425190644
7.394009390738346
7.874237270171485
8.322214786495541
8.73776150314844
9.120671037503731
9.470715101990688
9.787647327939606
10.07120683626734
10.32112152835408
10.537111079808929
10.718889629008046
10.866168161103873
10.978656596555846
11.056065600918716
11.098108139523287
11.10450080674466
11.074964964720735
11.009227730553768
10.90702285423542
10.768091531789501
10.592183199401385
10.379056354629807
10.128479450218343
9.84023190456234
9.514105270566418
9.149904601498156
8.747450048472732
8.306578719502284
7.827146824530054
7.309032124621336
6.7521366964590595
6.15639001552676
5.5217523528298145
4.848218470715253
4.135821593364708
3.3846376167375136
2.5947895113361477
1.7664518590539589
0.8998554526983734
0.8506920815694301
1.671871996481702
2.4596401036410303
3.2143105423091685
3.936127028641377
4.62526603447302
5.28184048012864
5.9059038518966895
6.497454652657581
7.056441093822682
7.582765938222607
8.076291406896145
8.536844067750048
8.964219630549094
9.358187580592068
9.718495592369251
10.044873674252496
10.337038005655522
10.594694438671095
10.817541646871588
11.005273914397439
11.157583568416943
11.274163067433722
11.354706766501879
11.398912388085495
11.406482233973776
11.377124179297196
11.310552494242728
11.20648854250076
11.064661407843655
10.884808501542281
10.66667620360143
10.41002059010933
10.114608297332627
9.780217570653912
9.406639543047264
8.993679783515061
8.541160150865542
8.048920982303798
7.516823639654597
6.944753428525253
6.332622897417557
5.680375514683998
4.98798971121377
4.2554832659492545
3.482917999653871
2.6704047298799853
1.8181084267861576
0.92625349545024
0.8706182431894107
1.7112177315498958
2.517834950262199
3.290788749754289
4.030321763946524
4.736604149891549
5.409737873566421
6.049761441433958
6.656654974840888
7.230345523926421
7.770712519454767
8.27759326486493
8.750788376722397
9.190067089356887
9.595172348644391
9.965825630287394
10.301731429258101
10.60258137899739
10.868057971139581
11.097837858691307
11.291594737452346
11.449001811746246
11.569733861050207
11.653468933674274
11.699889702147411
11.708684522315323
11.679548244253496
11.612182827999977
11.506297820763972
11.36161075472168
11.177847525800324
10.954742814019147
10.692040605119287
10.389494871342546
10.046870466401613
9.663944285993363
9.240506740628668
8.776363582141729
8.271338118964781
7.72527384817851
7.138037524381774
6.509522676611633
5.839653574831261
5.1283896368300965
4.375730254791982
3.581720008216139
2.746454216329724
1.8700847685975563
0.9528261565306752
0.8903097957120283
1.7501296595581877
2.5754358468602936
3.3665498620017686
4.123710790783524
4.847079672688021
5.536744454643371
6.192725413248095
6.81498092939039
7.403413498713007
7.957875863473079
8.478177155918903
8.964088950208778
9.415351128841426
9.831677480271154
10.2127609564917
10.558278532492404
10.867895623235137
11.141270027820426
11.378055384378989
11.577904132692147
11.740469994286896
11.86540999154407
11.952386037982022
12.001066141253217
12.011125268432052
11.982245929748853
11.91411854215117
11.80644163787611
11.65892198570777
11.47127469383782
11.243223363251557
10.974500359472593
10.664847268401184
10.314015598860134
9.92176779041622
9.487878580158188
9.012136776341293
8.494347480150253
7.934334789365329
7.331945009317276
6.687050387201322
5.999553375567225
5.2693914194737665
4.496542249454663
3.6810296489696244
2.8229296504010715
1.9223770979014319
0.979572498492054
0.9097588730725753
1.7885951456371396
2.632428622739448
3.441581015880416
4.216284977855646
4.95668918826872
5.662864059713565
6.334807936975153
6.972453658010151
7.575675344936157
8.144295295748877
8.678090852934726
9.176801133294749
9.640133513815815
10.067769780989615
10.45937186509207
10.814587096206745
11.133052934647047
11.41440114454245
11.658261395231538
11.864264290378141
12.032043839097051
12.16123939656587
12.251497113378003
12.302470943202598
12.313823267025228
12.285225199285927
12.216356646736056
12.106906194753451
11.956570898289133
11.765056055713226
11.532075043625552
11.257349289291877
10.940608454952486
10.58159090477842
10.180044520850348
9.735727929295768
9.24841219157974
8.717883008945485
8.143943480146596
7.526417443823729
6.865153427122747
6.160029211383706
5.410957013817617
4.617889271033618
3.7808249959298608
2.8998166638232012
1.9749775666974374
1.0064895560486018
0.9289583290102208
1.8266032353940673
2.6888019841442583
3.5158736074430434
4.308040967765061
5.065436647446182
5.788109502629634
6.476031736983295
7.129106346362316
7.747174785041492
8.330024707114475
8.877397643171332
9.388996482064831
9.864492639981446
10.303532813812781
10.705745232356605
11.070745336629306
11.398140838962249
11.687536129104597
11.93853601370093
12.150748792848603
12.323788693630444
12.45727769523731
12.55084679331622
12.604136762444329
12.616798485000174
12.588492922186035
12.518890808659123
12.407672156147267
12.25452565374496
12.059148053412166
11.821243628667895
11.54052379271268
11.216706959355479
10.849518726264154
10.438692455295538
9.983970319004106
9.485104875940262
8.941861230042116
8.354019821213136
7.721379885041924
7.043763609518432
6.321021005371249
5.553035494218282
4.739730205046414
3.881074954379997
2.9770938688692703
2.027873590815846
1.0335719872720757
0.9479019148865708
1.8641450309665357
2.7445481072904765
3.5894241146602175
4.398982235326775
5.173334659209921
5.912504093564592
6.616431821764516
7.284986141909897
7.9179710153896785
8.51513475921992
9.076178623772247
9.600765109071041
10.08852588757939
10.53906921882568
10.951986760624596
11.326859702342764
11.663264167027869
11.960775850560381
12.218973886750817
12.437443946998691
12.615780601309051
12.753588983870525
12.850485820735994
12.906099889371793
12.920071989856336
12.892054515334044
12.821710715151509
12.708713747895152
12.55274562361248
12.353496134945066
12.110661875901107
11.823945444773033
11.493054924336079
11.11770372813844
10.697610896507932
10.232501919831176
9.722110159845993
9.16617893206896
8.56446430398923
7.91673865426165
7.222795027729946
6.482452309559778
5.695561228897105
4.862011188259414
3.9817378990175967
3.0547317857670384
2.081047103047334
1.0608116864974877
0.9665844799861081
1.9012141147346817
2.799663306717724
3.6622350246444277
4.489120280110589
5.280405946776062
6.036083348410198
6.756057428403621
7.440156307557272
8.088141036390471
8.699715352801059
9.27453526536159
9.81221829636425
10.312352236311147
10.774503282188757
11.198223454669241
11.58305721361889
11.928547216111014
12.234239185743345
12.499685885830285
12.724450211365863
12.90810743508986
13.05024666117998
13.150471555819031
13.208400437070132
13.223665817068582
13.195913497619353
13.124801326050017
13.009997721700579
12.851180085044454
12.648033201336569
12.400247749082116
12.10751902075803
11.769545959262098
11.386030608685468
10.956678072326508
10.481197064386148
9.959301134662837
9.390710637673818
8.775155508917624
8.11237890146169
7.402141725421888
6.644228121142959
5.83845188379374
4.984663842423968
4.082760180122302
3.132691663597912
2.1344737300782275
1.0881973566616352
0.9850021966514799
1.9378070260570563
2.8541487877739105
3.7343158779087906
4.578475969477795
5.386684986842281
6.158896911981028
6.8949742080563095
7.594698639036629
8.257782263725197
8.883878388247334
9.472592272579206
10.02349140337673
10.536115166392774
11.0099837762776
11.444606348495334
11.839488026493587
12.194136106125
12.50806512775204
12.780800933651886
13.011883713653514
13.20087008483992
13.34733427127152
13.450868466833775
13.511082478384086
13.527602757437686
13.500070936791197
13.428141993960352
13.311482166394251
13.149766744363944
12.942677866553895
12.689902441011384
12.39113031043211
12.046052776072003
11.654361589072614
11.215748511760067
10.729905544578543
10.196525906893974
9.61530585182496
8.985947386432375
8.30816195901053
7.581675164566313
6.806232507807012
5.981606249716113
5.107603348914406
4.184074492223568
3.2109241898776966
2.1881218894983188
1.11571403891772
1.0031528130945664
1.9739237971884225
2.908011493287612
3.805684444015718
4.667081050852024
5.492219854960339
6.281010721690782
7.033266682210939
7.748716177990762
8.427015453738477
9.067760851621319
9.670500773699873
10.234747099731862
10.759985872755998
11.245687094060152
11.691313501068748
12.096328235008754
12.46020133886919
12.78241505904499
13.062467955139546
13.29987785109761
13.494183686419507
13.644946348381392
13.751748584771049
13.814194111508359
13.831906040891768
13.80452476421662
13.731705427463805
13.613115141105022
13.448430065050928
13.237332507871344
12.979508176017573
12.674643704109917
12.322424591794846
11.922533666389644
11.474650183728162
10.978449672331381
10.433604618287887
9.839786080038662
9.196666313469644
8.503922478219753
7.761241485595042
6.968326036893541
6.124901887787894
5.230726359531486
4.285598100832043
3.2893680848494933
2.2419518036839796
1.143342597617495
1.0210359369778896
2.0095685554554135
2.961265056181745
3.8763680453785923
4.754979855070525
5.5970743036761075
6.402509442540342
7.171041003950951
7.902336257343615
8.595987980737554
9.251528263671435
9.868441875332332
10.446178956151735
10.984166821628673
11.481820702050635
11.938553279667273
12.353782924145868
12.726940566399072
13.057475188899906
13.344857946186426
13.58858496167824
13.788178875472916
13.943189242092524
14.053191897079394
14.117787426887157
14.136598887899002
14.109268927952135
14.035456467869858
13.914833101687476
13.747079372976566
13.531881081428683
13.268925769128879
12.957899530065912
12.598484279806536
12.190355615109096
11.733181385790818
11.226621093439617
10.670326223617515
10.063941610011483
9.407107920337205
8.699465344605034
7.940658556232119
7.130343005262736
6.268192590216224
5.353908740464658
4.387230924202753
3.367948577602485
2.295914428146071
1.1710591591884334
1.038653353443522
2.044750199976861
3.013930871677567
3.9464050486758064
4.842231216142097
5.701330104349143
6.52349920922614
7.308428063812151
8.055713921018068
8.764877509255877
9.435378534314756
10.066630622498804
10.658015430088733
11.208895681112827
11.718626937337085
12.186567949429367
12.612089484620576
12.994581572095898
13.333459151310642
13.628166149171946
13.878178048594204
14.083003042663421
14.24218189512462
14.35528664904955
14.421918341518488
14.441703893221666
14.414292348552129
14.339350644588473
14.216559086960626
14.04560670761095
13.82618667446531
13.557991916634835
13.240711121403654
12.87402525135782
12.457604721875809
11.991107371006168
11.474177345623554
10.906445019684243
10.287528052332714
9.61703368530528
8.894562370395606
8.119712808268787
7.292088469399047
6.411305655856051
5.477003148658539
4.488853469023384
3.4465757625704008
2.3499502928260547
1.1988345038531703
1.0560093818805392
2.079483162550079
3.066039305051024
4.01584654674045
4.928910637191393
5.8050896888509556
6.644110717105466
7.445586986233078
8.209035766568135
8.933896110561813
9.619546270690098
10.265320409172174
10.8705242863894
11.434449659729264
11.956387175090747
12.435637587057062
12.871521198526711
13.263385464345333
13.610610754380021
13.912614318047721
14.168852533474833
14.37882155956765
14.542056537875297
14.65812951331057
14.726646258799097
14.747242199199553
14.719577635093266
14.643332467997567
14.518200626009094
14.343884383639871
14.120088762411989
13.846516190311817
13.52286158902758
13.148808048502826
12.724023239047547
12.24815670228827
11.720838153732448
11.141676921606361
10.510262638843956
9.826167297382923
9.088948766044963
8.29815586477014
7.453335078503377
6.554038983079592
5.599836442454088
4.590324621091652
3.525142836699108
2.403988256011139
1.2266334096508722
1.0731112763888804
2.113788264069899
3.1176310538542835
4.084758257963435
5.015112737775054
5.908479133835321
6.764502710946127
7.58270907012945
8.362524266988755
9.103294880201718
9.804307593712377
10.464807890003804
11.084017497434989
11.66115028933834
12.195426393540155
12.686084335309442
13.132391101650919
13.533650077817885
13.889206865854216
14.198453048142643
14.460828005144293
14.675818935120255
14.842959254228994
14.961825578248092
15.0320335026835
15.053232406860044
15.025099510728667
14.947333411481843
14.81964732167737
14.641762222431595
14.41340013525752
14.13427770514231
13.804100276100977
13.422556629276984
12.989314543108737
12.504017325308617
11.966281457527215
11.375695485588215
10.73182028090164
10.034190791798846
9.282319396775117
8.47570096449019
7.613819717369772
6.69615798622297
5.722206931794105
4.691479294973882
3.603524219864181
2.457944172198738
1.2544139492358979
1.0899696759346789
2.147693680075387
3.1687586871245994
4.153222675274739
5.100954024078464
6.011651537826779
6.884865929118744
7.7200222365710305
8.51644263734309
9.273369122079732
9.989985525726354
10.66543845023596
11.298856671673041
11.889368691232457
12.43611816353836
12.938277012725607
13.395056123833395
13.805713570879997
14.169560411184339
14.485964136078454
14.754349919847895
14.974199850873646
15.145050361290622
15.26648809444044
15.338144463683406
15.35968916272699
15.330822887708386
15.251269526109127
15.12076805850897
14.939064407379167
14.705903453662254
14.421021427835841
14.08413886822737
13.694954326153251
13.253138985455188
12.758332353393005
12.210139170748597
11.608127681287172
10.951829394201457
10.240740467513366
9.474324835178214
8.652019195283275
7.773239970735856
6.83739234642117
5.843881477348449
4.792125950068576
3.681573563736743
2.5117194769083975
1.2821267406370787
1.1065991112380376
2.1812360315037065
3.2194883883504177
4.221341503012773
5.186576031725651
6.114790851118991
7.00542757141916
7.857796057338426
8.671100322578805
9.444464174668516
10.176956020605735
10.867612297685918
11.515459064110896
12.11953136624538
12.67889008913142
13.192636089582095
13.659921502684874
14.079958199164171
14.452023449930552
14.775462923016708
15.049691195616122
15.274190009492576
15.448504531639975
15.572237904368851
15.645044381060856
15.666621347052256
15.636700520985059
15.55503862219487
15.421407775878166
15.235585911373398
14.997347391237222
14.70645409103218
14.362647132784529
13.965639459582246
13.515109425185186
13.010695561100333
12.451992674334695
11.838549421848647
11.169867502332094
10.445402601865094
9.6645672267988
8.826735554167803
7.931250426477975
6.977432612961742
5.964592452586123
4.892043984427019
3.7591216574797715
2.5651996937308184
1.3097141543302495
1.1230185769638985
2.214461620177704
3.2699019346167733
4.289238427821183
5.2721489007130025
6.21811622992624
7.126456371477709
7.996347451559089
8.826859196118098
9.61698196719536
10.365654718206326
11.071791248780327
11.734304227404502
12.352126551500948
12.924229723854092
13.449639035949374
13.927445457636713
14.356814234176472
14.73699028283109
15.06730055918493
15.347153626971256
15.57603671385054
15.753510569661108
15.879202464210037
15.952797670195814
15.974029775238826
15.942670157249882
15.85851694159081
15.721383738640778
15.531088438289133
15.287442315119083
14.990239675907132
14.639248260582114
14.234200589699121
13.774786436223572
13.260646587216128
12.691368051832345
12.06648086570813
11.385456637893931
10.647708984541744
9.852595992870555
8.999424858866778
8.087458841847221
7.115926677620393
6.084034588577406
4.990981022625266
3.8359742425059804
2.6182528715708004
1.3371094804810022
1.1392521795525836
2.247427832615957
3.3200989510600003
4.357062279145377
5.3578754539779645
6.321887000404265
7.248268370412693
8.136047153954589
8.984140574658783
9.791388407918372
10.556584516927245
11.278506289370902
11.955941367221438
12.587711187373325
13.172690984285648
13.709826040475786
14.198144100278025
14.636763981541684
15.024900524966176
15.361866108763802
15.64706902604747
15.880009073495021
16.06027073323532
16.187514347163606
16.26146568611536
16.281904308056575
16.248651082258213
16.161555232946228
16.020481228588885
15.825295813932595
15.575855453013059
15.271994424133908
14.913513783297896
14.500171391607694
14.031673185191288
13.507665853316313
12.9277310815339
12.291381511590096
11.598058567932254
10.847132301341212
10.037903402749354
9.169607543870775
8.241422204831517
7.252476151723164
6.201861727764638
5.088650119477093
3.911909752900768
2.6707279630654743
1.3642360616583171
1.155329873192278
2.2802047407853356
3.3701994881339834
4.424990646800605
5.443995866300001
6.426408335844172
7.371233507416536
8.27732707748824
9.143433173163746
9.968221723324163
10.750324071770219
11.488366000679932
12.180997470576711
12.82691853822773
13.424901077182124
13.973806088344121
14.472596542315383
14.920345835038237
15.316242058971897
15.65958839074077
15.949799971722864
16.18639771060483
16.368999467981556
16.49730909496399
16.571103793388716
16.59022024796407
16.55453995381753
16.46397412969586
16.31844857048469
16.117888755270105
15.862205491048456
15.551281339031474
15.184958041492404
14.76302514305032
14.285209981604545
13.751169210807632
13.160482007853561
12.512645116984888
11.807069879851687
11.043081407886767
10.219920058345595
9.336745383633428
8.39264273185054
7.386632684177856
6.317683520542999
5.18472690780485
3.9866770032075167
2.722453158765496
1.3910063982512244
1.1712882994328355
2.312876935016604
3.4203469798958426
4.493234037901211
5.530793028698177
6.532037771748194
7.4957831663444106
8.420688717106286
9.305302146655691
10.148101886901607
10.947537341075169
11.702065951334777
12.410186280427329
13.070466508763943
13.681567948490379
14.24226337287358
14.751450143195612
15.208158278963074
15.611553755444014
15.960937422389904
16.255740018414365
16.495513807783077
16.679921392687206
16.80872225777596
16.881757588824343
16.89893387821555
16.860205790626917
16.76555871693675
16.614991396481543
16.40849894032889
16.14605654368572
15.82760413565126
15.453032180596384
15.022168818197835
14.534768508840452
13.990502337714098
13.38895012404818
12.729594480913143
12.011816975107061
11.234896544836333
10.398010344173255
9.500237196540033
8.540563853448262
7.517894268313791
6.4310621070205025
5.278846725739717
4.059992850987113
2.7732341956154567
1.417321235861849
1.1871717493723895
2.3455456322904884
3.4707116547343917
4.562040673916479
5.618598736674956
6.639192710236803
7.622418846016378
8.566712770014163
9.470399392435493
10.331741299458727
11.148984322994778
11.920399167649604
12.644318193511012
13.319166693581872
13.94348825061366
14.51596399625413
15.035425814358145
15.500863721371406
15.911427814140847
16.266425296475166
16.565313180041542
16.807687304626597
16.9932683410628
17.12188543197962
17.193458096268433
17.207976978361387
17.1654839684045
17.06605215901226
16.90976604276596
16.69670229533656
16.426911434866298
16.10040060084647
15.717117656482602
15.276936788056908
14.7796457532059
14.224934917048657
13.612388210126822
12.94147614428149
12.211551030892814
11.42184455921689
10.571467909578928
9.659414595731437
8.684566251344432
7.6457015961147405
6.541508835901259
5.370601767241935
4.131539868187307
2.822852663010308
1.4430686464721447
1.2030332718848267
2.3783311133398684
3.5214944866553664
4.631702051786549
5.7078008595470475
6.748359098342546
7.751722157218561
8.716070182929332
9.639475318587028
10.519956910186458
11.355533142971122
12.144267805906244
12.884311160485273
13.573934189903273
14.211555807177344
14.795762889211634
15.325323264235958
15.799192002427962
16.21651153764674
16.57660627957231
16.878972461001077
17.123264007926824
17.309275225750525
17.436921070099864
17.50621572226825
17.517250124395808
17.47016905478784
17.365148245024052
17.202371962717677
16.982011410805825
16.70420422902376
16.369035327639793
15.976519238777579
15.526584137143796
15.019057659631663
14.453654641389596
13.829966883760981
13.147455075863613
12.405443005116357
11.603114211510308
10.739511264325847
9.813537866892482
8.823964023433586
7.769434530573585
6.6484810832007994
5.4595383085881615
4.200964062481965
2.871064334678853
1.4681231177509093
1.2189359571496101
2.411375554995565
3.5729317963135596
4.702559422154502
5.798851684176675
6.860101505793972
7.884366392763841
8.869534879421826
9.813392323393217
10.71368399947076
11.568173675919995
12.374696161793604
13.13120266685825
13.835798190732746
14.486770530492072
15.082610845286549
15.622026025766104
16.103943373747992
16.52750829721178
16.892075865650504
17.19719715352872
17.442601330621883
17.628174445081072
17.75393579711876
17.82001272749008
17.826614554451076
17.774006293720483
17.66248269510038
17.492343032489458
17.263866995373384
16.977291952494006
16.63279179413535
16.230457509307673
15.77027961803872
15.252132556609261
14.675761103879157
14.040768938556695
13.346609428986778
12.592578777110031
11.77781166510796
10.901279585245781
9.961792068872969
8.958001067943655
7.888408780156317
6.751379245240605
5.545154073589282
4.267872697713145
2.9175975602557873
1.4923446678304881
1.2349544319360732
2.4448463405775707
3.6253006377130936
4.775011374579518
5.892277671747834
6.975074879117097
8.021129970584374
9.027998472446644
9.993140276631355
10.913991881527345
11.788032911610035
12.612845162601017
13.386162868387188
14.105913355844127
14.770247713131601
15.377561519813868
15.926506053388417
16.415990683495515
16.84517738599207
17.21346845412399
17.520488558127855
17.76606231628731
17.950188500755797
18.073011922306943
18.13479393161411
18.135882351937003
18.076681529024395
17.957623056809915
17.77913761842725
17.54162827580755
17.245445450643228
16.89086376640059
16.47806086586834
16.007098280990427
15.477904410502937
14.890259654686908
14.243783763622801
13.537925473830777
12.771954536219651
11.944956273926595
11.05582884999886
10.103283470215636
9.08584779392765
8.001872873902029
6.84954399315573
5.626895811085635
4.331832271173359
2.962151756570092
1.515578006190649
1.2511766124612853
2.4789399521879236
3.678925140515128
4.849522766240593
5.988690923447626
7.094038313023213
8.162912116188835
9.192487330546914
10.179854348997988
11.122101827600162
12.01639229825496
12.86002849589004
13.6505089435031
14.385571928277036
15.06322756865812
15.681778183434728
16.239827605897545
16.736280424957165
17.17033237531517
17.541453242984474
17.84936370921629
18.09400753800848
18.27552043511181
18.394196785744725
18.45045532951284
18.44480466818029
18.377809336721477
18.250057009905582
18.06212727243158
17.814562255091488
17.50783933528928
17.14234601859858
16.71835705875094
16.236013835424053
15.695305990732258
15.096055324309493
14.437901961088102
13.720292832885754
12.942472552527697
12.10347680522041
11.202128434110062
10.237036453549333
9.206598282623482
8.109005551226577
6.9422538897776045
5.7041571698111495
4.392366714600701
3.004396045047776
1.537651764601616
1.2677057725316943
2.5138865755425064
3.7341840212442237
4.926635289880883
6.088802723075386
7.2178712602907416
8.310751232979351
9.364182443557484
10.374835601828746
11.33940755918741
12.254707326650706
13.117730531949638
13.92572070475679
14.676216520609662
15.367084833107029
15.996539940661265
16.563150041081173
17.065832209723553
17.50383749175277
17.8767278329264
18.184346600208617
18.4267843820937
18.604341629685415
18.717489524264018
18.766830254885047
18.7530576773906
18.67691911791539
18.539178890071668
18.34058392273112
18.081831749310137
17.76354099170275
17.386224382815886
16.95026430994954
16.45589082491444
15.903162053276771
15.29194694154671
14.62191030455736
13.892500172820649
13.102937488691287
12.2522082581395
11.339058329545153
10.361991040167748
9.319268042720857
8.208913697124219
7.0287234842858215
5.776276967905672
4.448955895408978
3.0439680884835743
1.5583778257337666
1.284663000056051
2.5499555826154707
3.7915195324992315
5.006980052577828
6.19343961631074
7.347592702363998
8.465846511040118
9.544442627994211
10.579574827477018
11.567498715791292
12.5046296440877
13.38762619355779
14.21345747685427
14.979453432710956
15.683338152550029
16.323247019665175
16.897729032140806
17.40573610567391
17.846601412891363
18.22000892478339
18.525956299200693
18.764713137609014
18.93677643273048
19.042824783614986
19.08367268547634
19.060225929683398
18.97343889046021
18.82427424055673
18.613665435599778
18.342482139910164
18.0114986362369
17.621365167107637
17.17258209387512
16.665476727705464
16.100182681071797
15.476621604883052
14.794487211571354
14.053231534829917
13.252053439149314
12.389889464059843
11.465407166572227
10.477001208600937
9.422792522013244
8.300630970702162
7.108102014978135
5.842537966908419
4.501034504631678
3.080473187509452
1.5775507807972744
1.3021901349561538
2.587462102111129
3.851448191177319
5.091292634189418
6.303562603277119
7.4843839304336015
8.629583452125921
9.734831727387098
10.7957802229955
11.808187762520177
12.768032010907962
13.671602910708867
14.515576194600607
15.297066274114904
16.013658865642856
16.663424603183138
17.244915568265533
17.757147129339327
18.199567733692447
18.572019357544765
18.87469122708521
19.108069212186624
19.272883003123972
19.370052843920238
19.400637243904743
19.365782745736134
19.26667651118907
19.104502207204323
18.88039944060967
18.595426802975176
18.250528446514696
17.84650401489243
17.383981694969734
16.863394132015927
16.284956956620256
15.648649701595843
14.954198937042596
14.201063517426977
13.38842191259834
12.515161682019444
11.579871245651717
10.580834203641363
9.516026558158638
8.383117292762753
7.1794728657788776
5.902166272786036
4.547991428049747
3.1134837040993357
1.5949475513301867
1.3204533072818236
2.626774945804118
3.9145737198048836
5.180431219693434
6.420290170546732
7.629615748103337
8.803564146988492
9.937150603015938
11.025409587914694
12.063540868255199
13.04703642879551
13.971784763285036
14.83415059123692
15.631029539766313
16.35987863347038
17.018724492600178
17.606151914066473
18.121275995463037
18.56370117875714
18.933470575109794
19.231008733332416
19.457060683437803
19.612629673500283
19.69891556680006
19.717255413352664
19.66906728292825
19.555798064468334
19.378875610652482
19.139665341165706
18.83943121403424
18.479300827832898
18.060234323152553
17.582996702806973
17.048133179974627
16.455947185059884
15.806480709482264
15.099496732451092
14.334463560511894
13.51054100552398
12.626568431516723
11.681054812086497
10.672171055410328
9.597744971668883
8.455259375992773
7.241853937412927
5.954331499184477
4.589169706869965
3.142538886406256
1.6103272138615
1.3396472283199703
2.6683262349865857
3.9816027567758328
5.275398562460756
6.544926081164471
7.784881111820259
8.989643338918595
10.153474880813032
11.270707862238368
12.335913352500278
13.344045772369537
14.290558851642569
15.171491224549499
15.983521614898205
16.723995159577537
17.390923666375073
17.982963465144852
18.499374996159958
18.939968423592624
19.305039424245642
19.59529895083
19.81180027570708
19.95586604998771
20.029017519120437
20.03290746257503
19.969257902377343
19.839803172093664
19.64623856376561
19.390174477036116
19.073095778672137
18.696325934765397
18.260995393143205
17.76801366034576
17.21804452662354
16.61148393524342
15.948440061603526
15.22871525705866
14.451789616934823
13.616806048014347
12.722556834682695
11.767471832511333
10.749608551268064
9.666644524543049
8.515872498765567
7.294199108912061
5.9981478402747666
4.623867203839525
3.1671451759294005
1.6234310698101544
1.360000432015104
2.7126231712006064
4.053364050565781
5.377368747472966
6.678993089663068
7.952034486596154
9.189971554621064
10.386199626643453
11.53425096385888
12.627990363240132
13.661779234010554
14.630603829348168
15.530165907875233
16.35693644551508
17.10817496392174
17.78191849536305
18.376945138364547
18.89271760007697
19.32931213584727
19.687337972968784
19.9678517417669
20.172270727573057
20.302287984821707
20.359791586379014
20.34678956638375
20.26534148539509
20.1174970196822
19.90524155743857
19.630448470198854
19.29483750882656
18.89993863790243
18.447060556810655
17.937263147114034
17.371333121791103
16.74976222218757
16.072727404433827
15.340072571700745
14.551291536795622
13.705512037286363
12.801480769705583
11.837549558345321
10.811662926010944
9.721347487511169
8.563703740288325
7.33540097911469
6.03267621183609
4.651338099333825
3.186777084003647
1.6339830061069258
1.3817817231876637
2.760262528081896
4.130832063555652
5.487720001825288
6.82427407176821
8.133239528918345
9.407046892718254
10.638092370929886
11.818997044379365
12.94283350064983
14.003311830955296
14.994920363820667
15.913019852989255
16.75389278232725
17.514751804240547
18.19371299303648
18.789740561601082
19.302570019526833
19.732616551471367
20.080874798188212
20.348815365421657
20.538282392692285
20.65139548920473
20.6904583668715
20.657875624612718
20.556078394681478
20.387458963034288
20.154314020129846
19.85879587486169
19.502870756130125
19.08828321498605
18.616525606437886
18.088811656558402
17.506053192279673
16.8688392158476
16.177416633612943
15.431672092272535
14.631114529708665
13.774858208602797
12.861606166677296
11.889634186290001
10.856775557000327
9.760407076793566
8.597436909896638
7.364295090345245
6.056927629371012
4.670795349728852
3.200878729915892
1.641690194730321
1.4053081680313992
2.8119486181309767
4.215156190979793
5.608075167045273
6.982862479479712
8.331027137734964
9.643777446776902
10.91235620102635
12.128346454502378
13.283934127693863
14.372118100309981
15.386863030279368
16.323194460175518
17.177239457016377
17.946218849628863
18.62839898657888
19.223011863958554
19.730152582550545
20.150662558952355
20.486005927273723
20.7381453135214
20.90942180593271
21.002442609099475
21.019978648068125
20.964873335923755
20.83996286023954
20.64800768300975
20.391634472532687
20.073287371873164
19.695187330441104
19.259298155679716
18.76729795542097
18.220554716114655
17.620104879677573
16.966633927903587
16.260458147874065
15.50150692720019
14.689305109526572
13.822955125816364
12.901118804042433
11.921998948504267
10.883320969787983
9.782315037177705
8.61569941652352
7.379665847200541
6.0698680004963315
4.681414246651333
3.208866137201364
1.6462441816291822
1.4309550686705297
2.8685157262316254
4.30769717534776
5.740351935777613
7.157224584813676
8.54836646687116
9.903556822882917
11.212704991522287
12.466211885359192
13.65527408487683
14.772119886865486
15.810172750463526
16.764143163864514
17.6300545394015
18.405212069208805
19.088125469098976
19.67839729720922
20.176588260491684
20.584069878916615
20.90287333863318
21.135541582317163
21.284989863394763
21.35437828230389
21.346998325048524
21.266174187365465
21.115178705070257
20.8971630094478
20.615098556449738
20.271729902368627
19.86953647704305
19.41070160121371
18.897087074616355
18.330211798909225
17.711233073563008
17.040929397920614
16.31968381830614
15.547467068552448
14.723819962100979
13.84783470252707
12.918134986927942
11.932854983843725
10.88961747520852
9.785511660910485
8.617071334817195
7.380254351864675
6.0704245154500365
4.682337220488905
3.2101303877333405
1.6473224168915648
1.4591685079660144
2.9309563247043826
4.410072802889781
5.886825608436052
7.350276704534391
8.788752205499026
10.19035581380271
11.543453251288206
12.837100311837471
14.061394415264902
15.20773775903779
16.269008301301028
17.239642001117595
18.115635399512875
18.89448146133646
19.575053604668078
20.157453227206627
20.642835137184086
21.03322350413598
21.331328646880774
21.54037250316146
21.66392823162447
21.70577725381898
21.669785248141267
21.559797194244126
21.37955052593668
21.132604744980245
20.822285424465033
20.45164033087684
20.023405363083057
19.53997809548372
19.003396880952657
18.415323685565664
17.777029068405305
17.089377970164932
16.352815224151932
15.567349947533168
14.7325382075937
13.847463588051708
12.910715506180026
11.920365355098026
10.873940769660104
9.76839854069387
8.60009693161988
7.364768383157946
6.0574938239762615
4.672680034602204
3.2040417349581922
1.644590278738992
1.4904812485744185
3.0004568267194633
4.5242156577125785
6.050208005625559
7.565481565350979
9.05631235626092
10.508834038523746
11.90962352811317
13.246208474362266
14.5074724477931
15.683944993127678
16.767974556453467
17.75379153452354
18.637475590926044
19.416845664396
20.091292874985154
20.66157620801623
21.12959896796795
21.498181124102672
21.77083934506083
21.951583165927392
22.044732649815867
22.05476027817162
21.9861577095894
21.84332648958734
21.63049072685088
21.351629100397027
21.010423242236477
20.61021946840723
20.154000933784
19.644367501714974
19.0835209004988
18.473253050177377
17.814935761392896
17.10951031845298
16.357475753725762
15.558874897798866
14.71327755059847
13.819760366501196
12.87688328608741
11.882662583406747
10.83454083504588
9.729354359108175
8.56329892013272
7.331894749666668
6.029952189191304
4.651539518039347
3.189954778161277
1.6377036439631907
1.525533044094797
3.0784432458688222
4.652446656293594
6.233747368225874
7.8069692598320986
9.355941937469952
10.86447627539415
12.31707481141738
13.699533638271694
14.999407089288043
16.206322132397432
17.31214386780674
18.31100532325063
19.199222994636493
19.975124099706978
20.638812648741492
21.191899887625322
21.63722128310178
21.978557831695245
22.220374791400005
22.367586486877766
22.425351962384273
22.3989031208079
22.293404629672814
22.113843243806492
21.864943186051352
21.551103716819146
21.17635488498083
20.74432757366176
20.258234241079606
19.720857135598084
19.134541182405027
18.501189160585756
17.822257191690444
17.098748932717807
16.33120720418268
15.51970208942269
14.66381481974707
13.762617018820578
12.814645126790342
11.817870067946687
10.769662472179608
9.666754015229577
8.505195708660926
7.28031424761002
5.98666780958013
4.618002984770099
3.1672147992160458
1.626312056723689
1.5650968030619525
3.1666399828495284
4.797569398253106
6.441355714928852
8.079689974964355
9.69346958803564
11.263759334775456
12.77265587172577
14.204001165649519
15.543911294909815
16.781108689631516
17.907065180619245
18.915978153953567
19.804611709813834
20.572039036178253
21.219321999493427
21.74916040508781
22.165537779973285
22.473384052940773
22.678269074504957
22.786135157842647
22.803072075823895
22.73513433493724
22.58819801983423
22.367852921239596
22.079324839750676
21.72742270692781
21.316505308352912
20.850462785172486
20.332708617805704
19.7661783757803
19.153332095751534
18.496157691895604
17.79617329172636
17.054426820396632
16.271491530159658
15.447456496457212
14.581911388555893
13.673925082676465
12.722017931224926
11.724127744409127
10.677569790070923
9.578991381596026
8.424321906714278
7.208719452450812
5.926515499752016
4.571159486980979
3.1351653623573807
1.6100625466467522
1.6101125884159315
3.2671461649327105
4.962992209638838
6.677772389438983
8.389608011336044
10.0758660651721
11.714356648881935
13.284387891501163
14.767609857880414
16.14860920110381
17.415246377818544
18.558752878254097
19.573624532933636
20.45735762398043
21.21007777340891
21.83410889117267
22.333522766723632
22.713701094596257
22.98093244317345
23.14205806075499
23.20417315260397
23.17438464688231
23.05962249396192
22.866499027295106
22.601209580120752
22.269467104666298
21.8764637049691
21.426852541107415
20.92474431331232
20.37371336067106
19.77680922527658
19.136570287224018
18.455036742604463
17.733760767395367
16.9738121885295
16.17577838031615
15.339757434744534
14.465343934848013
13.551606908484619
12.597059772233234
11.59962230702243
10.5565749518866
9.464505970515404
8.319252343642356
7.115835570510528
5.848393920511684
4.510113050529591
3.093157277443053
1.5886041464762315
1.661732211194181
3.382535685293374
5.152887361530881
6.9487756818510285
8.743949777911535
10.51150622221038
12.225389290767984
13.861680920451688
15.399594806317005
16.822132974973265
18.116404973206983
19.273643661080825
20.28897427060715
21.161004303090852
21.891302470614946
22.48382792641809
22.944359524277512
23.279961568720662
23.498509588989375
23.60828845069204
23.6176662728345
23.534841270485465
23.367654571007403
23.12345984834743
22.809039822996493
22.43055984781611
21.99354957330016
21.50290477492945
20.9629026262634
20.377224880116483
19.748984497267596
19.08075219860591
18.374580200830845
17.632021033964563
16.854139847504936
16.041519012754936
15.194254145575531
14.31194093046096
13.393652346425071
12.437906099313668
11.442622273459971
10.405071445412469
9.321813768117995
8.188629845106995
7.000444574830478
5.751245551224887
4.433998044140529
3.0405590293031355
1.5615931598661408
1.721378303673827
3.515989580351198
5.372400680827805
7.261458840379182
9.151522759131058
11.010499383244879
12.807733799666046
14.515588344755393
16.11060517960755
17.574210541232432
18.8929770359156
20.058504566334953
21.06700708001138
21.918701679548843
22.617092004336666
23.168223815479227
23.579972089177357
23.861399531515733
24.02220894160329
24.072297722863976
24.021412532980097
23.878895352622514
23.653508548533313
23.353325078338
22.985670124157952
22.557101547190026
22.073418160977937
21.539686597772707
20.96027927680906
20.33891755226267
19.67871546379276
18.982220618917495
18.251449615652792
17.487916092238468
16.692650001395435
15.866207084067229
15.008667795732197
14.119625148498214
13.198161103001317
12.242811302078701
11.251518107177063
10.22157210028155
9.149542467797254
8.031197002303443
6.861412851241155
5.634079605876028
4.341996843727554
2.9767687829539837
1.5286992328798399
1.7908234157932492
3.671473037694269
5.627930184629417
7.624593077497911
9.62312834031135
11.585107242691855
13.47439879070605
15.259102183500982
16.912890260294212
18.415729208309408
19.75402052492238
20.920267996070145
21.91240165174191
22.732894895059115
23.387796713756266
23.885775793892837
24.237244491004724
24.453603194102218
24.546622758656156
24.5279656519566
24.408835183406556
24.19973584284409
23.91032518173819
23.54933767622807
23.124562602038015
22.642860354618623
22.110204320129167
21.531737998361027
20.911839403478936
20.25418673552178
19.561820907381403
18.83720175174121
18.082255664471884
17.29841311753757
16.486634948132146
15.647426650446178
14.780840105835031
13.886462324471545
12.963390870551175
12.010195734216962
11.024867524472866
10.004752014893542
8.94647130249597
7.8458321602512475
6.697722589606295
5.495998113144932
4.2333599739455305
2.9012280902042624
1.4896122902627251
1.872297158855598
3.853974767631266
5.927500322294816
8.049109178612046
10.172099432641712
12.25027362054464
14.240983425928341
16.10748871973689
17.82047996353619
19.358750653393287
20.709117862351288
21.865759677429356
22.829166360142537
23.60489460364982
24.20228325903299
24.633246806765115
24.91121978392803
25.05028794711992
25.06451331721027
24.967440935259074
24.771764047398882
24.489119678001657
24.129986181385107
23.703656666406523
23.218265843300742
22.680851930493326
22.097439208726975
21.473130310272502
20.812200252348408
20.11818654957091
19.393971517376777
18.641854183884035
17.863610147369506
17.060538333094136
16.23349399030119
15.382907490774668
14.508788596787442
13.610715902164142
12.687811152561817
11.73869815277635
10.761446000830778
9.753496481672478
8.711575638597294
7.631589847941225
6.508507176831834
5.336225416751233
4.107428947289393
2.813437453054676
1.4440504127255542
1.9686331918374709
4.069834699640868
6.281270249035366
8.548742332526647
10.815004841823079
13.024296561801364
15.126230516748064
17.07865717594634
18.849334178585217
20.41643800409809
21.7681049047489
22.9012720812303
23.820108417857075
24.534293335900237
25.057343648456705
25.405121088994754
25.594591320463113
25.642856261528163
25.566447749404446
25.380850671179047
25.10021479302801
24.737213241033615
24.30300893615229
23.80729594184669
23.258389055218007
22.663341090903373
22.02807266520258
21.35750369144331
20.655679241164588
19.92588500424505
19.170749431827137
18.39233091344869
17.592189157824276
16.77144042992402
15.930796539191814
15.070587549558965
14.190768149696831
13.290907527690289
12.370162475468328
11.427233337652497
10.460302348945003
9.46695390812453
8.444076453670784
7.3877458783445
6.2930908889989325
5.154141413772043
3.963662085767344
2.7129739507958757
1.3917687586530736
2.0834736857840963
4.327198623626696
6.702232436304684
9.140903768529128
11.5725772645938
13.929679968838194
16.1526835331147
18.19354116198579
20.017415643110578
21.602833354267602
22.94060187940565
24.031918252684157
24.886086071139392
25.518185920433933
25.94694085225617
26.192915932208308
26.277105757198353
26.219903316743956
26.040407099041193
25.75600633859608
25.38218092886834
24.932457389513974
24.41847120150568
23.85009596460691
23.23560949950239
22.581875366889307
21.894525017477527
21.178130951547057
20.436365045819507
19.67213884804392
18.887724395029075
18.08485519884473
17.26480765103071
16.42846335968152
15.576352968634893
14.708681893025021
13.825338200847808
12.92588261998813
12.00952038831639
11.075054420091067
10.120819064795791
9.144593620208948
8.14349477584365
7.113847363789696
6.0510332474445185
4.9493189465010206
3.8016637135861977
2.5995112214666936
1.3325696790844892
2.2215581275815537
4.636658233447142
7.207185340733286
9.847870644998926
12.470941807059457
14.994207912625587
17.34744668154484
19.476448851112547
21.34460912137556
22.93239044277213
24.235248677468086
25.26067888232167
26.024975174545453
26.55014704219526
26.86126514661257
26.98435965049964
26.944883309983528
26.766682890234765
26.471389189186198
26.078127799164854
25.603459749431213
25.06147556072826
24.46398276679972
23.820742578816496
23.139724643433645
22.427359342777144
21.68877493508507
20.92801242448709
20.14821483775434
19.35179001195204
18.540547431545207
17.715810392173157
16.87850503480786
16.029227751959727
15.168292233076805
14.295757069649241
13.411434436260354
12.514879938711688
11.60536330003743
10.681819160516559
9.742776921598319
8.78626829839874
7.8097111118035105
6.809767924571318
5.782178506239349
4.721565911406754
3.621217267958651
2.472842219729772
1.2663142477734033
2.389138219597733
5.012166746433966
7.818106558764221
10.698426810853887
13.543247981583296
16.252286783726923
18.74302399243438
20.95529547099701
22.852358416977076
24.419117718381557
25.658507094923678
26.587029376847372
27.230269458255897
27.61891876404277
27.7855833600597
27.76244047582413
27.57967518200205
27.26456200097728
26.84103712614663
26.329616779279657
25.747541000824306
25.109049819901763
24.42572463603817
23.70684922805475
22.959761462105977
22.19017887624225
21.402489660673893
20.60000599632428
19.785180039806463
18.959784686161804
18.125062086136055
17.2818430948724
16.43064063013584
15.57171948736839
14.705144605241408
13.830809168004567
12.948443311409116
12.057603590972374
11.15764278717383
10.247659069135826
9.32642302609247
8.392280626521744
7.443029826832251
6.475768415239841
5.486710884155174
4.470972863343155
3.42232311072999
2.332905372877789
1.192935541583718
2.594585265002828
5.472372096921683
8.564120515366522
11.730148105753926
14.831840211188393
17.746591238796565
20.37816488490561
22.66155767289875
24.56281186085983
26.075115985981
27.212841907356996
28.005006548932666
28.489227781702887
28.706770366281642
28.698881935249492
28.50435354785447
28.15810022362374
27.690512241280263
27.12734093207233
26.489923011032822
25.795595184204952
25.058194908048854
24.2885791673718
23.495120124953317
22.684155453201313
21.860383712741346
21.027202952956465
20.186995193092727
19.34136170140779
18.49131482723067
17.63743211454153
16.779977907599154
15.918996887340812
15.054383097951797
14.185927121355409
13.31334317921521
12.436277108295453
11.554295370881299
10.666854522291835
9.773249851328675
8.872541225761053
7.963453514193071
7.0442483501364865
6.112563546904982
5.165216347724484
4.197967192973587
3.2052421652623515
2.1798150554471074
1.1124541805101114
2.849298262899131
6.042596416873042
9.48436361966255
12.992616149240936
16.391136551363473
19.53001363512244
22.298547474606718
24.629662250402852
26.49714192397721
27.90819697103075
28.894033654724407
29.500553756775595
29.78049064164643
29.78752032518613
29.57234027360069
29.18040910291391
28.650934556902683
28.01671104469808
27.30447842104747
26.53555882734738
25.726606152688774
24.890364415329007
24.03637610793158
23.171611723894113
22.301010714530086
21.42793526263587
20.554544119378114
19.68209627361201
18.811194746798453
17.941980216581175
17.074283024103863
16.207740747668055
15.341887116226346
14.476216687277695
13.610228467138548
12.743450518157935
11.875446570761806
11.005804721691048
10.13410742915964
9.259881178973714
8.382523354570333
7.501202962730356
6.614730936764307
5.721394825948814
4.818751990238058
3.9033753589501785
2.9705469881909954
2.0138977437982706
1.0249969008022992
3.1690941163642536
6.757839420209313
10.632228098921514
14.551976427480152
18.29141002097818
21.66781971211217
24.55694585863803
26.89530758622831
28.672517502099396
29.918143184309386
30.687319311154056
31.047984683713103
31.071127604785403
30.824267588951013
30.367730719421758
29.75301803020779
29.022569924871192
28.210356464762615
27.34288137607817
26.440329694271878
25.517698312627825
24.585824775212203
23.652278480968512
22.72210744311897
21.79844937514638
20.883023088680027
19.97651842692631
19.078902466274585
18.189657889554177
17.30796708286231
16.432853081503097
15.563286211577356
14.698263232619807
13.836864001487982
12.978289130224738
12.12188076740406
11.267127455692219
10.413652969716818
9.561188076808595
8.7095232383283
7.858439313144366
7.007612250500783
6.156486481898317
5.3041102204651285
4.448924314442517
3.5884951766859774
2.719182560659694
1.835735856693414
0.9308193342107669
3.5763936749826386
7.6674463691720485
12.081762224767617
16.49744277183794
20.62364545147924
24.23968546336941
27.212180064570862
29.49186456179641
31.09694145168049
32.09102726643063
32.56202991962477
32.60545925522432
32.31317128246499
31.766982006964017
31.035933274808713
30.175942909459494
29.230807300667614
28.233831282801717
27.209630962911632
26.175855892941385
25.14470988964579
24.124230057039473
23.119327599756705
22.132615176485054
21.16505329044137
20.21644870419137
19.285834848865576
18.371759820976635
17.472502969524474
16.58623682235948
15.711147398413088
14.845522837732162
13.987817704586655
13.136698196406195
12.291071732805236
11.450102922074025
10.613216638075196
9.780087832298026
8.950616703752331
8.12488689494715
7.303103386190564
6.485505579080079
5.672249491795977
4.8632508338367355
4.0579779618330845
3.2551807984356866
2.452540003261414
1.6462222265612787
0.8303347728610235
4.103765717501765
8.842560575570264
13.937504268827766
18.950592783537168
23.505482644309485
27.340786853356068
30.32550956894751
32.44344833321033
33.76082177359812
34.390895136219626
34.464455205120785
34.10952094466476
33.43987522203982
32.55026809619416
31.515880633084596
30.394090324541573
29.227205710357463
28.04537991144408
26.86929647857971
25.712459974282403
24.583057274859993
23.485421498434988
22.4211568612199
21.38998804740226
20.390392895363796
19.420068518571483
18.476271573021435
17.556064722847648
16.656493985620045
15.774715637995959
14.908086599901676
14.054228484936884
13.211072590561823
12.376890808610986
11.550315601275532
10.730350680561646
9.916372754009155
9.108123588910846
8.305690654170963
7.5094736766420676
6.72013351353378
5.9385186142832485
5.165562686114879
4.402144491670959
3.6488965268120688
2.90594371724176
2.1725476353343134
1.4466295058832752
0.724151625657192
4.799877379256822
10.388384120332017
16.34987462158035
22.07854752742861
27.087717437289648
31.08004286719143
33.951996392171544
35.752433290459436
36.62378374069216
36.74814659644575
36.30892384798343
35.46907777526488
34.362239656565464
33.091851336530326
31.7344058649481
30.344211077308415
28.958249257800198
27.600473718481744
26.28532592305734
25.020480265956323
23.808918052525232
22.650458457550606
21.54286847435007
20.482655748111302
19.465627458451067
18.487279362122862
17.54306321198216
16.628568196855866
15.739642418077995
14.872473187336933
14.02363955927533
13.19014653551594
12.369447416616628
11.559458539275669
10.758568892669757
9.965645693495365
9.18003579785141
8.401561768274119
7.630510463648103
6.867611169137793
6.113999502963812
5.371162480208432
4.640858757490871
3.925005360380868
3.225516838152888
2.5440737475967055
1.881785333532084
1.238700769766696
0.6131237009664133
5.739900810841617
12.465034602965668
19.539677535038763
26.112150780028788
31.559338239719438
35.57140300645817
38.122441538145374
39.37813410124207
39.59507165539081
39.044366853767954
37.967721966499155
36.55980875310183
34.966802255424085
33.29262751165492
31.607623761769013
29.95694168421901
28.367606234674888
26.85402178316642
25.4220657817321
24.07203699957867
22.800729059331346
21.60286080455755
20.472045692846216
19.401436957071525
18.384148182713506
17.41352051754864
16.48328672914082
15.587667169496864
14.721421930859265
13.879875886457004
13.058927986821136
12.255052443530852
11.465296779452277
10.687279796104967
9.919191043356767
9.159792187122763
8.408419629713068
7.6649867727932675
6.929983410672669
6.20446894832172
5.490055536843892
4.78887682547321
4.103537529995628
3.437037305191879
2.792657120901357
2.173784141156628
1.5836299085806078
1.0247703522921188
0.4984196795199266
7.0446004113252485
15.32438083942726
23.837555626085503
31.369241410548078
37.14524722286149
40.90967874120076
42.808549444530954
43.202468350799236
42.50650915462936
41.09461808911032
39.26171102900122
37.22089842010328
35.116256660346714
33.039400312398165
31.044577767034063
29.160618111892568
27.399703188672504
25.763517120262065
24.247421575655306
22.843220489880707
21.540949614635167
20.330007082007835
19.199846458039833
18.140383919551937
17.142221784288104
16.196756554963088
15.29621652389875
14.433658476434832
13.60294270759504
12.798698733436122
12.016289571474683
11.251779489516595
10.501908137639386
9.764072611605583
9.036317987145846
8.317336028024961
7.606470977001966
6.903730511025472
6.209799071460289
5.526049958415053
4.854552029904937
4.198066899269129
3.5600333518389196
2.9445365414052445
2.356257231236761
1.8003840763252523
1.2824408192435404
0.8079277668230919
0.3816216545239007
8.91742417859719
19.37774052820744
29.747449324454145
38.278397912044184
44.08144074070837
47.1142972580049
47.86035587804637
46.97902328893407
45.079571704629046
42.63093687518675
39.95549589715326
37.25715564382328
34.65498453220529
32.21157262874529
29.953830297976747
27.887161698374037
26.004691962400365
24.293078403260225
22.736065277267762
21.31659027078703
20.017981041986324
18.82459081326868
17.722095284045203
16.69759059029091
15.739579169859418
14.83789691250832
13.983613954416771
13.168928386641559
12.387064068103001
11.632178804886601
10.899286195639167
10.184192694459746
9.48345042423038
8.794325667501901
8.114782551704076
7.443481072341583
6.77978813994819
6.123799704316382
5.476371167523626
4.83915232502406
4.214622278777104
3.6061198268125456
3.017866812020779
2.4549865920221867
1.9235251236548065
1.4304783751963277
0.9837958201339865
0.5922423882192791
0.2648681746922727
11.721484092114313
25.325989378352826
38.044825402188046
47.38197799150936
52.53084013353211
54.011155757573576
52.90389042155632
50.26739420071132
46.89470404995906
43.29539965740767
39.76347689536702
36.45054536416129
33.42172993437472
30.692834334774165
28.253344409328005
26.080020529958016
24.14462793896392
22.418151135699205
20.872955228153195
19.483777133078693
18.228068602273108
17.085994891173673
16.040263236218657
15.075879130763838
14.179884056947772
13.341102803480698
12.549914014486202
11.798049581855752
11.078424208274551
10.384994339521288
9.712644758160957
9.057100896237486
8.41486503495912
7.783174813604121
7.159982733193322
6.543955506598133
5.934492074506241
5.331758770050324
4.7367393768739845
4.15129666030336
3.5782405690719536
3.021397496371714
2.48567668140396
1.9771374769439827
1.503078092855431
1.0721863364539646
0.6947821553061484
0.38307135839277495
0.15106590023892563
16.1547114650255
34.41709571232091
49.9082518820997
59.24513648957459
62.35637869664308
61.011141328241365
57.19804741192273
52.372368007631984
47.38264921559339
42.656784293905645
38.37489423970901
34.58507954670012
31.270900367682408
28.388058072322245
25.88330324211709
23.703625473892863
21.800312429122478
20.13038903722199
18.65677785510844
17.347882521239974
16.17695305391077
15.121409728534987
14.162207010962753
13.28327012794829
12.471012567793796
11.71393145422665
11.002273083178165
10.327759631671
9.683368385164814
9.063155871230443
8.46212057023163
7.876099172687217
7.301692565004536
6.7362188043447215
6.17769126247815
5.624820843748225
5.077041652171157
4.534559589246266
3.9984229420263477
3.470612868361464
2.9541496863582855
2.453208391463724
1.973235720013621
1.521066825485625
1.1050640039979052
0.7353572388998005
0.4243340534105383
0.1874732632359663
0.044206638737390586
23.67789691941975
48.97264480748065
66.98852910226682
74.04075791607437
72.60155986875407
66.75895416628096
59.5053643706857
52.33964055218758
45.87123811192358
40.26771533201351
35.50464169284893
31.48666535556451
28.101861888757128
25.24404272721919
22.82045350889278
20.75314571716848
18.977841026695856
17.441994800140343
16.102783867726608
14.92529626518043
13.881002517118642
12.946505306156984
12.10253406572443
11.333143783784037
10.625079494408897
9.96727338861793
9.350447508923462
8.766800537102352
8.209761908323449
7.673800368759325
7.15427724108615
6.6473372091825755
6.149831511670257
5.659270155334869
5.1738012075338125
4.692216449784622
4.2139836728726525
3.739306594994651
3.2692136062659047
2.8056759427430626
2.351753944168199
1.9117661934727135
1.491470803971267
1.0982448122798556
0.7412620549889775
0.4317450111366996
0.18356956818707898
0.014729628601087449
-0.05015946257343387
37.759611503296995
73.31056395867643
90.87430537854581
90.23938495766038
80.47800090647452
68.84169606599235
58.12844501185688
49.09416252571983
41.72314588010559
35.77237123856817
30.969309238927067
27.074058851964658
23.89206394774397
21.270625934742824
19.09135371211399
17.262672881211152
15.713560447304687
14.388635918198228
13.24442258642908
12.246533195420197
11.367558382497377
10.585480420346903
9.882477146448226
9.24401563238275
8.658161714222489
8.115051266087091
7.606483598656202
7.125607958801144
6.66668186217519
6.224885707594424
5.7961823876966205
5.377213852941589
4.965229118454978
4.558040256089093
4.154004657756283
3.7520334132667323
3.3516270919937567
2.9529415640123577
2.5568876438944628
2.1652689828699847
1.7809620816830376
1.408139210089665
1.0525272708011064
0.7216814134462186
0.4252371227094297
0.17513045210350012
-0.013987031844385798
-0.12311205810426587
-0.12425165910048336
67.13680318249615
114.75289919163048
119.68682455716257
101.00973561019339
80.7146762444704
64.06056279194111
51.34836266996789
41.79064436858444
34.5706974662489
29.052001835081814
24.773879641373046
21.409281926534735
18.725786658731884
16.556705824451143
14.781002563854212
13.309595081827107
12.076024711245458
11.030053348007986
10.13322427982459
9.355747138908146
8.674284644768235
8.070360607573448
7.52920118214986
7.038882034115448
6.589694210997223
6.173668338222061
5.784214904662182
5.4158508310563676
5.063991146407243
4.724790688014576
4.395025122908401
4.07200382415742
3.7535096135054316
3.437762380172199
3.123405313442235
2.8095141107207904
2.4956311833475433
2.1818286955214177
1.8688063069377256
1.5580316967906538
1.2519339609611597
0.9541606515808787
0.6699056185150117
0.4063002452056295
0.17282301474820982
-0.01838489988592449
-0.1524154189765357
-0.21102188911347272
-0.16729277867457848
139.07664892734687
175.5356795669545
131.97728754596952
93.2699546544568
67.13461267868833
49.92136372164366
38.35127863458362
30.324915888696342
24.58317064519008
20.360442110890467
17.178478811800815
14.729093592927143
12.807746323796351
11.274962229975408
10.03328894173913
9.013130249114981
8.163797622629728
7.447713738990499
6.836570412900338
6.308727979293425
5.847421028579269
5.439498747853247
5.074526477594835
4.744135653243275
4.441547375646333
4.161219265299826
3.8985811986302474
3.6498361257322562
3.411809346041328
3.1818345722279044
2.9576686108313686
2.7374290336417695
2.5195511470828533
2.3027621301726127
2.0860715915795316
1.8687791540976135
1.6505011707196722
1.4312204906960337
1.2113655448428788
0.9919281663813664
0.7746337570141425
0.562182656445688
0.35858683457977525
0.16962662141658644
0.0034320854658813
-0.12889483468103802
-0.21296494508278171
-0.2318539848723575
-0.16561176681779546
287.52196988084387
165.65592360692966
92.15071151731749
56.77145333139681
37.93769479711221
27.05007402403748
20.250732410482605
15.747655044146773
12.623899237830333
10.375514307637436
8.70758970458068
7.438621211594747
6.452106498820606
5.6705815831092306
5.040966173989524
4.5259308634826185
4.098620606373739
3.739324753669359
3.4333157246230117
3.1694109567840396
2.938994738943929
2.7353395924298893
2.553127055039104
2.3881038543404296
2.2368316951005345
2.0965028871836235
1.9648030437934871
1.8398079863554608
1.719905944270295
1.6037388377981772
1.4901583228677526
1.378193643956557
1.267029377940213
1.1559919956421425
1.0445449274065532
0.9322925943831019
0.8189947684917955
0.7045937940009172
0.5892588500866172
0.47345387805669004
0.35803954833508034
0.24442549192006494
0.13479807149704431
0.032462112141249236
-0.05765040195942518
-0.12825908832964183
-0.1689048917418301
-0.16597607507124743
-0.10753760034445098

SCALARS STRAIN_EQV float 1
LOOKUP_TABLE default
0.0003024992393917414
0.013447922446689636
5.710043323784903e-05
0.0004480241579364753
0.00030243244593165396
0.0003022320731884105
0.0003018981441280972
0.0003014306972110055
0.00030082978666673925
0.0003000954828791981
0.0002992278728812833
0.000298227060958837
0.00029709316936361694
0.00029582633913460214
0.00029442673102663655
0.00029289452654558115
0.0002912299290883032
0.0002894331651857329
0.0002875044858466738
0.0002854441679995603
0.0002832525160284527
0.00028092986339875404
0.00027847657436804113
0.0002758930457753742
0.00027317970890179926
0.00027033703139382607
0.0002673655192398871
0.0002642657187883749
0.00026103821879422677
0.00025768365247956683
0.0002542026995914992
0.00025059608843857174
0.00024686459788507886
0.00024300905928014132
0.00023903035829651436
0.00023492943665128337
0.0002307072936788572
0.00022636498772413773
0.00022190363732197294
0.00021732442212753412
0.0002126285835609414
0.00020781742512960698
0.00020289231239259978
0.00019785467253388592
0.00019270599351676885
0.00018744782280044576
0.00018208176561270941
0.0001766094827936508
0.00017103268825566323
0.00016535314614969865
0.00015957266789416415
0.00015369310931954725
0.00014771636832534965
0.0001416443836597688
0.00013547913575371248
0.00012922265103068516
0.00012287701187212852
0.00011644437561172063
0.00010992700785109057
0.00010332733854526541
9.664805463349318e-05
8.989225225744285e-05
8.306368827885156e-05
7.616720198126272e-05
6.92094387759837e-05
6.220013307036421e-05
5.51544808193576e-05
4.8097769754178906e-05
4.1075036707323307e-05
3.417285896126462e-05
2.757269726497823e-05
2.1686171502106132e-05
1.742669044049597e-05
1.6195572261171033e-05
1.8674885081626138e-05
2.4017439994637567e-05
3.096797952778156e-05
3.880766441960226e-05
4.723207856206924e-05
5.612295538311416e-05
6.544536163550474e-05
7.520801997845249e-05
8.54482030031348e-05
9.62268240687175e-05
0.00010762857941757758
0.00011976539535793304
0.00013278287827189593
0.00014687030354297966
0.00016227544940114778
0.00017932661200574575
0.000198465801950389
0.00022030008309643722
0.000245683485528496
0.00027585325741948596
0.00031266549232382293
0.00035903812002713515
0.0004197832636227935
0.0005036884110792395
0.0006271854104699744
0.0008342796061940117
0.0012261298158835322
0.0024073040091530033
0.00838866673560905
0.00912521181988614
0.003674975882418715
0.0021539522930166294
0.001547983718727867
0.0012078666215419357
0.0009931816401858272
0.0008430787057615876
0.0007319703202995544
0.0006459752234440067
0.0005771586986849741
0.0005205921545804804
0.00047306379894369665
0.0004323900427519379
0.0003970369059458659
0.0003658970376156652
0.0003381529110056229
0.0003131895340798798
0.00029053695707780447
0.0002698313386504009
0.00025078793840886964
0.00023318198233123475
0.00021683485029624542
0.00020160393802937175
0.0001873751040954332
0.00017405696657312895
0.00016157654365739677
0.00014987588448992628
0.0001389094391717396
0.00012864198747676808
0.00011904699509666529
0.00011010530112696913
0.00010180406513486185
9.413591877369054e-05
8.709827609791197e-05
8.06927573696596e-05
7.492467039696074e-05
6.98024671407104e-05
6.533704762625702e-05
6.15407183190211e-05
5.8425537956239665e-05
5.600072338158608e-05
5.426876925100387e-05
5.321996291876757e-05
5.2824991015492265e-05
5.3025224856951955e-05
5.3720027158836236e-05
5.47505796264564e-05
5.588245421168786e-05
5.6769799086365916e-05
5.7417606849166454e-05
5.824425941420315e-05
5.924296723224645e-05
6.009565158921528e-05
6.0629822204337036e-05
6.073605230981647e-05
6.034762693391821e-05
5.943070981332088e-05
5.797877045063713e-05
5.6009677023880146e-05
5.3565170638597876e-05
5.071299977674234e-05
4.755243543339397e-05
4.422420083131356e-05
4.0925447983733224e-05
3.792742673576763e-05
3.558430655637755e-05
3.430595928238009e-05
3.446650983597878e-05
3.627388246475079e-05
3.969874573500405e-05
4.452656776569469e-05
5.04739583017129e-05
5.727639162247448e-05
6.472094954921109e-05
7.264588546836132e-05
8.092966042406056e-05
8.947984224878317e-05
9.822461685948213e-05
0.00010710687579716451
0.00011608022075956808
0.00012510626894647077
0.00013415281288490616
0.00014319253758044473
0.00015220210309973382
0.00016116146963725348
0.00017005338608011136
0.000178862990925618
0.00018757749208831202
0.00019618590344398199
0.00020467882326053374
0.00021304824442627395
0.00022128738951909338
0.00022939056584016514
0.00023735303692808327
0.0002451709080088305
0.00025284102347536923
0.00026036087492762434
0.00026772851860610745
0.00027494250126381786
0.0002820017936706336
0.00028890573105323027
0.00029565395985421054
0.00030224639025601613
0.0003086831539643596
0.0003149645667867104
0.00032109109557667073
0.00032706332914590145
0.00033288195277386625
0.00033854772597221244
0.00034406146318491306
0.00034942401712935586
0.00035463626450616325
0.0003596990938262637
0.0003646133951244043
0.0003693800513477661
0.00037399993122625433
0.0003784738834482431
0.00038280273198189774
0.0003869872723970409
0.0003910282690566463
0.00039492645306022387
0.00039868252083315447
0.00040229713326732407
0.0004057709153284837
0.00040910445605501025
0.0004122983088815206
0.00041535299222822435
0.0004182689903039705
0.00042104675407729497
0.00042368670237539086
0.0004261892230761126
0.0004285546743626708
0.0004307833860145409
0.00043287566071203857
0.0004348317753350593
0.0004366519822390695
0.000438336510494347
0.0004398855670763298
0.00044129933799703556
0.00044257798936884465
0.00044372166839365564
0.00044473050427162116
0.00044560460902441927
0.0004463440782293812
0.00044694899166109056
0.0004474194138380169
0.00044775539447225086
0.00044795696882065256
0.0004389211307222313
0.00042089790475899737
0.00040323256538094367
0.0003859095559182587
0.00036891329090992507
0.0003522281627265805
0.00033583854877037076
0.0003197288192730971
0.00030388334576397807
0.0002882865103470676
0.0002729227160282536
0.0002577763984760823
0.00024283203981733292
0.0002280741854016675
0.00021348746499488775
0.000199056620714413
0.00018476654545008218
0.00017060233799111123
0.00015654938553997245
0.0001425934926751899
0.0001287210923868545
0.0001149196095112602
0.0001011781248977952
8.748867970622223e-05
7.384908039090085e-05
6.026969943101652e-05
4.6792961475109377e-05
3.356500259252318e-05
2.1225514217219634e-05
1.3414915261580695e-05
1.5915607789734143e-05
2.6820127693105165e-05
4.0083627090074945e-05
5.398662429138611e-05
6.82147972606877e-05
8.268495207851566e-05
9.737294858587486e-05
0.00011227521893578934
0.00012739690850204022
0.00014274738524637834
0.00015833828008470337
0.00017418253863754672
0.00019029392509867753
0.00020668674649842151
0.00022337569205299466
0.00024037573604225034
0.00025770207736993496
0.0002753701010793991
0.000293395353371389
0.0002933304035362333
0.00027530931478702056
0.0002576464468912378
0.00024032634388418265
0.00022333373656246186
0.00020665357695815205
0.00019027109079650784
0.00017417185905220652
0.00015834194796059584
0.00014276812272606988
0.0001274382124746965
0.00011234176400915873
9.747128575646132e-05
8.282480473536533e-05
6.841168145657752e-05
5.426777320284778e-05
4.050343954829741e-05
2.7505725990084864e-05
1.7099483703603877e-05
1.4777695482916884e-05
2.2213798813574653e-05
3.4206754403586005e-05
4.725868314644101e-05
6.063285789236732e-05
7.414426004252657e-05
8.773454090641994e-05
0.00010138581866708802
0.0001150963252509913
0.00012887174681406617
0.00014272161363692941
0.00015665761002682917
0.00017069270979299
0.0001848407017642011
0.00019911591381462985
0.0002135330441787185
0.00022810705368923255
0.00024285309406027168
0.0002577864582432721
0.0002729225447004154
0.00028827683067635584
0.0003038648514187413
0.0003197021834153714
0.00033580443040313917
0.0003521872113395656
0.0003688661498100868
0.00038585686453242857
0.0004031749607481724
0.0004208360223800385
0.00043885560489739144
0.00029313556247695805
0.0002751269670228213
0.0002574795713850654
0.00024017819031973734
0.00022320790188940388
0.00020655411019491457
0.00019020263935579166
0.00017413987766951453
0.00015835300483657398
0.00014283036188759057
0.00012756207744981445
0.00011254117988128634
9.776569236822231e-05
8.324288313393626e-05
6.899874339796914e-05
5.51019057227111e-05
4.173476647257023e-05
2.945311578861584e-05
2.0219507144822066e-05
1.8322091764008164e-05
2.4923865683071975e-05
3.605823762843066e-05
4.862773939914477e-05
6.170906924904304e-05
7.502265979231161e-05
8.846795485697817e-05
0.00010200633790867832
0.00011562485081144144
0.00012932266984778384
0.00014310531011170878
0.00015698186393672256
0.0001709635712778641
0.00018506302856927212
0.00019929372605726012
0.0002136697642000393
0.0002282056725023531
0.0002429162893737844
0.0002578166796175729
0.00027292207582482655
0.0002882478353540665
0.00030380940771038205
0.0003196223090157263
0.0003357021014186365
0.00035206437602430286
0.0003687247384005917
0.00038569879603081133
0.0004030021472974977
0.00042065037172864174
0.00043865902134173317
0.00029281085558805853
0.00027482309118834333
0.00025720149872008127
0.0002399313441793398
0.00022299828355047514
0.0002063884719047564
0.00019008872525968758
0.00017408676659500395
0.00015837161028773366
0.0001429341826650463
0.0001277683630486595
0.00011287281281352281
9.825437387202646e-05
8.393483049765272e-05
6.996554835380782e-05
5.646264207810234e-05
4.3702451433872234e-05
3.240959930493003e-05
2.450695313654827e-05
2.3091281731397976e-05
2.883965887890662e-05
3.8936230500482573e-05
5.082391132364381e-05
6.346091247594199e-05
7.646371739738411e-05
8.96767659621188e-05
0.00010303215573284925
0.00011650039706870126
0.00013007077795677426
0.00014374260129205378
0.00015752089763904387
0.00017141416495243837
0.00018543310134536785
0.00019958985701485493
0.00021389757270675295
0.00022837008374372705
0.00024302172352825123
0.00025786718886016026
0.00027292144481016773
0.00028819965556947153
0.0003037171327597028
0.00031948929573527265
0.0003355316402955006
0.0003518597134206417
0.0003684890924229676
0.0003854353674190227
0.0004027141263777919
0.00042034094223979417
0.0004383313617697795
0.0002923563253801625
0.00027439774316204043
0.0002568123089407535
0.00023958592051811925
0.0002227050411442885
0.0002061568719927697
0.00018992960626590516
0.00017401281262231268
0.0001583980297066197
0.000143079717506866
0.00012805683679255767
0.00011333558738341584
9.893440490775222e-05
8.489364790598485e-05
7.129575532136286e-05
5.8310632649396875e-05
4.6305474996132065e-05
3.610983467712503e-05
2.9445471501052696e-05
2.8473091465206133e-05
3.352573916485014e-05
4.262393017380949e-05
5.374221770416339e-05
6.58329838119001e-05
7.843578191830493e-05
9.134182423640107e-05
0.00010445123554130337
0.00011771522679224427
0.00013111105288638033
0.0001446302460707377
0.0001582726580436184
0.00017204324239637002
0.00018595021881092212
0.00020000397511342157
0.00021421638323501413
0.00022860035742048598
0.00024316955952706303
0.00025793819654803206
0.0002729208776191947
0.000288132510369631
0.0003035882238968964
0.0003193033101440825
0.0003352931782553046
0.00035157331827075414
0.000368159271685262
0.00038506660716710646
0.0004023109002577924
0.000419907716234085
0.00043787259556568955
0.0002917720317596916
0.0002738510016134843
0.00025631211466364687
0.00023914208112464804
0.00022232839896021525
0.00020585960519236654
0.00018972564383485535
0.00017391841715729749
0.00015843263345474424
0.0001432671502222688
0.0001284271762859048
0.00011392802698415742
9.980182222034835e-05
8.611005272924388e-05
7.29684622883354e-05
6.0598786389108635e-05
4.943798047463138e-05
4.034272086826261e-05
3.476162875300344e-05
3.417559178931657e-05
3.870235679980256e-05
4.692591789527639e-05
5.726942752010434e-05
6.87596770444608e-05
8.089933928348031e-05
9.343843268004747e-05
0.0001062477192629521
0.00011925899448661687
0.00013243671278626295
0.00014576382942179698
0.0001592343315270844
0.00017284908480981475
0.00018661341211030218
0.00020053562128092021
0.00021462607637595898
0.00022889659189062066
0.00024336002567954446
0.0002580299977804272
0.0002729206911858889
0.0002880467072532509
0.00030342295835321734
0.00031906458642364286
0.0003349868998999017
0.0003512053239350498
0.0003677353604225718
0.00038459255540264836
0.0004017924721587564
0.0004193506688122508
0.0004372826795738336
0.0002910580524204697
0.0002731829684442767
0.00025570106163482387
0.00023860003523746705
0.0002218686468356707
0.00020549705193551978
0.00018947730372801443
0.0001738040961069425
0.00015847589567587566
0.00014349671438482756
0.00012887897218419965
0.00011464828116179018
0.00010085174470000644
8.757291836733523e-05
7.495971504635299e-05
6.32772133369294e-05
5.300279444331737e-05
4.495726241367867e-05
4.030926502541998e-05
4.006013009621724e-05
4.419984735063053e-05
5.1687474624714044e-05
6.12986713830214e-05
7.217238905748714e-05
8.381043456187173e-05
9.59380118887937e-05
0.00010840276120573515
0.00012111917312314232
0.00013403943268412027
0.00014713787583940934
0.00016040240113584806
0.00017382953070736897
0.00018742145730582714
0.0002011842139386
0.00021512650137379404
0.0002292589141928379
0.000243593415690365
0.000258142972455356
0.00027292129398888426
0.00028794264299480574
0.000303221694226026
0.00031877342735077955
0.0003346130441067335
0.00035075590311874674
0.00036721746780651166
0.00038401326418537355
0.00040115884630346707
0.0004186697677099426
0.00043656155780716404
0.00029021448334733986
0.0002723937693566362
0.00025497932945109776
0.00023796004047394842
0.00022132614126707054
0.00020506967947740246
0.0001891851567753972
0.0001736704797281789
0.00015852839277251336
0.00014376869131126099
0.00012941173186443522
0.00011549415856908756
0.00010207851217154364
8.926974943145758e-05
7.724395781387291e-05
6.629701592034256e-05
5.6917135042113855e-05
4.984871518414975e-05
4.600622496113922e-05
4.6055931857715976e-05
4.9914232335865875e-05
5.679311879584155e-05
6.573677116379606e-05
7.600487843366108e-05
8.7123727118643e-05
9.880975224023327e-05
0.0001108954140965767
0.00012328152933413055
0.00013590959842619177
0.00014874598332876692
0.0001617727154685445
0.00017498200977051508
0.00018837289082537567
0.0002019490552230703
0.00021571747812037232
0.00022968748044447144
0.00024387008875278223
0.0002582775856036882
0.0002729231867702726
0.00028782080469155313
0.0003029848717138874
0.00031843020556306497
0.0003341719051847278
0.0003502252688135251
0.00036660572860852024
0.0003833287978677643
0.0004004100279852278
0.00041786497311514385
0.0004357091610747548
0.0002892414394317282
0.00027148355455092015
0.0002541471324485271
0.0002372224039772427
0.0002207013067812506
0.0002045780432800301
0.00018884987981108078
0.00017351831243091594
0.0001585908015479872
0.00014408340763942106
0.00013002488370078837
0.00011646316414706585
0.00010347583414680681
9.118715055083049e-05
7.97952728378917e-05
6.961270421456487e-05
6.111333324339372e-05
5.4944447880575246e-05
5.180386371990084e-05
5.212393748967635e-05
5.5779999961179245e-05
6.215856886545524e-05
7.050621638505665e-05
8.019651138598525e-05
9.079486278977376e-05
0.00010202208029360103
0.00011370348472407947
0.00012573060956150276
0.0001380365774945793
0.00015058097080839958
0.00016334056627974113
0.00017630358169994166
0.00018946602744682504
0.00020282933830222363
0.00021639879950312193
0.0002301824762880639
0.0002441904696291624
0.00025843438776431424
0.00027292696338546905
0.0002876817710234863
0.00030271301461686303
0.00031803536510568216
0.00033366383429445876
0.0003496136754597731
0.00036590030402291096
0.0003825392335471702
0.00039954602366127604
0.00041693623745125437
0.0004347254065304904
0.0002881390551992991
0.0002704524995537298
0.00025320472076253064
0.00023638748378849956
0.00021999463757570856
0.0002040227886605692
0.0001884722567754057
0.00017334845252844433
0.0001586638970179278
0.00014444123253450452
0.00013071778183840118
0.00011755253908021953
0.00010503694026114272
9.331125634609e-05
8.258833650106761e-05
7.318342565602553e-05
6.553724469371075e-05
6.019353316658411e-05
5.767195336288355e-05
5.824106079974718e-05
6.175455308014855e-05
6.772255016595637e-05
7.554422941358555e-05
8.46937508103943e-05
9.478208517991717e-05
0.0001055438409886582
0.00011680429808344237
0.00012845020512369858
0.00014040899115951407
0.00015263503178571892
0.0001651007717012629
0.00017779097880572732
0.0001906989803489197
0.00020382415562630895
0.0002171702340541318
0.0002307441173623686
0.0002445550486979102
0.0002586140153795636
0.0002729333117660392
0.00028752621371322786
0.0003024067320954838
0.00031758942325937683
0.0003330892411365802
0.0003489214203360168
0.0003651013826572063
0.0003816446616163363
0.00039856684107619094
0.00041588350513009826
0.00043361019714568516
0.00028690748564951446
0.0002693008061784881
0.0002521523815651785
0.00023545569045362486
0.00021920669943810363
0.0002034046527111327
0.00018805317998234485
0.0001731618719277673
0.0001587485498968389
0.00014484257455833874
0.0001314897113541031
0.00011875930210223891
0.00010675472531397619
9.562810166008298e-05
8.559908533642291e-05
7.697335034534107e-05
7.014595682892584e-05
6.555970166868453e-05
6.359087953515347e-05
6.439284765588921e-05
6.780931623887966e-05
7.344026507909886e-05
8.080066238813544e-05
8.945044393279122e-05
9.9047166985382e-05
0.00010934516604541009
0.0001201753339222279
0.00013142377232983917
0.00014301497478860548
0.00015489988771547508
0.00016704776203484826
0.00017944065103751784
0.00019206968272594577
0.00020493250793881596
0.0002180315288408859
0.00023137264976909452
0.00024496438194205933
0.00025881719118588835
0.00027294301497310066
0.00028735489916982895
0.00030206672068006037
0.00031709297264821625
0.00033244859591291683
0.0003481488451833869
0.0003642091816987943
0.0003806451864208852
0.0003974724894221719
0.00041470671227961895
0.00043236342110869886
0.0002855469072069206
0.00026802870362082915
0.00025099044048610655
0.00023442748887537784
0.00021833813195741146
0.00020272446649817512
0.00018759365155058508
0.00017295965575235024
0.00015884572376795154
0.00014528787824210262
0.00013233989369501635
0.00012008029084299875
0.00010862188344435076
9.812392221018006e-05
8.880512646652183e-05
8.095153700142827e-05
7.490553987665265e-05
7.101667636333266e-05
6.954741893461846e-05
7.056980096688668e-05
7.392454947388973e-05
7.92786235416343e-05
8.623567993643093e-05
9.442741191674131e-05
0.00010355581390903988
0.0001133980482374766
0.00012379472238330906
0.0001346347927308277
0.00014584241626409695
0.00015736693540524646
0.00016917566530208703
0.00018124881218570742
0.00019357591045241702
0.00020615331386111357
0.00021898241253306213
0.0002320683505027055
0.00024541909085060555
0.00025904472457034746
0.00027295695231494693
0.00028716869029697255
0.00030169376651960486
0.0003165466836251182
0.0003317424315648204
0.00034729633807369174
0.00036322394826798104
0.00037954092703350534
0.00039626297954437615
0.0004134057864522225
0.0004309849511556521
0.0002840575187840137
0.0002666364496915439
0.0002497192632248464
0.00023330340042359833
0.00021738965104146267
0.00020198315755148613
0.0001870947849969798
0.00017274300188915883
0.00015895647194712355
0.00014577762040825364
0.00013326749229252533
0.00012151220208248804
0.00011063102771680198
0.00010078538475552635
9.218594503865409e-05
8.509152452619814e-05
7.97891146089877e-05
7.654508529876678e-05
7.553235157354771e-05
7.676542035545802e-05
8.008624416898775e-05
8.521287649097994e-05
9.18176509859246e-05
9.959170528218403e-05
0.00010827770278323588
0.0001176766684740362
0.0001276416028056238
0.00013806706685495302
0.00014887916581619948
0.0001600273840259234
0.00017147839009796882
0.0001832114860663371
0.00019521530528987844
0.00020748541985726217
0.00022002259857306118
0.0002328315278052489
0.00024591986219820296
0.0002592975118576066
0.0002729761004968155
0.00028696854844131035
0.00030128874785661613
0.0003159513069316033
0.0003309713462931303
0.0003463643355306494
0.00036214596096925694
0.00037833201815623053
0.0003949383242008741
0.00041198064632109283
0.00042947464383714137
0.00028243954295523405
0.000265124332190381
0.0002483392573638411
0.00023208400531892786
0.00021636205175812456
0.0002011817526542757
0.0001865578069917345
0.00017251322045297375
0.00015908193405566158
0.0001463123062937306
0.00013427161826127777
0.00012305162999012623
0.00011277479304587614
0.0001035997520251697
9.572296325221329e-05
8.937080986020661e-05
8.477529010110675e-05
8.21304019327501e-05
8.153905440147281e-05
8.297509746525665e-05
8.62842128257544e-05
9.122426579364354e-05
9.752138691682396e-05
0.00010491575277648003
0.00011318629185464926
0.000122157532012553
0.00013169636079122407
0.0001417049414178877
0.00015211321373081343
0.00016287237855978632
0.00017394970373488965
0.0001853245516252406
0.00019698539814989136
0.00020892761038353807
0.00022115178837328993
0.00023366252140377602
0.00024646744766464797
0.0002595765364874436
0.00027300153476558396
0.00028675553545255006
0.000300852637710824
0.0003153076766262761
0.0003301360063640791
0.0003453533249147503
0.0003609755316537747
0.00037701861116375157
0.0003934985383880807
0.0004104312013725744
0.0004278323387268668
0.0002806932272414223
0.0002634926704242346
0.00024685087439290363
0.00023076994530781447
0.00021525621152003718
0.00020032138094719617
0.0001859840592743204
0.00017227173316179678
0.00015922333232161402
0.00014689246553185355
0.0001353513361080998
0.00012469510165825283
0.00011504592180296852
0.00010655499116114059
9.939949892636118e-05
9.37703069396745e-05
8.984693853623685e-05
8.776155407657141e-05
8.756264184497184e-05
8.919546347486596e-05
9.25108809265054e-05
9.72983832337717e-05
0.00010332673150816188
0.00011037652965562082
0.00011825850693341974
0.00012681946792384
0.0001359407640783372
0.00014553347468933286
0.00015553283505628248
0.00016589310774766384
0.0001765833041425126
0.00018758378605079413
0.00019888363196337411
0.0002104786180294021
0.00022236967445892923
0.0002345617025833221
0.00024706266325009594
0.0002598828690365719
0.00027303443000626943
0.00028653081582100733
0.0003003865067505577
0.00031461671327447343
0.0003292371492045382
0.00034426384708247126
0.0003597130074073671
0.00037560087530230885
0.00039194363974437907
0.00040875735160451275
0.0004260578575792241
0.00027881884550396563
0.0002617418168742142
0.0002452546119579662
0.00022936192664976698
0.00021407309363635343
0.00019940327736189781
0.00018537500073012266
0.00017202007261775843
0.00015938196763372187
0.00014751864805715548
0.0001365056693948918
0.00012643910946642749
0.00011743733255128774
0.00010963983582660573
0.00010320066165360966
9.827383697868175e-05
9.499024881447793e-05
9.342997106334972e-05
9.359942300865206e-05
9.542398789607519e-05
9.876050275390071e-05
0.00010342401744375761
0.00010921745777399682
0.00011595480550822309
0.00012347437447237508
0.0001316435378205907
0.00014035801900286573
0.00014953854751965662
0.00015912670247839324
0.0001690808956840338
0.00017937288446016317
0.00018998490515115556
0.0002009073837505695
0.00021213713346186379
0.0002236759434709753
0.00023552947404291793
0.0002477063884362571
0.0002602176670322502
0.0002730760617402132
0.0002862956588521473
0.0002998915263256203
0.00031387942738795595
0.0003282755867884482
0.00034309649933108026
0.0003583587727799668
0.00037407899906067736
0.0003902736490465478
0.0004069589872418203
0.0004241510034440776
0.0002768166994476463
0.00025987215901657895
0.00024355101634887535
0.00022786072344121614
0.00021281375125844332
0.00019842878640195983
0.00018473220962955125
0.00017175988149174386
0.00015955921537888436
0.00014819142000300437
0.00013773360631991855
0.00012828014002412905
0.00011994217313367165
0.00011284381207111777
0.00010711321462875204
0.00010286767278115701
0.00010019400039210635
9.912892142935293e-05
9.964654873926535e-05
0.00010165872325099369
0.00010502864000300349
0.00010959233609777772
0.00011518041458838977
0.00012163449323086129
0.00012881664649604493
0.0001366128898438144
0.00014493276790835506
0.00015370692880386445
0.00016288396993859757
0.00017242727710011803
0.00018231218969378752
0.00019252360042341539
0.0002030539855373306
0.00021390181499322014
0.00022507027894166128
0.0002365662694778948
0.000248399565038616
0.00026058217449841624
0.0002731278069671454
0.00028605144083058536
0.0002993689716299352
0.00031309692310033945
0.00032725220931560266
0.00034185193864045893
0.00035691325227319077
0.00037245319173121757
0.0003884885908150037
0.00040503598848233184
0.0004221115597488414
0.00027468712023065716
0.0002578841213034894
0.00024174068524399227
0.00022626718130416376
0.00021147933174995106
0.00019739936629069803
0.000184057386030818
0.00017149291161138748
0.0001597565211005615
0.00014891135966769542
0.00013903410520284395
0.00013021469962368133
0.00012255385982163538
0.00011615723712125783
0.00011112542171184535
0.0001075401440182971
0.00010544900705553912
0.00010485304579746515
0.00010570177620798256
0.00010789813775637162
0.00011131180742716241
0.00011579629958955085
0.00012120486952118606
0.00012740210022206812
0.00013427044339317596
0.00014171258430052298
0.00014965104504929485
0.00015802630430165752
0.00016679433040509014
0.0001759240570549141
0.00018539506519068042
0.00019519557240730483
0.000205320743817741
0.00021577129760305975
0.00022655236375182335
0.00023767255282568085
0.0002491431956875106
0.0002609777211676802
0.00027319114478600577
0.00028579964711834686
0.00029882022495557613
0.00031227040205898476
0.00032616798918030877
0.0003405308852223065
0.000355376913104163
0.0003707236851813482
0.00038658849404667216
0.00040298822528832425
0.00041993928935960163
0.00027243047018010545
0.00025577816731073755
0.00023982427073217715
0.00022458222147300633
0.00021007108151757602
0.000196316593509571
0.0001833523543504458
0.00017122102295622405
0.0001599753960237552
0.00014967905363228292
0.0001404060998812763
0.00013223933628825617
0.00012526610447417482
0.00011957119892636998
0.00011522689261179683
0.00011228130205762353
0.00011074769032861539
0.00011059802283218909
0.00011176330837431924
0.00011414100294518512
0.00011760722719901721
0.0001220302358864546
0.0001272820029638245
0.00013324627313988374
0.00013982292788440736
0.00014692940923371648
0.00015450020523290588
0.00016248527713509525
0.00017084805157273765
0.00017956335622435518
0.00018861549699610572
0.0001979965600669872
0.0002077049573178349
0.00021774420125699636
0.00022812188217728982
0.00023884881710749386
0.0002499383418705484
0.0002614057212847951
0.0002732676567195164
0.0002855418741223653
0.0002982467789912856
0.00031140116750801364
0.0003250239852251624
0.0003391341263877432
0.0003537502682651454
0.0003688907358575388
0.00038457339309621083
0.0004008155572406053
0.00041763393363468886
0.000270047144611402
0.00025355480206067863
0.00023780248263573163
0.0002228068453170798
0.00020859035134273936
0.00019518216775310615
0.00018261906610718057
0.0001709461825687887
0.00016021741250032574
0.00015049509311875682
0.00014184850504769464
0.00013435065861965966
0.000128072931711422
0.0001230775228459542
0.00011940843417800908
0.00011708263899919846
0.00011608375133295715
0.00011636032726872749
0.00011782968245499115
0.00012038631665385061
0.0001239126556186288
0.0001282895287657346
0.00013340451786989584
0.00013915742390955586
0.00014546301545769627
0.00015225169787163112
0.000159468836222301
0.00016707334728188462
0.00017503599328679267
0.00018333764326450253
0.00019196764439649466
0.00020092236607635816
0.00021020393286648228
0.00021981913837624634
0.00022977852142986885
0.00024009558279306195
0.0002507861214617337
0.0002618676719190092
0.0002733590266582193
0.00028527983105656714
0.0002976502401102871
0.00031049062853135475
0.00032382134727166885
0.0003376625207420592
0.0003520338798982789
0.0003669546270455368
0.00038244332872860315
0.00039851783347501907
0.00041519521148663326
0.00026753757374880355
0.0002512145745303316
0.00023567609216353346
0.00022094213934395897
0.00020703860226047404
0.00019399791732970087
0.00018185960284664365
0.00017067046339532918
0.00016048419943831573
0.0001513600706839264
0.0001433602215751637
0.00013654535173929631
0.00013096868803903408
0.0001266687305015341
0.00012366191235799482
0.0001219368541317489
0.00012145191741791674
0.00012213705260917009
0.00012389969126994503
0.0001266332494300427
0.00013022625898751866
0.00013457038672077789
0.00013956633757120502
0.00014512742415723762
0.00015118112181005414
0.00015766915523660104
0.0001645466630772567
0.00017178087621313505
0.00017934961026848644
0.0001872397558596693
0.00019544586512713376
0.00020396887799382387
0.00021281499922818405
0.00022199472032539036
0.0002315219725965809
0.00024141339560892832
0.0002516877056548748
0.0002623651506937432
0.00027346704032958966
0.00028501534141322376
0.00029703233158191495
0.00030954030441610687
0.000322561320913663
0.000336117002713613
0.0003502283630062377
0.0003649156714134157
0.0003801983493692108
0.0003960948927239529
0.0004126228184712571
0.0002649022247443057
0.0002487580803561782
0.00023344593592731903
0.00021898928073545013
0.0002054174120399319
0.00019276580504258613
0.00018107617925738575
0.0001703960430768419
0.0001607774377895122
0.0001522745773516263
0.00014494014189975234
0.00013882019067588226
0.00013394804470819052
0.0001303379946173672
0.0001279801270731346
0.00012683766089907373
0.00012684774573741925
0.00012792577992045792
0.00012997232717268728
0.00013288110687081613
0.00013654652356261566
0.000140869669941664
0.0001457623707235667
0.00015114935621423983
0.00015696894523309438
0.00016317269791230347
0.0001697244502519253
0.00017659904165263663
0.00018378094336240954
0.0001912629120833021
0.0001990447338338775
0.00020713208540093237
0.00021553551879521842
0.00022426956279697976
0.0002333519308789261
0.0002428028237062157
0.0002526443152129384
0.0002628998128331602
0.0002735935841856329
0.00028475034404430456
0.0002963948966286628
0.00030855182908659404
0.00032124525255350573
0.00033449858742161625
0.000348334389519564
0.0003627742138653865
0.00037783851258002906
0.00039354656348827507
0.0004099164259251702
0.0002621416037922707
0.00024618596475010706
0.0002311129203603124
0.0002169495434756146
0.00020372848232653933
0.0001914879345886188
0.00018027114649223088
0.00017012520271826402
0.00016109885617927543
0.00015323920029101115
0.00014658715554318814
0.00014117205158894393
0.0001370059959024933
0.0001340790926767249
0.00013235670077805213
0.00013177962798303203
0.00013226747041317075
0.00013372447999426818
0.00013604674185550126
0.00013912930308152655
0.00014287218958499424
0.0001471847596082495
0.00015198832757025725
0.0001572173103803601
0.0001628192806333598
0.00016875430875589928
0.00017499390540605777
0.00018151978635410325
0.00018832260209721626
0.00019540071363149817
0.0002027590544368867
0.00021040809314377712
0.0002183628970722461
0.00022664228998230574
0.00023526809503227316
0.00024426445409697216
0.00025365721593610414
0.0002634733874150827
0.00027374064359088937
0.0002844868937411842
0.0002957399012379957
0.00030752695554900605
0.0003198745946538631
0.00033280837588381965
0.0003463526927410545
0.000360530634736701
0.0003753638867942618
0.00039087266436860945
0.0004070756801762106
0.0002592562583363981
0.00024349892564365003
0.00022867802658520133
0.0002148243051411216
0.00020197364651513715
0.00019016655751741764
0.0001794469957129882
0.00016986032567408433
0.000161450226776569
0.00015425452115727255
0.0001483001548761704
0.00014359792123663003
0.0001401378536382608
0.0001378863614254489
0.00013678598056005833
0.0001367580488870009
0.00013770788327505394
0.00013953144001661866
0.0001421222175732392
0.00014537734210636524
0.0001492022026369771
0.0001535134583892723
0.0001582405756154257
0.00016332621978045828
0.00016872586143993566
0.0001744069069177864
0.00018034758747258642
0.00018653576385341394
0.00019296774090734277
0.00019964714236654917
0.00020658386706309806
0.000213793130863222
0.00022129458991681464
0.00022911153742748868
0.0002372701659035777
0.000245798888262572
0.00025472771324447087
0.0002640876727105626
0.0002739103001803402
0.00028422716118584767
0.0002950694366226496
0.0003064675602736514
0.0003184509111692473
0.00033104756056090553
0.0003442840721874229
0.0003581853533620913
0.0003727745533442931
0.0003880730045884794
0.0004041002018553558
0.0002562467793655653
0.00024069771708131675
0.00022614231578635304
0.00021261505443490923
0.00020015487843327883
0.00018880408079838956
0.0001786063618791341
0.00016960389639551865
0.00016183336151166818
0.00015532111521565382
0.00015007804123464154
0.0001460949050973045
0.0001433392405587214
0.00014175465363615872
0.00014126295311600457
0.00014176883523919293
0.00014316624067231513
0.00014534520852735617
0.00014819814677886835
0.00015162480523024102
0.00015553567770189712
0.0001598539142378304
0.00016451602573675647
0.0001694717256840856
0.00017468322567316125
0.00018012423266318216
0.00018577882048401216
0.00019164028336837887
0.00019771003093712038
0.00020399655145330063
0.00021051445019847612
0.00021728355902570789
0.00022432810852093064
0.00023167595348110552
0.00023935784396257698
0.00024740673683075124
0.0002558571457628801
0.0002647445304796304
0.0002741047282423815
0.0002839734321298438
0.000294385721206127
0.00030537564742640403
0.00031697588310970276
0.0003292174312277865
0.0003421293988463796
0.00035573883205145657
0.00037007060882179497
0.0003851473847460657
0.00040098958534251586
0.0002531138037950561
0.00023778315288845275
0.00022350693515196915
0.0002103233995578992
0.00019827430192452563
0.00018740307504981401
0.00017775202780969418
0.00016935849939885995
0.0001622501087633596
0.0001564395513772011
0.00015191973151380792
0.00014866023454879966
0.0001466060816153798
0.00014567929808040775
0.00014578317168106227
0.00014680842982657834
0.00014864019071069993
0.00015116455425195932
0.00015427401811492886
0.00015787134273493434
0.00016187187271559107
0.00016620456179633288
0.00017081204196338167
0.00017565006749663655
0.00018068660270838312
0.0001859007459997092
0.00019128161391617987
0.00019682725538253354
0.00020254362895795778
0.00020844365220080576
0.0002145463186729828
0.00022087587167965883
0.00022746102213648414
0.00023433419924615223
0.00024153082571985038
0.00024908861321229026
0.00025704687778763417
0.0002654458790826631
0.0002743261899690217
0.00028372810564099673
0.0002936911019917052
0.000304253352844108
0.0003154513141768507
0.00032731938115546663
0.00033988962086568104
0.0003531915805086446
0.00036725216781260646
0.0003820955978356775
0.000397743398383144
0.0002498580169299346
0.00023475611064444952
0.00022077312446376808
0.00020795107752852502
0.00019633420143298384
0.00018596628348838324
0.0001768869285511037
0.00016912681842695882
0.000162702350652195
0.0001576103932826496
0.00015382416537609967
0.0001512912734949319
0.00014993459546151522
0.00014965606331361096
0.0001503426938851249
0.00015187373607578286
0.0001541277166600059
0.00015698843564116992
0.00016034940734279432
0.0001641166691452941
0.0001682101693526639
0.00017256407728345378
0.00017712636978839776
0.0001818579927549579
0.00018673181763375948
0.0001917315378767003
0.00019685058979683492
0.00020209113895127152
0.00020746314458806604
0.00021298349755143734
0.00021867521803820838
0.00022456669616214284
0.0002306909585566799
0.00023708494695312036
0.00024378879892158404
0.00025084512608127766
0.00025829829050741626
0.00026619368525704974
0.0002745770294008633
0.0002834936912387478
0.0002929880551524997
0.00030310294762928014
0.0003138791363970825
0.00032535491357739177
0.00033756576968718954
0.00035054416073029436
0.00036431936605272946
0.00037891743058505924
0.00039436118191788573
0.00024648015500765546
0.00023161753599945556
0.0002179422234267643
0.00020549996457794577
0.00019433703370444198
0.00018449663166502625
0.00017601415609006573
0.00016891163588627283
0.00016319200108602376
0.000158834201574998
0.0001557903132175536
0.00015398552481154392
0.0001533212862386504
0.00015368112563384338
0.00015493802951763608
0.0001569620613064097
0.000159627093314573
0.0001628159788328568
0.00016642397222202355
0.00017036056130233153
0.0001745500594438345
0.00017893134384080783
0.0001834570791123207
0.00018809268338279783
0.00019281521049798101
0.0001976122526439661
0.00020248091648475256
0.0002074268913843764
0.00021246360671296955
0.00021761146299714243
0.00022289711583432944
0.0002283527899696581
0.00023401560237131728
0.00023992687667281332
0.00024613143640655403
0.0002526768705759762
0.00025961277184148465
0.0002669899543973963
0.0002748596648796145
0.0002832728047195542
0.0002922791856573923
0.0003019268412172729
0.00031226141565907187
0.0003233256484031939
0.0003351589666345139
0.00034779719242254844
0.00036127236405587523
0.00037561266515985774
0.000390842450172973
0.0002429810078180569
0.00022836844738150284
0.00021501567984954527
0.00020297208776957922
0.00019228544073338985
0.0001829972380590561
0.00017513696446053362
0.00016871583266097343
0.00016372100472037
0.00016011153750960947
0.00015781718504622827
0.00015674063696485656
0.0001567629363165434
0.00015775104140600607
0.00015956609724089625
0.00016207107159187505
0.00016513685386865016
0.00016864646237912487
0.00017249745065653363
0.00017660285881511962
0.00018089113588096308
0.00018530542511060915
0.00018980251883534633
0.00019435169520841535
0.00019893356812568312
0.00020353902047361798
0.00020816824880746777
0.0002128299206697916
0.00021754042976075504
0.00022232322555034575
0.00022720819017536256
0.00023223103498920913
0.00023743269101279992
0.0002428586712880014
0.0002485583885086409
0.0002545844180917525
0.0002609917047517002
0.00026783671916905214
0.00027517657980737813
0.00028306816245427836
0.0002915672257240351
0.00030072758374505027
0.0003106003570422287
0.00032123332912922423
0.00033267042995714733
0.00034495135897387826
0.00035811135126719864
0.0003721810812925822
0.00038718669106545505
0.00023936142139985653
0.00022500994115154705
0.0002119950588070479
0.00020036963801626432
0.00019018226410175512
0.0001814714256085359
0.00017425877529939917
0.00016854238841941885
0.00016429133700930138
0.00016144296805699928
0.00015990384043466414
0.0001595544111372911
0.00016025660044936027
0.00016186272383116992
0.00016422418938562278
0.00016719875648865573
0.00017065576545725625
0.00017447930753257352
0.0001785696616339261
0.00018284346658666261
0.00018723308718452666
0.00019168554538636983
0.00019616128080912978
0.00020063290834541198
0.00020508406652839184
0.00020950839852174792
0.00021390867411824675
0.00021829604079199967
0.00022268938028852366
0.0002271147412619572
0.00023160481601219667
0.0002361984292616671
0.0002409400086060784
0.00024587900964125736
0.000251069273881388
0.00025656830452910846
0.00026243645387672934
0.0002687360262745168
0.0002755303114973497
0.00028288257391890115
0.00029085503186386546
0.0002995078675224435
0.0003088983097984827
0.0003190798298787285
0.0003301014823259416
0.00034200741402160765
0.0003548365508020009
0.00036862245889957425
0.0003833933669842312
0.00023562230081487895
0.00022154319727755474
0.00020888205294351207
0.00019769498469632922
0.00018803056087309173
0.000179922734263181
0.00017338318391716445
0.00016839438254637873
0.00016490500553597532
0.00016282907266108385
0.00016204939971686371
0.00016242480917916073
0.0001637996017337338
0.0001660134241729083
0.00016890994407054731
0.00017234340224657935
0.00017618281196116336
0.00018031407321559306
0.0001846405086369782
0.0001890823592166096
0.00019357569514375148
0.00019807107510035014
0.00020253217138379318
0.0002069344865170554
0.00021126422225007112
0.00021551731970856323
0.0002196986637643095
0.00022382142994217528
0.00022790654417303367
0.00023198222165833198
0.000236083549367483
0.000240252076424447
0.00024453537762961816
0.0002489865577737795
0.00025366366861744743
0.00025862901685442115
0.0002639483503298955
0.0002696899211839788
0.0002759234378873712
0.00028271893219869253
0.00029014558025616626
0.00029827052737708244
0.00030715777182318833
0.00031686716248503484
0.00032745355876492534
0.00033896618864851766
0.00035144822483238803
0.00036493658125608445
0.0003794619160151331
0.00023176461300463647
0.00021796948561610076
0.00020567849410460794
0.0001949506921022285
0.00018583362122342813
0.00017835493464984713
0.00017251396595800735
0.00016827499585240767
0.00016556405282520427
0.00016427045182239484
0.00016425305660784176
0.0001653499626874974
0.00016738952969142727
0.00017020071741187794
0.0001736213239941949
0.00017750357239741408
0.0001817171830155662
0.0001861504550405548
0.00019070998531748375
0.00019531958715832983
0.0001999188351042645
0.00020446152071812576
0.00020891418918308135
0.00021325484378310793
0.00021747185124982755
0.00022156304810462177
0.00022553502943356302
0.00022940259151353417
0.000233188294574981
0.0002369221093671341
0.00024064110977209738
0.0002443891729488034
0.0002482166483817566
0.0002521799581646636
0.000256341093530503
0.00026076697782435583
0.00026552867449557073
0.0002707004306332432
0.00027635856187541906
0.0002825802021866205
0.00028944196016121316
0.0002970185396119465
0.000305381393419786
0.000314597483508272
0.00032472821499230265
0.000335828599243188
0.0003479466806887979
0.00036112323880710455
0.0003753917536870184
0.00022778938973741137
0.0002142901729107137
0.00020238636652542108
0.00019213953799346965
0.00018359498801143412
0.00017677204294844605
0.00017165508473515975
0.0001681875132303356
0.00016627056085312397
0.00016576773768282987
0.00016651409243335273
0.00016832818350569806
0.00017102424075957857
0.00017442249228818751
0.00017835660135722244
0.00018267809485770307
0.00018725826842579812
0.0001919882879287927
0.00019677818330269994
0.00020155528456311525
0.0002062624786000105
0.00021085651833864218
0.0002153065080431002
0.00021959261743012857
0.00022370503415130224
0.00022764314002132624
0.00023141488384494088
0.00023503631769879519
0.00023853126074448774
0.00024193105311199508
0.0002452743610721242
0.00024860699325671544
0.00025198168623551944
0.00025545781687379474
0.00025910099945998625
0.0002629825287173165
0.0002671786366521888
0.00027176954268575695
0.0002768382930258815
0.00028246940617748166
0.0002887473650523157
0.0002957550192781514
0.0003035719801279884
0.00031227310104855007
0.0003219271361274065
0.00033259565605342435
0.0003443322777471511
0.00035718223369916706
0.00037118227532469453
0.00022369773065993118
0.00021050673064280308
0.00019900782184687646
0.00018926453456861238
0.00018131847850984988
0.00017517833707998617
0.00017081069933981254
0.000168135327450503
0.0001670266574841014
0.00016732160679827472
0.00016883189216585493
0.00017135797592563064
0.00017470186143622797
0.00017867694568915498
0.00018311434847191263
0.00018786605487404709
0.00019280565739884933
0.00019782755201567932
0.00020284530206822024
0.00020778967878853027
0.00021260669812013684
0.00021725583047255088
0.00022170846428423471
0.00022594664602650666
0.0002299620868777901
0.00023375541000800236
0.00023733560526282966
0.00024071965545562936
0.00024393229765370153
0.00024700588217850116
0.00024998029072201657
0.0002529028727727503
0.0002558283566503167
0.0002588186884840639
0.00026194275045319284
0.0002652759099094206
0.0002688993552450398
0.0002728991841505006
0.00027736522638584
0.000282389606540766
0.0002880650811179862
0.0002944832154288105
0.00030173249434695424
0.0003098964811875758
0.0003190521457020145
0.00032926847245644817
0.00034060543517590704
0.0003531133851263441
0.00036683285910405053
0.0002194908064756614
0.00020662074390445962
0.00019554519628821017
0.00018632895222072874
0.00017900820854083752
0.00017357837431083582
0.00016998517363212327
0.00016812194430434574
0.00016783452507500697
0.00016893279529328213
0.00017120596247443615
0.00017443805087024385
0.00017842079430938619
0.00018296258135265384
0.0001878934337078335
0.00019306679329880968
0.00019835914216025972
0.00020366838163401172
0.00020891166085611787
0.00021402310157535515
0.00021895167386385978
0.00022365934559566598
0.00022811954766030718
0.00023231595182912778
0.00023624153584534473
0.00023989790104987706
0.00024329480534073997
0.00024644987457781906
0.0002493884563855564
0.00025214358039116924
0.00025475598762715287
0.0002572741889328217
0.0002597545078927343
0.00026226105873097675
0.0002648656046730536
0.00026764723912640106
0.0002706918326272466
0.00027409119514351654
0.0002779419181446089
0.00028234388514112284
0.0002873984727579463
0.00029320650398057717
0.00029986605544202546
0.00030747025385426596
0.0003161052148912769
0.0003258482749608825
0.0003367666406197365
0.0003489165355924657
0.0003623428699159051
0.00021516986228214063
0.00020263392150422874
0.00019200103036984896
0.00018333634649700465
0.00017666861927864995
0.00017197701037994237
0.00016918308623742426
0.00016815098932897063
0.00016869641150129303
0.0001706021166019798
0.00017363595200778136
0.00017756734233439044
0.00018217972718824384
0.00018727821287720846
0.00019269302250732485
0.00019827990981425122
0.00020391872564977392
0.0002095110772463616
0.00021497771265191647
0.00022025600192232553
0.0002252977023876303
0.0002300670801716628
0.00023453939546584082
0.00023869972687843885
0.00024254209701540384
0.0002460688583429879
0.00024929029982380553
0.0002522244375853026
0.0002548969551553615
0.00025734125958472873
0.0002595986185542554
0.0002617183401427228
0.0002637579514014711
0.00026578332469708336
0.00026786869287291084
0.0002700964871976939
0.0002725569280838045
0.00027534730057938756
0.0002785708578662601
0.00028233531916238834
0.00028675096466924813
0.0002919283777688369
0.0002979759379772212
0.00030499721786803096
0.00031308847185150415
0.00032233641394426764
0.00033281645989851884
0.00034459155820059056
0.00035771166415634145
0.00021073622111393995
0.0001985481075696079
0.00018837809166240288
0.00018029058874709315
0.0001743045069998598
0.00017037942025228075
0.0001684092416827346
0.0001682262163658108
0.0001696146438717327
0.0001723304820112197
0.00017612167414211952
0.00018074502636171718
0.00018597764554959597
0.0001916229710532156
0.0001975125832797736
0.00020350527083380792
0.0002094846330928041
0.0002153561202630913
0.00022104406026239582
0.0002264889607041572
0.0002316452070851581
0.000236479182910299
0.00024096778938535997
0.00024509732223303453
0.0002488626582099411
0.0002522667060911751
0.0002553200816669246
0.00025804097113467497
0.00026045515080377776
0.0002625961325044063
0.0002645054030839389
0.00026623272264770896
0.0002678364397129158
0.00026938377243806413
0.00027095099427080956
0.00027262345113141325
0.0002744953279504848
0.00027666907838035684
0.00027925443702567004
0.00028236695298394104
0.00028612602009687565
0.0002906524333433748
0.0002960655676661965
0.00030248034486701433
0.00031000421101960235
0.00031873437511575615
0.00032875554780131773
0.0003401383650897347
0.00035293859557352275
0.00020619128775652043
0.0001943652949765407
0.00018467940113525
0.0001771959010157207
0.00017192105607639132
0.000168791120597394
0.00016766868282283486
0.00016835151822791226
0.0001705916452103408
0.00017411892423399648
0.00017866313244183915
0.00018397054284220472
0.00018981384851701768
0.00019599631555976732
0.00020235189805234882
0.00020874302189923577
0.0002150573273241202
0.00022120419073008894
0.00022711147455504668
0.00023272270708856696
0.00023799475046359345
0.0002428959410766751
0.0002474046547442
0.00025150823988269336
0.0002552022641717758
0.0002584900268247535
0.0002613822961471907
0.00026389723864234674
0.00026606051056789676
0.00026790548502828954
0.0002694735870403463
0.0002708147052452986
0.00027198764184587995
0.00027306055189720534
0.00027411130965062204
0.0002752277243264211
0.00027650751263892496
0.00027805792419284607
0.00027999491358170106
0.0002824417657544441
0.00028552711480281194
0.00028938235401160305
0.00029413851458151146
0.0002999227817757431
0.0003068549021900244
0.00031504379167510897
0.00032458466005418193
0.00033555691714848973
0.00034802302231452787
0.0002015365529216721
0.00019008764102073066
0.00018090826379697685
0.0001740568958138525
0.00016952387551477698
0.00016721799408111893
0.00016696670471975906
0.00016853093977338613
0.00017162995439798284
0.0001759686242560745
0.00018126054909705993
0.00018724362042368226
0.00019368796859796632
0.0002003980511003002
0.00020721107781525885
0.0002139936044673981
0.0002206375278035277
0.0002270561879072535
0.00023318091493337287
0.0002389581368140811
0.00024434704819603154
0.0002493177887039507
0.0002538500618761202
0.0002579321269445797
0.0002615601039152176
0.000264737542785744
0.00026747521756751444
0.000269791113803197
0.0002717105839079801
0.00027326664756763925
0.00027450041429712764
0.00027546160174442627
0.00027620911602375053
0.0002768116489524964
0.00027734823150947214
0.0002779086637329517
0.00027859372037897635
0.00027951501240719196
0.0002807943723304875
0.00028256263431206103
0.0002849577062951784
0.00028812188860069917
0.00029219848310767834
0.00029732785140835463
0.000303643199139677
0.00031126645711559894
0.0003203046665377818
0.000330847235144831
0.00034296431532973413
0.00019677359790862584
0.00018571748585266635
0.0001770683044634172
0.00017087862148781
0.00016711903934451058
0.00016566631554196435
0.0001663088701532177
0.0001687686937038768
0.0001727322496793709
0.00017788094171574236
0.00018391439662279553
0.0001905643048439244
0.00019759999541846217
0.00020482834808426944
0.0002120905825561672
0.00021925777704599094
0.00022622623331777038
0.0002329132537904857
0.00023925355213326498
0.00024519633239201597
0.00025070298493684205
0.0002557453165830624
0.0002603042293599448
0.00026436877179238745
0.0002679354999546395
0.00027100809895510354
0.00027359722716027365
0.0002757205546785044
0.00027740297414039264
0.0002786769654633986
0.0002795830968212427
0.0002801706410444678
0.00028049827959326543
0.0002806348544291517
0.00028066011106307287
0.0002806653537685007
0.0002807539074906901
0.00028104125328580265
0.00028165468079651383
0.0002827322911112431
0.00028442119785387703
0.000286874825379393
0.0002902492980691211
0.0002946990507404448
0.0003003719475189021
0.0003074043385899713
0.0003159165658260607
0.0003260094124209041
0.0003377618683073972
0.0001919040999190905
0.00018125737433437165
0.00017316350966229752
0.00016766661399583477
0.00016471313114563437
0.00016414278010170192
0.00016570102695588894
0.00016906917943103808
0.0001739013760572827
0.00017985744909656523
0.0001866254331260097
0.00019393299100501184
0.00020155030371073106
0.00020928776799280103
0.00021699124602692787
0.0002245366406901813
0.0002318247484029499
0.00023877679964897427
0.0002453307934276166
0.0002514385852918736
0.0002570636318865643
0.00026217928391374676
0.00026676752889984206
0.0002708181017988203
0.0002743278990281047
0.0002773006473154421
0.00027974679180214966
0.00028168357801378643
0.00028313530960179646
0.00028413376816531467
0.0002847187827837302
0.0002849389346797571
0.0002848523759781997
0.00028452772989708843
0.00028404502191516437
0.0002834965667964845
0.00028298770500427095
0.00028263724601743973
0.00028257744043812055
0.0002829532768343142
0.0002839208968922845
0.0002856449605554588
0.0002882948864106867
0.0002920400463147469
0.0002970441916670054
0.0003034595907240539
0.00031142150110936644
0.00032104362931080466
0.00033241510932694596
0.00018692983825455644
0.00017671008215058655
0.00016919827689164483
0.00016442695599300588
0.0001623132929737518
0.0001626545332276197
0.00016514932738383875
0.0001694370053771632
0.0001751403769122351
0.0001818999700361015
0.00018939474147266464
0.00019735045913269234
0.00020553968583192313
0.00021377729360092069
0.0002219143053318214
0.00022983166891794355
0.00023743471355512115
0.0002446485356646821
0.00025141431032476273
0.00025768642015930467
0.00026343026608422355
0.0002686206314996886
0.000273240491630499
0.0002772801823829848
0.00028073686394568573
0.0002836142319520985
0.0002859224431503142
0.0002876782334320395
0.0002889052140420816
0.0002896343369446899
0.0002899045225304063
0.0002897634416448546
0.00028926843848556646
0.0002884875700618287
0.00028750072019162156
0.000286400719973217
0.000285294371451014
0.0002843032275307171
0.0002835639329709162
0.0002832278873967262
0.0002834599672117662
0.00028443606075135756
0.0002863392537586999
0.00028935466617388116
0.0002936631799428966
0.0002994345697201087
0.000306820777553617
0.0003159501694483866
0.0003269235144362884
0.00018185270170363504
0.00017207864723014403
0.00016517747269910725
0.00016116634421397202
0.00015992727888570509
0.00016120920272379564
0.00016466024975014435
0.0001698770151012112
0.00017645253020538959
0.00018401062208066782
0.00019222377271701436
0.000200817915388155
0.00020956938911709282
0.00021829836426306734
0.00022686143546723816
0.00023514474213938313
0.00024305813932061675
0.00025053050376746676
0.00025750606883896774
0.0002639416211001049
0.0002698043913874743
0.0002750704963574351
0.00027972381562223377
0.0002837552170533366
0.00028716206619080293
0.00028994797458887134
0.00029212275679584064
0.00029370257712436963
0.0002947102759121951
0.0002951758708576392
0.0002951372321732953
0.0002946409302889701
0.00029374325076254236
0.0002925113615450118
0.00029102460093435823
0.00028937582827013984
0.0002876727416572303
0.0002860390169197731
0.00028461506164445316
0.00028355811509221153
0.0002830413747337484
0.00028325181885893106
0.0002843864551483908
0.0002866468876408448
0.00029023236808605347
0.0002953318475418489
0.00030211588113121524
0.000310729438140274
0.0003212866233760533
0.00017667469753407681
0.00016736640782034004
0.00016110650134662911
0.00015789216621896304
0.00015756351318160907
0.0001598149325798154
0.00016424062257201931
0.00017039431767054661
0.00017784138964784348
0.0001861918642486566
0.00019511439418739486
0.00020433703732581097
0.00021364115839582986
0.0002228529165002668
0.00023183478897868413
0.000240478186727306
0.0002486974443767678
0.0002564251137613068
0.00026360836239792203
0.00027020626004187616
0.00027618776107674406
0.0002815302275855107
0.0002862183743413555
0.0002902435481211105
0.0002936032788885787
0.00029630106013689715
0.00029834633100669255
0.0002997546446314301
0.00030054801617962636
0.0003007554506383582
0.0003004136545265475
0.0002995679370369196
0.00029827330368018673
0.00029659573783858935
0.00029461365054730027
0.0002924194534829355
0.00029012117138656744
0.00028784395536051675
0.00028573128734794953
0.000283945583675799
0.0002826678263396919
0.00028209580268901774
0.000282440559171317
0.0002839208201949158
0.00028675542004006683
0.0002911542259140108
0.00029730849893841254
0.00030538198298643267
0.00031550405769220885
0.00017139796264914003
0.00016257704892770383
0.00015699138617696176
0.00015461258762105968
0.00015523115335073207
0.0001584804185469723
0.00016389765150672734
0.00017099432272846412
0.00017931083124784363
0.00018844654980366393
0.00019806894266330934
0.00020791002462608276
0.00021775728403574708
0.00022744343016411388
0.00023683704093597073
0.0002458348188804806
0.00025435549772204896
0.000262335182828459
0.00026972384742837794
0.00027648272715046423
0.0002825824019808913
0.0002880014033029267
0.000292725225786071
0.0002967456577252981
0.0003000603697231427
0.0003026727218053749
0.0003045917646014722
0.00030583242227295924
0.00030641585426441505
0.00030637000016211347
0.0003057303170743667
0.00030454072166373296
0.000302854748399098
0.0003007369302068419
0.0002982643950860346
0.00029552864904637104
0.00029263747769199674
0.00028971684142476453
0.000286912559467994
0.000284391477245707
0.0002823417015123933
0.00028097139586680676
0.0002805056047787912
0.00028118068262168077
0.0002832362055815454
0.00028690474980039776
0.0002924005409866918
0.00029990851693686494
0.000309575541497722
0.00016602477766403676
0.00015771465931631044
0.000152838866208741
0.00015133665092190342
0.00015294015752717252
0.00015721494524550706
0.0001636389493839589
0.00017168278074325953
0.00018086510568218067
0.00019077798468329578
0.00020109028312294164
0.0002115396555698563
0.00022192065591050117
0.0002320729804852961
0.00024187143945545022
0.00025121799344944644
0.0002600356650969156
0.00026826397848246273
0.00027585558163047293
0.00028277376323713565
0.00028899063997375236
0.00029448584841483614
0.0002992456219681933
0.00030326216876421083
0.00030653329334126924
0.0003090622252764685
0.0003108576334474861
0.00031193381673534393
0.0003123110716420693
0.0003120162450733493
0.0003110834866191807
0.00030955521882025823
0.00030748334535394314
0.00030493071430264386
0.0003019728441847418
0.00029869990048474583
0.000295218874859694
0.0002916558617349314
0.00028815824147636766
0.000284896462860388
0.00028206497655372526
0.00027988173048187383
0.0002785855499804448
0.0002784307735559518
0.0002796787940032766
0.0002825867199449956
0.00028739416342115037
0.00029430994397707585
0.00030350092516389184
0.00016055758492692352
0.00015278380187488765
0.00014865651095773404
0.00014807438702340697
0.0001507013560166818
0.0001560284245349629
0.00016347256968257668
0.00017246582896802626
0.00018250889698355883
0.00019318999208303925
0.0002041818735911409
0.00021522934976486109
0.00022613482372891278
0.00023674529634963413
0.0002469418620254052
0.0002566316579069857
0.00026574185975058393
0.0002742152650161459
0.0002820070649085115
0.00028908249403661275
0.00029541512662766554
0.00030098565289646306
0.000305781018343084
0.000309793845260556
0.0003130220827141976
0.00031546885138570543
0.00031714246501926666
0.00031805662227211664
0.00031823077260722567
0.0003176906681259827
0.0003164691202169749
0.00031460698547504894
0.0003121544088730595
0.0003091723522568907
0.00030573443041912867
0.00030192906134365844
0.00029786190585373996
0.00029365851694314375
0.0002894670312891985
0.00028546060691569654
0.000281839141256222
0.00027882961108646693
0.00027668421170417803
0.0002756754344876336
0.00027608744300334473
0.00027820370397071487
0.0002822917930760486
0.0002885873876370455
0.00029728021224317944
0.00015499901187862822
0.00014778960096846152
0.0001444528570106422
0.0001448369403194888
0.0001485265261375265
0.00015493143481237637
0.00016340704385376748
0.00017335004369078088
0.00018424738809094917
0.0001956869837605376
0.00020734783668064643
0.00021898323768684716
0.00023040406420489143
0.00024146482517866524
0.00025205287791182365
0.00026208041164851496
0.0002714785976503492
0.0002801933534500898
0.00028818228286747467
0.0002954124661637193
0.00030185886672888827
0.00030750319020134614
0.00031233308270449357
0.00031634159160363017
0.0003195268388494133
0.00032189187667218497
0.00032344471038039106
0.0003241984849042874
0.00032417184163104957
0.00032338946073087467
0.0003218828119646599
0.00031969114390677776
0.000316862747131338
0.0003134565299964582
0.00030954394391415627
0.00030521128447084445
0.0003005623692044719
0.00029572154306862407
0.00029083687651200457
0.0002860832854097096
0.00028166510803136376
0.0002778174297519135
0.0002748051961434573
0.0002729190042735712
0.0002724665818363656
0.00027375954542956836
0.0002770961532258723
0.00028274222251839943
0.0002909135899472347
0.00014935190165770134
0.00014273785143424468
0.00014023757044680463
0.0001416367079515054
0.00014642846921103286
0.00015393526084211284
0.0001634514229636866
0.0001743424994189839
0.00018608633387822272
0.00019827403870148496
0.00021059303848976822
0.00022280623765773814
0.00023473345559626697
0.00024623680482701476
0.000257209816938957
0.00026756957080289654
0.00027725105720178563
0.0002862031549357916
0.00029438575271231753
0.0003017676844671472
0.000308325246257342
0.0003140411352895142
0.00031890370294907573
0.00032290645000284226
0.0003260477181395482
0.0003283305510649768
0.00032976271286175004
0.00033035686292636304
0.00033013089667327316
0.0003291084701433727
0.00032731973515520143
0.0003248023198495878
0.00032160259712054283
0.0003177772895477118
0.00031339546202191064
0.00030854094854414617
0.00030331524132572326
0.00029784082828402276
0.0002922648847662203
0.00028676308833856746
0.00028154311364436723
0.00027684707204163653
0.000272951819014245
0.00027016576419729236
0.0002688207876942203
0.0002692583700880263
0.00027181029032740246
0.0002767761090309834
0.00028440146352698664
0.00014361935357461582
0.0001376351552369665
0.00013602163977977823
0.00013848749327025642
0.00014442108804212675
0.00015305193368510587
0.0001636153242210224
0.00017545083572285313
0.0001880321423626904
0.00020095698987903054
0.00021392317560032218
0.00022670414094880397
0.00023912896019124305
0.0002510673429410984
0.00026241884494939685
0.0002731052387181645
0.0002830651435034268
0.00029225023749549595
0.0003006225712904188
0.000308152650383592
0.0003148180603068858
0.00032060248163910877
0.00032549499298073384
0.00032948959535340587
0.0003325849165080623
0.00033478407185450626
0.0003360946726032899
0.0003365289829305268
0.0003361042377309787
0.0003348431416614181
0.00033277457927010615
0.0003299345753627515
0.00032636755430819455
0.0003221279560906248
0.00031728227392106227
0.0003119115797843552
0.00030611459429878685
0.0003000113253100726
0.0002937472293853486
0.00028749771859453127
0.0002814726138721211
0.0002759198139413211
0.0002711270152830136
0.00026741987265283673
0.0002651547542056591
0.00026470458861131935
0.000266437601473375
0.0002706910315232605
0.00027774449492673866
0.00013780477709079004
0.0001324890935546056
0.00013181760461184036
0.00013540467270017567
0.00014251946264710674
0.00015229427030265775
0.00016390898307760976
0.00017668333256053062
0.00019009196490172672
0.00020374251995142976
0.0002173448710213777
0.00023068370577823116
0.0002435975153791723
0.00025596350425632545
0.00026768704625094433
0.00027869438225650934
0.0002889275570962103
0.0002983408858857157
0.0003068984648965763
0.00031457240075426256
0.00032134154026629676
0.00032719055644102866
0.00033210929585945925
0.0003360923265541183
0.0003391386493592866
0.0003412515529563816
0.00034243860599907257
0.00034271179045165594
0.0003420877898148335
0.000340588455132136
0.00033824148122731215
0.00033508133596802845
0.0003311504966503709
0.00032650105954167984
0.0003211968000211557
0.0003153157688404454
0.00030895350922563545
0.0003022269596585117
0.0002952790508739249
0.0002882838858813388
0.0002814521715933772
0.00027503621000864273
0.0002693332381169524
0.0002646852886090353
0.0002614732508883668
0.0002601028946870193
0.00026098186219254807
0.00026448933998098994
0.0002709436461113022
0.00013191196437797075
0.00012730844432831193
0.00012763982554751726
0.00013240537394217943
0.00014073992132960015
0.00015167591247631216
0.00016434331175034858
0.00017804899504160712
0.0001922737963230979
0.00020663826687580356
0.00022086578003900541
0.00023475276106325586
0.00024814713400535563
0.00026093340634055536
0.0002730225133514862
0.0002843449139862194
0.00029484586708145705
0.00030448216424936326
0.0003132198403067555
0.0003210325463876827
0.0003279003793854594
0.00033380903297149393
0.00033874918309494275
0.00034271605311971226
0.0003457091261549987
0.00034773198830736357
0.0003487922989383112
0.00034890189421004416
0.00034807703944116
0.00034633885498806935
0.00034371395025158114
0.00034023531157255686
0.00033594350262316944
0.00033088825046813966
0.00032513050610225995
0.000318745082900558
0.00031182398533463243
0.0003044805340576969
0.0002968543546385648
0.00028911719631769927
0.0002814793390308198
0.00027419597326054125
0.00026757234704972456
0.00026196568314579315
0.0002577810723625155
0.00025545825750214354
0.000255447254129684
0.0002581737954534637
0.0002640002274960577
0.00012594518860179103
0.00012210345820252291
0.00012350480090890392
0.0001295086616601508
0.00013910010352954054
0.0001512113648548657
0.00016492996521797902
0.0001795576487430306
0.0001945865860960718
0.0002096529405726142
0.00022449470706475093
0.00023892032088782602
0.0002527870147749396
0.0002659863243150613
0.00027843444426044813
0.0002900657802892584
0.00030082858836618065
0.0003106819810637238
0.00031959383631353477
0.00032753930943330955
0.00033449975561641025
0.00034046193889570843
0.00034541744874373427
0.0003493622756965659
0.0003522965182215521
0.0003542242080362829
0.00035515325256397546
0.000355095502787604
0.00035406696361821934
0.00035208817295495946
0.0003491847856853941
0.00034538841067490475
0.00034073776294723726
0.00033528021017567014
0.00032907381218495225
0.0003221899731657393
0.0003147168451204719
0.0003067636295081909
0.0002984659056331702
0.000289992038568431
0.00028155053509212213
0.0002733978476052544
0.0002658454856541291
0.00025926433855268235
0.00025408297615048725
0.00025077590736510044
0.0002498383920249765
0.00025174761934782555
0.00025691595194546514
0.00011990933807195217
0.0001168862094334748
0.00011943153514368727
0.000126735724346914
0.00013761901023910726
0.00015091603223157864
0.00016568141600852403
0.00018122004689996512
0.0001970403618588625
0.00021279645197197134
0.0002282417347420541
0.00024319671077059716
0.00025752766354457407
0.0002711328051036485
0.0002839332475962034
0.0002958670553039718
0.00030688526263958837
0.0003169491556875952
0.0003260283747923075
0.00033409955835748175
0.0003411453503277397
0.00034715365895799164
0.0003521170966752145
0.0003560325588120182
0.00035890091813623956
0.0003607268258259337
0.00036151862007617613
0.0003612883524135328
0.00036005195018151427
0.0003578295424861643
0.00035464598700903153
0.00035053164734127396
0.0003455234857039314
0.00033966655486344563
0.00033301599620348877
0.0003256396779250936
0.0003176216359199371
0.0003090665035489998
0.00030010512071133015
0.0002909014675284543
0.00028166091900468494
0.00027263947394970135
0.00026415294937005715
0.00025658403475467773
0.00025038360796202184
0.00024606131315607133
0.0002441603492868067
0.0002452145467092607
0.00024969299484853155
0.00011381010078411429
0.0001116710428572547
0.00011544196204901308
0.000124110052850014
0.00013631703731995204
0.00015080625661515284
0.00016661103942543099
0.00018304799105976936
0.0001996463668775547
0.00021608005600645062
0.00023211836675901751
0.0002475937069540418
0.00026238102641456477
0.00027638479176585374
0.00028953065567376336
0.00030176004048764805
0.0003130265424838977
0.00032329348555384246
0.0003325322100257304
0.0003407208389788371
0.0003478433611368124
0.0003538889301551611
0.00035885131902334207
0.0003627284938595491
0.00036552228874147595
0.0003672381756176758
0.00036788513288493383
0.00036747562435773476
0.0003660257082022296
0.00036355530389580034
0.00036008865530033786
0.0003556550404400006
0.00035028979457982527
0.0003440357338166976
0.00033694509266302586
0.0003290821216017544
0.00032052652847160113
0.00031137798647286894
0.0003017619596494106
0.00029183708678445774
0.0002818042616990252
0.00027191725146116135
0.0002624940445475554
0.00025392692318508217
0.0002466874135084729
0.00024132015020281842
0.00023841868131265346
0.00023857888357780189
0.00024233406083396398
0.00010765422033336123
0.00010647514341207835
0.0001115614223609604
0.0001216575970266848
0.0001352159869490322
0.00015089935532787248
0.0001677332112727281
0.00018505446711173496
0.00020241721332306704
0.0002195165103950691
0.0002361376860396059
0.00025212469008929674
0.0002673606356106571
0.0002817557584614966
0.00029523984564848996
0.00030775736939868333
0.00031926427776039236
0.0003297258127246703
0.0003391149746327949
0.00034741139960633896
0.00035460050667609507
0.0003606728270624393
0.0003656234634268327
0.0003694516499347788
0.0003721603994882017
0.000373756235511633
0.00037424901417130985
0.00037365185024066077
0.00037198116705830985
0.000369256899080465
0.00036550288533306573
0.0003607475046401086
0.000355024620039129
0.00034837492170699614
0.00034084778659388716
0.0003325038102983108
0.00032341821318497506
0.0003136853764161224
0.00030342481599927455
0.00029278893129614463
0.00028197281666895925
0.0002712261958326558
0.00026086694022840886
0.0002512943886691537
0.00024299853612273181
0.00023655825712969958
0.00023261944556594437
0.00023184556848315595
0.0002348424577576233
0.00010144985373927509
0.00010131926085347773
0.00010781918887303984
0.00011940688231404148
0.00013433905288830008
0.00015121366226588615
0.00016906342065094602
0.0001872537990248655
0.00020536705364601265
0.00022312025240381995
0.0002403145302525399
0.0002568048148680772
0.00027248176921757016
0.0002872608565578493
0.0003010755686471359
0.000313873117049434
0.0003256116030694727
0.0003362580881094499
0.0003457872199764552
0.0003541802078149297
0.0003614240205865639
0.00036751073446421035
0.000372436986169636
0.0003762035096881198
0.0003788147474127045
0.0003802785363777972
0.00038060587764318887
0.00037981080336236167
0.000377910362618728
0.0003749247546454717
0.0003708776474997096
0.00036579673272184
0.0003597145833143426
0.0003526699052036335
0.00034470930328368084
0.00033588972456366994
0.0003262817950554353
0.0003159743344686135
0.00030508040915403064
0.0002937453519767714
0.00028215719232220883
0.0002705597967878512
0.00025926851469741544
0.0002486869004137722
0.00023932069979604197
0.00023178158023063917
0.00022676921726452184
0.00022502023810801766
0.0002272221786883599
9.520707591085895e-05
9.622862867263924e-05
0.00010424902163515435
0.00011738906306252417
0.0001337107766012397
0.0001517685756228309
0.00017061840102035265
0.00018966182314521793
0.00020851177281089493
0.0002269075961792669
0.0002446656868885809
0.0002616511973467934
0.00027776162589016794
0.0002929170723169172
0.0003070542866083811
0.0003201229128479748
0.0003320830246435092
0.000342903431118419
0.0003525604483355347
0.00036103695577132885
0.0003683216314009282
0.00037440830382820187
0.0003792953877572719
0.0003829853868376555
0.0003854844595962729
0.0003868020523151241
0.0003869506089745099
0.00038594537393811306
0.0003838043088570544
0.0003805481521935807
0.0003762006587559127
0.0003707890688192276
0.00036434487323106293
0.00035690496427175984
0.0003485132944788296
0.00033922321034237724
0.00032910068841638654
0.0003182287812087118
0.00030671367926677305
0.0002946929041129226
0.00028234622813119834
0.0002699098774540931
0.00025769419937287134
0.0002461038538144253
0.00023565707769457594
0.0002269961039928743
0.00022087509938729865
0.00021810929712211825
0.0002194779927457704
8.893859646774533e-05
9.123412167252896e-05
0.00010088971910697885
0.00011563788517530068
0.00013335697370607316
0.00015258461681071949
0.00017241628349035055
0.00019229608655312256
0.00021186920473983362
0.0002308969537439342
0.0002492101105203306
0.0002666831219189244
0.00028321951571211
0.00029874339647304187
0.00031319431626108593
0.0003265240557007749
0.00033869450445772663
0.0003496761818550193
0.0003594471333919762
0.0003679920502581295
0.0003753015242180521
0.0003813713894313353
0.0003862021267890359
0.00038979832138473166
0.00039216817344436144
0.00039332306967971995
0.00039327722710146045
0.0003920474259121388
0.0003896528530881784
0.0003861150844980474
0.00038145824182622776
0.00037570937232834524
0.00036889911605665415
0.00036106274875427694
0.00035224172200496
0.00034248586935235086
0.00033185651302126404
0.000320430796372814
0.0003083076869584986
0.0002956162418506769
0.0002825268771997969
0.00026926645862620585
0.0002561378231652111
0.00024354340548556365
0.00023201014679953178
0.00022220776656785141
0.00021494472556622966
0.00021111999216576798
0.0002116155458195072
8.266078528096008e-05
8.637369888324863e-05
9.778560627791637e-05
0.00011418952847211512
0.00013330463408705003
0.00015368350699475024
0.00017447677721542685
0.0001951760737886001
0.00021545937704040902
0.0002351090833318256
0.00025396916527656917
0.00027192227011303244
0.00028887706838149994
0.0003047610058065734
0.00031951597926102213
0.0003330956292607024
0.00034546353860848015
0.0003565919421057686
0.00036646072467643755
0.0003750565826133516
0.00038237227915421436
0.0003884059590808203
0.0003931605072015533
0.00039664294789092764
0.000398863890552149
0.00039983703095439015
0.00039957872222238285
0.00039810763281233864
0.00039544451292440743
0.0003916120962860698
0.00038663517200445
0.00038054087238203343
0.0003733592387903464
0.00036512415111258385
0.0003558747400725789
0.00034565745047952193
0.00033452899330232413
0.00032256052372089483
0.00030984352008803174
0.0002964980212925333
0.0002826840981818888
0.0002686176313346652
0.0002545914609950336
0.00024100230467531783
0.0002283815300287388
0.00021742235927368518
0.0002089862543151388
0.0002040604899504124
0.00020364147244684565
7.639514654562923e-05
8.169417319201e-05
9.498686599529697e-05
0.00011308230156195439
0.00013358180425915268
0.00015508826955912798
0.00017682138289348444
0.00019832346725456374
0.00021930478897613873
0.00023956736944831845
0.0002589668960435419
0.00027739297361648117
0.0002947584598531348
0.0003109934564991422
0.00032604175693666326
0.00033985861452098847
0.00035240922605774076
0.00036366760032041363
0.00037361563048664807
0.00038224227266538824
0.00038954278046027214
0.00039551797335732976
0.00040017353305266405
0.00040351933140127694
0.00040556879929591724
0.0004063383492551761
0.0004058468670190213
0.00040411528991999223
0.00040116629298726124
0.0003970241084114961
0.0003917145110301554
0.0003852650130221056
0.0003777053266101524
0.0003690681765504825
0.00035939057791951266
0.00034871574418540605
0.0003370958630693513
0.00032459608356891743
0.00031130021024370545
0.0002973188151034366
0.0002828007598210552
0.00026794944150996684
0.00025304529070951633
0.0002384757250216852
0.00022477182804545444
0.00021264540964350875
0.0002030083529696859
0.00019693995945355134
0.00019556352047418613
7.017043922923251e-05
7.725332787756733e-05
9.254957556213705e-05
0.00011235617174888423
0.00013421746712015758
0.0001568233688905526
0.00017947364671260833
0.00020176244784433507
0.00022343072871244194
0.00024429813987269757
0.00026423033244367123
0.0002831224941306292
0.0003008906584256643
0.00031746688857868597
0.0003327964473139114
0.00034683599592100374
0.0003595523226165803
0.0003709213344288884
0.00038092717239743507
0.0003895613793635438
0.0003968220888863228
0.0004027132261184785
0.00040724372397936957
0.0004104267647379599
0.0004122790606132444
0.00041282018877931005
0.0004120719973048314
0.0004100580998817976
0.0004068034794106737
0.0004023342243215512
0.0003966774277566951
0.00038986128951975997
0.00038191547557512396
0.0003728718121745743
0.00036276542490216074
0.0003516364824010883
0.00033953277839184705
0.0003265134959270184
0.0003126546620537523
0.0002980570419151397
0.0002828575617303932
0.00026724579090213956
0.00025148746315514233
0.00023595710141522186
0.00022118044392989623
0.00020788204813015194
0.000197020169692844
0.0001897686582257057
0.00018739069062269635
6.402571050048342e-05
7.312234544642812e-05
9.05352636919581e-05
0.0001120521323421572
0.00013524144150885704
0.00015891489804819697
0.00018245946372826574
0.0002055200438656455
0.00022786563717474846
0.0002493310258007353
0.0002697898302278514
0.0002891413328175881
0.00030730369097771177
0.00032421024006086665
0.00033980732102035626
0.0003540528557659148
0.00036691527346788255
0.00037837258465037334
0.0003884115027611804
0.00039702656913642915
0.0004042192683268146
0.00040999713762355036
0.0004143728832933973
0.00041736351994628207
0.0004189895507269815
0.0004192742060188742
0.000418242758037171
0.00041592192881173356
0.0004123394102561849
0.00040752351794623616
0.00040150300566007386
0.0003943070767129162
0.0003859656421628636
0.00037650989736899527
0.0003659733206968674
0.000354393246940218
0.0003418132419618753
0.00032828661771446655
0.00031388159890514966
0.0002986889142540744
0.0002828329754054319
0.00026648835876784844
0.0002499039906377401
0.00023343797752433664
0.00021760540496318018
0.0002031368593603221
0.00019103129196055337
0.00018255802291567948
0.00017913339378427965
5.801457186852217e-05
6.938838476436133e-05
8.900977224297358e-05
0.00011221144084435057
0.00013668433117823686
0.00016139083015934182
0.00018580744164883476
0.00020962653820962845
0.00023264152742794676
0.00025469937246417847
0.00027567945533973453
0.0002954835721594465
0.0003140309295555347
0.0003312554683729426
0.00034710427120777167
0.00036153644996058765
0.00037452221550445593
0.0003860419863239567
0.00039608547448104724
0.00040465073100064825
0.0004117431559552617
0.0004173744900598599
0.0004215618093761658
0.00042432654566622134
0.0004256935538493607
0.00042569024611956483
0.0004243458104338794
0.0004216905299520332
0.0004177552201656171
0.00041257080248921583
0.0004061680376997368
0.0003985774507734543
0.0003898294918220745
0.0003799549981953502
0.0003689860539198921
0.0003569573901084485
0.0003439085428633984
0.0003298870981200016
0.0003149535292099868
0.00029918840919697625
0.00028270320985675224
0.0002656565491757402
0.0002482786594166976
0.00023090787027640157
0.00021404318691597564
0.00019841371981389576
0.00018505169010799705
0.00017532076427598123
0.0001708036298844673
5.221108096631435e-05
6.615684524289877e-05
8.804123053535695e-05
0.00011287480145603929
0.00013857755883405864
0.0001642813507586013
0.00018954933845738195
0.00021411594601693186
0.0002377944703720579
0.0002604407088661924
0.00028193741652755676
0.0003021872529407587
0.0003211093976949078
0.00033863777518697454
0.00035471995064804973
0.00036931625569466765
0.0003823989381705826
0.00039395125013108145
0.0004039664497500504
0.0004124467250413475
0.00041940206293494445
0.0004248490934655421
0.00042880993961591117
0.0004313111011555636
0.00043238239721334027
0.00043205598840374897
0.00043036549586334555
0.00042734523213276476
0.0004230295579406097
0.00041745238011321956
0.0004106468096673931
0.0004026450065154391
0.00039347824945855825
0.00038317728938329365
0.0003717730732264617
0.0003592979719212897
0.00034578771637876936
0.00033128435683915327
0.00031584073796241336
0.000299527266482075
0.0002824422066719625
0.000264727469112664
0.0002465929722340319
0.0002283541582404829
0.00021048854740375077
0.0001937156249910879
0.00017909164481516425
0.00016807096715658486
0.00016241519360114557
4.6717663195909505e-05
6.355221900799534e-05
8.769708022335591e-05
0.0001140816067326271
0.00014095352479339014
0.00016761929087121317
0.0001937205903242309
0.00021902657791603858
0.0002433651597951316
0.0002665972867285574
0.00028860655292800683
0.00030929478867108644
0.0003285800945678806
0.00034639582871498226
0.0003626898864693242
0.00037742397861260674
0.0003905727881869377
0.0004021229737657949
0.00041207203130183047
0.00042042704804276873
0.00042720339034816766
0.0004324233680568469
0.0004361149146226717
0.00043831031665452185
0.0004390450201784781
0.00043835653486191484
0.0004362834522874451
0.0004328645906431616
0.0004281382763148653
0.0004221417732351201
0.00041491087397581717
0.00040647967322440077
0.00039688055566478237
0.00038614444836511245
0.00037430141581349394
0.00036138171917014556
0.0003474175292446402
0.00033244559064628785
0.000316511308987532
0.0002996750193725909
0.00028202166976807545
0.00026367594289810237
0.0002448261271646955
0.00022576200139481383
0.00020693437601481432
0.00018904451051530953
0.0001731616578692948
0.0001608241963602319
0.00015398391432498823
4.167630167193535e-05
6.171530186356038e-05
8.80403638785086e-05
0.00011586938409452196
0.000143845931033328
0.00017144068363794706
0.0001983609500308694
0.00022440170735721777
0.00024939957247242155
0.00027321670032947205
0.00029573488342746483
0.0003168534189242799
0.00033648833307478566
0.000354571974599557
0.00037105255937460347
0.00038589350294695703
0.0003990724993286746
0.000410580364996839
0.000420419695915178
0.0004286033967092134
0.000435153142217701
0.0004400978268159996
0.0004434720489228525
0.0004453146688300785
0.0004456674687288496
0.0004445739354327612
0.00044207817941436985
0.000438223998783128
0.00043305409403903317
0.00042660943912843185
0.0004189288168932663
0.00041004853306535975
0.00040000233356719204
0.0003888215668353902
0.0003765356592284498
0.00036317301249429683
0.0003487624966220105
0.0003333358145401951
0.00031693118398442725
0.00029959906417279653
0.0002814111355719131
0.0002624745687391266
0.00024295503930001636
0.0002231143001627555
0.00020337156997506805
0.00018440107317951458
0.0001672723461879838
0.0001535976097424716
0.00014552794079182314
3.728881005271212e-05
6.07933381857295e-05
8.912587414340794e-05
0.00011827360044127413
0.00014729031012817242
0.00017578547101948486
0.0002035152608436531
0.00023029036477173557
0.0002559497420842231
0.00028035260054446966
0.00030337622464390326
0.00032491570153125605
0.0003448840850489877
0.0003632124224453737
0.0003798494293121706
0.0003947607628123637
0.0004079279230983075
0.00041934685100527473
0.00042902630537101563
0.00043698610506308523
0.00044325531442712527
0.0004478704399434842
0.0004508736928675054
0.00045231135928346485
0.0004522323065394296
0.0004506866442517666
0.0004477245494630727
0.00044339525938279694
0.0004377462315946844
0.00043082247082365505
0.00042266602355252704
0.0004133156474319919
0.0004028066724183741
0.0003911710864946955
0.000378437903475586
0.00036463390861273735
0.00034978493795020043
0.0003339179445199601
0.0003170642651950576
0.00029926477492551377
0.0002805780898652758
0.000261093823588552
0.00024095441195076827
0.00022039170185769296
0.0001997889450289721
0.00017978459963799453
0.00016143431993980865
0.00014641008060623314
0.00013706808526058764
3.3867912469265354e-05
6.092045263310185e-05
9.099709161604728e-05
0.00012132795511032723
0.00015132479596127195
0.0001806983920728216
0.00020923439671200958
0.00023674828639204802
0.0002630746692526872
0.00028806551795680614
0.0003115908838091078
0.000333540040967881
0.0003538223223941809
0.0003723673893567109
0.00038912488304877757
0.0004040635060091796
0.0004171696294265783
0.00042844554270260037
0.0004379074646985463
0.00044558342823997543
0.0004515111350492995
0.0004557358605386483
0.00045830846922929956
0.00045928358370245204
0.0004587179340919236
0.00045666890189915077
0.0004531932616851532
0.0004483461170765651
0.00044218002348776883
0.0004347442889693307
0.000426084446702169
0.0004162418981546281
0.00040525373550212975
0.0003931527669481838
0.000379967791592714
0.00036572420592811917
0.00035044507979975297
0.00033415292989028423
0.0003168725692774435
0.00029863567046557895
0.0002794881380483216
0.00025950222280762906
0.00023879686419237694
0.0002175726627884113
0.00019617319193369095
0.00017519281222006295
0.0001556580466791862
0.00013928233224133867
0.00012862824863642185
3.1948535698427213e-05
6.219146897034392e-05
9.368488144846079e-05
0.00012506524171504386
0.00015599117110903438
0.00018623009106729169
0.0002155764071593179
0.0002438390517323863
0.00027084139392705945
0.0002964238111373415
0.0003204464312580031
0.00034279124610350477
0.00036336333665118264
0.00038209117399923997
0.0003989260704223161
0.0004138409128657074
0.0004268283381645588
0.0004378985152807394
0.0004470766913268197
0.0004544006400799911
0.0004599181282048363
0.0004636844888428991
0.00046576036713674463
0.0004662096794163607
0.000465097808282162
0.0004624900402087163
0.000458450240690382
0.00045303975421614713
0.00044631651222888744
0.00043833433142733194
0.00042914238715769846
0.00041878485230721553
0.0004073007015516775
0.0003947236951696585
0.00038108257812872245
0.0003664015628074865
0.0003507012147905288
0.0003339999438286582
0.0003163164406931134
0.0002976736416381325
0.00027810523609372715
0.00025766654148596174
0.00023645312169814233
0.00021463357426976606
0.00019250888944962637
0.00017062174312335547
0.00014995370472392405
0.00013223708828166
0.00012023595757961908
3.225986673336994e-05
6.464118288162431e-05
9.720853728754611e-05
0.0001295187986703027
0.00016133622690056126
0.00019243849306721625
0.00022260791471222365
0.00025163545111119386
0.0002793262605517972
0.0003055047567058917
0.00033001855402733975
0.0003527411039581317
0.00037357301038609534
0.0003924421239270106
0.0004093025845686975
0.0004241330213617388
0.0004369341317860048
0.00044772585738719965
0.0004565443517104172
0.00046343890679695517
0.0004684689703345744
0.000471701350844711
0.00047320767590364643
0.00047306214016688516
0.00047133955685547615
0.00046811370864447034
0.0004634559813679806
0.0004574342561480433
0.00045011203188579155
0.0004415477499797238
0.0004317942962704643
0.0004208986614367041
0.0004089017506812018
0.0003958383474698663
0.00038173725623550205
0.0003666216789200619
0.00035050992654772086
0.0003334166417220004
0.0003153548335958345
0.00029633924708741114
0.000276391989970556
0.0002555521046342445
0.00023389227793581388
0.0002115489606912745
0.00018877858495274056
0.00016606564995463733
0.0001443310305542143
0.00012529924309983957
0.00011192305894073567
3.511809609190261e-05
6.824286161725629e-05
0.00010157909564620273
0.0001347245180848213
0.00016741347887661224
0.00019939050747129624
0.0002304058246873065
0.0002602211333191446
0.0002886164106490072
0.00031539579692687025
0.0003403919863031005
0.00036346894617899424
0.00038452300081201057
0.0004034824442212013
0.0004203059263355873
0.0004349798954770675
0.0004475153871135993
0.000457944431005655
0.00046631631426982526
0.0004726938938882323
0.00047715010507293535
0.00047976476644024654
0.00048062174239027337
0.000479806489238206
0.0004774039851753571
0.0004734970248929845
0.0004681648470043281
0.0004614820553204105
0.0004535177925946637
0.0004443351266788953
0.0004339906134825214
0.00042253400836800715
0.00041000810775613025
0.0003964487164688587
0.000381884755338958
0.0003663385510126937
0.0003498263914796376
0.00033235949745928607
0.00031394567180069715
0.0002945920865560177
0.0002743100317950145
0.00025312315384126623
0.0002310821329693807
0.0002082917576769155
0.00018496295381270367
0.0001615169871438564
0.00013879916680138412
0.00011849605606386938
0.00010372663806346768
4.003740293889017e-05
7.292771053287996e-05
0.00010680425009792569
0.00014072336151182323
0.00017428529496841768
0.0002071641374901228
0.00023905942223338987
0.0002696925936379072
0.00029881154108583863
0.00032619595730556234
0.0003516615027358908
0.00037506217004610074
0.00039629077770485623
0.0004152777755882756
0.0004319886734502826
0.00044642045580796364
0.00045859734879175594
0.00046856627245162405
0.00047639225942474293
0.0004821540588366784
0.00048594008134672496
0.0004878447832806748
0.0004879655383602255
0.00048640000620876463
0.00048324397770072215
0.0004785896574862328
0.00047252433230523714
0.00046512936847454764
0.0004564794817206163
0.0004466422260967455
0.0004356776551498971
0.00042363811726022643
0.000410568158109969
0.00039650451708782855
0.00038147622248653007
0.0003655048153424641
0.0003486047687923657
0.0003307842283683792
0.00031204629685126337
0.00029239126105752946
0.00027182048138868053
0.0002503432983747394
0.00022798961734334
0.00020483367829642355
0.00018104104854331862
0.00015696644909789093
0.00013336651942992314
0.00011185737078304607
9.569025858533713e-05
4.6314764875348826e-05
7.861304302426297e-05
0.00011289397364770565
0.0001475643471004038
0.0001820255181595661
0.00021585109706539796
0.0002486729504068549
0.00028016157373805816
0.0003100259683901141
0.00033801743927720394
0.00036393294489331525
0.0003876166537698174
0.00040895943194693685
0.00042789644335019324
0.00044440324969800436
0.0004584908694315188
0.00047020024959656563
0.00047959655221870327
0.00048676357974614885
0.0004917985788670174
0.0004948075797698188
0.0004959013557623341
0.000495192029633018
0.0004927903091342947
0.0004888033036229895
0.00048333285533314085
0.00047647430968526615
0.00046831564715718983
0.0004589369025171306
0.0004484098040120715
0.00043679757423895375
0.0004241548452157952
0.0004105276524431666
0.00039595348692149737
0.0003804614013590815
0.0003640721895471812
0.00034679869050545197
0.0003286463197263914
0.000309614014423331
0.000289695929551544
0.00026888450226966856
0.00024717605910716805
0.0002245813088681625
0.00020114567534972006
0.00017699064854316326
0.00015240310204873202
0.00012804063502189087
0.00010541585289123497
8.786566531513935e-05
5.352178277335679e-05
8.522562073618564e-05
0.00011986614236268693
0.00015530802367896054
0.00019072270160672464
0.00022556006802882186
0.00025936878644216963
0.0002917579569820231
0.0003223910382966774
0.0003509873790134608
0.00037732422628504426
0.00040123697360621547
0.00042261713527997507
0.0004414082432458921
0.00045760015720523837
0.0004712223693759689
0.00048233686277828435
0.0004910309985161284
0.0004974107969118631
0.0005015948622956223
0.0005037090961019241
0.0005038822554695049
0.0005022423476481639
0.0004989138037175136
0.0004940153459646434
0.00048765844838268187
0.0004799462856151647
0.0004709730690660008
0.00046082367715996185
0.00044957349785714514
0.0004372884141205371
0.0004240248763341042
0.0004098300194597836
0.000394741797376986
0.0003787891234377941
0.0003619920268805054
0.00034436186317663564
0.00032590165965156175
0.00030660674923003274
0.0002864659718095823
0.0002654639613457073
0.00024358551407112057
0.00022082405062304894
0.0001971985080567863
0.0001727887211726332
0.00014781462240298185
0.00012282811168510185
9.920722290941011e-05
8.031514772599269e-05
6.145397327149265e-05
9.271518459076326e-05
0.00012775185405389502
0.00016403052536916065
0.0002004841246331331
0.00023642077157996343
0.00027129136187059306
0.00030463325405318594
0.00033605791231818087
0.0003652497385545075
0.000391966222998535
0.0004160362836655625
0.0004373560826484651
0.0004558825833402076
0.00047162549479944424
0.00048463834286202937
0.0004950093503331209
0.0005028526776721201
0.0005083004189736261
0.0005114955956708465
0.0005125862591874704
0.0005117207112266319
0.0005090437775296828
0.0005046940248463129
0.0004988017866722647
0.0004914878556358031
0.00048286270419895915
0.0004730261063417304
0.00046206704784618646
0.00045006382937872087
0.0004370842833179879
0.0004231860414486909
0.0004084168060984102
0.0003928145924582647
0.0003764079257333275
0.00035921599529403173
0.00034124879243094605
0.000322507294571839
0.00030298381812281287
0.0002826627669440276
0.0002615222016883465
0.00023953705490229203
0.00021668567920315475
0.00019296342217160162
0.00016841200516843802
0.00014318766010608212
0.00011773456008939123
9.327042708956173e-05
7.311481064171285e-05
7.00197505342654e-05
0.00010106031350766984
0.00013660053610915215
0.00017382839875087672
0.0002114408263413388
0.000248589082183726
0.00028461200592342137
0.00031896478202364195
0.0003512007446404127
0.0003809672536607068
0.0004080033985243377
0.0004321356524771326
0.00045327068156772584
0.00047138574109413224
0.0004865175365900909
0.0004987504924690385
0.000508205250231257
0.0005150280165968365
0.0005193811641080738
0.0005214352895183941
0.0005213627766552874
0.0005193327956030658
0.0005155075962627766
0.0005100399147529372
0.000503071297441643
0.0004947311516608768
0.0004851363475512836
0.00047439121675453864
0.0004625878170615063
0.0004498063552096004
0.00043611568143900434
0.0004215737886204969
0.000406228265833679
0.00039011667179325815
0.00037326680859117506
0.00035569689260953025
0.00033741564004174035
0.00031842231421614487
0.0002987068301069992
0.0002782500965101128
0.00025702493771946833
0.00023499826393829
0.00021213587324470703
0.000188412953761078
0.0001638377282437881
0.00013850834626976083
0.00011276463453649242
8.764762932236071e-05
6.63589575073748e-05
7.918868896566565e-05
0.0001102705756874467
0.0001464852289559509
0.00018482451284975118
0.00022375398548405882
0.00026225348204975997
0.00029953492992338624
0.0003349606400067009
0.0003680202249677249
0.000398323294394345
0.00042559392349934307
0.00044966255573640403
0.0004704546631273924
0.0004879769184445306
0.000502302087580098
0.0005135538376955913
0.000521892428563184
0.0005275019521235854
0.0005305794894323886
0.000531326306582836
0.0005299410276220404
0.0005266146024249815
0.0005215268216849586
0.0005148441068970228
0.0005067183076606604
0.0004972862607730217
0.0004866698968523896
0.0004749767145437227
0.00046230047579402247
0.0004487220060214709
0.0004343100092595259
0.0004191218304175149
0.0004032041151286994
0.0003865933331419331
0.00036931614511702935
0.0003513896067555094
0.0003328212210232825
0.0003136088730151757
0.0002937407203744848
0.00027319518009626164
0.00025194128190252893
0.00022993992233399815
0.00020714713366104168
0.00018352186883866255
0.00015904447248240338
0.00013376296534859517
0.00010792215778140756
8.238381344586813e-05
6.016538274963078e-05
8.897055767192468e-05
0.00012038797709931499
0.00015750862300993918
0.00019717550841119027
0.0002376230991789563
0.0002776432440879633
0.0003163046101547983
0.0003528655673265948
0.0003867473928938313
0.00041752338495591095
0.00044490892065970726
0.00046874809230365946
0.0004889966709001285
0.0005057026841655274
0.0005189862693599238
0.0005290202905123048
0.0005360128150338449
0.0005401921052479739
0.0005417943911082503
0.0005410543925768324
0.000538198361211754
0.0005334392990345709
0.0005269739691704156
0.0005189813162801723
0.0005096219471706384
0.0004990383689607797
0.00048735573379455043
0.0004746828889611272
0.00046111357587225345
0.0004467276591175025
0.00043159229755360167
0.0004157629936680361
0.0003992844763345512
0.00038219138686000886
0.00036450875042775156
0.00034625222648909133
0.0003274281447455591
0.00030803335174082314
0.00028805492304707187
0.0002674698497820476
0.00024624491155226917
0.00022433716026034272
0.00020169590893606427
0.00017826825393751133
0.00015401320415584324
0.00012893881382821976
0.0001032103673714759
7.752566488297452e-05
5.4679853047448884e-05
9.940720045836213e-05
0.0001314894764188857
0.0001698105818442497
0.00021108143473127177
0.00025329658124643723
0.00029503884387593654
0.00033521486071852073
0.00037296771944318724
0.0004076475056091068
0.0004387959569029996
0.00046613027403380654
0.0004895223083187471
0.0005089737319374245
0.0005245892828160509
0.0005365503243406778
0.0005450905156999965
0.0005504747513833832
0.0005529819137573864
0.0005528914922385544
0.0005504737863423093
0.0005459832168981623
0.000539654190194935
0.0005316989594262005
0.0005223069756371373
0.0005116452923069786
0.000499859666906406
0.0004870760787487747
0.00047340244954605304
0.00045893040897363374
0.00044373699204418494
0.0004278861891897002
0.0004114302952381745
0.00039441102174923024
0.0003768603502803552
0.0003588011139329931
0.0003402473029205528
0.0003212040992257922
0.00030166765893234514
0.0002816246839281142
0.000261051867620817
0.00023991538358386573
0.00021817076108912576
0.0001957638813747603
0.00017263477679702887
0.00014872848924851005
0.00012402527004673507
9.863231506056772e-05
7.31193034195261e-05
5.0074135891410614e-05
0.00011057068455304835
0.00014369164923107482
0.00018357807878791087
0.00022679848826122242
0.0002710856301371677
0.00031478523773345644
0.00035661990036341156
0.0003956062841372259
0.00043102352905749274
0.0004623916423273786
0.0004894461649301097
0.0005121067686662965
0.0005304418254560273
0.0005446321692093841
0.0005549369731443701
0.0005616637890692453
0.0005651438260713172
0.0005657127266139774
0.0005636965174669934
0.0005594020706776157
0.0005531112616528394
0.0005450779997879908
0.0005355273783516151
0.0005246563024681261
0.0005126350779690308
0.000499609561877777
0.00048570357816114036
0.00047102138669303877
0.00045565005920283116
0.0004396616652401848
0.0004231152065868985
0.00040605826293898487
0.000388528327759661
0.00037055382338309784
0.00035215479090758284
0.00033334325525003253
0.000314123271243716
0.00029449066590955797
0.00027443250993916665
0.00025392638718445287
0.0002329396037656685
0.0002114286323840769
0.00018933943349116984
0.00016661014184425233
0.00014317992257177153
0.00011901510358829343
9.419145335319257e-05
6.920649133064826e-05
4.652585414999268e-05
0.00012256549079023776
0.00015715843247357614
0.00019905878297224992
0.0002446561498668084
0.0002913825284462072
0.00033730879912128035
0.0003809476763695032
0.000421179636133026
0.00045721846877795635
0.00048858000423822
0.0005150431047030948
0.0005366031934819573
0.0005534225436361197
0.0005657820120132417
0.000574037838097383
0.0005785856165693824
0.0005798321651165698
0.0005781749837765483
0.0005739883791260254
0.0005676150440052504
0.0005593618432740645
0.0005494986628959482
0.0005382593578937054
0.0005258440327075368
0.0005124220744208065
0.0004981355199594008
0.00048310246768454464
0.0004674203426791464
0.0004511688972911568
0.0004344128789948511
0.0004172043311873852
0.0003995845134491492
0.00038158543966747293
0.00036323103821164483
0.0003445379405168095
0.0003255159052007672
0.0003061678865279861
0.0002864897616810133
0.00026646974576469
0.0002460875558748777
0.0002253134550382891
0.00020410745733020027
0.0001824193176742762
0.00016019077215827018
0.00013736380694853674
0.00011390605732026166
8.989244255780856e-05
6.581933320272095e-05
4.4169263488978815e-05
0.00013553424750077439
0.00017211312208752477
0.00021658003872867816
0.000265080579838385
0.0003146849570057977
0.000363138858496777
0.0004087155519848233
0.00045015330728203826
0.00048661517587500046
0.00051764198519727
0.000543092690237553
0.0005630765746576071
0.0005778846033799691
0.0005879263318543658
0.0005936764928482451
0.0005956330089666421
0.0005942863260566219
0.0005900987958017622
0.0005834922816817312
0.0005748420529002112
0.0005644751910239857
0.0005526720236075076
0.0005396694228251469
0.0005256651099062562
0.0005108223620569946
0.0004952747202802333
0.0004791304470910691
0.0004624765902409248
0.00044538258114628314
0.00042790334319313037
0.0004100819126048338
0.00039195158882543657
0.0003735376367687413
0.0003548585631553107
0.0003359269861184919
0.00031675011356250134
0.00029732984375557917
0.0002776625044930337
0.0002577382601017815
0.0002375402486335559
0.0002170435861584735
0.0001962145404262459
0.00017501055650265163
0.00015338275776191287
0.0001312851289411623
0.00010870273902683858
8.574220474553556e-05
6.297431465248436e-05
4.303096702818815e-05
0.00014966745579150927
0.00018885639162736205
0.00023657580917511053
0.0002886269646762254
0.0003416284622003463
0.00039293488722181127
0.00044054807281626606
0.00048306628712301263
0.0005196313264480976
0.0005498554464183002
0.0005737305803792453
0.0005915307182352314
0.0006037187639646243
0.0006108659576963859
0.0006135878726148545
0.0006124975691145867
0.000608174235113262
0.0006011445208917203
0.0005918735005210449
0.0005807624298089807
0.0005681509523603789
0.0005543219488349277
0.0005395077272673752
0.0005238966690853086
0.0005076397660612159
0.0004908567160376995
0.00047364140544693765
0.00045606671120522273
0.00043818861853572237
0.0004200496868513587
0.00040168191230444204
0.0003831090397656401
0.00036434837365476795
0.0003454121296324103
0.0003263083602146377
0.0003070414790579695
0.00028761240334131805
0.00026801833476295544
0.00024825221319858847
0.00022830191501569002
0.00020814935627570265
0.00018776985967318793
0.000167132604340521
0.00014620411795079273
0.0001249598867227735
0.0001034188585394947
8.175123269548296e-05
6.066750344222314e-05
4.2998843638409644e-05
0.00016521848866220414
0.00020779314420035357
0.0002596254944525973
0.0003160247550688296
0.000373029915514186
0.0004275202745250807
0.00047719567838972853
0.0005205328232195551
0.0005567057886176917
0.0005854698669236838
0.0006070242711531266
0.0006218736831922402
0.0006307046292735356
0.0006342857024225195
0.0006333941697543363
0.0006287670071075989
0.000621072058106558
0.0006108943341879038
0.0005987328144255745
0.0005850039266160892
0.0005700488310016835
0.0005541424868517991
0.0005375031781336017
0.0005203016946859654
0.0005026697301202781
0.00048470729918464756
0.00046648912773394446
0.00044807005507611637
0.00042948953246343323
0.0004107753182470452
0.0003919464703941163
0.0003730157278357212
0.0003539913581501036
0.0003348785334612437
0.0003156802813206342
0.000296398044649433
0.00027703187689611677
0.000257580299235936
0.0002380398631451446
0.0002184045089074902
0.00019866492109327466
0.0001788083316449406
0.00015881980011638895
0.00013868742901274728
0.00011841782798739811
9.807983085079541e-05
7.793512438380015e-05
5.887307085103152e-05
4.38557818086837e-05
0.00018252623149229294
0.00022947277186584678
0.00028651071591467565
0.0003482415893934509
0.0004099456023953038
0.0004679230812087141
0.000519551502702484
0.0005632345661136967
0.0005982702957091408
0.0006246644851092984
0.0006429251937219677
0.0006538702558567036
0.0006584680442786903
0.0006577192375669734
0.0006525780685173268
0.0006439064314388172
0.000632452543754977
0.000618846307753261
0.0006036049641537071
0.0005871443104178821
0.000569792271551384
0.0005518028067071968
0.0005333689984796898
0.0005146347532828233
0.0004957049079755262
0.00047665375288981885
0.0004575320952047579
0.0004383730363721872
0.00041919664873892157
0.00040001372653810546
0.00038082876569227135
0.0003616423018184763
0.00034245271020484527
0.0003232575475316818
0.00030405449421931055
0.0002848419399925353
0.0002656192458808322
0.00024638671782796007
0.00022714534926097666
0.00020789645105613112
0.000188641428417435
0.00016938228074402025
0.0001501241297290042
0.0001308828587533272
0.00011170563734731262
9.272571660388992e-05
7.431624465094211e-05
5.7546294119537056e-05
4.534757966099987e-05
0.00020204944719749102
0.0002546504118815507
0.0003182997480725918
0.0003865744312930389
0.00045374826360685094
0.0005154225006002834
0.0005686600522134579
0.0006118939745463884
0.0006446969134446368
0.0006674818870443294
0.0006811996905157515
0.0006870787283928146
0.0006864286418648902
0.0006805093282700831
0.0006704553960320675
0.0006572418512550771
0.0006416772489055061
0.0006244131622358838
0.0006059619491639731
0.000586717565434567
0.0005669762940786984
0.0005469557308098098
0.000526811307388653
0.000506650194508794
0.00048654272839141204
0.0004665316462749985
0.00044663946144826694
0.00042687430150955
0.00040723450079399186
0.00038771219500762546
0.0003682961216384668
0.0003489737880236493
0.0003297331319844308
0.00031056376848039865
0.0002914578902746497
0.00027241087210677704
0.00025342161867546127
0.00023449270203213288
0.00021563036478052834
0.0001968445450684643
0.00017814925870872234
0.00015956406992256126
0.00014111828022213518
0.00012286160515978552
0.00010489054354912127
8.741435212691618e-05
7.092529738758625e-05
5.663022638125866e-05
4.7235094445926304e-05
0.00022441992219381668
0.0002843820963122149
0.00035647527282929066
0.00043278037116215213
0.0005062273520619992
0.0005715957262771568
0.0006257051994216073
0.0006672134375981053
0.0006962069385454597
0.0007137265347436747
0.0007213330913967145
0.0007207704342736611
0.0007137390420655728
0.0007017666901297652
0.0006861511468967362
0.0006679498174304525
0.0006479961345758311
0.0006269285682840217
0.0006052234094092291
0.00058322637868775
0.0005611806831435826
0.0005392506936862933
0.0005175412700692644
0.0004961131711106154
0.0004749951416488893
0.00045419328159316337
0.00043369824869571164
0.0004134907665548034
0.0003935458248289661
0.0003738358802898672
0.00035433329934080163
0.0003350122258300572
0.0003158500117406906
0.00029682831159896653
0.000277933913543304
0.0002591593613406242
0.00024050341467574495
0.00022197140599855087
0.0002035755946145366
0.0001853357210570944
0.00016728018836370756
0.0001494487789150396
0.000131898878487916
0.00011471961590470319
9.806413743941041e-05
8.222427000594872e-05
6.780240090572957e-05
5.6063630719189626e-05
4.9315771301250514e-05
0.0002505269039870696
0.000320176333982619
0.00040313126707315844
0.0004892648004783712
0.0005697142664522555
0.000638350851190477
0.0006919532299302885
0.000729754391106192
0.0007527206720120562
0.0007628158917025522
0.0007624025798678315
0.0007538337443217897
0.0007392209288548814
0.0007203340987781738
0.0006985854856706268
0.0006750589995470086
0.0006505592209415685
0.0006256645682551339
0.0006007766841112916
0.0005761627141904528
0.0005519897394567152
0.0005283519034154391
0.0005052912942365328
0.0004828137524087162
0.0004609006908826674
0.00043951785507754745
0.0004186217758710881
0.00039816450805785306
0.000378097110278951
0.00035837221172913225
0.0003389459236841054
0.0003197792863558818
0.0003008393900626599
0.00028210027118117867
0.00026354365601578036
0.00024515960951393683
0.0002269471433943549
0.00020891485719928184
0.0001910817423345459
0.00017347840710937355
0.00015614925052268857
0.00013915667465115139
0.00012258961157128357
0.00010658118728635526
9.134579512858572e-05
7.725654089588606e-05
6.499697773184888e-05
5.578760531732326e-05
5.1426265115581376e-05
0.0002816558309563534
0.00036424281948283746
0.0004612821085160203
0.0005593505590240691
0.0006472250738397602
0.000717911907736395
0.0007686058355770083
0.0007997157939349613
0.0008136212611615667
0.0008135729408690655
0.0008029200004200575
0.0007846710599413865
0.0007613095144608484
0.000734767263120713
0.0007064796825830603
0.0006774715566058546
0.0006484461086819549
0.0006198641922719544
0.0005920092799285328
0.000565038232632429
0.0005390196764892189
0.00051396234156378
0.0004898356256432168
0.00046658431294026005
0.00044413899220991856
0.000422423363334891
0.0004013593250715309
0.0003808705028128089
0.0003608846968789761
0.0003413355987937171
0.00032216402521568685
0.0003033188481289035
0.0002847577488793762
0.0002664478879472412
0.0002483665592611552
0.000230501887100294
0.000212853628314785
0.00019543417147225615
0.00017826989644959912
0.00016140321088939464
0.00014489588900641644
0.00012883495177033763
0.00011334353226016859
9.860146952516273e-05
8.488432998633025e-05
7.263390260821986e-05
6.25654171628794e-05
5.574932808163353e-05
5.343839171769184e-05
0.0003197257113799108
0.00041991434517683863
0.0005353564112450685
0.0006476541970713301
0.0007425866664666215
0.0008126816617532429
0.0008564827201735885
0.0008765525818224321
0.0008774039188676482
0.0008639579341149502
0.0008406587876976856
0.0008111096237413247
0.0007780273106969396
0.0007433502179569863
0.0007083955828173743
0.0006740139893960698
0.0006407198840995294
0.0006087934419322602
0.0005783562999309953
0.0005494260457407205
0.0005219544906983162
0.0004958540420612803
0.0004710155705733175
0.0004473203191372756
0.0004246477036469181
0.0004028803251512078
0.0003819071207129495
0.00036162529878076594
0.00034194150602087403
0.0003227725338538009
0.00030404577724473154
0.00028569959305935146
0.00026768366171785413
0.0002499594281964897
0.0002325006835682549
0.0002152943460249501
0.0001983415142723433
0.00018165890597804634
0.00016528087967445764
0.00014926240870803293
0.00013368370033835854
0.00011865774854945247
0.00010434313228271778
9.096586596847342e-05
7.885521951045395e-05
6.849455430798444e-05
6.056517408833126e-05
5.5902546587530216e-05
5.525399456723989e-05
0.00036771480501223504
0.0004923903341406697
0.0006319960938026925
0.0007605804171821147
0.0008604428704973762
0.0009248271438447875
0.0009553998913425638
0.0009583597627573345
0.0009411958000142603
0.0009107630902156575
0.0008725045640937395
0.0008303660790653153
0.0007870202863612878
0.0007441696360931732
0.0007028252119429299
0.0006635280749682781
0.0006265118099028127
0.0005918163084431205
0.0005593648262881184
0.0005290148383751679
0.0005005908311917768
0.0004739049387333125
0.0004487695510808984
0.000425004713697047
0.00040244220973669576
0.0003809275811065899
0.00036032091409534317
0.00034049692885929333
0.0003213447231965671
0.00030276739801093347
0.00028468171294707156
0.00026701787136486485
0.00024971950469056134
0.0002327439115152899
0.00021606260386085663
0.0001996622219740665
0.0001835459036951217
0.00016773524424907
0.00015227307537034833
0.00013722746007928204
0.0001226975860407817
0.00010882268334586401
9.579561032670428e-05
8.388274867845684e-05
7.344915703515739e-05
6.497728571083998e-05
5.904406136153942e-05
5.620517722745841e-05
5.680037713777766e-05
0.00043047159735307004
0.0005901003438570246
0.0007613532842948088
0.0009068640529343002
0.001005865923754969
0.0010552839217852778
0.0010630458338458779
0.0010409640885127211
0.0010001852814440614
0.0009493499545356245
0.0008944102042732147
0.0008391295911685995
0.0007857019644415179
0.0007352773080444217
0.0006883479850897836
0.00064501165215348
0.0006051419177110632
0.0005684953328022552
0.000534776428948012
0.0005036759379904074
0.00047489225943169307
0.0004481426817855322
0.0004231684842252722
0.00039973649768311535
0.00037763871709380477
0.00035669093439842886
0.00033673097434729445
0.00031761687649141466
0.0002992252220829995
0.0002814497190600353
0.00026420010999119006
0.0002474014432718444
0.00023099373887417048
0.00021493208210899247
0.00019918719042553968
0.00018374651996991637
0.00016861601385590325
0.00015382264957992955
0.00013941802875774254
0.000125483377549012
0.0001121364787691868
9.954113220344708e-05
8.791933604930788e-05
7.756435502398435e-05
6.884690327745546e-05
6.219542210880708e-05
5.802447301403973e-05
5.661461605011747e-05
5.802655463693912e-05
0.0005163525638645141
0.0007273302683928722
0.0009391277003326531
0.0010977963082267077
0.0011829009350365763
0.0012016357412755266
0.0011731485263496155
0.0011167785205230226
0.0010471339208867243
0.0009736047617944514
0.0009015899957560776
0.0008338523472540637
0.0007715583489473034
0.00071496969848517
0.000663870038011906
0.0006178158781259763
0.0005762781980523817
0.0005387187283594367
0.0005046283220168479
0.0004735439094565583
0.0004450537485772516
0.00041879658648162805
0.0003944579240287253
0.00037176515580547803
0.00035048253848873125
0.0003304064736347818
0.000311361330334902
0.00029319589258831636
0.0002757804450729453
0.000259004479796229
0.0002427749979613173
0.00022701538681651974
0.00021166486529646396
0.0001966785127553879
0.00018202792174042346
0.00016770254950885692
0.000153711885294158
0.00014008860105850122
0.0001268929047884629
0.00011421833374711989
0.00010219910357723769
9.101857762346775e-05
8.091678032250667e-05
7.219108528212292e-05
6.517803444501289e-05
6.020101148739279e-05
5.748439816814415e-05
5.708135602724085e-05
5.890018243430202e-05
0.0006409281950253869
0.0009294025410414075
0.0011894462192210702
0.001345807436280804
0.0013905190045927118
0.001354133261180027
0.0012729576061389128
0.0011738368319170066
0.0010723851304073185
0.000976410956323812
0.0008891341129992072
0.0008113450099315924
0.0007426607626863173
0.0006822045122107837
0.0006289525396038778
0.0005819004281234081
0.0005401343103545985
0.0005028541540594341
0.0004693740475582333
0.00043911245457160423
0.0004115789907668051
0.00038636088837048664
0.0003631105578831697
0.0003415347658708121
0.00032138551561898375
0.0003024525240369841
0.00028455711692711177
0.0002675473539362783
0.0002512942120775903
0.00023568868640681895
0.00022063970053742542
0.0002060727550296126
0.00019192927759933336
0.00017816667612345939
0.00016475913450591148
0.00015169923275093833
0.00013900051283272522
0.00012670113827528186
0.00011486877012806996
0.00010360660905413286
9.306001290650302e-05
8.342176634867785e-05
7.493138839451843e-05
6.785991993257202e-05
6.24697051318146e-05
5.89478016271139e-05
5.733969072348816e-05
5.7541534618603304e-05
5.9404955095095015e-05
0.0008354304705187796
0.0012436145399907965
0.0015468909101964267
0.0016572523043265949
0.0016132695237008098
0.0014894450377731286
0.00134120821498518
0.0011960899267962014
0.0010650870173439957
0.0009510249144057266
0.0008532238935657394
0.0007697486386929393
0.0006984075998300776
0.0006371553040372497
0.0005842244187431366
0.0005381424494472415
0.0004977040030747595
0.0004619299891651097
0.00043002683819508253
0.000401350542292685
0.0003753767093642834
0.0003516763507151534
0.00032989661641749586
0.0003097456039115015
0.00029098044163054353
0.00027339797792774506
0.000256827538329068
0.00024112533315778662
0.00022617019826955207
0.00021186043506222943
0.00019811158524326395
0.00018485503473712774
0.00017203739307325024
0.00015962064235425146
0.0001475830945778161
0.00013592123504030658
0.00012465255136525106
0.00011381942086191825
0.00010349397867178003
9.378345753985517e-05
8.483449413858619e-05
7.683298879380905e-05
6.999336247090193e-05
6.45293846835568e-05
6.060345696948584e-05
5.826787021619773e-05
5.74337223459012e-05
5.7909516702088895e-05
5.953848194718964e-05
0.0011736531326304747
0.0017579516819418804
0.0020486781671889883
0.0020089641349975277
0.0018029629187769473
0.0015661797401260583
0.0013497424476583465
0.0011668315759287085
0.0010164766077599974
0.0008936736011981615
0.0007930311355977558
0.000709878757170484
0.0006404672329122156
0.0005818771923300084
0.0005318605333576097
0.0004886888895791057
0.0004510290363688787
0.0004178463332115653
0.0003883318104220089
0.00036184769503255434
0.0003378868278130523
0.0003160423864771273
0.00029598521513322874
0.00027744677058108623
0.00026020623498552916
0.00024408074266140122
0.00022891795979616312
0.00021459046851292205
0.0002009915629650535
0.00018803218176849314
0.00017563879022068385
0.00016375209626504365
0.00015232654215252626
0.00014133056262168227
0.00013074763971491913
0.00012057820655795809
0.00011084243576779833
0.00010158384249712514
9.2873336283285e-05
8.481269592424271e-05
7.7535204451327e-05
7.119936493693567e-05
6.597015405832814e-05
6.198402045655421e-05
5.930273978827493e-05
5.787611501174882e-05
5.7541086014813785e-05
5.80736455841807e-05
5.931157844596279e-05
0.0018230676301085975
0.0026329040017652344
0.00267499961146064
0.0022817659071412547
0.0018695860788142257
0.0015327716252456353
0.001274040662391393
0.0010770870443946314
0.0009256728527999151
0.0008073419477824234
0.0007131532046720764
0.0006367971755150465
0.0005738108681623207
0.0005210057245275506
0.0004760735637181793
0.00043731963627421835
0.00040348173644854214
0.00037360670683875226
0.0003469652008816444
0.0003229921199954239
0.00030124445560271657
0.00028137106977146843
0.00026309076907120424
0.00024617621576114286
0.00023044200472180793
0.00021573575759934263
0.0002019314391062403
0.000188924342979379
0.00017662736461855898
0.00016496829862514662
0.0001538879885563675
0.00014333922373437638
0.0001332863301457345
0.00012370544146630638
0.00011458545870056104
0.00010592970036350853
9.775818095277072e-05
9.01102782590711e-05
8.304716848746663e-05
7.665271046446079e-05
7.103041885658492e-05
6.629313822839589e-05
6.254224246726579e-05
5.983677835286015e-05
5.816108154090901e-05
5.7408083709018785e-05
5.739455462229332e-05
5.7904935804112085e-05
5.875338924863405e-05
0.0034126796097740143
0.003967688235363821
0.00304715806537844
0.0022560853027180526
0.0017216327308706447
0.0013631628732023661
0.0011159746658735512
0.0009387975653444593
0.0008070835747625149
0.0007059083147327027
0.0006259386844764723
0.0005611415014354474
0.0005074943539139102
0.00046223828522006676
0.0004234321806148244
0.00038967895270372306
0.0003599525230629558
0.0003334856111620636
0.0003096951992892694
0.0002881319260302117
0.0002684450296594446
0.00025035761351372695
0.00023364890000438003
0.00021814130553873194
0.0002036909014731937
0.00019018029670155482
0.0001775132858298307
0.00016561081333240306
0.00015440794552342628
0.0001438516415743094
0.00013389918650410078
0.00012451720170652983
0.00011568118645546787
0.00010737556701873125
9.959423321009102e-05
9.234151225101688e-05
8.563344208337853e-05
7.94990223745189e-05
7.398079601095449e-05
6.913362965096901e-05
6.502002367911375e-05
6.17000757511446e-05
5.9215109775001e-05
5.75667557218564e-05
5.6697706018836665e-05
5.648439185079363e-05
5.675194052883816e-05
5.730848702827642e-05
5.7939741438425455e-05
0.006848165366617207
0.004211969013864113
0.0026191152790615768
0.0018428338717894287
0.001396345711953193
0.0011187576872707789
0.0009311088318564555
0.0007963800782321063
0.0006949082156367031
0.0006155570797220227
0.000551590344483706
0.0004987221824083027
0.0004541074203103866
0.00041578981436289923
0.000382384076643224
0.0003528845344025602
0.0003265455397613174
0.0003028042360555882
0.00028122922468538827
0.0002614855715495771
0.0002433104099484286
0.00022649558702270107
0.00021087509708220373
0.00019631583441648395
0.00018271069123674462
0.00016997334185495268
0.00015803426064992692
0.00014683765949842148
0.00013633912486157792
0.00012650380085710392
0.00011730501183594753
0.00010872325177933566
0.00010074549085380683
9.336476154376481e-05
8.65799845558826e-05
8.039597082961682e-05
7.482347884192923e-05
6.987910195252655e-05
6.558460066768166e-05
6.196509710051716e-05
5.904538949972206e-05
5.684368165283349e-05
5.536245227721732e-05
5.457708504568432e-05
5.4424022421109876e-05
5.4791314056019395e-05
5.551568310363239e-05
5.638933684044115e-05
5.712635649191939e-05

SCALARS STRAIN_XX float 1
LOOKUP_TABLE default
0.00025216689136864053
-0.0021065332615864745
1.580245546262994e-05
-0.0003970874021018431
0.00025211111661695314
0.0002519437985280049
0.0002516649556451486
0.0002512746190240676
0.00025077283245786595
0.0002501596527919319
0.00024943515032836347
0.000248599409319593
0.0002476525285507838
0.00024659462201025715
0.00024542581964708617
0.0002441462682147951
0.0002427561321995329
0.0002412555948310012
0.00023964485917378118
0.00023792414929627026
0.0002360937115136911
0.00023415381570080895
0.00023210475666963918
0.0002299468556059591
0.00022768046155753987
0.00022530595296596468
0.00022282373923237174
0.00022023426230602904
0.00021753799828287267
0.0002147354589995148
0.00021182719360598838
0.00020881379009835346
0.00020569587678985132
0.0002024741236965966
0.00019914924381086172
0.0001957219942318087
0.00019219317712024448
0.00018856364043999237
0.0001848342784444919
0.00018100603186287675
0.00017707988773488356
0.0001730568788387613
0.00016893808265061984
0.0001647246197673878
0.0001604176517186729
0.00015601837808540495
0.00015152803283462277
0.00014694787977032834
0.00014227920699011205
0.00013752332022512297
0.00013268153492752757
0.00012775516695403893
0.00012274552167587703
0.0001176538813246167
0.00011248149035831536
0.0001072295386027153
0.00010189914188685201
9.649131984951773e-05
9.100697054121145e-05
8.544684138261016e-05
7.981149596242472e-05
7.410127606140293e-05
6.831625816953492e-05
6.245620361425112e-05
5.6520501230688906e-05
5.0508101269972766e-05
4.441743894447077e-05
3.824634563160236e-05
3.199194527668883e-05
2.5650532918556398e-05
1.9217431466440893e-05
1.2686821826569938e-05
6.051540133109219e-06
-6.971659256027087e-07
-7.569932026032979e-06
-1.457963682050499e-05
-2.174184386085883e-05
-2.9075349113594738e-05
-3.660286509360542e-05
-4.435188336820951e-05
-5.235577220139877e-05
-6.065518740794827e-05
-6.929990511591244e-05
-7.835122984917045e-05
-8.788519769850059e-05
-9.799689462141378e-05
-0.00010880636446710138
-0.00012046682483646742
-0.00013317630197636062
-0.00014719444807878134
-0.00016286741896787138
-0.00018066566710023225
-0.00020124312455556707
-0.0002255333415036526
-0.00025491192043242735
-0.0002914879668223999
-0.00033864463380043524
-0.0004022120152403811
-0.0004926896315947463
-0.0006331760444695288
-0.0008652354021886088
-0.001359826817184502
-0.001907860161574315
-0.0006911692152419763
0.0005792122684127711
0.0004172441271706917
0.00036180246754438953
0.00029822403497354656
0.000253679258325944
0.00021944112156972132
0.00019289561463454866
0.00017166260591251693
0.00015428588198470786
0.00013976499448079026
0.00012741224779044344
0.00011673943038840941
0.00010739261232130887
9.910993057522993e-05
9.169428998202683e-05
8.499511942055226e-05
7.889592313852146e-05
7.330560146270111e-05
6.81522848760503e-05
6.33788777593318e-05
5.893978742826944e-05
5.479848911554017e-05
5.092568979960226e-05
4.729792713218197e-05
4.3896488511622946e-05
4.0706568331034306e-05
3.7716604038584914e-05
3.491774732502064e-05
3.230343771241451e-05
2.9869053494636314e-05
2.761162031098864e-05
2.552956122476571e-05
2.362247440193619e-05
2.189092554217599e-05
2.0336242158888133e-05
1.8960295544493983e-05
1.7765253528415157e-05
1.6753282444439792e-05
1.5926169247171707e-05
1.528482315042278e-05
1.4828598511308806e-05
1.4554354291648058e-05
1.4455127012323425e-05
1.4518243660414584e-05
1.4722631861648072e-05
1.503481832387625e-05
1.5401178174904474e-05
1.5696030594702925e-05
1.608522023102861e-05
1.681893799086384e-05
1.772705549889491e-05
1.8533883486793537e-05
1.9049245985924487e-05
1.9147730898625218e-05
1.8750756580366602e-05
1.78126132461872e-05
1.6310788123772256e-05
1.423937068996406e-05
1.160449941224953e-05
8.421142736264424e-06
4.710760850516922e-06
4.995601564153351e-07
-4.182843898387946e-06
-9.304475047669514e-06
-1.4831833941895446e-05
-2.073057767587247e-05
-2.6966076517189082e-05
-3.3503872270841326e-05
-4.0310055546196114e-05
-4.73515744985999e-05
-5.4596484545497113e-05
-6.201414654831341e-05
-6.957537963611822e-05
-7.725257397805767e-05
-8.501976822434913e-05
-9.28526959194315e-05
-0.0001007288048726256
-0.00010862725320505851
-0.00011652888554737964
-0.0001244161926243206
-0.00013227325722126385
-0.00014008568928170276
-0.00014784055263318378
-0.00015552628558614372
-0.0001631326173979113
-0.0001706504823471757
-0.00017807193292605945
-0.00018539005343064328
-0.0001925988750188616
-0.00019969329310897538
-0.00020666898781395836
-0.00021352234794698617
-0.00022025039899143187
-0.00022685073530484892
-0.00023332145671949543
-0.00023966110961109923
-0.00024586863243167365
-0.00025194330564009496
-0.0002578847059137761
-0.0002636926644859032
-0.0002693672294230747
-0.00027490863163690243
-0.0002803172544088208
-0.000285593606199138
-0.0002907382965083552
-0.0002957520145591918
-0.0003006355105720634
-0.00030538957941344874
-0.0003100150464048438
-0.00031451275509031783
-0.0003188835567716963
-0.0003231283016317966
-0.00032724783127826423
-0.0003312429725525717
-0.00033511453246058785
-0.00033886329409266776
-0.0003424900134126113
-0.0003459954168053541
-0.00034938019928346803
-0.00035264502326227184
-0.00035579051782202564
-0.000358817278384231
-0.00036172586673674295
-0.00036451681134941783
-0.0003671906079285763
-0.00036974772016444687
-0.000372188580631366
-0.0003745135918051554
-0.0003767231271666232
-0.00037881753236418945
-0.00038079712641203383
-0.00038266220290350886
-0.0003844130312222777
-0.00038604985773609446
-0.000387572906960569
-0.0003889823826819748
-0.00039027846902983275
-0.00039146133149177875
-0.00039253111786413924
-0.0003934879591329628
-0.0003943319702811688
-0.0003950632510181173
-0.0003956818864288442
-0.00039618794754063536
-0.0003965814918050394
-0.0003968625634939814
-0.0003970311940088612
-0.00038945338999137865
-0.0003743110854001494
-0.0003594149554124364
-0.00034475445046495376
-0.0003303189819999572
-0.00031609792561162374
-0.00030208062442223325
-0.00028825639263222445
-0.0002746145191909452
-0.00026114427153788353
-0.000247834899367227
-0.00023467563837168255
-0.00022165571392466683
-0.00020876434466307264
-0.00019599074593591427
-0.00018332413308715323
-0.00017075372454394028
-0.00015826874468443677
-0.00014585842646213184
-0.00013351201376614813
-0.00012121876349962128
-0.00010896794736088954
-9.67488533146182e-05
-8.455078674227258e-05
-7.236307126369865e-05
-6.0175049223970046e-05
-4.7976081841986844e-05
-3.575554901953402e-05
-2.3502848811828292e-05
-1.1207396562986218e-05
1.1413762876627243e-06
1.3554023720047827e-05
2.6041086957771574e-05
3.861309658899465e-05
5.128057496757658e-05
6.405403887544818e-05
7.694400242440161e-05
8.996098017261927e-05
0.00010311549042827424
0.0001164180587095164
0.0001298792213272145
0.00014350952905383806
0.00015731955083887495
0.00017131987752829045
0.00018552112554273876
0.0001999339404666309
0.0002145690004976319
0.0002294370197038655
0.0002445487510341066
0.0002444941344181867
0.0002293847125385811
0.00021451898956773404
0.00019988621347082763
0.0001854756712049371
0.00017127668568819786
0.00015727861252262922
0.00014347083652546414
0.00012984276812179563
0.00011638383964903105
0.00010308350162113462
8.993121899799178e-05
7.691646750240844e-05
6.402873002435733e-05
5.125749314911605e-05
3.859224384292221e-05
2.602246632679535e-05
1.3537639166195497e-05
1.1272326011431824e-06
-1.1219293861397869e-05
-2.3512493573867752e-05
-3.576293457707324e-05
-4.798120111827092e-05
-6.017789484757042e-05
-7.236363568435398e-05
-8.454906234776769e-05
-9.674483254792723e-05
-0.00010896162283680838
-0.00012121012812007306
-0.000133501060833413
-0.0001458451497892439
-0.00015825313870195304
-0.0001707357844022794
-0.0001833038547536463
-0.00019596812628570531
-0.00020873938156300376
-0.0002216284063091947
-0.00023464598630980397
-0.00024780290411940167
-0.00026110993560188984
-0.0002745778463355442
-0.0002882173879174765
-0.00030203929420528837
-0.00031605427753681706
-0.00033027302497198635
-0.00034470619460397043
-0.0003593644119899432
-0.00037425826675457994
-0.00038939830942235715
0.00024433029056635273
0.00022922779665273524
0.00021436896191784035
0.00019974303708215614
0.00018533931219140486
0.0001711471135236747
0.00015715580025226403
0.00014335476091942523
0.0001297334097740912
0.00011628118302430259
0.00010298753505253549
8.984193463937991e-05
7.683386123817155e-05
6.395280134023813e-05
5.118824496742041e-05
3.852968232549557e-05
2.5966600649097983e-05
1.3488481265733727e-05
1.0847969034272033e-06
-1.1254990736288035e-05
-2.354143312110367e-05
-3.5785096730438394e-05
-4.7996564584370967e-05
-6.018643744819635e-05
-7.236533470439907e-05
-8.45438948862905e-05
-9.673277586998979e-05
-0.00010894265472373485
-0.00012118422721577646
-0.00013346820698448232
-0.00014580532437653495
-0.00015820632496132232
-0.00017068196773201272
-0.00018324302300609007
-0.0001959002700405235
-0.00020866449437937927
-0.0002215464849541303
-0.00023455703095954535
-0.0002477069185309065
-0.00026100692725111057
-0.00027446782651916553
-0.00028810037181465633
-0.0003019153008958646
-0.00031592332997238114
-0.00033013514989624717
-0.0003445614224188789
-0.0003592127765641164
-0.00037409980517075816
-0.00038923306166086376
0.00024405723750844878
0.0002289662889125752
0.00021411893299789857
0.00019950442512194823
0.00018511206052173975
0.00017093117111718567
0.0001569511220737082
0.00014316130817979404
0.00012955115009301172
0.00011611009050561933
0.0001028275902782788
8.969312458755063e-05
7.669617912989691e-05
6.382624642194079e-05
5.1072822233686914e-05
3.842540218829593e-05
2.5873478558916298e-05
1.3406537290054485e-05
1.014055267903119e-06
-1.1314502138854589e-05
-2.3589683249017125e-05
-3.5822051933826885e-05
-4.802218916381887e-05
-6.020069422685165e-05
-7.236818560929164e-05
-8.453530153484769e-05
-9.671270015775871e-05
-0.00010891105940939525
-0.00012114107649964617
-0.00013341346707668124
-0.0001457389640509715
-0.00015812831609161176
-0.00017059228580531774
-0.00018314164761077303
-0.00019578718532330352
-0.00020853968946749199
-0.0002214099543377855
-0.0002344087748297601
-0.0002475469430675543
-0.0002608352448557916
-0.0002742844559873004
-0.0002879053384410228
-0.00030170863650764643
-0.0003157050728837109
-0.0003299053447782597
-0.00034432012007930035
-0.0003589600336305547
-0.0003738356836722205
-0.0003889576285023842
0.0002436750054344295
0.0002286002175491849
0.00021376892865953732
0.0001991704007093641
0.00018479393629512318
0.00017062887532342467
0.0001566645914327669
0.0001428904882359605
0.00012929599543740742
0.00011587056487692358
0.00010260366654902644
8.94847846436601e-05
7.65034136513011e-05
6.364905457229961e-05
5.091121126717299e-05
3.827938698141017e-05
2.5743081075181725e-05
1.3291785985243189e-05
9.149844432403089e-07
-1.139785302829191e-05
-2.3657270323771296e-05
-3.587382765075188e-05
-4.805810310155939e-05
-6.022069388996924e-05
-7.237221724518459e-05
-8.452331095775998e-05
-9.668463357433508e-05
-0.00010886686424038795
-0.00012108070219249016
-0.0001333368659036594
-0.0001456460918875914
-0.00015801913316978685
-0.0001704667574358407
-0.00018299974486933205
-0.00019562888569405522
-0.00020836497743791606
-0.00022121882193826742
-0.0002342012221110178
-0.000247322978508657
-0.00026059488569522826
-0.000274027728469243
-0.0002876322779686219
-0.00030141928769500387
-0.0003153994894980925
-0.00032958358956400855
-0.00034398226445496563
-0.0003586061572510307
-0.0003734658738480276
-0.0003885719794687704
0.00024318363690450787
0.00022812962233917356
0.00021331898530828087
0.00019874099638639877
0.0001843849677896678
0.00017024024984476838
0.0001562962272285919
0.00014254231503614442
0.0001289679547317251
0.00011556261003574084
0.00010231576279659188
8.921690889395162e-05
7.62555542166895e-05
6.342121075541526e-05
5.070339284634189e-05
3.809161359997679e-05
2.5575381544850264e-05
1.3144197513348912e-05
7.875517935778228e-07
-1.1505078431838226e-05
-2.3744231341839838e-05
-3.594046241274358e-05
-4.8104346021364724e-05
-6.024647670536041e-05
-7.237747007329226e-05
-8.450796335937279e-05
-9.664861562001495e-05
-0.00010881010757154802
-0.00012100314107066854
-0.00013323843824128567
-0.00014552674025349635
-0.00015787880576255357
-0.00017030540901794586
-0.00018281733765478583
-0.00019542539018190482
-0.0002081403731836091
-0.00022097309825447445
-0.00023393437868908032
-0.0002470350259513596
-0.00026028584595114135
-0.00027369763515848326
-0.0002872811765895051
-0.0003010472357007673
-0.00031500655623265575
-0.00032916985604563464
-0.0003435478229967923
-0.00035815111090769185
-0.0003729903356779914
-0.00038807607160272034
0.00024258318714303348
0.00022755455485713342
0.00021276915011596352
0.00019821625429209888
0.00018388519160065386
0.00016976532533604348
0.00015584605388771242
0.0001421168065935802
0.00012856703948732173
0.00011518623099263347
0.00010196387761449473
8.888948967426757e-05
7.595258713216281e-05
6.314269553715245e-05
5.044934214106686e-05
3.786205221024522e-05
2.5370345564697052e-05
1.2963733371568873e-05
6.317152164519098e-07
-1.1636223526986554e-05
-2.3850614011358512e-05
-3.602200589918811e-05
-4.816096900381335e-05
-6.027809457803103e-05
-7.238399624336274e-05
-8.448931055516525e-05
-9.660469720108751e-05
-0.00010874083883246069
-0.00012090844053027002
-0.0001331182289094327
-0.00014538095086710467
-0.000157707371982726
-0.00017010827457965348
-0.00018259445546026272
-0.000195176723328549
-0.00020786589591672308
-0.00022067279683461117
-0.00023360825216319734
-0.0002466830868164552
-0.0002599081206984206
-0.00027329416468555067
-0.0002868520164676447
-0.0003005924562839305
-0.0003145262425944438
-0.00032866410773046555
-0.00034301675357150226
-0.0003575948473000388
-0.00037240901728904387
-0.0003874698491809051
0.00024187372441572964
0.00022687507879928676
0.00021211948129264846
0.00019759622638518937
0.0001832946528167828
0.0001692041395377162
0.00015531410145776006
0.0001416139850445779
0.00012809326382876718
0.00011474143386962427
0.00010154800923237421
8.850251752423338e-05
7.559449553312764e-05
6.281348500930878e-05
5.014902862653483e-05
3.7590666155991606e-05
2.5127930882696693e-05
1.2750346290703298e-05
4.4742304015464183e-07
-1.1791343743793024e-05
-2.3976476853150125e-05
-3.611851903626623e-05
-4.822803468247775e-05
-6.031561114330883e-05
-7.239185968366138e-05
-8.446741605860638e-05
-9.655294071365253e-05
-0.00010865911860837668
-0.0001207966586652215
-0.00013297629284721968
-0.0001452087748703334
-0.00015750487855799327
-0.00016987539584734725
-0.0001823311344586838
-0.00019488291524162837
-0.00020754156921400514
-0.00022031793431149583
-0.00023322285186877054
-0.0002462671628554828
-0.00025946170389335306
-0.0002728173030837077
-0.0002863447756780946
-0.0003000549196280344
-0.00031395851105362865
-0.00032806629967457185
-0.0003423890042510407
-0.00035693730808591213
-0.00037172185464381957
-0.0003867532433466305
0.00024105533048979246
0.00022609127037754226
0.00021137004841705954
0.00019688097471400693
0.00018261340523329815
0.0001685567374363555
0.00015470040571981245
0.0001410338767174933
0.00012754664452427236
0.00011422822589697095
0.00010106815548390197
8.805598113093711e-05
7.518125930821456e-05
6.243355069791254e-05
4.980241597965953e-05
3.7277411846455325e-05
2.484808728049449e-05
1.25039801147196e-05
2.3461390250690652e-07
-1.1970504885169927e-05
-2.4121889318731312e-05
-3.6230074111802473e-05
-4.830561735509671e-05
-6.035910187401903e-05
-7.240113620406624e-05
-8.444235518027105e-05
-9.649342013896112e-05
-0.00010856501873203823
-0.00012066786435583847
-0.00013281269519839066
-0.00014501027291067618
-0.00015727138090930137
-0.00016960682231976162
-0.0001820274175712839
-0.00019454400165623347
-0.00020716742106924112
-0.0002199085304434374
-0.0002327781889036185
-0.0002457872561587931
-0.0002589465883594403
-0.0002722670337479743
-0.0002857594281342402
-0.0002994345902313694
-0.0003133033168911618
-0.00032737637828223317
-0.0003416645130582576
-0.0003561784235679426
-0.0003709287711628011
-0.0003859261716632261
0.0002401281011762358
0.00022520321878300977
0.00021052093282429902
0.00019607057173231675
0.00018184151160049712
0.0001678231714509552
0.00015400500831799186
0.00014037651221132657
0.00012692720101916156
0.00011364661540742564
0.00010052431376766027
8.754986726201678e-05
7.471285500982256e-05
6.200285945616918e-05
4.9409461959000764e-05
3.692223862724989e-05
2.453075643882866e-05
1.2224569663714324e-05
-6.783386201077534e-09
-1.2173783262014442e-05
-2.4286931921974632e-05
-3.6356754902434585e-05
-4.839380310572214e-05
-6.040865419741888e-05
-7.241191360785785e-05
-8.44142151347681e-05
-9.642622114588294e-05
-0.00010845862238211566
-0.00012052213736363357
-0.00013262751140277214
-0.00014478551522931505
-0.00015700694323528296
-0.00016930261134803068
-0.0001816833545421038
-0.0001941600240021013
-0.00020674348395083872
-0.00021944460815926804
-0.00023227427615691144
-0.0002452433691641821
-0.00025836276577084343
-0.00027164333738794876
-0.0002850959435040737
-0.0002987314267803169
-0.00031256060802248504
-0.0003265942810731681
-0.00034084320767080293
-0.0003553181123274667
-0.0003700296772819872
-0.0003849885375897744
0.00023909214695351852
0.00022421102671767932
0.0002095722280493558
0.00019516510065937324
0.00018097904390587042
0.00016700350164327405
0.00015322795690454218
0.00013964192648236966
0.0001262349554711078
0.00011299661182702443
9.991648100029145e-05
8.69841606877889e-05
7.418925575147805e-05
6.152137334280033e-05
4.897011826934538e-05
3.652508863591331e-05
2.4175871788125662e-05
1.1912040582985513e-05
-2.7684999280311505e-07
-1.2401265839306589e-05
-2.447169638023193e-05
-3.649865680871079e-05
-4.849268993319092e-05
-6.04643676169718e-05
-7.242429180708508e-05
-8.438309515022389e-05
-9.635144119519213e-05
-0.0001083400241829982
-0.0001203595684272269
-0.00013242082728878444
-0.00014453458175049916
-0.000156711638598379
-0.00016896282821787778
-0.00018129900201499903
-0.00019373102947361085
-0.0002062697948622781
-0.00021892619360590977
-0.0002317111283397188
-0.00024463550466555993
-0.00025771022663357727
-0.00027094619197516194
-0.0002843542871166932
-0.0002979453820074799
-0.00031173032479936245
-0.0003257199364198749
-0.0003399250050857303
-0.0003543562808083382
-0.0003690244699482883
-0.0003839402298811671
0.00023794759367136745
0.00022311481099271927
0.00020852404032452152
0.0001941646558821447
0.00018002608368766158
0.0001660977959499642
0.00015236930529830074
0.00013883015893709477
0.00012546993278557362
0.00011227822566119462
9.924465356122889e-05
8.635884409220985e-05
7.361043109225283e-05
6.098904948662386e-05
4.84843304124601e-05
3.608589664418126e-05
2.3783358346939388e-05
1.1566309181519402e-05
-5.756772196342323e-07
-1.2653050389006905e-05
-2.4676285760080165e-05
-3.6655886992713653e-05
-4.860238788024658e-05
-6.0526353833049255e-05
-7.243838293536242e-05
-8.434910657401102e-05
-9.626918963925635e-05
-0.0001082093302995506
-0.0001201802593532084
-0.00013219273916124252
-0.00014425756216677842
-0.00015638554900755517
-0.00016858754622931977
-0.0001808744236091676
-0.00019325707109919718
-0.0002057463954026351
-0.00021835331619637357
-0.0002310887620159013
-0.00024396366582115974
-0.00025698896026458355
-0.00027017557268572544
-0.00028353441986044714
-0.0002970764025365656
-0.00031081239979219603
-0.0003247532632577586
-0.00033890981124772636
-0.0003532928228536339
-0.0003679130320555315
-0.0003827811219150448
0.0002366945833334257
0.00022191470319151346
0.0002073764891284341
0.00019306934339715493
0.00017898272237726066
0.00016510613043401056
0.0001514291136542002
0.00013794125352905456
0.0001246321606495716
0.00011149146847475811
9.850882722807529e-05
8.567389797237866e-05
7.29763469085925e-05
6.040583993829336e-05
4.7952037525630624e-05
3.560458988936226e-05
2.3353132551332633e-05
1.118728226363386e-05
-9.033666672638846e-07
-1.2929245644604986e-05
-2.4900814621995628e-05
-3.6828564511991006e-05
-4.8723019156544705e-05
-6.059473685544378e-05
-7.245431145079878e-05
-8.43123729673388e-05
-9.617958780975958e-05
-0.00010806665851955565
-0.0001199843230948312
-0.00013194335387755403
-0.00014395455601357246
-0.00015602876549162037
-0.00016817684676848565
-0.0001804096899884348
-0.00019273820780614504
-0.00020517333182394322
-0.00021772600865570664
-0.00023040719563162425
-0.00024322785616047394
-0.00025619895476876347
-0.0002693314518391703
-0.0002826362980743602
-0.00029612442871629314
-0.0003098067575556959
-0.0003236941707713778
-0.00033779752064450345
-0.0003521276191988976
-0.00036669523182463143
-0.0003815110709487024
0.00023533327495688057
0.00022061085039515175
0.00020612970778408556
0.0001918792812890456
0.00017784906166743792
0.00016402858955251177
0.00015040744864098574
0.0001369752588572424
0.00012372166956153003
0.00011063635286408095
9.770899710148401e-05
8.492930052611113e-05
7.228696525389639e-05
5.9771691510408445e-05
4.737317220996119e-05
3.5081087897542304e-05
2.288510207869855e-05
1.0774856958130099e-05
-1.260030396350553e-06
-1.3229971451405529e-05
-2.514540915743578e-05
-3.701682044270542e-05
-4.88547182480273e-05
-6.066965309977444e-05
-7.247221422077304e-05
-8.427303018021409e-05
-9.608276908494576e-05
-0.00010791213831539318
-0.00011977188381018738
-0.00013167278890422767
-0.00014362567272544312
-0.00015564138815611346
-0.00016773081936519114
-0.0001799048789186715
-0.00019217450447598755
-0.0002045506550815868
-0.00021704430706215544
-0.00022966644954171912
-0.00024242807958901018
-0.00025534019701412496
-0.00026841379883462145
-0.0002816598734347932
-0.00029508939444607395
-0.00030871331438126837
-0.0003225425580606144
-0.0003365880158735173
-0.000350860536926143
-0.00036537092213199387
-0.00038012991730980244
0.00023386384550689964
0.0002192034159675074
0.0002047838441025662
0.0001905946002423874
0.0001766252139027522
0.00016286526643711428
0.0001493043836237016
0.0001359322282629616
0.00012273849285487502
0.00010971289241953672
9.684515751834692e-05
8.412502752708573e-05
7.154224420610767e-05
5.908654560713961e-05
4.674766035056968e-05
3.451530230179474e-05
2.2379165670252626e-05
1.0328920550108714e-05
-1.6457910826632643e-06
-1.3555358905748394e-05
-2.5410207310789706e-05
-3.722079798387442e-05
-4.899763200390153e-05
-6.0751251458504696e-05
-7.249224057899729e-05
-8.42312263970198e-05
-9.597887892647989e-05
-0.00010774591087509342
-0.00011954307689029611
-0.00013138117234458846
-0.0001432710316655417
-0.00015522352621584386
-0.00016724956172905797
-0.00017936007530700086
-0.00019156603198514343
-0.00020387842087333065
-0.00021630825088014382
-0.00022886654603074052
-0.00024156434038998843
-0.00025441267260513687
-0.00026742258008540974
-0.00028060509283955404
-0.0002939712269965861
-0.00030753197803999057
-0.00032129831379127045
-0.00033528116718490437
-0.00034949142888370823
-0.00036393993979121205
-0.0003786374835255473
0.000232286490903217
0.00021769258039665187
0.00020333906106876807
0.000189215444082675
0.00017531130248805526
0.000161616263183136
0.000148119998847157
0.00013481221992167646
0.00012168266671233675
0.00010872110167604141
9.591730195182045e-05
8.326105218699217e-05
7.07421377037194e-05
5.8350338044758454e-05
4.60754209311566e-05
3.3907136658978146e-05
2.1835212956839263e-05
9.849350321137235e-06
-2.060782158586328e-06
-1.3905550475547527e-05
-2.5695358877656973e-05
-3.7440652533310725e-05
-4.915191969119113e-05
-6.083969333603761e-05
-7.251455234391541e-05
-8.418712214154213e-05
-9.58680748747759e-05
-0.0001075681290917615
-0.00011929804894636028
-0.00013106864292730734
-0.00014289076211827616
-0.00015477529799380358
-0.00016673317975583892
-0.00017877537121547524
-0.00019091286722449442
-0.00020315668966190063
-0.00021551788298131136
-0.00022800750932618687
-0.00024063664322170514
-0.00025341636585438006
-0.0002663577589534685
-0.0002794718982918966
-0.00029276984682877444
-0.0003062626475207592
-0.00031996131583542293
-0.0003338768320064496
-0.0003480201330780384
-0.00036240210479399635
-0.00037703357339581003
0.00023060142709564264
0.00021607854218861662
0.00020179553756454496
0.00018774197034173188
0.00017390746231026353
0.00016028169114270537
0.00014685438161601974
0.00013361529692592565
0.00012055423016756205
0.0001076609960489689
9.492542289651432e-05
8.233734500407466e-05
6.988659537072452e-05
5.756299886482305e-05
4.535636584582605e-05
3.325648626907879e-05
2.125312429315153e-05
9.336013404114197e-06
-2.5051479335206894e-06
-1.4280700093488185e-05
-2.6001025569771443e-05
-3.767655172460259e-05
-4.931775300551195e-05
-6.093515263606435e-05
-7.253932378619506e-05
-8.41408902288733e-05
-9.575052649003893e-05
-0.00010737895749871276
-0.00011903695774384597
-0.00013073534994384117
-0.00014248500323395838
-0.00015429683087606766
-0.00016618178749446574
-0.00017815086584080543
-0.00019021509309079417
-0.0002023855266753564
-0.00021467324964925425
-0.00022708936560096674
-0.0002396449931090786
-0.00025235125975255784
-0.0002652192956851188
-0.00027826022678743704
-0.0002914851674155033
-0.00030490521276870116
-0.00031853143090740073
-0.00033237485445712254
-0.0003464464720442774
-0.0003607572195173232
-0.00037531797101701453
0.00022880889120450792
0.0002143615188088149
0.0002001534691242579
0.00018617435084214277
0.0001724138401677802
0.00015886167121634997
0.00014550762646634648
0.00013234152735478268
0.00011935322509036079
0.00010653259175261924
9.386951173693197e-05
8.13538735972872e-05
6.897556233095435e-05
5.6724452141704523e-05
4.459039971121803e-05
3.256323800166893e-05
2.0632770606400314e-05
8.788766660162693e-06
-2.979043684576769e-06
-1.4680973212928447e-05
-2.6327381035539215e-05
-3.7928675413339644e-05
-4.9495316025404345e-05
-6.103781568766882e-05
-7.256674153130642e-05
-8.409271564993389e-05
-9.562641522473984e-05
-0.00010717857213610456
-0.00011875997206936919
-0.00013038145312134692
-0.00014205390391282762
-0.00015378826121097025
-0.00016559550706417113
-0.00017748666545075773
-0.00018947279844191392
-0.00020156500187870857
-0.0002137744005629272
-0.00022611214296180932
-0.0002385893954278905
-0.00025121733593697234
-0.00026400714734987007
-0.00027697001020711865
-0.0002901170950703795
-0.0003034595544297139
-0.00031700851420244
-0.00033077506485702443
-0.00034477025220395097
-0.0003590050679051903
-0.00037349043976467745
0.0002269091427213538
0.0002125417476657595
0.00019841306871668364
0.00018451277229436242
0.00017083059520128633
0.000157356334136956
0.00014407983532279653
0.00013099098432463248
0.00011807969615115245
0.00010533590569783652
9.274955859689952e-05
8.031060252502791e-05
6.800897901215435e-05
5.583461578638435e-05
4.377741968254201e-05
3.182727013465702e-05
1.9974013266174453e-05
8.207456585855812e-06
-3.4826357078609094e-06
-1.510654681561923e-05
-2.6674610824103817e-05
-3.8197215599259624e-05
-4.968480509589793e-05
-6.114788109511316e-05
-7.25970043815673e-05
-8.404279537270592e-05
-9.549593421148578e-05
-0.00010696716033311042
-0.0001184672715148163
-0.0001300071224160021
-0.00014159762261404808
-0.00015324973413916547
-0.00016497446850958342
-0.00017678288326650014
-0.0001886860780066624
-0.00020069518990927047
-0.00021282138875312802
-0.00022507587141986512
-0.00023746985587980878
-0.00025001457465848964
-0.00026272126778411134
-0.0002756011752198111
-0.0002886655287890438
-0.000301925543608035
-0.00031539240904610174
-0.0003290772792426788
-0.0003429912632192096
-0.00035714541463452735
-0.00037155072124398555
0.00022490246476453005
0.00021061948713065363
0.00019657456754619898
0.00018275743689919605
0.0001691578993186369
0.00015576582073909662
0.0001425711176350288
0.0001295637460154326
0.00011673369075961172
0.00010407095536491814
9.156555216750868e-05
7.920749308747043e-05
6.698678094042515e-05
5.489340134876926e-05
4.2917315277379544e-05
3.104845221091894e-05
1.927670398282307e-05
7.59191925982717e-06
-4.016101319574563e-06
-1.5557609358847124e-05
-2.704291227906587e-05
-3.848237626914814e-05
-4.988642862518209e-05
-6.126555949447854e-05
-7.263032304023924e-05
-8.399133804226565e-05
-9.535928794814254e-05
-0.00010674492038767469
-0.00011815904616118892
-0.0001296125377098803
-0.0001411163270737362
-0.00015268140333972663
-0.00016431880958021178
-0.00017603963927885404
-0.00018785503223896303
-0.00019977616996738742
-0.00021181427052561965
-0.00022398058283909993
-0.0002362863804558832
-0.0002487429547468669
-0.00026136160754184604
-0.00027415364319890653
-0.0002871303601091461
-0.0003003030416444722
-0.0003136829465633326
-0.00032728129889767594
-0.00034110927735448674
-0.00035517800427652243
-0.0003694985342195399
0.0002227891653830326
0.0002085950175854871
0.00019463821586547953
0.00018090856294741733
0.0001673959376053344
0.0001540902822054605
0.0001409815904856513
0.0001280598956657391
0.00011531525897194182
0.00010273775864747686
9.031747951066877e-05
7.804450311128168e-05
6.590889852558889e-05
5.390071382096238e-05
4.20099682116713e-05
3.0226644919175102e-05
1.8540684742677756e-05
6.941980339017398e-06
-4.5796287948451e-06
-1.6034360648129215e-05
-2.7432494346447198e-05
-3.8784373143882655e-05
-5.010040677657836e-05
-6.13910731982512e-05
-7.266691971796068e-05
-8.393856355949191e-05
-9.521669186008272e-05
-0.00010651206112387057
-0.00011783549614254057
-0.00012919788839246702
-0.00014061019391409593
-0.00015208343067558283
-0.00016362867541914246
-0.00017525705998504444
-0.00018697976710487397
-0.00019880802565307263
-0.00021075310534367133
-0.0002228263108576946
-0.0002350389753861988
-0.00024740245357446594
-0.0002599281138546712
-0.00027262733015725636
-0.00028551147299553045
-0.0002985918999239126
-0.0003118799453776229
-0.00032538690991050013
-0.0003391240488582201
-0.0003531025604664431
-0.0003673335735372104
0.00022056957890094259
0.0002064686424910027
0.00019260428379037854
0.00017896638540706907
0.0001655449087113862
0.00015232988028144484
0.00013931137866124145
0.00012647952152887204
0.00011382445336034975
0.00010133633366231132
8.900532583499919e-05
7.682158671525792e-05
6.477525683802382e-05
5.285645144419165e-05
4.1055252252787634e-05
2.9361700006246062e-05
1.7765787789444454e-05
6.257455115994614e-06
-5.173417230854715e-06
-1.6537011620239697e-05
-2.7843577279934797e-05
-3.9103433310903795e-05
-5.032697103571778e-05
-6.152465570678135e-05
-7.270702759979041e-05
-8.388470251634425e-05
-9.506837171719418e-05
-0.00010626880130454823
-0.00011749683106815784
-0.00012876337280572303
-0.00014007940812368018
-0.00015145598571974947
-0.00016290421814402228
-0.0001744352780308347
-0.0001860603937894464
-0.00019779084473796154
-0.00020963795566194003
-0.00022161309077692033
-0.00023372764707283182
-0.00024599304701823773
-0.00025842073060364343
-0.0002710221467056939
-0.0002838087437582093
-0.0002967919597218686
-0.0003099832113519326
-0.0003233938827727665
-0.00033703531337909856
-0.0003509187850970892
-0.00036505550905328453
0.0002182440672937482
0.0002042406894647487
0.00019047306210649467
0.00017693115648763998
0.0001636050252037571
0.00015048478744755653
0.00013756061467691316
0.00012482271678175712
0.00011226132883754411
9.986669851971678e-05
8.762907424034205e-05
7.553869405522686e-05
6.358577537753739e-05
5.176050552226086e-05
4.0053033094982474e-05
2.8453460228522535e-05
1.695183566210527e-05
5.538148650090975e-06
-5.79767631921462e-06
-1.706578401930779e-05
-2.82763922242138e-05
-3.943979472132969e-05
-5.056636363073272e-05
-6.16665510632573e-05
-7.275089014865277e-05
-8.382999546291292e-05
-9.49145628806622e-05
-0.00010601536887452093
-0.00011714326927875831
-0.0001283091975292962
-0.00013952416238651534
-0.00015079924514161525
-0.00016214559630148734
-0.0001735744317413314
-0.0001850970283090442
-0.0001967247188607255
-0.00020846888670256636
-0.00022034095941122914
-0.0002323524020028119
-0.0002445147094197967
-0.000256839398305895
-0.0002693379980409021
-0.0002820220410116982
-0.0002949030521012026
-0.0003079925373847282
-0.00032130197203305297
-0.00033484278743336625
-0.0003486263575531701
-0.0003626639845884486
0.00021581302158628498
0.00020191151135799906
0.00018824486305557672
0.00017480314616879664
0.00016157651387204314
0.00014855518703780026
0.00013572943874355333
0.00012308957937679697
0.00011062594242816989
9.832887104796939e-05
8.618870542672513e-05
7.419577104637195e-05
6.23403678349384e-05
5.061276024489217e-05
3.9003168263336565e-05
2.7501759351419885e-05
1.609864130077385e-05
4.783855986468967e-06
-6.452626010931459e-06
-1.762090994697298e-05
-2.873118065521566e-05
-3.97937055286588e-05
-5.081883678084763e-05
-6.181701302630533e-05
-7.279876021825573e-05
-8.377469197870353e-05
-9.475550935185098e-05
-0.00010575200000680036
-0.00011677503690981652
-0.00012783557648002683
-0.00013894465623558844
-0.0001501133919303596
-0.00016135297417404218
-0.00017267466452184363
-0.0001840897910131518
-0.0001956097431328105
-0.0002072459661634175
-0.0002190099548927592
-0.00023091324663757366
-0.0002429674135432686
-0.0002551840541189629
-0.00026757478396893396
-0.0002801512256851873
-0.00029292499787137815
-0.000305907703276069
-0.00031911091602342546
-0.000332546167941925
-0.00034622493400648935
-0.00036015861692688953
0.0002132768632605289
0.00019948148731860262
0.0001859200210880906
0.00017258264267986886
0.0001594596159738888
0.00014654127329103111
0.00013381799866542704
0.00012128021182578383
0.00010891835297798994
9.672286846488728e-05
8.468419736305593e-05
7.279275906086813e-05
6.10389418470092e-05
4.941309252458101e-05
3.790550705280394e-05
2.650642220651608e-05
1.5206008233269186e-05
3.994362478834051e-06
-7.1384960554338385e-06
-1.8202631265485658e-05
-2.9208193653801093e-05
-4.016542324343332e-05
-5.108465174596288e-05
-6.197630403141405e-05
-7.285089894576186e-05
-8.371904951789047e-05
-9.459146259277614e-05
-0.00010547893792157623
-0.0001163923667323043
-0.0001273427297970371
-0.00013834109500347313
-0.0001493986144301654
-0.00016052652091625726
-0.00017173612410819933
-0.00018303880595795647
-0.00019444601563991994
-0.00020596926384718582
-0.00021762011642246755
-0.00022941018727482205
-0.00024135113053062038
-0.00025345463186631065
-0.0002657323989715318
-0.0002781961510941326
-0.0002908576076240029
-0.00030372847568042513
-0.0003168204366779296
-0.00033014513185861626
-0.00034371414679474363
-0.00035753899488398283
0.0002106360456597279
0.00019695102382515735
0.00018349889356667523
0.00017026995291450123
0.0001572545874046206
0.000144443251320418
0.00013182644965459056
0.00011939472090380203
0.00010713862079050906
9.504870698840508e-05
8.311552491010061e-05
7.132959459833682e-05
5.9681398745541834e-05
4.816137185089842e-05
3.6759890509751596e-05
2.5467264817249623e-05
1.4273730856673857e-05
3.1694442333257743e-06
-7.855525393054033e-06
-1.881119883025509e-05
-2.970769098681569e-05
-4.055521367559853e-05
-5.136407764699008e-05
-6.214469390937227e-05
-7.290757439129637e-05
-8.366333199495465e-05
-9.442268008438143e-05
-0.00010519643144442072
-0.00011599549673809063
-0.00012683088248077913
-0.0001377136885399812
-0.0001486551051592444
-0.0001596664094948621
-0.00017075896164383392
-0.00018194420013208296
-0.00019323363682307822
-0.00020463885119894752
-0.00021617148395940513
-0.00022784322987836616
-0.00023966582985420436
-0.0002516510620878434
-0.00026381073232297023
-0.0002761566630849633
-0.0002887006818602198
-0.00030145460816520075
-0.0003144302394648764
-0.00032763933591379874
-0.0003410936039097039
-0.0003548046784692745
0.0002078910553735628
0.00019432055567586697
0.00018098186140308274
0.00016786540276281204
0.0001549616987736738
0.00014226133698433017
0.00012975495404663238
0.00011743321725942379
0.00010528680717963515
9.33064013773667e-05
8.148265939190611e-05
6.980620892648958e-05
5.8267633301276685e-05
4.685746016678849e-05
3.556615146426178e-05
2.438409460514692e-05
1.3301594829533428e-05
2.308868692847662e-06
-8.603961378230366e-06
-1.9446871525893415e-05
-3.0229939966626044e-05
-4.09633496331047e-05
-5.165739002348623e-05
-6.232245832666643e-05
-7.296905988795962e-05
-8.360780807365489e-05
-9.424942358544019e-05
-0.00010490473326685897
-0.00011558466843394763
-0.0001263002627514
-0.00013706264966410834
-0.00014788305938206683
-0.00015877281540467938
-0.00016974333055875114
-0.0001808061025130312
-0.00019197270872156732
-0.00020325480073854084
-0.00021466409783873737
-0.00022621237987088133
-0.00023791147926595065
-0.00024977327211950825
-0.0002618096682661723
-0.0002740326002660167
-0.00028645401122714335
-0.000299085841395968
-0.0003119400134573404
-0.0003250284165005038
-0.00033836288862422914
-0.0003519551981754597
0.00020504241358687092
0.00019159054691335103
0.0001783693296090209
0.00016536933734117936
0.0001525812353682962
0.00013999575663997416
0.0001276036809003347
0.000115395814915706
0.00010336297392544465
9.149596439257034e-05
7.978556810898924e-05
6.822252768889895e-05
5.6797533463592425e-05
4.550121177180361e-05
3.4324114622321175e-05
2.325671068994676e-05
1.2289377592286787e-05
1.4123953834805583e-06
-9.38405880801404e-06
-2.010991507690596e-05
-3.077521405721872e-05
-4.139010934212983e-05
-5.1964869091642476e-05
-6.250987690911675e-05
-7.303563206249755e-05
-8.355274911878006e-05
-9.407195705127605e-05
-0.00010460409786886888
-0.00011516012480460995
-0.0001257511000882625
-0.00013638819231407524
-0.00014708267340113643
-0.00015784591512969185
-0.00016868938522298749
-0.0001796246429308059
-0.00019066333405837817
-0.00020181718537270717
-0.00021309799830808505
-0.00022451764188411002
-0.00023608804474275938
-0.00024782118620652867
-0.00025972908625765986
-0.00027182379433923027
-0.0002841173768825011
-0.00029662190347186
-0.0003093494315692209
-0.0003223119897337967
-0.00033552155929123754
-0.00034899005442823013
0.0002020906773722396
0.0001887614916643006
0.00017566172773891375
0.00016278212109739512
0.00015011349698257673
0.00013764674675885858
0.00012537280546211693
0.0001132826306450005
0.00010136718261858556
8.9617406166803e-05
7.802421378577928e-05
6.657847047653853e-05
5.527098009695813e-05
4.409247325778151e-05
3.3033596728113896e-05
2.208490429857992e-05
1.1236849035474588e-05
4.79776846898387e-07
-1.0196078727860638e-05
-2.080060060116709e-05
-3.1343791191544275e-05
-4.183577455063372e-05
-5.228679766187979e-05
-6.27072310061029e-05
-7.310756848262124e-05
-8.349842676594576e-05
-9.389054416743215e-05
-0.00010429477905891872
-0.00011472210790166898
-0.0001251836229090851
-0.00013569052935603963
-0.0001462541425316119
-0.00015688588431583177
-0.00016759727934479688
-0.00017839995071297794
-0.00018930561514691232
-0.000200326077570641
-0.00021147322497101838
-0.00022275901946064425
-0.00023419549042764183
-0.00024579472565538477
-0.00025756886129193893
-0.00026953007054845903
-0.0002816905510085706
-0.0002940625104371963
-0.0003066581509873357
-0.0003194896517176144
-0.0003325691493520479
-0.0003459087172364931
0.0001990364409042147
0.0001858339148701879
0.00017285951019994233
0.00016010413776634976
0.00014755879758737473
0.00013521455338070024
0.00012306250847358524
0.00011109378319844586
9.929949387739228e-05
8.767073347156645e-05
7.619855394413495e-05
6.487395035939124e-05
5.3687846715282594e-05
4.263108348327027e-05
3.169440680792659e-05
2.0868459299620124e-05
1.0143772337344464e-05
-4.892402146928567e-07
-1.1040286983524416e-05
-2.1519202870824667e-05
-3.1935951761049745e-05
-4.230062827299873e-05
-5.2623458671233116e-05
-6.291480104854186e-05
-7.318514488269609e-05
-8.344511006046749e-05
-9.370544544939387e-05
-0.00010397702708322276
-0.00011427085601108155
-0.00012459805584329235
-0.00013496987000856186
-0.00014539765871879242
-0.00015589289561901908
-0.00016646716408130714
-0.00017713215308342537
-0.000187899652595918
-0.0001987815483851553
-0.00020978981612546944
-0.00022093651470084534
-0.00023223377856615847
-0.00024369380903011017
-0.000255328864316951
-0.000267151248262171
-0.0002791732974990267
-0.0002914073669983274
-0.00030386581383354976
-0.00031656097905756594
-0.0003295051675961864
-0.0003427106260877142
0.00019588033657009347
0.00018280837288236075
0.0001699631564017459
0.0001573357901483222
0.00014491746481372033
0.00013269943137965217
0.00012067297529805949
0.00010882939236869321
9.715996641975605e-05
8.565594886665817e-05
7.430854019368816e-05
6.310887337405172e-05
5.2047999215659865e-05
4.1116873593862266e-05
3.0306346508531535e-05
1.960715288185609e-05
9.009904995173142e-06
-1.4949135514768486e-06
-1.1916952484496434e-05
-2.226599824147374e-05
-3.255197623422652e-05
-4.2784952129214476e-05
-5.297513228115093e-05
-6.313286344911432e-05
-7.326863191498727e-05
-8.33930621117841e-05
-9.351691485475394e-05
-0.00010365108525137303
-0.00011380660034788581
-0.0001239946165502059
-0.00013422641683623533
-0.00014451340775534704
-0.00015486711618917465
-0.00016529918582653715
-0.0001758213732845408
-0.00018644554378796315
-0.0001971836663004319
-0.00020804780798391236
-0.00021905012784798593
-0.00023020286943773718
-0.00024151835239908455
-0.00025300896275342005
-0.00026468714170996646
-0.0002765653728445279
-0.0002886561674777055
-0.00030097204809466306
-0.00031352552966239537
-0.0003263290987195683
-0.0003393951901386474
0.00019262303594934555
0.0001796854538917502
0.00016697317071483924
0.00015447749967864078
0.00014218983921898958
0.00013010164351355156
0.0001182043948391462
0.00010648957786212
9.494865596985149e-05
8.357304971736128e-05
7.235411742910204e-05
6.128313796309286e-05
5.035129561323519e-05
3.954966709641841e-05
2.88692105444824e-05
1.8300756397788613e-05
7.835000077313944e-06
-2.5375037038394616e-06
-1.2826345140560089e-05
-2.304126220628806e-05
-3.319214235648285e-05
-4.3289023227163016e-05
-5.334209248635769e-05
-6.336168698826031e-05
-7.335829136854814e-05
-8.334253620486981e-05
-9.33251958493818e-05
-0.00010331718602085032
-0.00011332956122249639
-0.00012337351202899578
-0.00013346036226230963
-0.00014360156605158346
-0.00015380870474776434
-0.00016409348363919524
-0.00017446772839055846
-0.00018494338110474934
-0.00019553249588582817
-0.00020624723376130112
-0.0002170998568043561
-0.00022810272128159076
-0.00023926826963930324
-0.0002506090211323547
-0.00026213756089422035
-0.0002738665272453921
-0.00028580859704039675
-0.0002979764688616365
-0.0003103828438815563
-0.00032304040423367596
-0.00033596178875808236
0.00018926525063036389
0.0001764657781599399
0.00016389008220330274
0.00015152970575400154
0.00013937627330186777
0.00012742145922381735
0.00011565695822147277
0.00010407445795412114
9.266561397770263e-05
8.142202706238347e-05
7.033522292324408e-05
5.939663436160304e-05
4.859758577941873e-05
3.7929279996522355e-05
2.7382787270812726e-05
1.694903639558139e-05
6.618807726297072e-06
-3.6172720282719423e-06
-1.3768733428635271e-05
-2.3845266526942185e-05
-3.3856721878585116e-05
-4.381311053139474e-05
-5.37246031751147e-05
-6.360152862407666e-05
-7.345437179251011e-05
-8.329377130496523e-05
-9.313051686443084e-05
-0.0001029755464783432
-0.00011283994361820836
-0.0001227349343625835
-0.00013267188454600014
-0.00014266229690859894
-0.00015271780821336399
-0.00016285018627002455
-0.000173071326777502
-0.00018339324987083497
-0.00019382809623385547
-0.00020438812261597673
-0.00021508569657093576
-0.0002259332902173265
-0.0002369434728057931
-0.00024812890186620955
-0.0002595023127004172
-0.00027107650598272954
-0.0002828643332318031
-0.00029487867992410675
-0.0003071324460315022
-0.00031963852378408524
-0.00033240977248475464
0.0001858077328296886
0.00017314999801446658
0.000160714444093383
0.00014849286477670572
0.00013647713022797183
0.00012465915314968103
0.00011303085720021594
0.00010158414789808397
9.031088612720549e-05
7.920286431399847e-05
6.825178530423713e-05
5.7449243926108585e-05
4.678671118639043e-05
3.6255521009972616e-05
2.584685939988212e-05
1.5551755866074362e-05
5.3610769470957475e-06
-4.734478370307717e-06
-1.4744381542452617e-05
-2.4678275887995822e-05
-3.454597675531811e-05
-4.4357470656025406e-05
-5.412291357533464e-05
-6.385262865828126e-05
-7.355710345471612e-05
-8.324698688626496e-05
-9.293308607535069e-05
-0.00010262636315060521
-0.00011233793211503783
-0.00012207905583365745
-0.00013186114316640597
-0.00014169574624077518
-0.0001515945578268264
-0.00016156940874583337
-0.00017163226521308545
-0.00018179522598586685
-0.00019207051915947173
-0.00020247049842798764
-0.00021300763860279562
-0.0002236945301606055
-0.00023454387257497672
-0.00024556846617092135
-0.00025678120223181374
-0.0002681950510821866
-0.0002798230478692585
-0.00029167827577088884
-0.0003037738463687234
-0.0003161228769430263
-0.0003287384644708126
0.00018225127577488549
0.0001697387975670647
0.00015744683293517558
0.00014536744887359485
0.0001334927822236832
0.0001218150033163144
0.00011032628226229644
9.901875805546777e-05
8.788451060565573e-05
7.691553577008383e-05
6.610372340357459e-05
5.5440838401096945e-05
4.491850466160465e-05
3.452819186082907e-05
2.4261204883691505e-05
1.4108675734807134e-05
4.0615577188443304e-06
-5.889378338365229e-06
-1.5753546071916218e-05
-2.554054401556025e-05
-3.5260154749951336e-05
-4.4922343012957774e-05
-5.453725301451332e-05
-6.411520518415933e-05
-7.366669256056869e-05
-8.320237700932496e-05
-9.273308542853979e-05
-0.00010226980607232276
-0.00011182368509018921
-0.00012140602334676268
-0.000131028273551261
-0.0001407020376906537
-0.00015043906472460766
-0.00016025124846496858
-0.00017015062552795798
-0.00018014937321382573
-0.0001902598071368576
-0.00020049437839893811
-0.0002108656700725701
-0.00022138639273473044
-0.00023206937877171246
-0.00024292757515770704
-0.00025397403439656515
-0.0002652219033077003
-0.0002766844093339358
-0.0002883748440516967
-0.00030030654357331025
-0.0003124928655475869
-0.00032494716248924636
0.00017859671380805948
0.00016623289210902683
0.00015408784740973452
0.0001421539442415271
0.00013042360859104145
0.00011888928895206817
0.00010754342037817399
9.63783917109568e-05
8.538651610500976e-05
7.456000491571924e-05
6.38909449614287e-05
5.337127911848367e-05
4.2992790157256246e-05
3.274708768081656e-05
2.2625597986321695e-05
1.2619556633279843e-05
2.72000347332015e-06
-7.082220126773588e-06
-1.679647215278579e-05
-2.643230919418128e-05
-3.59994843729495e-05
-4.550794423961607e-05
-5.496782491455114e-05
-6.438944773552805e-05
-7.378331465024212e-05
-8.316010356569528e-05
-9.253066383562662e-05
-0.0001019060120332962
-0.0001112973281205482
-0.00012071595208587647
-0.00013017338108484448
-0.00013968126707613075
-0.00014925141490631534
-0.0001588957807568764
-0.0001686264708280345
-0.0001784557400965602
-0.00018839599094886534
-0.0001984597714570792
-0.00020865977303467418
-0.00021900882717998393
-0.0002295199009912036
-0.00024020609111547993
-0.0002510806157780725
-0.00026215680452590655
-0.0002734480853136662
-0.0002849679685605637
-0.0002967300278129193
-0.00030874787666227885
-0.00032103514159188156
0.00017484492216229277
0.00016263302713267135
0.00015063810672867432
0.00013885284906594404
0.0001272699932911639
0.00011588228788484334
0.00010468245235848101
9.366314253274235e-05
8.28169195222411e-05
7.21362224902371e-05
6.161334517455286e-05
5.124041612570386e-05
4.1009382541207885e-05
3.0911997527617775e-05
2.093981057501196e-05
1.1084160988592673e-05
1.336173989273759e-06
-8.313240829762298e-06
-1.7873389020300778e-05
-2.7353789108533434e-05
-3.676416907577014e-05
-4.611446182262174e-05
-5.541479993481337e-05
-6.467551004833824e-05
-7.390710708544008e-05
-8.312028860168205e-05
-9.232592944909666e-05
-0.00010153507692166097
-0.00011075894650799565
-0.00012000891833301977
-0.00012929653432591402
-0.0001386334961068469
-0.0001480316635400703
-0.0001575030538566171
-0.0001670598412064619
-0.00017671435645819436
-0.00018647908702420677
-0.00019636667645153542
-0.00020638992348327983
-0.00021656178026333082
-0.00022689534932844742
-0.00023740387900684362
-0.00024810075682205773
-0.00025899950048556965
-0.00027011374605191945
-0.00028145723280692016
-0.0002930437844635644
-0.00030488728625228424
-0.00031700165751342925
0.0001709968163581488
0.00015893997692234822
0.00014709824856742816
0.00013546467095297522
0.00012403232203770482
0.00011279427346205697
0.00010174354976475299
9.087309163379983e-05
8.017572332294346e-05
6.964412429357277e-05
5.927080507142391e-05
4.904808723875728e-05
3.896808741794003e-05
2.902270504299021e-05
1.9203613662973734e-05
9.502255476272019e-06
-9.016124154704173e-08
-9.582662180573077e-06
-1.898450489221026e-05
-2.8305174928098923e-05
-3.755438061202333e-05
-4.6742046825243966e-05
-5.587830816837909e-05
-6.497350183851488e-05
-7.4038160529396e-05
-8.308300562635666e-05
-9.211894092702171e-05
-0.00010115704707456202
-0.00011020857684349255
-0.00011928495136930917
-0.00012839775736337626
-0.00013755874530434957
-0.00014677982854748234
-0.00015607308324378432
-0.000165450748912857
-0.00017492522946675748
-0.0001845090944377066
-0.00019421508012015484
-0.00020405609029816607
-0.00021404519619262308
-0.00022419563522969562
-0.0002345208082029284
-0.00024503427437677985
-0.0002557497440598721
-0.00026668106816246455
-0.00027784222424567817
-0.0002892472985702851
-0.0003009104636617411
-0.0003128459509266141
0.00016705335116191434
0.00015515454265230223
0.0001434689264666174
0.00013198992380861663
0.00012071097883516071
0.00010962551093245544
9.872687131807329e-05
8.800830418554968e-05
7.746291252896812e-05
6.708362870372494e-05
5.68631896988173e-05
4.6794117017665536e-05
3.686870099073032e-05
2.7078989275842086e-05
1.7416779242738204e-05
7.873613888074852e-06
-1.5592191128855942e-06
-1.089068564115197e-05
-2.0130001097357382e-05
-2.928662454326017e-05
-3.837025146842432e-05
-4.7390805616878484e-05
-5.63584302873136e-05
-6.528347949104769e-05
-7.417650931585253e-05
-8.304826980178796e-05
-9.190969758842332e-05
-0.00010077190954244612
-0.00010964619752164891
-0.00011854402437649436
-0.00012747702123472847
-0.0001364569860586092
-0.00014549588340885251
-0.0001546058452948486
-0.00016379917293748633
-0.0001730883392195399
-0.00018248599154932932
-0.00019200495481640776
-0.00020165823407391234
-0.00021145901654120265
-0.00022142067248268516
-0.00023155675448506986
-0.00024188099462608558
-0.0002524072990033924
-0.00026314973907407913
-0.00027412253924343735
-0.0002853400601376501
-0.0002968167769997899
-0.00030856725266321635
0.00016301551904103527
0.00015127754992169738
0.00013975080662864117
0.00012842912409116584
0.0001173063418895442
0.00010637625322108368
9.563255874330792e-05
8.506882553033007e-05
7.467845128738399e-05
6.445463387529592e-05
5.439034610387367e-05
4.447831566347033e-05
3.471100997980831e-05
2.508062570062881e-05
1.5579082455605706e-05
6.198020474725076e-06
-3.071198393903944e-06
-1.2237486757738396e-05
-2.1310025355275182e-05
-3.029825485035287e-05
-3.921186625721306e-05
-4.8060790492308815e-05
-5.68551875227338e-05
-6.56054355461375e-05
-7.432212059461045e-05
-8.301602690624789e-05
-9.169812835446641e-05
-0.00010037958116786898
-0.00010907171811339956
-0.00011778604425404556
-0.0001265342343302751
-0.0001353281317522854
-0.00014417974912881316
-0.00015310127019818283
-0.00016210505296881071
-0.00017120363381997966
-0.00018040973225944348
-0.00018973625598271032
-0.00019919630583000456
-0.00020880318019098347
-0.00021857037836476244
-0.00022851160234413316
-0.000238640756458381
-0.0002489719442797006
-0.0002595194621745126
-0.0002702977888637832
-0.00028132157034719565
-0.00029260559954561024
-0.0003041647900261829
0.00015888434804538633
0.00014730984564952088
0.00013594456402849496
0.00012478278635458197
0.00011381877881059155
0.00010304673602105007
9.246073197991922e-05
8.205467673377202e-05
7.18222789743944e-05
6.175701458732268e-05
5.185210109602935e-05
4.210047783839005e-05
3.249479161576994e-05
2.302738746792654e-05
1.3690304151037105e-05
4.4752738332833465e-06
-4.626274526483309e-06
-1.3623208685808819e-05
-2.2524684099882573e-05
-3.1340132970667675e-05
-4.007925194934205e-05
-4.875198905675984e-05
-5.7368530354608344e-05
-6.593928685824104e-05
-7.447488213229862e-05
-8.298614095366742e-05
-9.148407936480099e-05
-9.99798963751946e-05
-0.00010848496750110587
-0.00011701084026476431
-0.00012556923170520045
-0.0001341720278841814
-0.00014283128530327997
-0.00015155923408219558
-0.00016036828268459528
-0.00016927102391617343
-0.00017828024186030615
-0.00018740891936013925
-0.00019667024560212536
-0.00020607762330507968
-0.00021564467497123025
-0.00022538524761160942
-0.00023531341531813276
-0.00024544347901943623
-0.00025578996272772455
-0.0002663676055605893
-0.0002771913488060472
-0.00028827631729240206
-0.0002996377943285521
0.0001546608990356563
0.00014325229424358595
0.00013205087774836985
0.00012105141799076576
0.00011024864101532499
9.963717211715589e-05
8.921148368296191e-05
7.896584951235484e-05
6.889430578405965e-05
5.899061870716214e-05
4.9248258774177705e-05
3.966038141414057e-05
3.021981373337165e-05
2.091904693217426e-05
1.1750233899918573e-05
2.7051914206121987e-06
-6.224593632808973e-06
-1.5047954773936887e-05
-2.377403372608771e-05
-3.2412266274201934e-05
-4.097236681391289e-05
-4.946431223962143e-05
-5.789832577422695e-05
-6.628486129332426e-05
-7.463458863804246e-05
-8.295838034516655e-05
-9.126730015253159e-05
-9.957259356346935e-05
-0.00010788568067789735
-0.00011621815142074548
-0.0001245817632216891
-0.00013298844112454597
-0.0001414502802308213
-0.00014997955031005768
-0.0001585887023402339
-0.00016729037667462428
-0.00017609741246733097
-0.00018502285792814039
-0.00019407998091851416
-0.00020328227934455112
-0.00021264349074968806
-0.0002221776004601903
-0.0002318988475904372
-0.0002418217281731866
-0.0002519609946434395
-0.0002623316508740569
-0.00027294894193815515
-0.00028382833775913345
-0.00029498550980571955
0.0001503462621718092
0.00013910577294813143
0.00012807042543515573
0.00011723551306809684
0.00010659625723233638
9.61477448467601e-05
8.588487292965168e-05
7.580230046523887e-05
6.589440774781982e-05
5.6155263235938425e-05
4.6578597806033544e-05
3.71577861580169e-05
2.7885834998223676e-05
1.875537751161392e-05
9.758673538035224e-06
8.876147886246517e-07
-7.866265620608634e-06
-1.651178007980291e-05
-2.5058070621527685e-05
-3.3514591062614994e-05
-4.189108791377905e-05
-5.019758078532189e-05
-5.84443429692281e-05
-6.664188281835947e-05
-7.480092647455092e-05
-8.29324024213525e-05
-9.104742825605602e-05
-9.915729999138254e-05
-0.00010727348411155647
-0.00011540761252173818
-0.00012357148044496457
-0.00013177704723781926
-0.00014003644001548343
-0.00014836195989900442
-0.0001567660906227373
-0.00016526150916786509
-0.00017386109801879597
-0.0001825779585728944
-0.0001914254251701589
-0.0002004170791483212
-0.0002095667622703482
-0.00021888858881556682
-0.00022839695557310313
-0.000238106548927581
-0.0002480323481827266
-0.0002581896242298202
-0.0002685939326364012
-0.0002792611002074214
-0.0002902072040583776
0.0001459415525651498
0.0001348711662636237
0.00012400387676818607
0.0001133355451513609
0.0001028619259942626
9.257860059247675e-05
8.248091803796337e-05
7.256394453297689e-05
6.282242112715683e-05
5.325072990062038e-05
4.384286844963045e-05
3.4592432372673645e-05
2.549260530849794e-05
1.6536155947882936e-05
7.715441330946983e-06
-9.77584346071301e-07
-9.551356255081903e-06
-1.8014681672567345e-05
-2.637671982649315e-05
-3.4646959747082514e-05
-4.283519698955208e-05
-5.09515100537603e-05
-5.9006237267048576e-05
-6.700995482521215e-05
-7.497345660547027e-05
-8.29077362770097e-05
-9.082397214159972e-05
-9.873351504121903e-05
-0.00010664787957347707
-0.00011457873876017635
-0.00012253792222096402
-0.00013053741781347014
-0.0001385893766139405
-0.00014670612102859635
-0.00015490015574575193
-0.00016318418116170632
-0.0001715711088395948
-0.00018007407848948608
-0.0001887064758894076
-0.00019748195110072617
-0.00020641443626728318
-0.00021551816222571902
-0.00022480767309508124
-0.00023429783795737543
-0.00024400385868796753
-0.00025394127294688855
-0.0002641259513004872
-0.000274574087409267
-0.000285302180194178
0.00014144790498719743
0.0001305493593201847
0.00011985188581090426
0.00010935195897410948
9.90459069924374e-05
8.892984018925862e-05
7.899958839369581e-05
6.925064759848241e-05
5.9678136118169437e-05
5.027676025816635e-05
4.1040789311245596e-05
3.196403951388592e-05
2.3039866425898184e-05
1.4261165048285671e-05
5.620376869823506e-06
-2.8904970651010556e-06
-1.1279878044724071e-05
-1.955658755324861e-05
-2.772982214270673e-05
-3.5809126335393246e-05
-4.3804364544363544e-05
-5.17256929447896e-05
-5.958353215724496e-05
-6.738854151857319e-05
-7.515159562047701e-05
-8.288376369344964e-05
-9.05962923069282e-05
-9.830059174826774e-05
-0.00010600822633529035
-0.00011373090881134783
-0.00012148049886938708
-0.00012926900575301243
-0.000137108594788458
-0.000145011597611832
-0.00015299052577065605
-0.0001610580872972553
-0.00016922720577350228
-0.00017751104133116613
-0.00018592301295915431
-0.00019447682141787498
-0.00020318647199128043
-0.00021206629623902367
-0.00022113097184459757
-0.00023039553959055344
-0.00023987541642997022
-0.0002495864035651841
-0.00025954468839169175
-0.0002697668391193164
-0.00028026979084636006
0.00013686646751672805
0.00012614123007177627
0.00011561508210459765
0.00010528516081859812
9.514841115242307e-05
8.520150911482032e-05
7.544079517166947e-05
6.586221813837886e-05
5.646128980354786e-05
4.7233050278478145e-05
3.817204384023759e-05
2.9272304821534767e-05
2.0527352905462396e-05
1.1930197012995818e-05
3.4733468302845566e-06
-4.851169085992601e-06
-1.3051779762095944e-05
-2.1137343998223893e-05
-2.9117119485554147e-05
-3.700073001777428e-05
-4.479813191908102e-05
-5.251958074152047e-05
-6.017559919670358e-05
-6.777694718470927e-05
-7.533459467041402e-05
-8.285969803834144e-05
-9.036358043481847e-05
-9.785771648356553e-05
-0.00010535372164020189
-0.00011286334633422816
-0.00012039847493505588
-0.0001279711294721957
-0.00013559347793911053
-0.00014327784691526907
-0.0001510367381510494
-0.0001588828486748081
-0.0001668290938997782
-0.00017488863312954076
-0.00018307489678393734
-0.00019140161459175846
-0.00019988284392160206
-0.00020853299734785056
-0.00021736686847466987
-0.00022639965496743701
-0.00023564697766889782
-0.0002451248946076735
-0.00025484990864083307
-0.0002648389674122719
-0.00027510945425708025
0.00013219839399276814
0.00012164764016209793
0.0001112940603445236
0.00010113550744020251
9.116958927162292e-05
8.139358631688483e-05
7.18043808245999e-05
6.239839782521653e-05
5.317155828495491e-05
4.4119244375943e-05
3.5236276570000584e-05
2.651690201330815e-05
1.7954793413189625e-05
9.543057473196517e-06
1.274251753446867e-06
-6.859591287066357e-06
-1.4866934389562722e-05
-2.2756701099788614e-05
-3.0538238244164256e-05
-3.822127661276634e-05
-4.581589112234e-05
-5.3332461645400195e-05
-6.078163558404469e-05
-6.817429314454407e-05
-7.552151613610271e-05
-8.283456097874528e-05
-9.01248364650717e-05
-9.74038866819679e-05
-0.00010468337936371834
-0.00011197509981912968
-0.00011929095045349215
-0.0001266429557919748
-0.00013404327280423225
-0.00014150420623023415
-0.00014903822851380357
-0.00015665800386199975
-0.00016437641586408767
-0.0001722065980221464
-0.00018016196646536962
-0.00018825625404059122
-0.00019650354489177861
-0.00020491830856063853
-0.00021351543255869964
-0.00022231025227854796
-0.00023131857702886143
-0.00024055671089541833
-0.0002500414670498529
-0.0002597901740519345
-0.00026982067262185864
0.0001274448351260332
0.00011706942429456912
0.00010688936845798058
9.690329335187737e-05
8.71095190401335e-05
7.75059715135126e-05
6.809010719992584e-05
5.885885097303852e-05
4.980854792719996e-05
4.093492886443476e-05
3.223308912607642e-05
2.3697480109062627e-05
1.5321912544912408e-05
7.0995703957190954e-06
-9.76965958121676e-07
-8.915688696024788e-06
-1.6725125242863447e-05
-2.4414296240773005e-05
-3.199267037843522e-05
-3.947011760209985e-05
-4.6856862151226184e-05
-5.416343675200571e-05
-6.140063917062531e-05
-6.857949218120436e-05
-7.571120784676731e-05
-8.280715685084965e-05
-8.987884345679068e-05
-9.693788651517524e-05
-0.00010399600679004289
-0.00011106502073315438
-0.00011815684070391817
-0.0001252834815108464
-0.0001324570730381788
-0.0001396898786177207
-0.00014699431870983967
-0.00015438299936748395
-0.00016186874487116097
-0.0001694646338394998
-0.00017718403803788896
-0.0001850406630250663
-0.0001930485896934279
-0.0002012223156722967
-0.00020957679547390653
-0.00021812747816955563
-0.00022689034128856077
-0.00023588191953622935
-0.00024511932683054486
-0.0002546202700628535
-0.00026440305289836133
0.00012260692810319796
0.00011240737791667161
0.00010240149387975113
9.258873625974957e-05
8.29681902429195e-05
7.353847078313378e-05
6.429764213061989e-05
5.524315271097165e-05
4.637178564508243e-05
3.767962481842556e-05
2.9162036038659907e-05
2.0813662477753975e-05
1.2628433290675517e-05
4.599584046301083e-06
-3.2803125960071398e-06
-1.1019307675299095e-05
-1.8626029981112236e-05
-2.6109635196858172e-05
-3.347975194115895e-05
-4.0746426446243273e-05
-4.792006750619149e-05
-5.5011393190289076e-05
-6.203138065592338e-05
-6.899122021932597e-05
-7.590227465778461e-05
-8.2776044530167e-05
-8.962414011903298e-05
-9.645826042112737e-05
-0.00010329017944678189
-0.00011013173993453169
-0.00011699485444579877
-0.0001238915136758871
-0.00013083380170100909
-0.0001378339177750495
-0.00014490420419265124
-0.00015205717964489676
-0.0001593055774080773
-0.00016666238762270556
-0.00017414090283683712
-0.0001817547659032138
-0.0001895180192320984
-0.00019744515430964327
-0.00020555116029464214
-0.0002138515704042548
-0.00022236250469182808
-0.00023110070770834866
-0.0002400835794248218
-0.0002493291976778116
-0.0002588563302877273
0.00011768578449750946
0.00010766224300342393
9.783084779204721e-05
8.819196041226789e-05
7.874548791483643e-05
6.94907802386343e-05
6.042654433000092e-05
5.15507757618503e-05
4.286070816563229e-05
3.435278033435738e-05
2.6022620417864926e-05
1.7865046229186975e-05
9.874080327393927e-06
2.0429782486210298e-06
-5.6357319699332155e-06
-1.317020098492484e-05
-2.0569202159108873e-05
-2.7842070509105823e-05
-3.499863866576545e-05
-4.204917182988321e-05
-4.9004303567845266e-05
-5.587497411959708e-05
-6.267237269475982e-05
-6.94078850213237e-05
-7.609304719366852e-05
-8.273950664992164e-05
-8.935899089885482e-05
-9.596328441825025e-05
-0.00010256421396294217
-0.0001091736423532967
-0.0001158034706642716
-0.0001224656486008707
-0.00012917219272644232
-0.00013593521210375189
-0.00014276694081266444
-0.00014967977671982865
-0.00015668632579219038
-0.0001637994511645925
-0.0001710323260895011
-0.0001783984898117161
-0.00018591190532075844
-0.0001935870178369299
-0.00020143881278269875
-0.0002094828718785587
-0.00021773542588189696
-0.00022621340235941018
-0.0002349344667496526
-0.000243917054834503
-0.00025318039459940305
0.00011268247627491796
0.00010283469169470954
9.317774706281748e-05
8.371297759176416e-05
7.444117318924188e-05
6.536246755478581e-05
5.647624640372085e-05
4.7781075695907545e-05
3.927465020270933e-05
3.095376220270423e-05
2.2814289578244537e-05
1.485120211190753e-05
7.058584370994139e-06
-5.703267679525975e-07
-8.043092156188826e-06
-1.5368010340664935e-05
-2.2554049914978537e-05
-2.9610776709019132e-05
-3.654827820501602e-05
-4.3377087438416684e-05
-5.010810846346709e-05
-5.675254524815205e-05
-6.332183562307586e-05
-6.982759165528543e-05
-7.628154756147314e-05
-8.269551602382375e-05
-8.908135353254425e-05
-9.545093515692983e-05
-0.0001018161389448229
-0.0001081888399698432
-0.0001145809138869612
-0.00012100424971864807
-0.00012747077147374185
-0.00013399246809665095
-0.00014058143115204037
-0.0001472498995662983
-0.00015401031066823094
-0.00016087535669396494
-0.00016785804584182502
-0.00017497176687884244
-0.00018223035620927933
-0.00018964816621503712
-0.00019724013356652264
-0.000205021846079812
-0.00021300960656159143
-0.00022122049193778331
-0.00022967240580634577
-0.00023838412239159373
-0.0002473753197092198
0.00010759801965567941
9.792530750520122e-05
8.844239357689633e-05
7.91516654379805e-05
7.005486154519625e-05
6.115295108957827e-05
5.24460357734203e-05
4.393327452339936e-05
3.561283148879424e-05
2.748184702368729e-05
1.9536430735922255e-05
1.1771675128346558e-05
4.181687879887565e-06
-3.2403595701066025e-06
-1.0502169752527372e-05
-1.76122460089973e-05
-2.4579811311257525e-05
-3.141472190787797e-05
-3.8127378542305706e-05
-4.472863781175291e-05
-5.122972600700573e-05
-5.764215750451345e-05
-6.397765948902405e-05
-7.02481044813258e-05
-7.646545184358008e-05
-8.264169914390157e-05
-8.878884398985318e-05
-9.491885669263571e-05
-0.0001010436639028719
-0.00010717514316613936
-0.00011332512818106521
-0.00011950542440276933
-0.00012572783451665712
-0.00013200419320810882
-0.0001383464105681638
-0.00014476652339935115
-0.00015127675361478006
-0.00015788957285318398
-0.00016461777235877084
-0.00017147453709398302
-0.00017847352296249076
-0.00018562893591646972
-0.00019295561160472658
-0.0002004690940853968
-0.00020818571197824183
-0.000216122650267304
-0.00022429801578621646
-0.00023273089422741998
-0.00024144139631598156
0.00010243335655691385
9.293456378314975e-05
8.362485060776827e-05
7.450774274663234e-05
6.558599811660841e-05
5.686147630736785e-05
4.8335033286658305e-05
4.0006442485968205e-05
3.1874342622214766e-05
2.3936211830569533e-05
1.61883669494232e-05
8.625986141258882e-06
1.2431524771567702e-06
-5.9670843252772625e-06
-1.3012631131408166e-05
-1.990226288907443e-05
-2.6645525758678638e-05
-3.325263517936744e-05
-3.973437202366964e-05
-4.610197975990192e-05
-5.236706524803963e-05
-5.854150545997206e-05
-6.463736205765825e-05
-7.066680539934042e-05
-7.664204918878751e-05
-8.257529664660007e-05
-8.847869877439329e-05
-9.436432500746668e-05
-0.00010024414631191233
-0.0001061300305785221
-0.00011203374999644048
-0.00011796699995118517
-0.00012394142887993571
-0.00012996867842668207
-0.00013606043316563327
-0.00014222847909721166
-0.00014848477006153705
-0.00015484150115436233
-0.00016131118816501322
-0.00016790675198091634
-0.00017464160681500288
-0.0001815297510077594
-0.00018858585903286872
-0.00019582537319259266
-0.00020326459332569618
-0.00021092076266692014
-0.00021881214779352967
-0.00022695811037331615
-0.00023537916819225263
9.718933330007777e-05
8.786279904303223e-05
7.872501582174905e-05
6.978074133086093e-05
6.103382967796646e-05
5.2487089175179435e-05
4.414216926756963e-05
3.599947790535547e-05
2.8058129707672088e-05
2.0315924325855627e-05
1.2769353537388207e-05
5.4136348255448986e-06
-1.7572314467786433e-06
-8.750384658237224e-06
-1.5574010073704305e-05
-2.2237232421894106e-05
-2.8750000846468126e-05
-3.512296906773885e-05
-4.1367374374389114e-05
-4.7494918756099984e-05
-5.351765511351161e-05
-5.944788106587652e-05
-6.529804244164475e-05
-7.108064810304096e-05
-7.680819733887244e-05
-8.24931206730256e-05
-8.814773458831e-05
-9.378421036166783e-05
-9.941455694929076e-05
-0.00010505061764809628
-0.00011070408009024562
-0.0001163864989951255
-0.0001221093310024724
-0.0001278839808345029
-0.00013372185797686106
-0.00013963444302090254
-0.00014563336276660955
-0.00015173047313998735
-0.0001579379489253551
-0.000164268379246551
-0.00017073486764770376
-0.00017735113552015572
-0.00018413162749491576
-0.00019109161726785402
-0.0001982473121465891
-0.00020561595440373457
-0.00021321591729126345
-0.00022106679331702905
-0.0002291894721094508
9.186667621716811e-05
8.271018873517175e-05
7.374259043912198e-05
6.496997396799903e-05
5.6397372864592957e-05
4.802860616150801e-05
3.986615674078978e-05
3.1911084950746876e-05
2.4162977797188368e-05
1.661993289120867e-05
9.278575286424877e-06
2.134104421049651e-06
-4.819632371119481e-06
-1.1590043879741545e-05
-1.818568103163311e-05
-2.4616109534810668e-05
-3.089177377814235e-05
-3.702385644149578e-05
-4.302413796821663e-05
-4.890485964657046e-05
-5.4678593570923947e-05
-6.035812223739311e-05
-6.595632999996034e-05
-7.148610809530793e-05
-7.696027445683892e-05
-8.23915090947372e-05
-8.779230542856184e-05
-9.317493762662295e-05
-9.85514437331146e-05
-0.00010393362414718279
-0.00010933305485304353
-0.00011476111467989428
-0.00012022902578694736
-0.00012574790651390935
-0.000131328835701485
-0.00013698292756184863
-0.00014272141615730193
-0.00014855574851898147
-0.00015449768540004962
-0.0001605594086034677
-0.0001667536337484803
-0.00017309372723832515
-0.00017959382606142545
-0.0001862689588973379
-0.00019313516680562236
-0.00020020962155013885
-0.00020751073935360237
-0.00021505828758873165
-0.00022287348159529593
8.64659637288196e-05
7.747671294083542e-05
6.867704399606293e-05
6.0074497875888975e-05
5.1675378118464974e-05
4.348458041948428e-05
3.550546153975099e-05
2.7739749194987556e-05
2.018749318015759e-05
1.2847056605809959e-05
5.7151448657877094e-06
-1.2131311298369863e-06
-7.944161794527446e-06
-1.4485720749074878e-05
-2.0846827107609206e-05
-2.7037593671489178e-05
-3.306906646468355e-05
-3.895306078227811e-05
-4.470199850857441e-05
-5.032875093243449e-05
-5.584649068488638e-05
-6.126855578554439e-05
-6.660832814334692e-05
-7.18791282413242e-05
-7.709412716635079e-05
-8.22662766384474e-05
-8.740825725923516e-05
-9.253244483932281e-05
-9.765089437895654e-05
-0.0001027753410604384
-0.00010791721745716438
-0.0001130876860634053
-0.00011829768619073537
-0.00012355799425041035
-0.0001288792964352335
-0.0001342722728192038
-0.00013974769189903195
-0.00014531651459981235
-0.0001509900067501826
-0.00015677985899377142
-0.00016269831303809454
-0.0001687582930450448
-0.00017497354083538465
-0.00018135875341055633
-0.00018792972108723992
-0.00019470346429265517
-0.00020169836678176744
-0.00020893430271227672
-0.00021643275465147013
8.09875943930667e-05
7.216211939008242e-05
6.352757405321454e-05
5.5093073069178836e-05
4.6866288772044154e-05
3.885326368305135e-05
3.105826899035119e-05
2.3483710847765557e-05
1.6130084629149767e-05
8.995975605281814e-06
2.078102998571399e-06
-4.628596913931976e-06
-1.1130853988228803e-05
-1.7436919737759084e-05
-2.3556401639217723e-05
-2.9500082768507155e-05
-3.527973315402204e-05
-4.090791884856958e-05
-4.639781415941283e-05
-5.176302178949203e-05
-5.7017404882413864e-05
-6.217493417591655e-05
-6.7249552693358e-05
-7.225505967292591e-05
-7.72050147740559e-05
-8.21126630260443e-05
-8.699088050350497e-05
-9.185214032897241e-05
-9.67084983111374e-05
-0.00010157159732019662
-0.00010645268936872317
-0.00011136267429505181
-0.00011631215392292641
-0.00012131150058244749
-0.00012637093891022647
-0.00013150063988869726
-0.00013671082612488937
-0.00014201188739767752
-0.00014741450551103517
-0.0001529297874720626
-0.00015856940596055673
-0.00016434574596685273
-0.00017027205634295392
-0.00017636260483582596
-0.00018263283494923612
-0.0001890995227109638
-0.00019578093110523328
-0.00020269695956633398
-0.00020986928552032234
7.543175033237885e-05
6.67658810881819e-05
5.82930600776764e-05
5.002411483351235e-05
4.196819459035509e-05
3.41325633447274e-05
2.6522446842750587e-05
1.9140935583973205e-05
1.1988943788570727e-05
5.06522224177924e-06
-1.6335788899344856e-06
-8.112802697505205e-06
-1.4379640214640978e-05
-2.044295452269864e-05
-2.6313082042770178e-05
-3.2001618814607155e-05
-3.752119927337994e-05
-4.288527448259959e-05
-4.8107896028774986e-05
-5.320351089682429e-05
-5.8186771688823385e-05
-6.307236557933033e-05
-6.787486446631786e-05
-7.260859791534348e-05
-7.728754973250148e-05
-8.192527835510161e-05
-8.653486072466795e-05
-9.112885890367876e-05
-9.57193084081049e-05
-0.00010031772704032979
-0.00010493514290657677
-0.00010958214027310302
-0.0001142689219390358
-0.00011900538686415588
-0.00012380122187157687
-0.00012866600633377502
-0.00013360932883299233
-0.00013864091485274715
-0.0001437707645967068
-0.00014900930003649442
-0.00015436752025488353
-0.00015985716407035735
-0.00016549087879907443
-0.00017128239382794143
-0.0001772466974360135
-0.00018340021500949048
-0.0001897609864475406
-0.000196348840152519
-0.0002031855605396102
6.979835533418573e-05
6.128714769930541e-05
5.297201057996776e-05
4.486563941983896e-05
3.6978778982705933e-05
2.931999411697557e-05
2.1895504111247286e-05
1.4709082933011706e-05
7.762025003038835e-06
1.053173674635049e-06
-5.420992606387234e-06
-1.1666223285354581e-05
-1.7690315990069832e-05
-2.3502903143858832e-05
-2.911521428059958e-05
-3.453982336137065e-05
-3.979038992569152e-05
-4.488140213444424e-05
-4.9827928761186674e-05
-5.4645386048935064e-05
-5.9349324150558436e-05
-6.395523668249905e-05
-6.847839580027034e-05
-7.293371419264265e-05
-7.733563451801603e-05
-8.16980460860595e-05
-8.603422802394968e-05
-9.035681775392402e-05
-9.467780333454422e-05
-9.900853806476314e-05
-0.00010335977569739263
-0.00010774172463539852
-0.00011216411956934346
-0.00011663630913710311
-0.00012116735832910308
-0.00012576616450728478
-0.00013044158603943488
-0.00013520258266025713
-0.00014005836674660724
-0.00014501856472832054
-0.0001500933878412654
-0.00015529381136067388
-0.00016063176132644639
-0.00016612030758480774
-0.00017177386172058688
-0.00017760837813998297
-0.0001836415561842471
-0.0001898930407101089
-0.00019638461806325376
6.408702678070526e-05
5.572468966707784e-05
4.756250240951819e-05
3.961520189694101e-05
3.189525896726093e-05
2.44126236058303e-05
1.71745454776251e-05
1.0185472266867226e-05
3.4470250319884816e-06
-3.0419532574678214e-06
-9.285282483534763e-06
-1.528927205223386e-05
-2.1062499617212208e-05
-2.6615552902402507e-05
-3.196074597101331e-05
-3.711182103798153e-05
-4.208364620945658e-05
-4.689191846010131e-05
-5.155287983856252e-05
-5.608305343283301e-05
-6.049900412997332e-05
-6.48171277533126e-05
-6.90534708209641e-05
-7.322358198940076e-05
-7.73423952536473e-05
-8.142414418339263e-05
-8.548230588049368e-05
-8.952957293559282e-05
-9.35778514200167e-05
-9.763828284923247e-05
-0.00010172128806896499
-0.00010583663111728213
-0.00010999350127927402
-0.00011420061175138356
-0.00011846631354824728
-0.00012279872349732013
-0.00012720586536001913
-0.00013169582327928896
-0.00013627690687178238
-0.00014095782734987344
-0.0001457478840676573
-0.00015065716083085537
-0.00015569673118932077
-0.0001608788717396678
-0.00016621728220232853
-0.0001717273107006683
-0.00017742618225870515
-0.00018333322804789777
-0.0001894701123520597
5.8297020390339713e-05
5.007683384193303e-05
4.206211089349192e-05
3.426982490154873e-05
2.6714316820735393e-05
1.9407011045846027e-05
1.2356220922155395e-05
5.567046530710758e-06
-9.586367002213138e-07
-7.222103741128785e-06
-1.3227628449383124e-05
-1.8982265697310523e-05
-2.4495579774483226e-05
-2.977933263594319e-05
-3.484714574386232e-05
-3.971414875084441e-05
-4.439662721997865e-05
-4.891168011074469e-05
-5.327689602751408e-05
-5.751005536831259e-05
-6.162886364927399e-05
-6.565071951599669e-05
-6.959251936266908e-05
-7.347049911416603e-05
-7.730011261193441e-05
-8.109594518800403e-05
-8.487166040329643e-05
-8.8639977544641e-05
-9.241267729017354e-05
-9.620063293119807e-05
-0.00010001386464498574
-0.00010386161451307499
-0.00010775244024151427
-0.0001116943258347553
-0.00011569480777894438
-0.00011976111558226806
-0.00012390032578276158
-0.00012811952875401615
-0.00013242600780546195
-0.00013682743017800775
-0.0001413320495715323
-0.00014594891980307324
-0.00015068811907989477
-0.0001555609841774328
-0.0001605803535364458
-0.00016576081793504222
-0.0001711189769485204
-0.00017667369888237864
-0.00018244638125036782
5.242716653585766e-05
4.4341389124099304e-05
3.646782923378048e-05
2.8825916783932525e-05
2.1432022168029505e-05
1.4299138361601317e-05
7.436670276531748e-06
8.503340129204515e-07
-5.457836395741673e-06
-1.14893817471474e-05
-1.7249220820825164e-05
-2.2745377750886357e-05
-2.7988649404180337e-05
-3.299222947139425e-05
-3.777130594695176e-05
-4.2342647814454676e-05
-4.672419523755382e-05
-5.093466557160214e-05
-5.4993185250896444e-05
-5.8918955247170434e-05
-6.273095548912916e-05
-6.64476914999771e-05
-7.008698463523133e-05
-7.366580573829915e-05
-7.720015079797332e-05
-8.070495628722152e-05
-8.419405126474798e-05
-8.768014299501234e-05
-9.117483274642224e-05
-9.468865851588982e-05
-9.823116165570732e-05
-0.00010181097470333251
-0.00010543592809820622
-0.0001091131738791861
-0.00011284932486398114
-0.00011665060819565859
-0.00012052303248293018
-0.00012447256804671626
-0.0001285053400048241
-0.00013262783407152925
-0.00013684711501384182
-0.0001411710576867968
-0.0001456085904631831
-0.00015016995067678634
-0.00015486695141044308
-0.0001597132585799319
-0.00016472467679082758
-0.00016991944187661574
-0.00017531851736134196
4.6475796631918016e-05
3.851556030459507e-05
3.077597524237929e-05
2.3279177352658132e-05
1.604374305830866e-05
9.084332635588802e-06
2.411462454892971e-06
-3.968591330025446e-06
-1.0053761424081873e-05
-1.5846039821624646e-05
-2.1351224172706784e-05
-2.6578577704270952e-05
-3.154042246529055e-05
-3.625168650293263e-05
-4.0729425215582575e-05
-4.499233575648184e-05
-4.906028121510268e-05
-5.295383863788247e-05
-5.669388201507932e-05
-6.0301208380353436e-05
-6.379621232920302e-05
-6.719861170084252e-05
-7.052722497794618e-05
-7.379979918841476e-05
-7.703288575451096e-05
-8.024176080939725e-05
-8.344038595015644e-05
-8.664140516759602e-05
-8.985617372783597e-05
-9.30948150189827e-05
-9.63663017612337e-05
-9.967855845917166e-05
-0.0001030385825060735
-0.00010645258189459386
-0.00010992612801603635
-0.00011346432251803091
-0.00011707197761985297
-0.00012075380964249468
-0.00012451464578724404
-0.00012835964438516348
-0.00013229452893594694
-0.0001363258362544104
-0.0001404611789444681
-0.00014470952222231164
-0.0001490814748110244
-0.00015358959322740208
-0.000158248698277142
-0.00016307620196541646
-0.00016809244231453992
4.044065774052208e-05
3.259584787674999e-05
2.4982083079430053e-05
1.762448906338131e-05
1.0544044330721954e-05
3.7571789808719643e-06
-2.72447077134363e-06
-8.89415016892966e-06
-1.4749921322725784e-05
-2.029445923156962e-05
-2.5534726863662483e-05
-3.0481551802316468e-05
-3.514912927867869e-05
-3.9554477050087903e-05
-4.3716866715457216e-05
-4.7657253962996474e-05
-5.139772724813252e-05
-5.49609908431746e-05
-5.83698944089083e-05
-6.164701749224508e-05
-6.481431387608404e-05
-6.789281765574054e-05
-7.090241038582484e-05
-7.386164667173574e-05
-7.678763416444213e-05
-7.969596301540577e-05
-8.26006793970737e-05
-8.551429761780439e-05
-8.844784557898873e-05
-9.141093875928981e-05
-9.441187849588365e-05
-9.745777100418564e-05
-0.00010055466428458837
-0.00010370770076610202
-0.00010692128420082157
-0.00011019925992606402
-0.00011354510813582478
-0.00011696215023804463
-0.00012045376871101993
-0.00012402364110628483
-0.00012767598897303676
-0.00013141584249868536
-0.00013524932157034548
-0.0001391839337620093
-0.000143228889441324
-0.00014739543376753777
-0.000151697194817519
-0.00015615054642863875
-0.00016077498358355383
3.43188131066484e-05
2.6577931073613675e-05
1.908077713911574e-05
1.1855791058083473e-05
4.926571290462677e-06
-1.688577251306991e-06
-7.976906408895023e-06
-1.393129745731823e-05
-1.955015179790217e-05
-2.483711692668713e-05
-2.9800671809781327e-05
-3.4453600488754306e-05
-3.881238515581937e-05
-4.289655019313555e-05
-4.672798704453678e-05
-5.033028667774551e-05
-5.372810225347825e-05
-5.6946559901568624e-05
-6.001073063094422e-05
-6.294517171803591e-05
-6.577354169002675e-05
-6.851828941913096e-05
-7.120041496204541e-05
-7.383929763469599e-05
-7.645258537119668e-05
-7.905613860392487e-05
-8.166402162260611e-05
-8.42885345186396e-05
-8.694027929130274e-05
-8.962825438750912e-05
-9.235997278112559e-05
-9.514159959994302e-05
-9.797810622132826e-05
-0.00010087343863754341
-0.00010383069870671105
-0.00010685233763321799
-0.00010994036164706103
-0.00011309655036607935
-0.00011632268872317688
-0.00011962081361985484
-0.00012299347662627475
-0.00012644402408674635
-0.00012997689590776786
-0.0001335979441035532
-0.00013731477185164676
-0.00014113709336825795
-0.00014507711434911868
-0.00014914993203589844
-0.000153373953158602
2.81065257806462e-05
2.045653073117523e-05
1.3065624578133391e-05
5.965932924413206e-06
-8.160836095749387e-07
-7.260140039602129e-06
-1.3352406958634113e-05
-1.908555957636914e-05
-2.4458608362958522e-05
-2.9476534647632766e-05
-3.414976282224865e-05
-3.8493506170794744e-05
-4.252702572317814e-05
-4.627284113136316e-05
-4.975592982063304e-05
-5.300294614707309e-05
-5.604148661863494e-05
-5.889942101800997e-05
-6.160430303523023e-05
-6.418286820340159e-05
-6.666062183553994e-05
-6.906151546563197e-05
-7.140770707537606e-05
-7.371939812430368e-05
-7.601473901600357e-05
-7.830979400681064e-05
-8.061855655545588e-05
-8.295300657878112e-05
-8.532320188346589e-05
-8.773739706634373e-05
-9.020218431508419e-05
-9.272265171570565e-05
-9.530255582221227e-05
-9.794450632227294e-05
-0.00010065016161101329
-0.00010342043494385536
-0.00010625571156822316
-0.00010915607782787263
-0.00011212156369140363
-0.00011515240047877957
-0.00011824929574795516
-0.00012141372735974092
-0.00012464825866410423
-0.0001279568765461857
-0.00013134535373613256
-0.0001348216363235926
-0.00013839625682525707
-0.0001420827724319695
-0.00014589822720921172
2.179912177248237e-05
1.4225247742555942e-05
6.928962163255765e-06
-5.349561271392189e-08
-6.692533755979935e-06
-1.2965785136767973e-05
-1.8858401447431356e-05
-2.4363066244982383e-05
-2.9479745033842678e-05
-3.421520402218379e-05
-3.858233918337594e-05
-4.2599363301662994e-05
-4.628890078169686e-05
-4.9677038535320557e-05
-5.2792376881867706e-05
-5.566511792360631e-05
-5.832622114211132e-05
-6.0806647806085494e-05
-6.313670786396372e-05
-6.534551582955698e-05
-6.74605560946524e-05
-6.950735329237827e-05
-7.150923982334698e-05
-7.348721037066176e-05
-7.545985202561938e-05
-7.74433383393914e-05
-7.945147600959092e-05
-8.149579381302714e-05
-8.358566463502611e-05
-8.57284528758182e-05
-8.792968101881062e-05
-9.019321063569283e-05
-9.252143451602378e-05
-9.491547790229488e-05
-9.737540796028298e-05
-9.990045160573392e-05
-0.000102489222638212
-0.0001051399598022047
-0.00010785077790813964
-0.00011061993450697631
-0.00011344611482591951
-0.00011632873774356195
-0.00011926828551308199
-0.00012226665973352627
-0.00012532756572290749
-0.0001284569269633484
-0.00013166333066809985
-0.00013495850476354923
-0.00013835782568581787
1.5390828266768648e-05
7.876371799420004e-06
6.616920811641867e-07
-6.212363660811765e-06
-1.2712774117222482e-05
-1.881499639303408e-05
-2.450326935505209e-05
-2.9770573277417e-05
-3.4618271856463705e-05
-3.905547952942726e-05
-4.3098209020873024e-05
-4.676836068192436e-05
-5.009261661595432e-05
-5.31012994390149e-05
-5.582724878935383e-05
-5.8304759536637e-05
-6.056861521760568e-05
-6.26532395930024e-05
-6.459197922936946e-05
-6.641652126323992e-05
-6.815644336279319e-05
-6.98388875019734e-05
-7.148834546787233e-05
-7.312654187252349e-05
-7.477239959822416e-05
-7.644207280121723e-05
-7.814903356176482e-05
-7.990419975134242e-05
-8.171609347759038e-05
-8.359102139356893e-05
-8.553327008979043e-05
-8.754531163336263e-05
-8.962801601774509e-05
-9.178086880396417e-05
-9.400219355368863e-05
-9.628937977287206e-05
-9.863911800685578e-05
-0.00010104764446313189
-0.00010351099809684976
-0.00010602529348668357
-0.0001085870130629928
-0.00011119332233226731
-0.00011384241167543534
-0.00011653386808474584
-0.00011926907984538332
-0.00012205167666435885
-0.00012488800710137816
-0.0001277876543653543
-0.00013076399060754033
8.874581241659915e-06
1.4006537412450913e-06
-5.746959956375941e-06
-1.252223237118333e-05
-1.8888383272990168e-05
-2.4818616721107144e-05
-3.0296425037925506e-05
-3.531547060354708e-05
-3.9879082816174426e-05
-4.399942862508895e-05
-4.7696429317308604e-05
-5.099650324856726e-05
-5.393121432650756e-05
-5.653590032114393e-05
-5.884834496527825e-05
-6.090754495916989e-05
-6.27526089995347e-05
-6.442181218109172e-05
-6.595181661441185e-05
-6.737705855370564e-05
-6.872929407892832e-05
-7.003728948810185e-05
-7.132663887331409e-05
-7.261968958324825e-05
-7.393555605079895e-05
-7.52902034041054e-05
-7.669658402353538e-05
-7.816481244271871e-05
-7.970236646397263e-05
-8.131430487339115e-05
-8.300349456045433e-05
-8.477084208152134e-05
-8.661552670502547e-05
-8.853523371633474e-05
-9.052638824029588e-05
-9.25843910701443e-05
-9.470385898996576e-05
-9.687887286403659e-05
-9.9103237358704e-05
-0.00010137075657668491
-0.00010367553013170862
-0.00010601227428109821
-0.00010837667266928126
-0.00011076576101787597
-0.00011317834972802022
-0.00011561548783752722
-0.0001180809711000411
-0.0001205818961278241
-0.00012312926156795483
2.2417952895311104e-06
-5.212966948235339e-06
-1.230973264713226e-05
-1.8996629179062873e-05
-2.523275571996754e-05
-3.098901399427171e-05
-3.6248398805898796e-05
-4.100576763555277e-05
-4.5267142666269625e-05
-4.9048624906562906e-05
-5.2375016889094194e-05
-5.52782573314705e-05
-5.779576893641671e-05
-5.996881085014143e-05
-6.18409123723064e-05
-6.345644664025775e-05
-6.48593843420061e-05
-6.609224980461812e-05
-6.719528631405749e-05
-6.820582498855165e-05
-6.915784222724181e-05
-7.008168460045548e-05
-7.10039366956132e-05
-7.194740639753102e-05
-7.293120282438948e-05
-7.397088413644529e-05
-7.507865521801755e-05
-7.626359842064347e-05
-7.753192385176878e-05
-7.888722888875336e-05
-8.033075955560958e-05
-8.186166904236114e-05
-8.347727094189976e-05
-8.517328672564433e-05
-8.694408859588653e-05
-8.878294016910959e-05
-9.068223849412606e-05
-9.263376172371596e-05
-9.462892736671188e-05
-9.665906647110013e-05
-9.871571934288981e-05
-0.00010079095849942557
-0.00010287774449292035
-0.0001049703200198095
-0.00010706464735218925
-0.00010915889358664244
-0.00011125396750276233
-0.00011335411096202513
-0.00011546754676387827
-4.517913589206996e-06
-1.1977690278852345e-05
-1.9041673540949816e-05
-2.565137133078363e-05
-3.176136887240977e-05
-3.7340261334182666e-05
-4.237090867965779e-05
-4.6850044801025276e-05
-5.0787317123368743e-05
-5.4203865686320164e-05
-5.713057017079162e-05
-5.960609926794567e-05
-6.167489066037402e-05
-6.338517433879282e-05
-6.478713023421785e-05
-6.593124646931158e-05
-6.686691980009558e-05
-6.764131725173435e-05
-6.829849900913035e-05
-6.887878802971762e-05
-6.941836171100904e-05
-6.994903492544234e-05
-7.049820120475132e-05
-7.108889906059027e-05
-7.173997260081306e-05
-7.246629904324663e-05
-7.327905985623118e-05
-7.418603661369445e-05
-7.519191691592508e-05
-7.629859968253196e-05
-7.750549265071369e-05
-7.880979795921042e-05
-8.020678426458989e-05
-8.169004595182279e-05
-8.325175171256037e-05
-8.488288612596502e-05
-8.657348894127587e-05
-8.831289757535552e-05
-9.00899989406804e-05
-9.189349713775914e-05
-9.371220379898564e-05
-9.553535796736918e-05
-9.735298233465002e-05
-9.915628244521694e-05
-0.00010093809508838255
-0.00010269339154597842
-0.00010441984063219159
-0.00010611843556128419
-0.0001077941876165018
-1.1417064124016971e-05
-1.8909253350087767e-05
-2.596055319674037e-05
-3.250494873991783e-05
-3.84920894996386e-05
-4.388832984000195e-05
-4.8676913730687893e-05
-5.285735548548741e-05
-5.64441253197948e-05
-5.946478938518993e-05
-6.195777587884545e-05
-6.396994222212192e-05
-6.555410578663277e-05
-6.676667634484637e-05
-6.766549707502057e-05
-6.830796711754637e-05
-6.874948616987483e-05
-6.904223316204873e-05
-6.923426827884876e-05
-6.936893106859965e-05
-6.948449688393528e-05
-6.961404868150367e-05
-6.978552022597324e-05
-7.002186887926528e-05
-7.034134035486844e-05
-7.075779317859123e-05
-7.128105641261663e-05
-7.19172999556699e-05
-7.266940209045406e-05
-7.353730371704678e-05
-7.451834280478324e-05
-7.560756601030644e-05
-7.679801719086732e-05
-7.808100476227762e-05
-7.944635159392037e-05
-8.088263248248436e-05
-8.237740527718292e-05
-8.391744250542854e-05
-8.548897091816671e-05
-8.707792677213264e-05
-8.867023491211873e-05
-9.025211981687309e-05
-9.181045672423385e-05
-9.333317074460305e-05
-9.480969149307586e-05
-9.623147020694153e-05
-9.759256555965084e-05
-9.889030343625607e-05
-0.0001001260148126089
-1.8470720311197222e-05
-2.6026415246904093e-05
-3.308736579018222e-05
-3.957897835758209e-05
-4.544552442706934e-05
-5.065128951809068e-05
-5.518063531952642e-05
-5.9037056196160095e-05
-6.224138583847032e-05
-6.482936029393696e-05
-6.684876728216201e-05
-6.83564099018489e-05
-6.94150901217884e-05
-7.00907802253443e-05
-7.045010558395933e-05
-7.055821609288729e-05
-7.047708127284007e-05
-7.026420869271906e-05
-6.997175860275288e-05
-6.96460096905688e-05
-6.932712088924956e-05
-6.90491307880204e-05
-6.884013779724987e-05
-6.8722609202893e-05
-6.871377421106763e-05
-6.882606391094676e-05
-6.906756895249549e-05
-6.94424930991859e-05
-6.995158735916235e-05
-7.059255498204921e-05
-7.136042221779948e-05
-7.22478734337896e-05
-7.324555208659562e-05
-7.43423312738454e-05
-7.552555927785158e-05
-7.678128677453028e-05
-7.80944833190429e-05
-7.944925141386639e-05
-8.082904697447697e-05
-8.221691537077655e-05
-8.359575245826876e-05
-8.494860012465879e-05
-8.625898585436003e-05
-8.751131563546023e-05
-8.869132917667562e-05
-8.978662584248039e-05
-9.07872689374107e-05
-9.168647497307574e-05
-9.248139334993438e-05
-2.569699659867009e-05
-3.335155242058371e-05
-4.044693747581808e-05
-4.6898744781006044e-05
-5.264541994208537e-05
-5.764951050090707e-05
-6.189752581705526e-05
-6.539853370252709e-05
-6.818171734845565e-05
-7.029317788968684e-05
-7.17922915001936e-05
-7.27479184753105e-05
-7.323472299673836e-05
-7.332980610623264e-05
-7.310979092676406e-05
-7.264843703754255e-05
-7.201480644751451e-05
-7.127196050601847e-05
-7.047613663230105e-05
-6.967633538348131e-05
-6.89142403661977e-05
-6.82243935033108e-05
-6.76345537699521e-05
-6.716617651726935e-05
-6.683496111505342e-05
-6.66514255340128e-05
-6.662147675991377e-05
-6.674695506048731e-05
-6.70261378730104e-05
-6.745419540872977e-05
-6.802359507239648e-05
-6.872445563570087e-05
-6.954485497704201e-05
-7.047109730360843e-05
-7.148794728612635e-05
-7.257883961746714e-05
-7.372607328006201e-05
-7.491100036995232e-05
-7.611421974434117e-05
-7.731578607543077e-05
-7.8495445122437e-05
-7.96329061714964e-05
-8.070816261852983e-05
-8.170187154891246e-05
-8.259580285972833e-05
-8.337336793641818e-05
-8.402023710618644e-05
-8.4525054034727e-05
-8.488025392685075e-05
-3.311768444194392e-05
-4.091139490287302e-05
-4.8068669737340525e-05
-5.4493844763052446e-05
-6.011911309978396e-05
-6.490585083389051e-05
-6.884415450179393e-05
-7.195078512828518e-05
-7.426584080824666e-05
-7.584855428240502e-05
-7.677263157359124e-05
-7.712151931888679e-05
-7.698392471118659e-05
-7.644982819069987e-05
-7.560713978494276e-05
-7.453906699733938e-05
-7.332219315659909e-05
-7.20252139261388e-05
-7.07082466497716e-05
-6.942261044282078e-05
-6.821097118619025e-05
-6.710775117839044e-05
-6.613971468110683e-05
-6.532665505507343e-05
-6.468212443131371e-05
-6.421416140654161e-05
-6.392598520378752e-05
-6.381663568378281e-05
-6.388154744623798e-05
-6.411305315260837e-05
-6.450081638096445e-05
-6.503219808571842e-05
-6.569256337992432e-05
-6.64655371616894e-05
-6.733321830622134e-05
-6.827636293491165e-05
-6.92745478029467e-05
-7.030632522624547e-05
-7.134938126949521e-05
-7.238070917937206e-05
-7.337681028087061e-05
-7.431393474513145e-05
-7.51683747482251e-05
-7.59168225188552e-05
-7.653680555664991e-05
-7.700721082896196e-05
-7.730890897105196e-05
-7.74254883957738e-05
-7.734410777508792e-05
-4.0759035807790564e-05
-4.873794338324097e-05
-5.5987452680385545e-05
-6.239895655509367e-05
-6.789803535770921e-05
-7.244580797491579e-05
-7.603796576002722e-05
-7.870178889427058e-05
-8.049161105735448e-05
-8.148328558036543e-05
-8.176821461598928e-05
-8.144744541548453e-05
-8.062623558160065e-05
-7.940936547227987e-05
-7.789735162174724e-05
-7.618360559446937e-05
-7.435249712755453e-05
-7.247822183188802e-05
-7.062434065498223e-05
-6.884384649145957e-05
-6.717961727483265e-05
-6.566512910107853e-05
-6.432532266632883e-05
-6.317753788157607e-05
-6.223245242679932e-05
-6.149497869971875e-05
-6.09650893643298e-05
-6.063855433543401e-05
-6.05075817279616e-05
-6.05613624299799e-05
-6.0786522981960646e-05
-6.116749482284675e-05
-6.168681011705377e-05
-6.232533566661105e-05
-6.306245713224852e-05
-6.38762261640979e-05
-6.474348324539913e-05
-6.563996919780007e-05
-6.654043845746101e-05
-6.741878744166208e-05
-6.824821158699112e-05
-6.900140492425728e-05
-6.965081630652117e-05
-7.01689765480371e-05
-7.052891067198209e-05
-7.070464910664126e-05
-7.067185092834213e-05
-7.040855107027372e-05
-6.989604179499136e-05
-4.865275143448207e-05
-5.686962037862475e-05
-6.424479329083404e-05
-7.065475839909956e-05
-7.60182635771915e-05
-8.029759683687203e-05
-8.349684321150243e-05
-8.565757880642558e-05
-8.685267957144458e-05
-8.717901991317462e-05
-8.67498198898227e-05
-8.568729376051866e-05
-8.411609152118355e-05
-8.215784414024011e-05
-7.992695193053396e-05
-7.752761361241609e-05
-7.50519906430529e-05
-7.257933820877481e-05
-7.017590592557076e-05
-6.789540975982291e-05
-6.577989325301905e-05
-6.386082294328893e-05
-6.216029370007838e-05
-6.0692250158371334e-05
-5.9463657881940056e-05
-5.847558097769759e-05
-5.772414126351401e-05
-5.7201348007895935e-05
-5.6895797290859584e-05
-5.6793246892919164e-05
-5.6877077020583804e-05
-5.712864977277599e-05
-5.752758159376938e-05
-5.805194348731577e-05
-5.867840382435476e-05
-5.9382328414272524e-05
-6.013785230411122e-05
-6.091793763760684e-05
-6.169443191304802e-05
-6.243814115084573e-05
-6.311893280750466e-05
-6.37058837078229e-05
-6.416748873445564e-05
-6.447194640777981e-05
-6.458753767904458e-05
-6.448311410341481e-05
-6.412871092183973e-05
-6.349629935995795e-05
-6.256069061245451e-05
-5.683723874978829e-05
-6.535272688584955e-05
-7.28902168124772e-05
-7.930902347172896e-05
-8.452110355436273e-05
-8.849209479047432e-05
-9.123838154640113e-05
-9.282089727132047e-05
-9.333665485642079e-05
-9.290909536017984e-05
-9.167828022707363e-05
-8.979176615838045e-05
-8.739675117685596e-05
-8.463381844319482e-05
-8.16323716584581e-05
-7.850767629148715e-05
-7.535930237345006e-05
-7.227070317492021e-05
-6.930964862507708e-05
-6.652924913183719e-05
-6.396934139097981e-05
-6.165805210620382e-05
-5.961340059609582e-05
-5.784484225613293e-05
-5.635468935037604e-05
-5.513937289395828e-05
-5.419052978717514e-05
-5.349591378236366e-05
-5.3040138437747235e-05
-5.2805266074189543e-05
-5.277125992106499e-05
-5.291631796707202e-05
-5.3217107193355255e-05
-5.36489163684322e-05
-5.418574479669957e-05
-5.480034359196849e-05
-5.546422536487311e-05
-5.614765777225885e-05
-5.681965623061027e-05
-5.7447991255822834e-05
-5.7999226333412066e-05
-5.8438802885543706e-05
-5.8731189685109434e-05
-5.884011483403822e-05
-5.872889899630109e-05
-5.8360908752193644e-05
-5.7700148511219754e-05
-5.671200820941231e-05
-5.536418192702685e-05
-6.535922852343853e-05
-7.42433011333486e-05
-8.198301647758003e-05
-8.841792010205892e-05
-9.345367375722261e-05
-9.70625589103791e-05
-9.927872058736339e-05
-0.00010018925212896949
-9.99225794236143e-05
-9.863568404622756e-05
-9.650154765555662e-05
-9.369788357230845e-05
-9.039783617605718e-05
-8.676295381425788e-05
-8.293843061366723e-05
-7.905039300729931e-05
-7.520488010837182e-05
-7.148811959082295e-05
-6.796771133071438e-05
-6.46943777376869e-05
-6.170400370325595e-05
-5.90197566237998e-05
-5.665413927837459e-05
-5.461088092089739e-05
-5.2886613290469985e-05
-5.147230878040749e-05
-5.035447918446247e-05
-4.951614709620576e-05
-4.893761001167028e-05
-4.859702110432732e-05
-4.847081184080693e-05
-4.853398112008309e-05
-4.876027421260977e-05
-4.912227299009556e-05
-4.959141713827106e-05
-5.0137974471522366e-05
-5.073097726315226e-05
-5.133814074607598e-05
-5.1925779656793744e-05
-5.2458738885161624e-05
-5.290035491582507e-05
-5.321246573023819e-05
-5.335548806387983e-05
-5.328858221106828e-05
-5.2969925710472186e-05
-5.23571179461787e-05
-5.1407737650059366e-05
-5.008007419752148e-05
-4.833405124652669e-05
-7.42758739768327e-05
-8.360951143831586e-05
-9.159444888556236e-05
-9.804754399742998e-05
-0.00010286942654839936
-0.00010604396553686335
-0.00010763072571451533
-0.00010775212869515004
-0.00010657747897187026
-0.00010430603373330936
-0.00010115097168893921
-9.732558890117909e-05
-9.303246399448715e-05
-8.845580652419795e-05
-8.375679951500532e-05
-7.907149286518602e-05
-7.451068659140732e-05
-7.016123069494877e-05
-6.608822504405463e-05
-6.233769486204235e-05
-5.893941993785455e-05
-5.590969216975037e-05
-5.325385782744001e-05
-5.096856491171233e-05
-4.9043682693154854e-05
-4.746389228255153e-05
-4.620996698086882e-05
-4.525977221457307e-05
-4.4589019737329436e-05
-4.417181160820314e-05
-4.398100785538454e-05
-4.3988448864790836e-05
-4.416506019075091e-05
-4.4480864190461116e-05
-4.490491995497105e-05
-4.5405210630017866e-05
-4.5948495482663445e-05
-4.650014301002623e-05
-4.70239610046619e-05
-4.748203976364805e-05
-4.783462550834918e-05
-4.8040042491149116e-05
-4.805468407976946e-05
-4.783309513534898e-05
-4.73281699552271e-05
-4.6491491558285896e-05
-4.5273838695855575e-05
-4.3625886203324526e-05
-4.149912177816564e-05
-8.365750643499941e-05
-9.353476532957894e-05
-0.00010181050041700506
-0.00010827569936489566
-0.00011282849184105425
-0.00011547173516701843
-0.00011630119381285538
-0.00011548700584561474
-0.0001132516565385171
-0.00010984754650140505
-0.00010553662155459104
-0.00010057366700823113
-9.519399016278647e-05
-8.960548495978534e-05
-8.398457067080591e-05
-7.847522836084099e-05
-7.319028383844723e-05
-6.821414358969572e-05
-6.360632138319958e-05
-5.940525066079215e-05
-5.563203007645577e-05
-5.229387952566803e-05
-4.9387185330147625e-05
-4.690008629693824e-05
-4.4814601080258275e-05
-4.31083268483891e-05
-4.175575484644586e-05
-4.072925447925872e-05
-3.999977750442584e-05
-3.9537330393440984e-05
-3.9311257677620984e-05
-3.929037332462554e-05
-3.944297162315389e-05
-3.9736744109548786e-05
-4.0138624966727784e-05
-4.061458415127077e-05
-4.112938527343706e-05
-4.1646323944884156e-05
-4.212696188236908e-05
-4.253087247137817e-05
-4.281541470458521e-05
-4.293555435113056e-05
-4.2843753773324014e-05
-4.24899547923005e-05
-4.182168209143416e-05
-4.078429735324823e-05
-3.9321436011999656e-05
-3.73756584349412e-05
-3.488934482824037e-05
-9.359129594766814e-05
-0.00010412178890889003
-0.00011273538486673916
-0.000119193920235369
-0.00012339763837456417
-0.00012537946786364594
-0.00012528660719482465
-0.00012335368131608724
-0.0001198722990442506
-0.00011516138027290796
-0.00010954148168024449
-0.00010331495131536263
-9.675244481287024e-05
-9.008535830865667e-05
-8.350314738466257e-05
-7.715426978529606e-05
-7.114951739536584e-05
-6.556668361323346e-05
-6.0455756002156225e-05
-5.5844069032847136e-05
-5.174106322252195e-05
-4.814246139113487e-05
-4.503378983113267e-05
-4.239324858998036e-05
-4.019397991945992e-05
-3.840580622085834e-05
-3.6996516089324565e-05
-3.593277515610762e-05
-3.518073150622441e-05
-3.470637630529293e-05
-3.447571066314916e-05
-3.4454760722089006e-05
-3.460947502347011e-05
-3.490553160879909e-05
-3.5308077098832914e-05
-3.578141611863101e-05
-3.628866680925754e-05
-3.679139669291332e-05
-3.7249252757561024e-05
-3.761960024374297e-05
-3.7857186216821125e-05
-3.791384656457158e-05
-3.7738278512485044e-05
-3.727590494360857e-05
-3.646886142010886e-05
-3.525614125200489e-05
-3.357393737476186e-05
-3.135622106756591e-05
-2.8535595488984183e-05
-0.00010418617689299616
-0.00011549803429183403
-0.00012449597328957217
-0.00013090966672448163
-0.00013464949379018152
-0.00013579509528280852
-0.00013456672436515393
-0.00013128621349927744
-0.00012633483629909082
-0.00012011421492847426
-0.00011301438161175024
-0.00010539087323909645
-9.755086511356782e-05
-8.974710116481736e-05
-8.21777737989175e-05
-7.499041347651428e-05
-6.828807755589699e-05
-6.213650628358652e-05
-5.6571315657397516e-05
-5.160464982739211e-05
-4.7230989784353104e-05
-4.34320077574423e-05
-4.0180479572548135e-05
-3.744333667794232e-05
-3.5183971707248565e-05
-3.336391964284084e-05
-3.1944030819192905e-05
-3.088523903986421e-05
-3.0149012397883432e-05
-2.9697558627465002e-05
-2.9493842403193003e-05
-2.9501459595619945e-05
-2.968440328180778e-05
-3.000674823493859e-05
-3.0432274497932572e-05
-3.092404626170182e-05
-3.144395940726688e-05
-3.195226955551725e-05
-3.240711217334085e-05
-3.2764027144862326e-05
-3.2975502227009304e-05
-3.299055301077183e-05
-3.275436144677601e-05
-3.220800062708274e-05
-3.128828009265651e-05
-2.9927752836781535e-05
-2.8054931278346552e-05
-2.5594763152652494e-05
-2.246941756832866e-05
-0.00011557956913098495
-0.0001278229246362726
-0.00013724739945219111
-0.00014354851411688737
-0.00014666039961664897
-0.00014673450592880702
-0.00014409495005530764
-0.00013918152133766986
-0.00013249135255532672
-0.00012452781646614717
-0.000115761620022591
-0.00010660557524368134
-9.740191362198525e-05
-8.841954153740564e-05
-7.985817540975968e-05
-7.185652618138804e-05
-6.450228448765313e-05
-5.784232975830105e-05
-5.189219181898452e-05
-4.664426431513888e-05
-4.2074595865372523e-05
-3.814828775557165e-05
-3.482363691744415e-05
-3.2055209688014474e-05
-2.9796039539864883e-05
-2.79991280620163e-05
-2.661840454407918e-05
-2.560927266528879e-05
-2.4928846975435332e-05
-2.4535959007073414e-05
-2.439099368302367e-05
-2.4455601204037558e-05
-2.4692317506298583e-05
-2.5064117224910974e-05
-2.5533916430558285e-05
-2.606403780846178e-05
-2.6615648078417986e-05
-2.714817605118107e-05
-2.7618719608839184e-05
-2.79814510131364e-05
-2.818703232224367e-05
-2.8182056476385494e-05
-2.7908535011120575e-05
-2.7303460562176727e-05
-2.6298481307062468e-05
-2.481973471904833e-05
-2.278789816558208e-05
-2.0118521674044633e-05
-1.6722710510769408e-05
-0.00012794669114823574
-0.00014129766952502881
-0.00015118011461130027
-0.00015725591895300042
-0.00015950581872928229
-0.00015819114155859852
-0.00015378391874677202
-0.00014688334322549636
-0.00013813522795108374
-0.00012816611162740532
-0.00011753746314268119
-0.0001067200963606853
-9.608546293054458e-05
-8.590902844178195e-05
-7.638096643065718e-05
-6.762026804414888e-05
-5.9689507141936034e-05
-5.260856977704238e-05
-4.636649289463271e-05
-4.093112935919834e-05
-3.6256701955986095e-05
-3.228948719295754e-05
-2.8971937769048427e-05
-2.6245555596783902e-05
-2.405279674155467e-05
-2.2338245496460727e-05
-2.1049248540576664e-05
-2.0136157619250142e-05
-1.9552292899476745e-05
-1.9253709623249377e-05
-1.9198827463541698e-05
-1.9347964230459003e-05
-1.966280233554928e-05
-2.0105806821365006e-05
-2.063960705175026e-05
-2.122634973304445e-05
-2.182702833383298e-05
-2.240079285466441e-05
-2.29042440555128e-05
-2.3290717595185343e-05
-2.3509566148675366e-05
-2.35054517101806e-05
-2.3217666418306245e-05
-2.2579508923964604e-05
-2.1517754996909152e-05
-1.995227559247869e-05
-1.7795871660964465e-05
-1.4954409562546386e-05
-1.1327349268234338e-05
-0.00014151368509774417
-0.0001561787138499261
-0.00016652864792624596
-0.0001721976852434666
-0.00017325141474044937
-0.00017011917021473992
-0.00016348399611988858
-0.00015415985622291019
-0.00014298115479521943
-0.0001307197484470731
-0.00011803413025785061
-0.00010544761413255554
-9.334825170636987e-05
-8.200235995162622e-05
-7.1574692597714e-05
-6.215024886198379e-05
-5.37546609684398e-05
-4.637164247324642e-05
-3.99570207448689e-05
-3.444948605840347e-05
-2.977848619312764e-05
-2.5869793592063245e-05
-2.2649259596747005e-05
-2.0045205454290844e-05
-1.7989817701133956e-05
-1.641983487689e-05
-1.5276741850635766e-05
-1.4506630079558257e-05
-1.4059836605998313e-05
-1.3890439962235173e-05
-1.395566543231923e-05
-1.421523342582851e-05
-1.4630671422381303e-05
-1.5164600737824956e-05
-1.578000323339745e-05
-1.6439469283521585e-05
-1.710442628670211e-05
-1.7734346358563727e-05
-1.8285932334411326e-05
-1.8712282722661844e-05
-1.8962038874044147e-05
-1.8978521729412934e-05
-1.8698871819823083e-05
-1.805321583533189e-05
-1.6963897323709308e-05
-1.5344828718427683e-05
-1.3101046172993118e-05
-1.0128574059141242e-05
-6.314725426843047e-06
-0.0001565764641490669
-0.00017279637211275382
-0.0001835821762984221
-0.00018855734708520108
-0.00018793652512840266
-0.00018240642419086101
-0.0001729513966883753
-0.00016067287750323397
-0.0001466398909968425
-0.00013178873750165494
-0.00011687265801136256
-0.00010245146639367063
-8.8907299656051e-05
-7.647369920660491e-05
-6.526858386985668e-05
-5.5325338691799016e-05
-4.661920336695554e-05
-3.908812257815114e-05
-3.26483377467696e-05
-2.7205507317529817e-05
-2.2662280336359602e-05
-1.892319265230319e-05
-1.5897618684379187e-05
-1.350135700012539e-05
-1.165728536211782e-05
-1.0295402048183708e-05
-9.352476973357201e-06
-8.771465828984735e-06
-8.500788983294757e-06
-8.493540062118115e-06
-8.706663290238741e-06
-9.10012088270679e-06
-9.636059786095495e-06
-1.0277979229532256e-05
-1.098989567267024e-05
-1.173549900465305e-05
-1.2477292680157775e-05
-1.3175710475238139e-05
-1.3788203428429088e-05
-1.4268292139472775e-05
-1.4564581948931649e-05
-1.4619741981510524e-05
-1.4369454564016823e-05
-1.3741350911344093e-05
-1.2653964779771754e-05
-1.1015760657717873e-05
-8.724328011688008e-06
-5.665874970917084e-06
-1.7151939738380834e-06
-0.000173528347322183
-0.00019158091501865807
-0.00020269651059064218
-0.00020652689339582028
-0.00020354429077683528
-0.0001948310752669202
-0.00018180133804209843
-0.00016593644076931963
-0.00014858790237755218
-0.00013086503230780446
-0.00011359734518425784
-9.734875148092891e-05
-8.245949649152056e-05
-6.909729692457478e-05
-5.730622071907651e-05
-4.7047811577808265e-05
-3.823291065468794e-05
-3.074477372775323e-05
-2.4454980027430716e-05
-1.9233807375542843e-05
-1.495658201014472e-05
-1.1507223039127976e-05
-8.779904987109223e-06
-6.679505787599406e-06
-5.121305296243439e-06
-4.030248237878414e-06
-3.339976744133155e-06
-2.991761577251714e-06
-2.9334091410477495e-06
-3.1181865413859415e-06
-3.5037840659386636e-06
-4.051319732606851e-06
-4.724381357374286e-06
-5.4880961026736695e-06
-6.308214477779512e-06
-7.150194484958558e-06
-7.978271526630238e-06
-8.754500457929795e-06
-9.437757508010038e-06
-9.982691456839228e-06
-1.0338615281015734e-05
-1.0448331617364786e-05
-1.0246888750759398e-05
-9.660270751466696e-06
-8.604040144998167e-06
-6.981979924075132e-06
-4.684828904661514e-06
-1.5892700849936235e-06
2.4425956821707596e-06
-0.0001929015344096423
-0.00021309938441789575
-0.0002243057642074799
-0.00022628369596613452
-0.00021994837403820468
-0.00020699266966225883
-0.00018944032093309165
-0.00016926322494557064
-0.00014813401660095755
-0.0001273192564685396
-0.00010767852498125402
-8.972372645305663e-05
-7.370055222972668e-05
-5.966809907252868e-05
-4.756524660957401e-05
-3.726075758132335e-05
-2.858841678777613e-05
-2.1370171525377554e-05
-1.5430417117492435e-05
-1.0604122726211892e-05
-6.7408736495889045e-06
-3.706326737017455e-06
-1.3821079460921365e-06
3.351669711253646e-07
1.535313739555919e-06
2.2961756299828264e-06
2.6852383006655423e-06
2.7611792087625176e-06
2.5753127013714103e-06
2.1729197499454136e-06
1.5944678824094099e-06
8.767363306411233e-07
5.386644454942989e-08
-8.416402595087281e-07
-1.7779533983005268e-06
-2.7229517532768085e-06
-3.6432465232709866e-06
-4.503169875088274e-06
-5.2637107186403326e-06
-5.881381417612236e-06
-6.307000397636018e-06
-6.484375912837494e-06
-6.3488758464801814e-06
-5.82586958311395e-06
-4.829036589073816e-06
-3.2585629002510573e-06
-9.993043615266588e-07
2.0809075467172547e-06
6.132514274844337e-06
-0.0002154309876262778
-0.00023810770481065102
-0.0002489285767533374
-0.00024793933407035306
-0.00023681862545096865
-0.00021820344202616755
-0.00019497106532092998
-0.00016970006240319373
-0.0001443894266070369
-0.00012039979554136904
-9.853130462062658e-05
-7.915681722182346e-05
-6.235704109863867e-05
-4.803219362609443e-05
-3.598380110081422e-05
-2.5969638211786433e-05
-1.7737963411147662e-05
-1.1047197407121443e-05
-5.676018271588701e-06
-1.4274884227995178e-06
1.870329300731981e-06
4.3656766139192876e-06
6.185339606206569e-06
7.437237497111065e-06
8.213030389715562e-06
8.590574781256388e-06
8.63615100680495e-06
8.406442184407878e-06
7.950274935895939e-06
7.310148031212027e-06
6.523582341501875e-06
5.624327901751405e-06
4.643463764313982e-06
3.6104249862343833e-06
2.553989236302439e-06
1.5032534458920156e-06
4.886287471208683e-07
-4.571203615450978e-07
-1.2977690470325834e-06
-1.992435894253774e-06
-2.4942769257657593e-06
-2.749048032369989e-06
-2.6935087811428768e-06
-2.2536321008770864e-06
-1.3425785274894658e-06
1.4159370066452875e-07
2.3184537028811056e-06
5.327798016416686e-06
9.331954968123252e-06
-0.00024215575639025444
-0.00026762383031567053
-0.00027715535231000144
-0.0002714314513837553
-0.00025345514166490765
-0.00022732034148499516
-0.00019706621307574983
-0.00016596111870456848
-0.00013625546549214592
-0.00010925863742205632
-8.556137629510063e-05
-6.527625168589306e-05
-4.823503996200581e-05
-3.412814526217303e-05
-2.259326988002409e-05
-1.3266874534681303e-05
-5.811021070070861e-06
7.48990029083305e-08
4.651113168616886e-06
8.139024128587255e-06
1.072493438280766e-05
1.2564549324821915e-05
1.3787513358626247e-05
1.4501614197422945e-05
1.479650693462641e-05
1.4746927002406529e-05
1.4415420832470478e-05
1.3854649978345987e-05
1.310933358681667e-05
1.221789412410323e-05
1.1213867119372334e-05
1.0127130105402546e-05
8.985000328049636e-06
7.81324581356586e-06
6.637050226158394e-06
5.481968544137142e-06
4.374907691948645e-06
3.345163576084619e-06
2.425543248689866e-06
1.65359827776013e-06
1.0729937736067736e-06
7.350392711631161e-07
7.004168131822391e-07
1.0411622315014725e-06
1.842986390242652e-06
3.208046399949191e-06
5.258247585841324e-06
8.139006800910419e-06
1.2023083277637719e-05
-0.0002745847614271942
-0.00030302685849070644
-0.000309582023271243
-0.000296300127525702
-0.00026849944892575384
-0.00023249544838726632
-0.00019381856073138348
-0.0001563839427987712
-0.00012245739421162658
-9.30263329496531e-05
-6.825178718557105e-05
-4.7838863666279293e-05
-3.1286969384570606e-05
-1.8038089581837773e-05
-7.555043208286251e-06
6.430956894086677e-07
6.969570352449196e-06
1.1770825980960038e-05
1.533296997139168e-05
1.7890158702015782e-05
1.9633069268376862e-05
2.0716622050692582e-05
2.126665533830124e-05
2.1385521216454287e-05
2.1156693855660033e-05
2.0648526612407282e-05
1.991730151041824e-05
1.9009704564114252e-05
1.7964843926104e-05
1.681591042075668e-05
1.5591564166431366e-05
1.4317117659251501e-05
1.3015575090018477e-05
1.1708579616145692e-05
1.0417314451472651e-05
9.163399499785866e-06
7.969822283082585e-06
6.861939459244489e-06
5.868582624328359e-06
5.023298926206971e-06
4.36575374570744e-06
3.943322005812815e-06
3.8129033738680713e-06
4.04302664936242e-06
4.7163720716587344e-06
5.932930901432487e-06
7.814081406685297e-06
1.0507754521672016e-05
1.4194419830854902e-05
-0.0003149785711406045
-0.00034617679624938296
-0.0003466032061657232
-0.0003212303007862242
-0.00027944378153419976
-0.00023083490688254656
-0.00018260953150894994
-0.00013896624328569625
-0.00010167218410471595
-7.096538612371594e-05
-4.630351974671518e-05
-2.6842384346702988e-05
-1.169360236919366e-05
-4.361643294700421e-08
8.803784128484288e-06
1.5422652391683335e-05
2.027637069263477e-05
2.3734509618564606e-05
2.6089949080724357e-05
2.7574165108639533e-05
2.8370056805083208e-05
2.862235077128047e-05
2.8445879317623478e-05
2.7932096345871646e-05
2.7154178810455095e-05
2.617101487756442e-05
2.503032676863038e-05
2.3771127176341845e-05
2.242566668308717e-05
2.1020996328624704e-05
1.9580243649091732e-05
1.8123681034954656e-05
1.6669651008687468e-05
1.523540300355842e-05
1.3837889569831693e-05
1.2494565868071631e-05
1.1224234052782797e-05
1.0047972809719722e-05
8.990190787692672e-06
8.079839711376633e-06
7.351817701387563e-06
6.848586952056673e-06
6.622029604165438e-06
6.735591281848471e-06
7.266849850536428e-06
8.310832876810142e-06
9.984658363609497e-06
1.243418118580331e-05
1.5842876143042084e-05
-0.00036683958003737066
-0.0003995041507174361
-0.00038784160545544174
-0.0003431275942888277
-0.0002818427260365254
-0.00021802106253912632
-0.00016011872892171574
-0.00011159414805142557
-7.281716210732355e-05
-4.272864981718613e-05
-1.9832509469766378e-05
-2.661004048734418e-06
1.0049908971322834e-05
1.9323927803639622e-05
2.596406923725785e-05
3.0589827588451844e-05
3.367527443702339e-05
3.558213321279088e-05
3.658647312163282e-05
3.689947137427594e-05
3.6683248639651756e-05
3.6062826524664365e-05
3.51351180674414e-05
3.397568300972842e-05
3.264381290675922e-05
3.1186373380525604e-05
2.964072329018658e-05
2.8036949235799935e-05
2.6399593412553988e-05
2.4749008583201332e-05
2.310244190724788e-05
2.1474926534927182e-05
1.988004399905625e-05
1.833060988660714e-05
1.6839328856302046e-05
1.541946188026713e-05
1.4085547819495982e-05
1.2854222169327283e-05
1.1745176708430295e-05
1.078230282500767e-05
9.995055659200395e-06
9.420063255051805e-06
9.102986524158353e-06
9.10063054825657e-06
9.48337635017912e-06
1.0338263927181252e-05
1.177361490477171e-05
1.3926757931294591e-05
1.6976408813699616e-05
-0.0004358175875804136
-0.00046582964181824716
-0.0004306470011216715
-0.0003553047688753802
-0.0002682196725417888
-0.00018816042643490224
-0.00012275312653598977
-7.26304595665219e-05
-3.555730682316637e-05
-8.72228217372643e-06
1.0399898563228795e-05
2.3821984667235194e-05
3.306598906541029e-05
3.925488829970816e-05
4.320863626147972e-05
4.552423563057792e-05
4.663699071161015e-05
4.686554273527799e-05
4.644437352571842e-05
4.554708552628365e-05
4.43030492981163e-05
4.280933166495211e-05
4.113927764724638e-05
3.934871864949812e-05
3.7480492100124756e-05
3.556775527439643e-05
3.363643447024719e-05
3.1707052047560665e-05
2.979610515019271e-05
2.7917122150993012e-05
2.6081489746767727e-05
2.429912091814787e-05
2.257901877763418e-05
2.092978173712386e-05
1.9360090173682057e-05
1.7879213029191668e-05
1.6497573934195174e-05
1.5227419846004786e-05
1.4083639740495625e-05
1.3084784396904647e-05
1.2254336466359286e-05
1.1622265413963571e-05
1.1226865017364626e-05
1.1116810572512573e-05
1.1353335006869438e-05
1.2012609879891428e-05
1.3189254411558483e-05
1.5003660669259296e-05
1.7617506604555768e-05
-0.0005311826521396002
-0.0005470080677661519
-0.00046619732836676424
-0.000344259945120306
-0.0002271735182071437
-0.00013462977078863305
-6.798036438007899e-05
-2.1991897981114015e-05
8.989842160857291e-06
2.9494520588766864e-05
4.278765793572689e-05
5.11327581186251e-05
5.607662738646618e-05
5.867429300728358e-05
5.9648211946512155e-05
5.949649861898494e-05
5.856537782212968e-05
5.709755000852962e-05
5.5264585132046404e-05
5.3188762994897426e-05
5.0957920067315216e-05
4.8635633101220426e-05
4.626826864460225e-05
4.3889907751740935e-05
4.1525817323663115e-05
3.919491878680867e-05
3.6911559632252147e-05
3.4686797137390194e-05
3.252933941409221e-05
3.0446245903463336e-05
2.8443460580085097e-05
2.6526231940735955e-05
2.469946145538019e-05
2.2968014744680684e-05
2.1337026238894916e-05
1.981222788908902e-05
1.8400335390087895e-05
1.71095312063059e-05
1.5950092105326006e-05
1.4935218555465167e-05
1.4082130304950754e-05
1.3413487051755144e-05
1.2959154713664076e-05
1.2758230773894218e-05
1.2861035392976606e-05
1.3330570431036807e-05
1.4243506521488536e-05
1.5693771672063705e-05
1.780774874719131e-05
-0.00066874576790039
-0.0006375218787250701
-0.00047015008385158823
-0.00028541950789630566
-0.00014506462731901296
-5.357712049236567e-05
3.1687908069691242e-06
3.740979862704142e-05
5.7564705767132365e-05
6.89400998310558e-05
7.482075674598e-05
7.724035933479785e-05
7.747003477796668e-05
7.631399605061155e-05
7.428746916292246e-05
7.172438892317067e-05
6.884337742461499e-05
6.578873955851e-05
6.265631171726915e-05
5.950999428793591e-05
5.639246866779793e-05
5.3332230874244646e-05
5.0348259559974506e-05
4.745314491821657e-05
4.465520418468435e-05
4.195992268154678e-05
3.937094180313889e-05
3.689074043303035e-05
3.45211080255807e-05
3.226347625313289e-05
3.0119155729643483e-05
2.808951117456277e-05
2.6176100204717504e-05
2.4380796384984062e-05
2.2705915506323563e-05
2.1154365031862384e-05
1.9729840371206014e-05
1.843709852682781e-05
1.728235027787764e-05
1.627382670781486e-05
1.5422593206809374e-05
1.4743697499586522e-05
1.4257726662825123e-05
1.3992754629351192e-05
1.3986355682794101e-05
1.4286630327700698e-05
1.495015157500874e-05
1.6036743917303715e-05
1.7613589577933873e-05
-0.0008667147331550804
-0.0007013208765822303
-0.0003823583495771129
-0.00014600067017755725
-1.724873524155371e-05
4.971202358108819e-05
8.305614001757953e-05
9.858033389635145e-05
0.0001045393586117036
0.00010531805424387884
0.00010328775557312173
9.976016148742968e-05
9.547400519182662e-05
9.08505351615441e-05
8.61310775545574e-05
8.145311683646884e-05
7.68933882050876e-05
7.249280480203462e-05
6.827113535722831e-05
6.423577140409484e-05
6.038702005984643e-05
5.6721320121161703e-05
5.323319937963278e-05
4.991646020111951e-05
4.676488789038017e-05
4.377266233543582e-05
4.09345848136829e-05
3.8246189982672416e-05
3.5703787250777365e-05
3.330445966629684e-05
3.1046038476531274e-05
2.8927065390214283e-05
2.6946751032964032e-05
2.5104936395925828e-05
2.3402063919216115e-05
2.183916622064755e-05
2.041788368731647e-05
1.9140527870067708e-05
1.801021698908138e-05
1.7031124492717818e-05
1.6208903286149198e-05
1.5551377087600227e-05
1.5069617960378114e-05
1.477951507368458e-05
1.47037374586571e-05
1.4873144357871893e-05
1.5324003442601392e-05
1.6081953832665884e-05
1.7133246151755568e-05
-0.0011355642470325083
-0.0005725446983571547
-0.00010692238338708203
6.916878237759466e-05
0.0001347703082616561
0.00015464710757688056
0.000156415018991389
0.00015090993496676104
0.00014268849526474634
0.00013370469220048533
0.00012480399433328806
0.00011633665477657982
0.0001084268904997856
0.00010109548493154167
9.431748374451488e-05
8.80498068632858e-05
8.224447138956682e-05
7.68547674239819e-05
7.183793850440852e-05
6.715612867992806e-05
6.277648637315704e-05
5.867087914479042e-05
5.481545089616345e-05
5.119013774711309e-05
4.77781986079948e-05
4.456578500493995e-05
4.154155845386982e-05
3.869635549663057e-05
3.602289662652078e-05
3.351553370709308e-05
3.117003003218644e-05
2.8983367303245765e-05
2.695357421593752e-05
2.5079571928068173e-05
2.3361032421695708e-05
2.179824678404563e-05
2.039200197023229e-05
1.9143467161360705e-05
1.805409527175076e-05
1.7125553036231173e-05
1.6359707053021245e-05
1.5758717231895668e-05
1.5325327773482895e-05
1.5063494970640919e-05
1.4979492383146876e-05
1.5083255299963398e-05
1.5387485301033687e-05
1.5891287812561626e-05
1.6505066521687022e-05
-0.0009897289335953365
7.656550838996262e-05
0.00025415511142850677
0.00027599707923070885
0.0002551197918697231
0.00022875972301688967
0.0002042744052795559
0.00018312841085136298
0.000165129997670878
0.0001497814855721703
0.00013658860345921493
0.00012513663852042564
0.00011509448055918693
0.00010620206749888605
9.825572442562893e-05
9.109550429871875e-05
8.45951648685614e-05
7.865448992196828e-05
7.319347204206135e-05
6.814791230415421e-05
6.346608079979533e-05
5.910616772226892e-05
5.503432434861863e-05
5.1223146075621414e-05
4.76504886197086e-05
4.4298536870553454e-05
4.1153066481157755e-05
3.8202853217217674e-05
3.5439195938609695e-05
3.285552696654444e-05
3.0447089294082397e-05
2.8210664180404986e-05
2.6144335513037138e-05
2.4247279183300637e-05
2.2519566760246515e-05
2.0961973056865014e-05
1.9575776795513304e-05
1.8362542501812636e-05
1.7323870001798762e-05
1.646109558056403e-05
1.577492640657263e-05
1.5264988425816965e-05
1.4929270391015898e-05
1.4763458079981168e-05
1.4760172974232107e-05
1.4908085499630054e-05
1.5190064155116978e-05
1.5573451682936775e-05
1.5935071489635733e-05

SCALARS STRAIN_YY float 1
LOOKUP_TABLE default
-8.323608792787374e-05
-0.0033593071686821487
-4.753086224995075e-05
8.862667575027655e-05
-8.321768109682479e-05
-8.316246262976904e-05
-8.307043861986371e-05
-8.294161927195967e-05
-8.277601897683368e-05
-8.257365641512263e-05
-8.233455469091461e-05
-8.205874149463249e-05
-8.17462492953211e-05
-8.139711556210891e-05
-8.101138301430666e-05
-8.058909990006288e-05
-8.013032030300404e-05
-7.963510447620004e-05
-7.910351920277503e-05
-7.853563818229978e-05
-7.793154244169209e-05
-7.729132076917875e-05
-7.661507017010794e-05
-7.59028963422427e-05
-7.515491416825587e-05
-7.437124822297705e-05
-7.355203329211663e-05
-7.269741489874387e-05
-7.180754983336993e-05
-7.08826066830523e-05
-6.992276635375827e-05
-6.892822257999892e-05
-6.789918241468032e-05
-6.68358666911506e-05
-6.573851044889764e-05
-6.460736331277e-05
-6.344268981482021e-05
-6.224476964638778e-05
-6.101389782693645e-05
-5.9750384774660825e-05
-5.8454556262025475e-05
-5.71267532380737e-05
-5.5767331497241085e-05
-5.43766611722403e-05
-5.295512602660965e-05
-5.150312252012734e-05
-5.002105861693501e-05
-4.8509352303837544e-05
-4.6968429782606735e-05
-4.5398723295841936e-05
-4.380066854228065e-05
-4.2174701631772504e-05
-4.052125552438633e-05
-3.8840755891580286e-05
-3.7133616328855965e-05
-3.540023284005246e-05
-3.364097750170429e-05
-3.1856191202238315e-05
-3.0046175334155767e-05
-2.821118229659643e-05
-2.6351404640528528e-05
-2.446696265808422e-05
-2.2557890179047968e-05
-2.0624118289454957e-05
-1.8665456627365434e-05
-1.668157183572043e-05
-1.4671962656993137e-05
-1.2635931033498984e-05
-1.0572548424075609e-05
-8.480616350661427e-06
-6.358619935316334e-06
-4.204672860989855e-06
-2.0164517625601702e-06
2.088825034243097e-07
2.474779998443144e-06
4.7854175181296504e-06
7.145840663039249e-06
9.562139514583332e-06
1.2041667684502266e-05
1.4593317839940376e-05
1.7227871453480426e-05
1.9958447085272057e-05
2.280108088023418e-05
2.5775486561420077e-05
2.890606223014333e-05
3.222324128894678e-05
3.576533058560066e-05
3.958105017846589e-05
4.373310250022425e-05
4.830328420394811e-05
5.3399961353968635e-05
5.916927655755851e-05
6.58123353309472e-05
7.361276548952748e-05
8.298023716439128e-05
9.45338107730823e-05
0.00010919655287711973
0.00012865563904248221
0.00015447779589112566
0.00019555145650653697
0.00021928436578242142
0.0003761416566228802
-0.0014117879706813763
-0.0029773161865436866
-0.002169141605596488
-0.0015275262724745555
-0.001175263444255632
-0.0009479745977611586
-0.0007930368986239426
-0.0006803838509408773
-0.0005947817238200585
-0.0005273657018748717
-0.0004727390805522305
-0.0004274222942521385
-0.0003890800454989839
-0.0003560900207646633
-0.00032729316458132447
-0.00030184165995808185
-0.00027910296499455284
-0.00025859720790284615
-0.0002399551874324923
-0.0002228894964810312
-0.00020717423562153364
-0.00019263048608656168
-0.00017911572811930322
-0.00016651601428235852
-0.0001547400998170665
-0.00014371498477289222
-0.00013338248853727707
-0.00012369658832860238
-0.0001146213285537637
-0.00010612915975914856
-9.819960187945273e-05
-9.081815153251516e-05
-8.397537039664567e-05
-7.766610327120636e-05
-7.188878150147463e-05
-6.664477069359687e-05
-6.193772119562208e-05
-5.777287529740594e-05
-5.415627549064817e-05
-5.1093801509052156e-05
-4.8589936915267515e-05
-4.6646123119485974e-05
-4.525849057026351e-05
-4.441464819435973e-05
-4.408903954441091e-05
-4.423611011830208e-05
-4.4780185466089875e-05
-4.560077970246386e-05
-4.651356103219876e-05
-4.7248089840911354e-05
-4.763744264570276e-05
-4.793266020461286e-05
-4.829861030457988e-05
-4.860755146801187e-05
-4.880359681223249e-05
-4.8851412642695116e-05
-4.87288184191758e-05
-4.842300359152781e-05
-4.792796637571959e-05
-4.7242691293178374e-05
-4.636984181943457e-05
-4.5314809334078346e-05
-4.4085007012530444e-05
-4.2689333607038096e-05
-4.1137757005879974e-05
-3.9440984150113795e-05
-3.761019488243873e-05
-3.5656824539881046e-05
-3.359238487058748e-05
-3.142831600291482e-05
-2.9175864272363086e-05
-2.684598208027751e-05
-2.4449246857965665e-05
-2.1995796797558836e-05
-1.9495281395871464e-05
-1.6956825112412685e-05
-1.438900261473662e-05
-1.1799824208116524e-05
-9.196730142754794e-06
-6.586592574232136e-06
-3.975724030769179e-06
-1.3698913181835193e-06
1.2256661275859143e-06
3.8062143488393207e-06
6.3675002602136405e-06
8.905725069167925e-06
1.1417516379426743e-05
1.3899899551642753e-05
1.6350268816352903e-05
1.876635855915451e-05
2.1146215127646265e-05
2.3488169444819615e-05
2.5790810654822277e-05
2.8052960974326788e-05
3.0273651875696583e-05
3.245210168752177e-05
3.45876946633121e-05
3.667996153883593e-05
3.872856157420036e-05
4.073326605650261e-05
4.269394322242888e-05
4.461054454764704e-05
4.648309234019793e-05
4.831166856866104e-05
5.009640485099595e-05
5.183747352746279e-05
5.353507974046115e-05
5.51894544441843e-05
5.680084826864204e-05
5.836952616503771e-05
5.989576276197936e-05
6.13798383656966e-05
6.282203554144883e-05
6.422263621652657e-05
6.558191924953272e-05
6.690015841495991e-05
6.817762075558148e-05
6.941456525920084e-05
7.06112418200032e-05
7.17678904483196e-05
7.288474069595124e-05
7.396201126734156e-05
7.499990978996826e-05
7.599863271995702e-05
7.695836536134038e-05
7.787928197982782e-05
7.876154599440605e-05
7.960531023167364e-05
8.041071722947671e-05
8.11778995784447e-05
8.190698029117427e-05
8.259807319021054e-05
8.325128330731457e-05
8.386670728699128e-05
8.444443378891747e-05
8.498454388443377e-05
8.548711144239565e-05
8.595220350132021e-05
8.637988062480673e-05
8.677019723762197e-05
8.712320194031661e-05
8.743893780070386e-05
8.771744262086462e-05
8.795874917838509e-05
8.816288544108777e-05
8.832987475422549e-05
8.84597359998053e-05
8.855248372754282e-05
8.860812825690553e-05
8.615737015712707e-05
8.13083248970975e-05
7.663465606946862e-05
7.212883631898051e-05
6.778330652110892e-05
6.359047841586474e-05
5.954273744082986e-05
5.5632445715117496e-05
5.185194512894245e-05
4.8193560494944054e-05
4.464960272138052e-05
4.1212371969433226e-05
3.7874160759423375e-05
3.4627256994095024e-05
3.146394686908208e-05
2.83765176440319e-05
2.5357260249839197e-05
2.239847170995568e-05
1.9492457356704018e-05
1.663153282488103e-05
1.3808025807825197e-05
1.101427756314624e-05
8.242644156841034e-06
5.485497437257569e-06
2.7352257319854245e-06
-1.576573770839529e-08
-2.7750547276599036e-06
-5.550202127689585e-06
-8.348752404692406e-06
-1.117823432852938e-05
-1.4046161975467958e-05
-1.6960036003176027e-05
-1.9927345188002626e-05
-2.295556821289499e-05
-2.60521756926535e-05
-2.9224632420533914e-05
-3.248039981782261e-05
-3.582693856539129e-05
-3.927171139405175e-05
-4.282218600745388e-05
-4.648583810864387e-05
-5.0270154499487685e-05
-5.418263621884134e-05
-5.823080168296593e-05
-6.242218978936773e-05
-6.676436294301633e-05
-7.126490996114607e-05
-7.593144881146152e-05
-8.077162913651056e-05
-8.075360175536887e-05
-7.591417547997588e-05
-7.12483812990404e-05
-6.674857025985165e-05
-6.240712517543295e-05
-5.8216458083400896e-05
-5.416900749151757e-05
-5.02572354573131e-05
-4.6473624547131026e-05
-4.2810674718261194e-05
-3.926090016543801e-05
-3.5816826170480265e-05
-3.2470985991673446e-05
-2.9215917826787632e-05
-2.6044161880844907e-05
-2.2948257567314764e-05
-1.9920740869034184e-05
-1.695414188200052e-05
-1.4040982562919802e-05
-1.1173774699037298e-05
-8.345018116057146e-06
-5.5471991374615726e-06
-2.772789306824605e-06
-1.4244382328179594e-08
2.7359963905033285e-06
5.485510722472511e-06
8.24189343781416e-06
1.1012756344538563e-05
1.3805727818805638e-05
1.6628452106507915e-05
1.948858834704449e-05
2.2393809326368835e-05
2.5351799967944164e-05
2.837025557251259e-05
3.145687981974919e-05
3.461938254656523e-05
3.786547731961937e-05
4.1202878821077274e-05
4.463930006969562e-05
4.8182449501672775e-05
5.184002793778841e-05
5.561972546661541e-05
5.9529218275672716e-05
6.357616546577398e-05
6.776820588607832e-05
7.211295503000217e-05
7.661800203581474e-05
8.129090683714306e-05
8.613919751183051e-05
-8.069952156203146e-05
-7.586235725113091e-05
-7.119879683378794e-05
-6.670119343630578e-05
-6.236193222312371e-05
-5.817342780521477e-05
-5.412812143686281e-05
-5.021847804860015e-05
-4.643698316187349e-05
-4.277613972913409e-05
-3.922846494110871e-05
-3.57864870398298e-05
-3.244274217429309e-05
-2.9189771332482906e-05
-2.602011738096592e-05
-2.2926322240835947e-05
-1.990092422605831e-05
-1.6936455567351585e-05
-1.4025440142366105e-05
-1.1160391430712138e-05
-8.333810709332257e-06
-5.53818550183896e-06
-2.7659882926994728e-06
-9.675515527662881e-09
2.738313177961388e-06
5.4855553636747045e-06
8.239646002760129e-06
1.1008197310509796e-05
1.3798838337453906e-05
1.6619214266091684e-05
1.9476985428023078e-05
2.2379826048560605e-05
2.5335422727505372e-05
2.8351472666741928e-05
3.143568165760863e-05
3.459576184305403e-05
3.783942927165253e-05
4.117440126237548e-05
4.4608393602409147e-05
4.814911760197063e-05
5.1804277032692705e-05
5.5581564979213446e-05
5.948866063580985e-05
6.35332260831567e-05
6.772290308268945e-05
7.20653099290456e-05
7.656803840404812e-05
8.123865087790623e-05
8.6084677606112e-05
-8.060939442066511e-05
-7.57759994338067e-05
-7.111616113886568e-05
-6.662223615893845e-05
-6.228661360824748e-05
-5.810171241607716e-05
-5.405997844211419e-05
-5.015388143143548e-05
-4.6375911854976484e-05
-4.2718577679613096e-05
-3.917440110992598e-05
-3.573591534025353e-05
-3.239566135401599e-05
-2.914618480425596e-05
-2.5980033006361633e-05
-2.288975207192373e-05
-1.9867884209566478e-05
-1.690696521569786e-05
-1.399952217600621e-05
-1.1138071395865728e-05
-8.315116574940731e-06
-5.52314723981269e-06
-2.754637444835409e-06
-2.04475039504437e-09
2.7421905145486036e-06
5.4856457017433274e-06
8.235916001820068e-06
1.1000614310675838e-05
1.3787370805384142e-05
1.660383223267732e-05
1.945766091509399e-05
2.235653348160206e-05
2.5308139331336327e-05
2.8320178841117344e-05
3.1400361329264256e-05
3.455640279080921e-05
3.779602342074764e-05
4.1126944944179164e-05
4.4556887775340503e-05
4.8093568029226874e-05
5.1744694412167794e-05
5.551796502085288e-05
5.942106408148885e-05
6.346165866389503e-05
6.76473954083108e-05
7.198589730521635e-05
7.648476057151368e-05
8.115155166945817e-05
8.599380451685366e-05
-8.048323015125147e-05
-7.565511091623192e-05
-7.10004818709753e-05
-6.651170460100428e-05
-6.218117381488059e-05
-5.800131454935728e-05
-5.39645791703125e-05
-5.006344421815655e-05
-4.629040714424458e-05
-4.2637982982856454e-05
-3.90987010010415e-05
-3.566510136529706e-05
-3.232973186207029e-05
-2.908514470626941e-05
-2.5923893468600065e-05
-2.2838530150569997e-05
-1.982160243301119e-05
-1.686565112074892e-05
-1.3963207804128588e-05
-1.110679275518646e-05
-8.288913073585882e-06
-5.502061095867192e-06
-2.7387130779078783e-06
8.671840360380267e-09
2.7476523815472137e-06
5.485805584884776e-06
8.230726964927187e-06
1.0990030374460544e-05
1.3771347573004328e-05
1.658232750396081e-05
1.943063528537202e-05
2.232395092104794e-05
2.526996774069104e-05
2.827639057935774e-05
3.1350933708753845e-05
3.450131853487137e-05
3.773527107840853e-05
4.106051925691599e-05
4.4484789989675255e-05
4.8015806149158055e-05
5.1661283385054727e-05
5.542892684985354e-05
5.932642785767134e-05
6.336146051095191e-05
6.754167833268078e-05
7.187471094432553e-05
7.636816083322721e-05
8.102960025596281e-05
8.586656832669515e-05
-8.032104259900197e-05
-7.549970422598799e-05
-7.085176982130244e-05
-6.636960746584861e-05
-6.204561917198467e-05
-5.787223793514602e-05
-5.384192458690422e-05
-4.99471644988779e-05
-4.618046418496634e-05
-4.2534347846928666e-05
-3.900135390588755e-05
-3.5574031559112984e-05
-3.224493739933422e-05
-2.900663213072606e-05
-2.5851677412404295e-05
-2.2772632858188493e-05
-1.9762053218085746e-05
-1.6812485764216775e-05
-1.3916467901326293e-05
-1.1066525019335846e-05
-8.25516860291503e-06
-5.474894611182113e-06
-2.718182136863395e-06
2.2507646163516526e-08
2.7547322408085634e-06
5.486068286720755e-06
8.224111719520172e-06
1.0976477629230652e-05
1.3750799819094509e-05
1.6554730068219642e-05
1.9395937102706373e-05
2.2282105281951764e-05
2.5220933008652385e-05
2.8220130872651933e-05
3.128741954069349e-05
3.443052740623696e-05
3.765718801548683e-05
4.097513728813264e-05
4.439211055333285e-05
4.791583942424793e-05
5.1554048536945826e-05
5.531445218205297e-05
5.920475086069327e-05
6.323262779905393e-05
6.740574545894412e-05
7.173174208483998e-05
7.621822833122661e-05
8.087278401685931e-05
8.570295505580874e-05
-8.012284973146593e-05
-7.530979561390892e-05
-7.067003898714869e-05
-6.619595604753434e-05
-6.187995790458284e-05
-5.7714487443653525e-05
-5.369201599717509e-05
-4.980503987479096e-05
-4.604607680090689e-05
-4.2407662305359375e-05
-3.88823461099988e-05
-3.5462688551131036e-05
-3.2141257075259805e-05
-2.8910622842203207e-05
-2.5763357466519754e-05
-2.2692029925767965e-05
-1.968920366066801e-05
-1.674743388978446e-05
-1.385926515837417e-05
-1.101722913836832e-05
-8.213842694278911e-06
-5.441606227061732e-06
-2.6930023057786245e-06
3.950540525959889e-08
2.763472918092952e-06
5.486476387607173e-06
8.21611227127747e-06
1.0959997181845399e-05
1.3725767434406844e-05
1.6521078291236585e-05
1.9353602909121664e-05
2.2231030995809378e-05
2.5161067183563507e-05
2.8151429130049768e-05
3.120984535789906e-05
3.434405284684881e-05
3.756179439417563e-05
4.0870815761057805e-05
4.427886262526291e-05
4.7793677362528014e-05
5.1422995682068665e-05
5.517454314422736e-05
5.905603159121926e-05
6.307515552494286e-05
6.723958846909656e-05
7.15569793562857e-05
7.603494898374835e-05
8.068108658481482e-05
8.55029465668053e-05
-7.988867376327799e-05
-7.508540516173307e-05
-7.045530666386669e-05
-6.599076430871889e-05
-6.168420019950563e-05
-5.752806914107074e-05
-5.3514855094647165e-05
-4.963706750153382e-05
-4.588723752510862e-05
-4.2257914257696e-05
-3.874166093558243e-05
-3.5331051202711766e-05
-3.2018665460445406e-05
-2.8797087337755628e-05
-2.5658900312584484e-05
-2.2596684512510637e-05
-1.9603013719811727e-05
-1.667045260279887e-05
-1.3791554192718603e-05
-1.0958857622722987e-05
-8.164886143087469e-06
-5.402145423761412e-06
-2.6631221542866568e-06
5.971705227189594e-08
2.773926446255834e-06
5.487081615230399e-06
8.206779643839257e-06
1.0940638959443597e-05
1.3696298865280288e-05
1.648141876437262e-05
1.9303677078945022e-05
2.2170769872103743e-05
2.5090409179062342e-05
2.8070321057827724e-05
3.11182433705981e-05
3.424192330876881e-05
3.7449114676863654e-05
4.074757495237634e-05
4.4145062141068975e-05
4.7649331449548665e-05
5.1268131799774366e-05
5.500920221286447e-05
5.888026809275186e-05
6.288903744299662e-05
6.704319705386382e-05
7.135040870033006e-05
7.581830539460203e-05
8.045448774074253e-05
8.526652044285599e-05
-7.961854130824828e-05
-7.482655691328638e-05
-7.020759355679321e-05
-6.575404897552796e-05
-6.14583582857018e-05
-5.731299035806846e-05
-5.331044402076546e-05
-4.9443244143181075e-05
-4.570393765120258e-05
-4.2085089521068375e-05
-3.857927879613761e-05
-3.5179094667346644e-05
-3.1877132654791265e-05
-2.866599092501282e-05
-2.55382667746374e-05
-2.2486553307946716e-05
-1.9503436333284316e-05
-1.6581491499537138e-05
-1.3713281691377088e-05
-1.0891354699244654e-05
-8.108241177294875e-06
-5.356452900008926e-06
-2.628481326406862e-06
8.320352173907253e-08
2.786153863234067e-06
5.487944639203865e-06
8.19617367235799e-06
1.0918461504222376e-05
1.3662450912037966e-05
1.6435806108772155e-05
1.9246211630793292e-05
2.2101370919873006e-05
2.500900460652815e-05
2.7976848503969212e-05
3.101265132362911e-05
3.412417212417078e-05
3.73191775087274e-05
4.060543858655334e-05
4.399072771770797e-05
4.748281506175567e-05
5.108946495418869e-05
5.481843213729805e-05
5.867745787522735e-05
6.267426598590212e-05
6.681655882677905e-05
7.111201327461743e-05
7.556827674306925e-05
8.01929632861121e-05
8.499364983935616e-05
-7.931248355875879e-05
-7.453327902896822e-05
-6.992692391291633e-05
-6.548582964911037e-05
-6.120244652890391e-05
-5.7069259771004924e-05
-5.3078785436228015e-05
-4.922356623738092e-05
-4.549616729598513e-05
-4.188917189384446e-05
-3.839517726462148e-05
-3.500679046648282e-05
-3.171662437360598e-05
-2.8517293820884762e-05
-2.5401411932446036e-05
-2.2361586661221594e-05
-1.9390417563679152e-05
-1.6480492830522192e-05
-1.3624386591243667e-05
-1.0814656507764434e-05
-8.043841669322024e-06
-5.3044607987544345e-06
-2.5890107780320026e-06
1.1003450119118074e-07
2.800224958266276e-06
5.489134813154578e-06
8.18436274431511e-06
1.089353171588106e-05
1.3624288475937857e-05
1.638430272962385e-05
1.918126599154482e-05
2.202289012348882e-05
2.491690556462485e-05
2.7871059262812165e-05
3.089311231698963e-05
3.399083734212556e-05
3.7172015570356015e-05
4.044443370350599e-05
4.3815880534715454e-05
4.729414335898942e-05
5.088700419533625e-05
5.460223584618715e-05
5.8447597822988695e-05
6.24308321699827e-05
6.655965922247771e-05
7.08417733394865e-05
7.528483865455217e-05
7.989648489323091e-05
8.46843033098562e-05
-7.897053649214177e-05
-7.420560396317714e-05
-6.961332567205838e-05
-6.518612893383069e-05
-6.09164815406002e-05
-5.6796887495894066e-05
-5.281988260420929e-05
-4.897802997217565e-05
-4.526391547435976e-05
-4.1670143232955606e-05
-3.818933115706108e-05
-3.4814106583113194e-05
-3.1537102054472396e-05
-2.8350951274375147e-05
-2.524828526247018e-05
-2.222172874184053e-05
-1.9263896779930095e-05
-1.6367391703190487e-05
-1.3524800302706919e-05
-1.0728691344894306e-05
-7.971613398305086e-06
-5.2460929860272815e-06
-2.5446330702231373e-06
1.4028812633966325e-07
2.8162179586919966e-06
5.490729856588716e-06
8.171423479939877e-06
1.086592453408003e-05
1.3581884247061346e-05
1.6326978512847673e-05
1.9108906704952758e-05
2.193539016588121e-05
2.48141703794013e-05
2.7753006833679608e-05
3.075967458415936e-05
3.384196152713716e-05
3.700766539624367e-05
4.0264590495988836e-05
4.362054418871261e-05
4.708333315369198e-05
5.066075943978808e-05
5.436061633572013e-05
5.8190684086183164e-05
6.215872548481771e-05
6.62724813792568e-05
7.053966612796322e-05
7.496796305251664e-05
7.95650199339696e-05
8.433844460661866e-05
-7.85927411036079e-05
-7.384356866426203e-05
-6.926683063707834e-05
-6.485497258174218e-05
-6.060048230118256e-05
-5.649588519504416e-05
-5.2533739485756056e-05
-4.8706631375424955e-05
-4.5007170187877366e-05
-4.142798354647703e-05
-3.79617126338716e-05
-3.460100757597499e-05
-3.133852298813598e-05
-2.8166913717419043e-05
-2.5078830811039315e-05
-2.2066917737066302e-05
-1.9123806880032637e-05
-1.6242116330309614e-05
-1.3414446983385855e-05
-1.0633379961912104e-05
-7.891474370504137e-06
-5.181265391448336e-06
-2.4952627267985777e-06
1.740506097042821e-07
2.8342191484894558e-06
5.492815467350934e-06
8.157440342861089e-06
1.0835722551618202e-05
1.3535318324200615e-05
1.6263910455581454e-05
1.902920707651766e-05
2.1838940091190376e-05
2.47008632874076e-05
2.7622750126623727e-05
3.0612391221894464e-05
3.367759151360998e-05
3.6826167153874295e-05
4.0065942112189196e-05
4.3404744517493155e-05
4.6850402753702974e-05
5.041074132842993e-05
5.409357653791101e-05
5.790671195446753e-05
6.185793376653481e-05
6.595500600571277e-05
7.020566569935181e-05
7.461761799247221e-05
7.919853128766398e-05
8.395603245665156e-05
-7.817914366540189e-05
-7.344721479650082e-05
-6.888747466264264e-05
-6.449238965280414e-05
-6.025447029698802e-05
-5.616626619664791e-05
-5.222036084788148e-05
-4.8409366417539665e-05
-4.4725918528092795e-05
-4.116267110327969e-05
-3.771229132119684e-05
-3.43674547175505e-05
-3.1120840477330894e-05
-2.7965126948130414e-05
-2.4892987404967135e-05
-2.1897086091881776e-05
-1.897007456155321e-05
-1.610458833131538e-05
-1.3293243869720583e-05
-1.052863592535154e-05
-7.803335206731099e-06
-5.109886419671708e-06
-2.4408066663390154e-06
2.1141579217669182e-07
2.854322407970164e-06
5.495484854215263e-06
8.142505170526115e-06
1.0803015547821912e-05
1.348467775633827e-05
1.6195182220511348e-05
1.894224674506284e-05
2.1733614897550754e-05
2.4577054053072367e-05
2.7480353107090308e-05
3.045131986399198e-05
3.349777810964828e-05
3.6627564377356495e-05
3.984852441823658e-05
4.316850938938972e-05
4.659537177507077e-05
5.013696105869887e-05
5.380111916717875e-05
5.7595675711747535e-05
6.152844305418528e-05
6.5607211231564e-05
6.983974277682999e-05
7.423376747868124e-05
7.879697712933828e-05
8.353702031425533e-05
-7.772979601167705e-05
-7.301658898353595e-05
-6.847529786190368e-05
-6.409841269041164e-05
-5.987846967095943e-05
-5.580804562734312e-05
-5.1879752384903846e-05
-4.808623112845592e-05
-4.442014679609252e-05
-4.0874182561880315e-05
-3.744103445517573e-05
-3.4113406159313325e-05
-3.088400402789446e-05
-2.774553235176079e-05
-2.4690688905556687e-05
-2.1712160798201263e-05
-1.8802620647347806e-05
-1.5954723094853407e-05
-1.3161101675629103e-05
-1.041436605007072e-05
-7.70709960731808e-06
-5.031857443795612e-06
-2.3811647197197194e-06
2.524846060975028e-07
2.8766286627561477e-06
5.498838177504448e-06
8.126716612434984e-06
1.0767899930324773e-05
1.343005599389012e-05
1.6120883602374972e-05
1.884811116973327e-05
2.1619495049352705e-05
2.444281751032458e-05
2.7325884370134335e-05
3.0276522290418467e-05
3.330257574231388e-05
3.64119036489665e-05
3.961237571486337e-05
4.291186845272084e-05
4.631826092100187e-05
4.983943018821782e-05
5.3483246542774046e-05
5.7257568470752904e-05
6.117023742870271e-05
6.52290724426248e-05
6.944186456963285e-05
7.381637126443845e-05
7.836031069920722e-05
8.308135609125765e-05
-7.724475584831511e-05
-7.255174307238543e-05
-6.803034483033113e-05
-6.367307791165129e-05
-5.947250738657685e-05
-5.5421240557537374e-05
-5.151192085321547e-05
-4.773722172997895e-05
-4.4089840640165745e-05
-4.056249312089748e-05
-3.7147907052290444e-05
-3.383881712817026e-05
-3.062795957684862e-05
-2.7508067165043365e-05
-2.447186451259506e-05
-2.1512063741071022e-05
-1.8621360475208626e-05
-1.5792430212031514e-05
-1.301792506848247e-05
-1.0290470915857997e-05
-7.602664906144682e-06
-4.94707339267729e-06
-2.3162302459113493e-06
2.9736443667334467e-07
2.9012452286408114e-06
5.502981884107985e-06
8.11017946234123e-06
1.0730478071539415e-05
1.3371552236350268e-05
1.6041109893519256e-05
1.8746891019874243e-05
2.1496665897039954e-05
2.4298233017173987e-05
2.715941663372634e-05
3.0088063962202885e-05
3.309204203564772e-05
3.617923422069569e-05
3.935753640152244e-05
4.263485283996678e-05
4.601909172228559e-05
4.9518160406250913e-05
5.313996038477063e-05
5.6892381985850296e-05
6.07832988336731e-05
6.482056209996222e-05
6.901199458040318e-05
7.336538463709012e-05
7.788848005492455e-05
8.258898186633452e-05
-7.672408708685186e-05
-7.205273441713428e-05
-6.75526648858376e-05
-6.32164254114765e-05
-5.903661340456688e-05
-5.500587015955585e-05
-5.111687421998842e-05
-4.73623347843205e-05
-4.373498521325139e-05
-4.0227576693750364e-05
-3.683287210914758e-05
-3.354364015853602e-05
-3.0352649762890177e-05
-2.7252664790191825e-05
-2.423643912585413e-05
-2.129671211033128e-05
-1.842620436100749e-05
-1.5617613990975138e-05
-1.2863613233755553e-05
-1.0156845479714766e-05
-7.489922726772874e-06
-4.855423446054052e-06
-2.2458908604475886e-06
3.4616836677194007e-07
2.9282850371563363e-06
5.508027921650657e-06
8.093003869134863e-06
1.069085752449482e-05
1.3309270661327963e-05
1.595596113406275e-05
1.8638681453672645e-05
2.1365216990896357e-05
2.414338381048417e-05
2.6981026139230244e-05
2.9886013471024445e-05
3.286623731165762e-05
3.592960756719499e-05
3.9084048580356745e-05
4.233749482035476e-05
4.569788623411987e-05
4.917316326908533e-05
5.277126158076406e-05
5.650010644225531e-05
6.0367606877297086e-05
6.438164954352017e-05
6.85500923986726e-05
7.288075818926917e-05
7.738142780814271e-05
8.20598335750395e-05
-7.616786020162546e-05
-7.15196261811598e-05
-6.704231232392867e-05
-6.272849937989482e-05
-5.857082087181928e-05
-5.456195587849773e-05
-5.0694621826533406e-05
-4.696156736016047e-05
-4.3355565351866146e-05
-3.986940611035508e-05
-3.649589083573254e-05
-3.322782536508903e-05
-3.0058014245552128e-05
-2.6979255166035762e-05
-2.3984333772522973e-05
-2.1066018887103827e-05
-1.8217058145629864e-05
-1.543017406419045e-05
-1.2698060541150441e-05
-1.0013379797458796e-05
-7.368759755302726e-06
-4.75679185322174e-06
-2.1700292927150783e-06
3.990142888286863e-07
2.957865725055492e-06
5.514092814670746e-06
8.075304409183373e-06
1.064915010107019e-05
1.3243319518276009e-05
1.5865541230234564e-05
1.852358126967768e-05
2.122524127375243e-05
2.397835624670143e-05
2.679079194575079e-05
2.9670441891492885e-05
3.2625224003246175e-05
3.5663076860429493e-05
3.879195559165771e-05
4.2019827393498244e-05
4.535466668363804e-05
4.880444989502873e-05
5.237714992020574e-05
5.6080730220037234e-05
5.992313861468909e-05
6.391230078017611e-05
6.805611348133407e-05
7.236243757772869e-05
7.683909084744978e-05
8.14938406827996e-05
-7.557615260869906e-05
-7.095248765646468e-05
-6.64993466868366e-05
-6.220934833110585e-05
-5.807516632164514e-05
-5.4089521615431624e-05
-5.0245174566304965e-05
-4.653491721742439e-05
-4.2951565779025466e-05
-3.9487953348947905e-05
-3.613692292629006e-05
-3.289132076160842e-05
-2.974399007957783e-05
-2.6687765204161384e-05
-2.3715466109712133e-05
-2.0819893415735535e-05
-1.799382383775236e-05
-1.5230006101801113e-05
-1.252115732623682e-05
-9.859959870246737e-06
-7.239058646397664e-06
-4.651058891703627e-06
-2.088524389570745e-06
4.5602386537779704e-07
2.9901085688722323e-06
5.521296583795368e-06
8.057199001204954e-06
1.0605470793725522e-05
1.3173810068073388e-05
1.5769956922546957e-05
1.8401691913801782e-05
2.107683413592361e-05
2.3803238912730937e-05
2.658879510372518e-05
2.944142202270135e-05
3.2369065966944555e-05
3.537969635505553e-05
3.8481301471519555e-05
4.168188381655988e-05
4.498945506180123e-05
4.8412030614166865e-05
5.19576237930329e-05
5.563423963065445e-05
5.944986830956275e-05
6.341247825667438e-05
6.753000892147087e-05
7.181036327178099e-05
7.626140005012605e-05
8.089092584350442e-05
-7.494904906515248e-05
-7.035139459869895e-05
-6.592383304498788e-05
-6.165902534326952e-05
-5.754968988465857e-05
-5.3588593922704666e-05
-4.976854507813579e-05
-4.608238301191496e-05
-4.252297133326699e-05
-3.908318980152918e-05
-3.575592687236895e-05
-3.2534072631614994e-05
-2.9410512151635884e-05
-2.6378119298620106e-05
-2.3429751012269892e-05
-2.0558242072922853e-05
-1.775640036556607e-05
-1.5017002645192207e-05
-1.2332790803466429e-05
-9.696468632617097e-06
-7.100699080150874e-06
-4.538101985097562e-06
-2.0012522850484937e-06
5.173213178510244e-07
3.025137243855419e-06
5.529761487059817e-06
8.038807642649082e-06
1.0559936519745697e-05
1.3100855347955923e-05
1.566931658390086e-05
1.8273116322266997e-05
2.092009231371289e-05
2.361812158951579e-05
2.6375117691501e-05
2.919902750382619e-05
3.209782768187966e-05
3.5079520672770884e-05
3.81521303213124e-05
4.132369705629052e-05
4.460227265273842e-05
4.799591456749151e-05
5.151267984868958e-05
5.516061862370983e-05
5.894776717485159e-05
6.288214061803653e-05
6.697172520699762e-05
7.122447029377088e-05
7.564827998524787e-05
8.025100454639097e-05
-7.428664208733449e-05
-6.971642957602497e-05
-6.531584228873684e-05
-6.107758830716306e-05
-5.6994435509149025e-05
-5.3059202210967854e-05
-4.9264747955218846e-05
-4.560396452119725e-05
-4.206976722600196e-05
-3.8655086576546566e-05
-3.535286032321609e-05
-3.215602595746728e-05
-2.905751368761228e-05
-2.6050239918945506e-05
-2.3127101257087307e-05
-2.0280969046741412e-05
-1.7504684451708635e-05
-1.4791054076866358e-05
-1.213284612788107e-05
-9.522787100651672e-06
-6.953558989589506e-06
-4.417797001103618e-06
-1.908087757959004e-06
5.830320215036849e-07
3.0630763845542613e-06
5.539610560195002e-06
8.020250944212534e-06
1.0512664664936652e-05
1.3024568739188058e-05
1.5563728825468415e-05
1.8137957579151057e-05
2.0755112611150345e-05
2.3423094049034032e-05
2.6149841696843784e-05
2.89433317875315e-05
3.181157332019478e-05
3.476260397244739e-05
3.780448557752676e-05
4.094529915604425e-05
4.419313949268269e-05
4.75561092495979e-05
5.1042312611708496e-05
5.465984846204919e-05
5.841680309139757e-05
6.232124245170688e-05
6.63812039706363e-05
7.060468795396478e-05
7.499964861151787e-05
7.957398475463319e-05
-7.358903238558097e-05
-6.904768232943691e-05
-6.467545142876084e-05
-6.0465100182217554e-05
-5.640945118931713e-05
-5.250137896700008e-05
-4.8733799969781846e-05
-4.509966289306666e-05
-4.1591939330003214e-05
-3.8203614842710273e-05
-3.492768049888177e-05
-3.175712491505951e-05
-2.868492683927651e-05
-2.5704048297017085e-05
-2.280742831613919e-05
-1.998797723950889e-05
-1.7238571627118185e-05
-1.4552049743925266e-05
-1.1921207624365424e-05
-9.338795700915975e-06
-6.797515980811256e-06
-4.290019752188276e-06
-1.808905800976604e-06
6.532808817846097e-07
3.104049921782287e-06
5.550965930313165e-06
8.001648437146527e-06
1.0463771401538619e-05
1.2945062312445452e-05
1.545330088600222e-05
1.799631736523928e-05
2.0581990422692195e-05
2.3218244663614218e-05
2.5913047723834237e-05
2.8674406953149364e-05
3.151036567258618e-05
3.442899899156089e-05
3.7438409169747444e-05
4.054672050768718e-05
4.376207375021875e-05
4.7092619988538253e-05
5.0546514049339825e-05
5.413190736230228e-05
5.785694030358349e-05
6.172973401830442e-05
6.575838173359175e-05
6.995093958302341e-05
7.431541697366581e-05
7.885976654017218e-05
-7.285632931294111e-05
-6.834525014198616e-05
-6.400274390239331e-05
-5.98216292577395e-05
-5.579478920022564e-05
-5.191515998176355e-05
-4.817572031366735e-05
-4.45694809178554e-05
-4.1089474501716794e-05
-3.7728746218209513e-05
-3.448034466196036e-05
-3.1337313441745854e-05
-2.8292683359815857e-05
-2.533946521929807e-05
-2.2470643271875132e-05
-1.9679169310045028e-05
-1.6957957401163293e-05
-1.4299879254291506e-05
-1.169776020533593e-05
-9.144375802334556e-06
-6.632448969296975e-06
-4.154647724271057e-06
-1.7035834275272443e-06
7.281904651473131e-07
3.1481791685321336e-06
5.563946875406303e-06
7.983116625464096e-06
1.041336975259391e-05
1.2862444923678398e-05
1.5338136778019623e-05
1.784829417245462e-05
2.040081803235741e-05
2.3003658804537572e-05
2.5664813503667103e-05
2.8392322339813175e-05
3.119426491120757e-05
3.407875594323845e-05
3.705394055302305e-05
4.012798901699942e-05
4.3309091018753354e-05
4.660544935592911e-05
5.0025273086446234e-05
5.357677009813072e-05
5.726813909137998e-05
6.110756097002165e-05
6.51031896451177e-05
6.926314226566276e-05
7.359548890172388e-05
7.810824171937056e-05
-7.208865132541861e-05
-6.760923821406972e-05
-6.32978098828365e-05
-5.914724941660614e-05
-5.515050633745494e-05
-5.1300584587698345e-05
-4.7590530855092655e-05
-4.4013423325970497e-05
-4.05623609400739e-05
-3.723045320991672e-05
-3.401081065439876e-05
-3.0896535885857265e-05
-2.7880715378654844e-05
-2.4956411936904316e-05
-2.211665786957563e-05
-1.9354448872225052e-05
-1.6662738607122266e-05
-1.4034433966690282e-05
-1.146239099975195e-05
-8.939411475719292e-06
-6.4582400586578326e-06
-4.011562060847462e-06
-1.592001745024177e-06
8.078788549421845e-07
3.195580624854727e-06
5.578667599256265e-06
7.964766752605046e-06
1.0361567372550382e-05
1.2776820030766314e-05
1.5218335161942473e-05
1.7693981255898633e-05
2.0211682662687677e-05
2.277941700489991e-05
2.5405212185896503e-05
2.8097142978076792e-05
3.086332717059867e-05
3.371192125185135e-05
3.665111559976106e-05
3.9689129149873825e-05
4.283420351118561e-05
4.6094596499943186e-05
4.9478575062562175e-05
5.299440756349402e-05
5.665035541822447e-05
6.0454664057799784e-05
6.441555322091869e-05
6.854120657984186e-05
7.283976071836666e-05
7.731929349489262e-05
-7.12861264503175e-05
-6.683976004129635e-05
-6.256074658826834e-05
-5.8442040398742207e-05
-5.4476664158902705e-05
-5.065769590363242e-05
-4.6978256411351824e-05
-4.343149711216916e-05
-4.001058858508176e-05
-3.6708709707561696e-05
-3.351903750632018e-05
-3.0434737746895882e-05
-2.7448956287014215e-05
-2.4554811207312677e-05
-2.174538572273163e-05
-1.901372186811738e-05
-1.6352814943552604e-05
-1.3755608697237423e-05
-1.1214991218401471e-05
-8.723791507816298e-06
-6.274776690394848e-06
-3.860649832473917e-06
-1.474048325516772e-06
8.924572003667086e-07
3.246363468920044e-06
5.5952346885122795e-06
7.94670224943568e-06
1.0308464011317756e-05
1.2688283198669659e-05
1.5093986916800764e-05
1.7533464293340018e-05
2.001466424465803e-05
2.2545592859383665e-05
2.5134310384925668e-05
2.7788927796904353e-05
3.0517602925526216e-05
3.3328536108436294e-05
3.622996533527573e-05
3.923016084625246e-05
4.2337419145993885e-05
4.556005639290081e-05
4.8906401125750273e-05
5.238478629293261e-05
5.600354055381243e-05
5.977097882878778e-05
6.36953920838592e-05
6.778503634613693e-05
7.204812096018622e-05
7.6492796110628e-05
-7.044889275884328e-05
-6.603693779110367e-05
-6.179165858695608e-05
-5.7706088060898234e-05
-5.377332922655749e-05
-4.9986541086125685e-05
-4.6338925037050366e-05
-4.282371188768161e-05
-3.943414955929342e-05
-3.616349153797403e-05
-3.300498612436066e-05
-2.995186651638844e-05
-2.6997341746600595e-05
-2.4134588482724664e-05
-2.1356743689068813e-05
-1.865689813583711e-05
-1.6028090734254707e-05
-1.3463303667663948e-05
-1.0955458282635791e-05
-8.4974116991033e-06
-6.0819540956946055e-06
-3.7018066242986564e-06
-1.3496199077894788e-06
9.82026923425361e-07
3.3006266986594646e-06
5.613744216131228e-06
7.92901582757563e-06
1.0254148626079665e-05
1.2596919258082984e-05
1.4965172373416352e-05
1.7366818719367905e-05
1.980983287720728e-05
2.2302250631416748e-05
2.4852165954268243e-05
2.746772758088073e-05
3.0157135143321287e-05
3.292863482604047e-05
3.579051449971102e-05
3.875109828735922e-05
4.181874051332156e-05
4.500181898488449e-05
4.830872755739318e-05
5.17478679359553e-05
5.532764067148199e-05
5.9056435315925707e-05
6.294261971062469e-05
6.699452839274353e-05
7.122045011961897e-05
7.562861452695656e-05
-6.957709883865723e-05
-6.52009026735987e-05
-6.099065809409519e-05
-5.693948462907189e-05
-5.304057334517241e-05
-4.928717158531916e-05
-4.567256832788309e-05
-4.2190080261647264e-05
-3.8833038655251145e-05
-3.559477708491715e-05
-3.246862006743394e-05
-2.9447872630006602e-05
-2.652581083480675e-05
-2.369567326117837e-05
-2.095065343634718e-05
-1.8283893194246878e-05
-1.5688476931594725e-05
-1.3157426722554613e-05
-1.0683698246380033e-05
-8.260177477306674e-06
-5.879678083157633e-06
-3.534939477132723e-06
-1.2186254678137054e-06
1.076676545936489e-06
3.358455885334871e-06
5.6342784521771355e-06
7.911786179159302e-06
1.0198696102275973e-05
1.2502799079732244e-05
1.4831958173262827e-05
1.7194106698606437e-05
1.9597245942762354e-05
2.2049442536219155e-05
2.45588254589868e-05
2.713358265058613e-05
2.9781957186263835e-05
3.251224297354596e-05
3.533277991788278e-05
3.8251948500661256e-05
4.1278163708819565e-05
4.441986825438546e-05
4.768552502172098e-05
5.108360868210683e-05
5.462259641995405e-05
5.8310957721942336e-05
6.215714318892618e-05
6.616957234272317e-05
7.035662041535683e-05
7.472660412492088e-05
-6.867090426143814e-05
-6.433179530140193e-05
-6.015786525553554e-05
-5.614232893921822e-05
-5.227847379412308e-05
-4.8559643402761726e-05
-4.4979221738999237e-05
-4.153061825323649e-05
-3.8207253872771935e-05
-3.50025479807e-05
-3.190990641879776e-05
-2.8922710542580304e-05
-2.603430734115543e-05
-2.3238000618420324e-05
-2.0527043218846255e-05
-1.789463026836101e-05
-1.533389339003835e-05
-1.2837895845267677e-05
-1.0399628543843187e-05
-8.012006861454063e-06
-5.6678681994819236e-06
-3.359970220990008e-06
-1.08098969769585e-06
1.176478095487113e-06
3.419919497109694e-06
5.656902139735895e-06
7.895074240959685e-06
1.0142163542170568e-05
1.2405975923517401e-05
1.469439371341516e-05
1.7015373700149383e-05
1.9376944842604965e-05
2.1787205665625697e-05
2.4254321315064428e-05
2.678652023730896e-05
2.939209043784953e-05
3.2079375264969234e-05
3.485676865720537e-05
3.773270978618508e-05
4.0715677022044525e-05
4.381418114608737e-05
4.703675773389156e-05
5.03919586337543e-05
5.3888342469129644e-05
5.753446410041059e-05
6.133886299044752e-05
6.53100504305823e-05
6.945649560005131e-05
7.378661044922519e-05
-6.773048003980847e-05
-6.342976603283465e-05
-5.929340841262856e-05
-5.531472666103765e-05
-5.148711354867504e-05
-4.7804017348959324e-05
-4.425892491697475e-05
-4.0845345735339086e-05
-3.755679700965554e-05
-3.438678987602306e-05
-3.132881676390538e-05
-2.837633993880463e-05
-2.5522781231052116e-05
-2.2761512939914116e-05
-2.008584988734234e-05
-1.7489042581600445e-05
-1.4964271439394522e-05
-1.2504642005138275e-05
-1.0103181098248398e-05
-7.752833814447802e-06
-5.446461303211872e-06
-3.1768392428962317e-06
-9.366569366196786e-07
1.2814830456335524e-06
3.4850647474340968e-06
5.68165829051108e-06
7.878918977490684e-06
1.0084586076255717e-05
1.2306481318747134e-05
1.4552507135173406e-05
1.6830644632538985e-05
1.9148951313449972e-05
2.1515558518342415e-05
2.3938668561733142e-05
2.6426551521159872e-05
2.898754162559622e-05
3.163003317992012e-05
3.4362475952702184e-05
3.7193369946737775e-05
4.01312594656162e-05
4.318472638555407e-05
4.6362382539794425e-05
4.9672861123497766e-05
5.312480703019082e-05
5.672686603704416e-05
6.0487672765518335e-05
6.441583735649313e-05
6.851993081529242e-05
7.280846900113366e-05
-6.675600906739902e-05
-6.249497529195458e-05
-5.839742434190359e-05
-5.4456790499278485e-05
-5.0666581485956166e-05
-4.702035929733672e-05
-4.351172204456778e-05
-4.0134286911375563e-05
-3.688167430957422e-05
-3.374749329493332e-05
-3.0725328284292655e-05
-2.7808727093353233e-05
-2.4991190294251092e-05
-2.2266161874005472e-05
-1.9627021157547428e-05
-1.7067075943703533e-05
-1.4579556790040096e-05
-1.2157612371610504e-05
-9.794305830170685e-06
-7.482612025251287e-06
-5.215415595047346e-06
-2.9855097346161152e-06
-7.855956009415049e-07
1.391717742212778e-06
3.5539129194933627e-06
5.70856345110532e-06
7.863332634274606e-06
1.0025972149364792e-05
1.2204320428556986e-05
1.4406300811146619e-05
1.663991949570065e-05
1.8913263283895296e-05
2.1234497097077226e-05
2.3611861230942235e-05
2.605366830003321e-05
2.856829981085461e-05
3.116420228926366e-05
3.384988287709334e-05
3.663390430374766e-05
3.952487913061638e-05
4.253146316039909e-05
4.566234790105532e-05
4.892625197296281e-05
5.233191135048561e-05
5.5888068335166116e-05
5.9603459166267594e-05
6.348680018753057e-05
6.754677250532873e-05
7.179200509410677e-05
-6.574768653465693e-05
-6.15275938579355e-05
-5.7470058462622334e-05
-5.3568640366230894e-05
-4.981697257040729e-05
-4.6208740430970716e-05
-4.273766219661454e-05
-3.939747082637966e-05
-3.618189717148092e-05
-3.3084654582399634e-05
-3.0099424978710654e-05
-2.7219846395469538e-05
-2.44395019970544e-05
-2.175191052968331e-05
-1.9150518164451347e-05
-1.6628691665574943e-05
-1.417971280514782e-05
-1.1796773933774388e-05
-9.472974607483212e-06
-7.201319165763345e-06
-4.974715152239115e-06
-2.7859724698094807e-06
-6.278031644095516e-07
1.5071782637349207e-06
3.626454113957872e-06
5.737602387367868e-06
7.848295409328479e-06
9.966298230299972e-06
1.2099466848495416e-05
1.4255746282275036e-05
1.6443168503639527e-05
1.8669850227050894e-05
2.0943990531588005e-05
2.3273868276583315e-05
2.566783925510123e-05
2.813433301462366e-05
3.0681849258921284e-05
3.3318953732730874e-05
3.6054273479592044e-05
3.889649135332095e-05
4.185433965688337e-05
4.493659277823164e-05
4.815205869032092e-05
5.1509569184270826e-05
5.5017968709887566e-05
5.8686101706072885e-05
6.252279831648125e-05
6.653685840238288e-05
7.073703378667091e-05
-6.470572031223865e-05
-6.052780311545901e-05
-5.651146500405303e-05
-5.2650403517999836e-05
-4.893838801272102e-05
-4.5369237478229754e-05
-4.193679970538634e-05
-3.863493191322981e-05
-3.5457482925008166e-05
-3.239827695272757e-05
-2.945109902345068e-05
-2.6609682054484426e-05
-2.3867695559461055e-05
-2.1218735944480635e-05
-1.8656318332475538e-05
-1.6173869835437588e-05
-1.3764724178568985e-05
-1.1422117567792822e-05
-9.139185682750448e-06
-6.908961671332758e-06
-4.724375018616209e-06
-2.5782511639954597e-06
-4.633117434670042e-07
1.6278246597507817e-06
3.702641363576356e-06
5.76872213021995e-06
7.833749486815117e-06
9.90550289027732e-06
1.1991856786162242e-05
1.410077859360058e-05
1.6240326629205284e-05
1.8418647963555287e-05
2.0643976184691118e-05
2.292462902342765e-05
2.52690057766531e-05
2.768558444748298e-05
3.0182918503710715e-05
3.2769633141332966e-05
3.545442092653915e-05
3.8246036677689124e-05
4.1153291440779866e-05
4.418504540525288e-05
4.7350199603840223e-05
5.065768624076469e-05
5.4116457496334106e-05
5.773547266425122e-05
6.152368349031032e-05
6.549001759793664e-05
6.964335990853644e-05
-6.363033129322057e-05
-5.949579525694679e-05
-5.5521807123431674e-05
-5.170221464647837e-05
-4.803093539556061e-05
-4.4501932932429836e-05
-4.1109194533301904e-05
-3.784671057530456e-05
-3.470845567648401e-05
-3.168837164776658e-05
-2.878035228567194e-05
-2.597823000458771e-05
-2.32757642802707e-05
-2.066663185042346e-05
-1.8144418594363484e-05
-1.570261299395359e-05
-1.333460106053147e-05
-1.1033662598696967e-05
-8.792968668123666e-06
-6.6055800979954865e-06
-4.464446906061667e-06
-2.362408475523048e-06
-2.921943472906918e-07
1.7535745068537195e-06
3.782384053969967e-06
5.801825322641549e-06
7.819592373189618e-06
9.843480191781134e-06
1.1881382565569545e-05
1.3941289975224341e-05
1.6031287519785442e-05
1.8159552866480258e-05
2.0334354196334045e-05
2.2564048094576156e-05
2.4857077312751344e-05
2.722196831009098e-05
2.9667328462150422e-05
3.220184280671064e-05
3.483427018191772e-05
3.7573438597768294e-05
4.042823967146357e-05
4.3407621948817615e-05
4.6520582929358845e-05
4.9776159611682885e-05
5.318341737821884e-05
5.675143704596437e-05
6.048929992156539e-05
6.440607071624659e-05
6.851077819832255e-05
-6.252175368381963e-05
-5.8431773426254746e-05
-5.4501256964477676e-05
-5.0724215917794316e-05
-4.70947287586395e-05
-4.3606915250262585e-05
-4.0254912650573155e-05
-3.703285380668615e-05
-3.393484723085774e-05
-3.0954959214636243e-05
-2.808719800456716e-05
-2.5325500029033457e-05
-2.2663718135570998e-05
-2.0095611769173002e-05
-1.7614838995375776e-05
-1.5214950249890433e-05
-1.2889383677397448e-05
-1.0631461907171028e-05
-8.434390102575115e-06
-6.291255114653643e-06
-4.19502556820231e-06
-2.1385527102478485e-06
-1.1457185668597991e-07
1.8842957173800107e-06
3.865540585727689e-06
5.8367628036765096e-06
7.80566947305994e-06
9.780072326590061e-06
1.1767885396887084e-05
1.3777122811383866e-05
1.5815896730072762e-05
1.7892415417983254e-05
2.0014981419251912e-05
2.2191989774980256e-05
2.443192620235103e-05
2.674336512992377e-05
2.9134967462150427e-05
3.1615477925243246e-05
3.419372182920412e-05
3.687860106436208e-05
3.967908913797384e-05
4.260422504622462e-05
4.5663105770154394e-05
4.886487718129724e-05
5.221872314415538e-05
5.573385260882434e-05
5.941948449778196e-05
6.328483020828606e-05
6.733907357353922e-05
-6.138023523117112e-05
-5.7335951791982406e-05
-5.344999564524562e-05
-4.971655694693995e-05
-4.612988863435252e-05
-4.26842790229847e-05
-3.9374026415137445e-05
-3.619341585107787e-05
-3.3136698095504596e-05
-3.019807091405799e-05
-2.7371662656500845e-05
-2.4651518125933317e-05
-2.2031586679197024e-05
-1.950571247069481e-05
-1.7067626722972948e-05
-1.4710941882380493e-05
-1.2429147496858042e-05
-1.0215607637170665e-05
-8.063559671131482e-06
-5.966114193402608e-06
-3.916255912358654e-06
-1.9068452978519834e-06
6.937919905247725e-08
2.0197985312764982e-06
3.951910208395068e-06
5.8733253607713e-06
7.79176583764335e-06
9.715061438196962e-06
1.165114734958013e-05
1.3608061838591562e-05
1.5593944216168304e-05
1.761703306576122e-05
1.9685664698136998e-05
2.180827176710698e-05
2.399338195367695e-05
2.6249616599737305e-05
2.8585689147648044e-05
3.101040321891631e-05
3.3532650144494844e-05
3.616140574034914e-05
3.890572610659379e-05
4.177474221599489e-05
4.477765304835429e-05
4.792371702294282e-05
5.1222241480242126e-05
5.468256996918677e-05
5.831406710594955e-05
6.21261007862136e-05
6.612802155544356e-05
-6.020603737567909e-05
-5.6208555537548555e-05
-5.236821316273281e-05
-4.867939469723262e-05
-4.513654202455142e-05
-4.1734125113570414e-05
-3.846661495165299e-05
-3.532845890083687e-05
-3.2314058572334783e-05
-2.9417750271635082e-05
-2.663378802295578e-05
-2.395632914073062e-05
-2.137942227668256e-05
-1.8896997833719315e-05
-1.650286060660318e-05
-1.4190684480363744e-05
-1.1954008994787338e-05
-9.786237565794637e-06
-7.680637141840516e-06
-5.630339067022247e-06
-3.62834092144243e-06
-1.667509113480875e-06
2.5941799265682963e-07
2.15982661640364e-06
4.041223952403264e-06
5.9112345779637615e-06
7.777597015267562e-06
9.648160560621344e-06
1.153088246402291e-05
1.3433825511803207e-05
1.536515603394427e-05
1.733314232603249e-05
1.9346153443492234e-05
2.1412658294514553e-05
2.354122492804339e-05
2.5740519882931634e-05
2.801930743664624e-05
3.0386448565998883e-05
3.285089940826581e-05
3.5421708989754816e-05
3.810801597019936e-05
4.091904413658712e-05
4.386409636812465e-05
4.6952546787276325e-05
5.0193830808972426e-05
5.359743280261217e-05
5.717287109054808e-05
6.0929680020785706e-05
6.48773888743126e-05
-5.8999435314040574e-05
-5.5049820753773696e-05
-5.125610820006822e-05
-4.761289329160978e-05
-4.411482230787939e-05
-4.075656075244044e-05
-3.753276452638822e-05
-3.443805383788849e-05
-3.146698994564712e-05
-2.8614054785774598e-05
-2.587363348207153e-05
-2.3239999693537572e-05
-2.0707303708174946e-05
-1.8269563150871e-05
-1.5920656137551406e-05
-1.3654316675649342e-05
-1.1464132086158943e-05
-9.343542203043079e-06
-7.285840092638787e-06
-5.284174029432723e-06
-3.3315504639457733e-06
-1.420837724162849e-06
4.5522979677005415e-07
2.3040471974888205e-06
4.133134580319026e-06
5.950132703352873e-06
7.762798930079778e-06
9.579003602959088e-06
1.1406726934554481e-05
1.325405647547781e-05
1.5129185183060737e-05
1.7040410079442042e-05
1.8996131451400403e-05
2.1004852509465613e-05
2.3075179390191075e-05
2.5215821351650194e-05
2.74355909811886e-05
2.9743404205266957e-05
3.214827986377025e-05
3.465933858683677e-05
3.728580069049109e-05
4.003698278964678e-05
4.292229281225787e-05
4.5951223088789434e-05
4.913334118608961e-05
5.2478278154775154e-05
5.59957138660111e-05
5.969535912675808e-05
6.3586934283405e-05
-5.776071795736415e-05
-5.385999421779822e-05
-5.011388782065647e-05
-4.65172237215615e-05
-4.306486906585985e-05
-3.9751699583541467e-05
-3.657256891432224e-05
-3.3522281018487365e-05
-3.059556577437138e-05
-2.778705780828207e-05
-2.5091278547434773e-05
-2.250262143310873e-05
-2.0015340180531277e-05
-1.7623539926540574e-05
-1.5321171064721847e-05
-1.3102025532804248e-05
-1.0959735289474762e-05
-8.887772696324417e-06
-6.8794525073297835e-06
-4.927935161750177e-06
-3.026231077096417e-06
-1.1672056462845581e-06
6.564153428728625e-07
2.452040128489083e-06
4.227205473978854e-06
5.989571455007961e-06
7.746916711487417e-06
9.507134306242088e-06
1.1278228295299314e-05
1.3068311075784683e-05
1.488560153763141e-05
1.6738424005905556e-05
1.8635207920562197e-05
2.0584488161300152e-05
2.2594905887308656e-05
2.4675209725004768e-05
2.6834257101862255e-05
2.9081015491521506e-05
3.1424563304741776e-05
3.387409013292167e-05
3.643889602606906e-05
3.9128389465689986e-05
4.195208367533364e-05
4.49195908989522e-05
4.804061426866117e-05
5.132493688128105e-05
5.47824077068472e-05
5.8422923963571266e-05
6.225640961262865e-05
-5.649018776711541e-05
-5.2639333040527606e-05
-4.894176703203537e-05
-4.539256343797683e-05
-4.198682781472382e-05
-3.871966165179021e-05
-3.5586129754707624e-05
-3.258123110452295e-05
-2.969987329886313e-05
-2.6936850616046323e-05
-2.4286825681351515e-05
-2.174431465381231e-05
-1.9303675793955546e-05
-1.6959101221984338e-05
-1.4704611629166517e-05
-1.2534053666208439e-05
-1.0441099701972295e-05
-8.419249622779873e-06
-6.461834328367819e-06
-4.562020574668327e-06
-2.712816815771471e-06
-9.070797074572923e-07
8.62479048516912e-07
2.603285817243464e-06
4.322898369242892e-06
6.028999680704472e-06
7.729392394075288e-06
9.431994097289578e-06
1.1144833538525786e-05
1.2876047849393057e-05
1.4633880805099003e-05
1.642668210581795e-05
1.826290761966498e-05
2.0151120484174223e-05
2.209999292085603e-05
2.4118308577254083e-05
2.62149651721489e-05
2.8398977182580304e-05
3.067947827749273e-05
3.3065723171216144e-05
3.556708854161178e-05
3.819307263241804e-05
4.095329313848206e-05
4.3857482956287386e-05
4.691548336986477e-05
5.013723423694799e-05
5.3532760740784835e-05
5.711215628131233e-05
6.0885561096240756e-05
-5.518816045004156e-05
-5.138810416303874e-05
-4.773996820014309e-05
-4.4239095806242884e-05
-4.088084962843713e-05
-3.7660573322120805e-05
-3.4573556891542845e-05
-3.1615005945045266e-05
-2.8780014974416623e-05
-2.606354469529039e-05
-2.346040341402386e-05
-2.096523231730034e-05
-1.857249451510737e-05
-1.6276467609361786e-05
-1.4071239508363712e-05
-1.195070716370275e-05
-9.908577872280722e-06
-7.938372761846432e-06
-6.033432063149921e-06
-4.186921766943796e-06
-2.3918412683145845e-06
-6.410316137715061e-07
1.072816013327621e-06
2.7571519056156235e-06
4.419559845258991e-06
6.06774978313164e-06
7.709551405251161e-06
9.352908762891993e-06
1.1005876095284556e-05
1.2676614924910998e-05
1.4373392455928682e-05
1.6104581256972533e-05
1.7878660160876303e-05
1.9704216266215602e-05
2.158994787911442e-05
2.3544668189150186e-05
2.5577309430856524e-05
2.76969272411786e-05
2.9912704885958624e-05
3.223395699290983e-05
3.4670132396169215e-05
3.723081566867591e-05
3.992572689364912e-05
4.276471920596284e-05
4.5757773618280984e-05
4.891499063742685e-05
5.2246578172996175e-05
5.5762835245132605e-05
5.947413101219101e-05
-5.3854964491204665e-05
-5.0106583680129685e-05
-4.6508720292425323e-05
-4.3057009406233596e-05
-3.974709063739312e-05
-3.657456711961965e-05
-3.3534968695309725e-05
-3.062371951302427e-05
-2.7836110146025814e-05
-2.516727426363566e-05
-2.2612169805294804e-05
-2.0165564527011015e-05
-1.782202571641925e-05
-1.557591380543094e-05
-1.3421379551077639e-05
-1.135236440667764e-05
-9.362603667741401e-06
-7.44563195125697e-06
-5.594790551226303e-06
-3.8032362097619593e-06
-2.0639508497774517e-06
-3.697518319648041e-07
1.2866976766747612e-06
2.9128786021622582e-06
4.516406470669171e-06
6.1050228191035505e-06
7.686587755814309e-06
9.269073866776528e-06
1.0860561608597857e-05
1.2469236275165427e-05
1.4103386569725568e-05
1.5771404759926458e-05
1.7481788339313714e-05
1.9243143066500004e-05
2.106418720283429e-05
2.295375672049793e-05
2.492081120609481e-05
2.697444014030867e-05
2.9123869192819105e-05
3.137846613197014e-05
3.3747745912268354e-05
3.62413744700741e-05
3.88691707281074e-05
4.164110628453871e-05
4.4567302242084356e-05
4.765802261861088e-05
5.092366377218091e-05
5.437473927419681e-05
5.80218596741653e-05
-5.249094050169267e-05
-4.8795055966608866e-05
-4.5248257926287436e-05
-4.1846497155821616e-05
-3.8585711385380125e-05
-3.5461781479678364e-05
-3.247049236295395e-05
-2.960749890404922e-05
-2.6868296882344433e-05
-2.4248199060052447e-05
-2.174231629192315e-05
-1.9345543511689253e-05
-1.705255035050479e-05
-1.4857776066004927e-05
-1.2755428394933821e-05
-1.0739485888229885e-05
-8.803703246016911e-06
-6.9416191420378776e-06
-5.1465660120264545e-06
-3.4116812784174e-06
-1.7299194935913031e-06
-9.406490519316135e-08
1.5032560225242825e-06
3.069562558206257e-06
4.6125085043004915e-06
6.139872178305764e-06
7.659547847585144e-06
9.179538832402093e-06
1.070795243122459e-05
1.2252996761465823e-05
1.3822979547785039e-05
1.5426308830038607e-05
1.7071495504250925e-05
1.8767157552548527e-05
2.052202576319391e-05
2.2344950688953438e-05
2.4244910540897543e-05
2.6231019666499156e-05
2.831253721522972e-05
3.0498875551329685e-05
3.2799607932548075e-05
3.522447493674481e-05
3.778338908355661e-05
4.0486437068479667e-05
4.3343879001411095e-05
4.636614402226194e-05
4.9563821652193196e-05
5.2947648234123734e-05
5.652848782092962e-05
-5.109644035562223e-05
-4.7453812579770216e-05
-4.3958820196596596e-05
-4.060775523407473e-05
-3.7396876025965614e-05
-3.432236039666893e-05
-3.138026419390039e-05
-2.8566485405782244e-05
-2.587673399085874e-05
-2.330650743895442e-05
-2.0851071971266302e-05
-1.850544918362805e-05
-1.626440783986452e-05
-1.4122460434747713e-05
-1.2073864072368809e-05
-1.0112625145435039e-05
-8.232507255210436e-06
-6.427041782568546e-06
-4.689540506362319e-06
-3.0131096653389366e-06
-1.3906648742307431e-06
1.8505366881048368e-07
1.7214662086251914e-06
3.2261391720214e-06
4.70677204384741e-06
6.1711857448510515e-06
7.62731281215949e-06
9.083189616690412e-06
1.054695078383551e-05
1.2026825916019654e-05
1.3531138648272337e-05
1.5068308001674538e-05
1.6646851935881585e-05
1.827539293985936e-05
1.9962665440097227e-05
2.1717524748639597e-05
2.3548957218767763e-05
2.5466091223334472e-05
2.7478208521164796e-05
2.9594755529674388e-05
3.182535397614969e-05
3.417981035875976e-05
3.666812360866162e-05
3.93004903089713e-05
4.2087306795706575e-05
4.503916743928832e-05
4.816685838584904e-05
5.14813460253203e-05
5.499375945119088e-05
-4.967182608836031e-05
-4.608315090821012e-05
-4.2640649252958726e-05
-3.934098177819402e-05
-3.618075133814125e-05
-3.315645295909678e-05
-3.0264429841110954e-05
-2.750083565064912e-05
-2.486160324137801e-05
-2.2342419811808428e-05
-1.993870838178438e-05
-1.7645615348990673e-05
-1.5458003775593865e-05
-1.3370451955192417e-05
-1.1377256727222729e-05
-9.472440938802784e-06
-7.649764403731482e-06
-5.902737678390932e-06
-4.22463796086181e-06
-2.6085264230729654e-06
-1.047266306194658e-06
4.664588576976797e-07
1.9401274883590336e-06
3.381363199559187e-06
4.797919512678633e-06
6.197666444138911e-06
7.588579295907463e-06
8.978729902837587e-06
1.0376280514819147e-05
1.1789480415949974e-05
1.3226665308839133e-05
1.469625941995234e-05
1.620678021238206e-05
1.7766845525875666e-05
1.9385182899709502e-05
2.1070640772931012e-05
2.2832201197989233e-05
2.4678993647725064e-05
2.6620309441676912e-05
2.8665616266335472e-05
3.082457221435103e-05
3.310703872068388e-05
3.552309172897075e-05
3.808303037996369e-05
4.079738247646063e-05
4.36769059452783e-05
4.6732585490616776e-05
4.9975623612839165e-05
5.3417425155966036e-05
-4.821746852442729e-05
-4.468337253384774e-05
-4.129398859456512e-05
-3.804637532562466e-05
-3.4937505539277616e-05
-3.1964212759185914e-05
-2.9123144538043683e-05
-2.6410722868134423e-05
-2.382311183177048e-05
-2.1356192488964157e-05
-1.90055448526516e-05
-1.676643666189033e-05
-1.4633818535177145e-05
-1.2602324972833812e-05
-1.0666280583090937e-05
-8.819710831740879e-06
-7.056356561218127e-06
-5.3696914938238666e-06
-3.7529419227386868e-06
-2.1991078026101923e-06
-7.009844792023323e-07
7.488156611029639e-07
2.157842284815706e-06
3.5337875441462246e-06
4.884468371491035e-06
6.2178110773226936e-06
7.5418386094455725e-06
8.864660746097514e-06
1.0194467410806068e-05
1.15395252124912e-05
1.2908177233279111e-05
1.4308846008158696e-05
1.575003956531644e-05
1.7240360324664167e-05
1.8788516584346965e-05
2.0403336259687196e-05
2.2093782476684948e-05
2.3868970563532127e-05
2.573818592527255e-05
2.7710902231576143e-05
2.97967992936906e-05
3.2005779954416905e-05
3.434798526454064e-05
3.683380717128121e-05
3.9473897899768365e-05
4.2279175166554106e-05
4.526082232915625e-05
4.8430282546450126e-05
5.179924600413714e-05
-4.673374560081045e-05
-4.3254781270813183e-05
-3.9919081046869975e-05
-3.672413296968054e-05
-3.366730687187798e-05
-3.0745797165377536e-05
-2.795657330507094e-05
-2.529633825825231e-05
-2.2761495138421198e-05
-2.0348121986276876e-05
-1.8051954509523335e-05
-1.58683764314594e-05
-1.3792416949464856e-05
-1.1818754675967796e-05
-9.94172732779984e-06
-8.155346346567019e-06
-6.453315575156299e-06
-4.829053084045437e-06
-3.2757152332862916e-06
-1.7862220709641968e-06
-3.532832053166485e-07
1.0305766596826332e-06
2.3729932672779397e-06
3.6817400919254145e-06
4.964707939727336e-06
6.229887347228638e-06
7.485354164874294e-06
8.739258614828133e-06
9.999818017971188e-06
1.1275313291996339e-05
1.25740892338716e-05
1.3904558515218796e-05
1.527520923851576e-05
1.6694615826493356e-05
1.81714529454112e-05
1.9714512094246017e-05
2.13327204268577e-05
2.3035161311949284e-05
2.4831096074236572e-05
2.67299863016858e-05
2.8741516044952092e-05
3.087561317793169e-05
3.314246913243592e-05
3.555255616455137e-05
3.811664125793687e-05
4.084579571870042e-05
4.375139947103597e-05
4.6845139023031154e-05
5.013899804037075e-05
-4.522104034725832e-05
-4.17976808400021e-05
-3.851616638022269e-05
-3.537444819416355e-05
-3.2370321939236e-05
-2.950136644694866e-05
-2.676489114282303e-05
-2.415789251525649e-05
-2.1677019804315634e-05
-1.9318549875305818e-05
-1.707837104149984e-05
-1.4951975412479113e-05
-1.2934459173039037e-05
-1.102053005023508e-05
-9.204521106160463e-06
-7.4804099016723136e-06
-5.841842015508886e-06
-4.28215787262598e-06
-2.7944218325953035e-06
-1.3714525132040023e-06
-5.853371495834203e-09
1.3099573687135047e-06
2.5837182709119444e-06
3.823298454875418e-06
5.036674211148645e-06
6.2319089833839936e-06
7.4171371315517876e-06
8.600551780053173e-06
9.790396948670954e-06
1.0994964062453413e-05
1.2222592839932628e-05
1.3481676468153278e-05
1.4780670887212799e-05
1.6128107928016153e-05
1.7532611971437725e-05
1.9002919726071946e-05
2.0547902654974304e-05
2.2176591516272215e-05
2.389820241886602e-05
2.57221637325368e-05
2.7658143128992882e-05
2.971607396779971e-05
3.1906180179666274e-05
3.4238998736214193e-05
3.672539873438019e-05
3.93765960633799e-05
4.220416256502969e-05
4.522002854635658e-05
4.843647745796098e-05
-4.367973848089235e-05
-4.0312372133871274e-05
-3.708547852619877e-05
-3.39975083491692e-05
-3.104671376390547e-05
-2.8231082741202868e-05
-2.554828322469567e-05
-2.2995617539735974e-05
-2.0569987231464776e-05
-1.826786827389959e-05
-1.608529635665351e-05
-1.4017861736253384e-05
-1.2060712941510884e-05
-1.020856845361344e-05
-8.455735345927473e-06
-6.796133767758908e-06
-5.223326092268152e-06
-3.730549520148535e-06
-2.310750935831038e-06
-9.56622848392527e-07
3.3936068903790695e-07
1.5849092034163348e-06
2.7878828909016357e-06
3.95626247906046e-06
5.0981225491048e-06
6.221608880188287e-06
7.3349202523668305e-06
8.446295022147832e-06
9.564002666715907e-06
1.0696340380996969e-05
1.1851634707316441e-05
1.3038248080462361e-05
1.4264590080685646e-05
1.553913310502024e-05
1.6870432089114915e-05
1.826714783980353e-05
1.973807346998882e-05
2.129216336005206e-05
2.2938564005099693e-05
2.468664604205438e-05
2.654603668446158e-05
2.852665172552518e-05
3.063872620186203e-05
3.289284273923741e-05
3.529995653164808e-05
3.7871415833466704e-05
4.0618976774502505e-05
4.355481124201227e-05
4.669150651234917e-05
-4.211022556801711e-05
-3.879915002074838e-05
-3.562724234246195e-05
-3.259349172651457e-05
-2.9696639541576877e-05
-2.6935108856505907e-05
-2.4306945107575514e-05
-2.1809768388711404e-05
-1.9440737561540397e-05
-1.7196526096645987e-05
-1.5073309281127614e-05
-1.3066762170553178e-05
-1.1172067435116784e-05
-9.383932056872615e-06
-7.696611681750135e-06
-6.1039413208480164e-06
-4.599371029104238e-06
-3.176005165302781e-06
-1.826643853463511e-06
-5.438253158056988e-07
6.801321720331654e-07
1.8530898477850388e-06
2.9830505729588203e-06
4.0781243730407535e-06
5.146498150851442e-06
6.196410171932856e-06
7.236129777628622e-06
8.273942643291163e-06
9.318141768663996e-06
1.0377024265229365e-05
1.1458893893159794e-05
1.2572069197967425e-05
1.3724897003342812e-05
1.492577093191276e-05
1.6183154546281497e-05
1.7505608631182903e-05
1.8901822067703827e-05
2.0380645682990112e-05
2.195112839349818e-05
2.3622554891945813e-05
2.5404484059318375e-05
2.730678721130954e-05
2.9339685213833344e-05
3.1513783423461894e-05
3.384010332826634e-05
3.633010968086964e-05
3.899573183168206e-05
4.184937788767086e-05
4.490394024355207e-05
-4.0512883699722266e-05
-3.7258299631057895e-05
-3.414166987122762e-05
-3.116256418953835e-05
-2.8320248062277398e-05
-2.561360690794129e-05
-2.3041082989137818e-05
-2.060062552862972e-05
-1.828965424975279e-05
-1.6105036212497176e-05
-1.404307549090697e-05
-1.2099514937011224e-05
-1.026954901147542e-05
-8.54784644080224e-06
-6.928581289492031e-06
-5.405470916841973e-06
-3.971819221593523e-06
-2.620563561431949e-06
-1.3443237642726813e-06
-1.3545171862090755e-07
1.0139198653932868e-06
2.1118308024814514e-06
3.166450013945138e-06
4.186036310822178e-06
5.178904176877247e-06
6.153395182024318e-06
7.117855493928363e-06
8.080619800107658e-06
9.050001808865588e-06
1.0034291365043982e-05
1.1041758096724114e-05
1.2080661401785153e-05
1.3159266487466209e-05
1.4285866089971608e-05
1.546880742306876e-05
1.671652383355461e-05
1.8037570572932912e-05
1.9440664028843105e-05
2.093472369403722e-05
2.2528916082037442e-05
2.4232699727661997e-05
2.6055870334558418e-05
2.8008605050372157e-05
3.010150476392623e-05
3.2345633226878515e-05
3.4752551705473714e-05
3.733434776913812e-05
4.010365672113894e-05
4.3073674077902246e-05
-3.8888087621632116e-05
-3.569009206118908e-05
-3.262895602999978e-05
-2.970487530792182e-05
-2.691767677077614e-05
-2.42667367872278e-05
-2.175091405138413e-05
-1.9368497475545643e-05
-1.7117169364753645e-05
-1.4993983692037152e-05
-1.2995358907413358e-05
-1.1117084362317203e-05
-9.35433912335748e-06
-7.701721697572946e-06
-6.153289000211844e-06
-4.702602768566488e-06
-3.342781561492536e-06
-2.0665564798537372e-06
-8.663287922516458e-07
2.6577225318517167e-07
1.337833015726403e-06
2.3581018706395757e-06
3.334939679189297e-06
4.276775365918278e-06
5.192067452531625e-06
6.089272203368273e-06
6.9768188518427865e-06
7.863092203633931e-06
8.756422753901719e-06
9.665084313368634e-06
1.0597299011462502e-05
1.15612494341168e-05
1.2565097557260853e-05
1.3617010051820977e-05
1.4725189460963566e-05
1.5897910681810304e-05
1.7143562118886006e-05
1.8470690813864044e-05
1.9888050791922775e-05
2.1404653796914218e-05
2.3029821515176997e-05
2.477323830858691e-05
2.6645003389598985e-05
2.8655681276409245e-05
3.0816349263043316e-05
3.3138640528044064e-05
3.563478138911367e-05
3.831762108963844e-05
4.120065238076044e-05
-3.7236200250843204e-05
-3.4094779422428646e-05
-3.108927366562205e-05
-2.8220553943301627e-05
-2.5489048438365365e-05
-2.289465447636533e-05
-2.043666694618619e-05
-1.8113723931362062e-05
-1.5923769781103596e-05
-1.386403537031837e-05
-1.1931034840325684e-05
-1.0120577698908423e-05
-8.427794801924883e-06
-6.8471764512658545e-06
-5.372620631425608e-06
-3.997489272664426e-06
-2.714670370938463e-06
-1.5166438075012514e-06
-3.955487865000065e-07
6.567490610518215e-07
1.648592686501367e-06
2.5884723240396715e-06
3.4849692377905e-06
4.346705638983567e-06
5.182301665610303e-06
6.0003400927273465e-06
6.809339230673048e-06
7.617734275027627e-06
8.433867198794943e-06
9.265985125088763e-06
1.0122246986718833e-05
1.1010738166720123e-05
1.193949271854726e-05
1.2916522683181428e-05
1.3949853950374902e-05
1.5047568048417136e-05
1.6217849187486616e-05
1.746903582420037e-05
1.8809675954277634e-05
2.024858527437806e-05
2.1794907281589594e-05
2.3458174297054726e-05
2.524836830693905e-05
2.717598041067793e-05
2.925206755102945e-05
3.148830507431182e-05
3.389703353368252e-05
3.649129800436211e-05
3.928487803178671e-05
-3.55575675036017e-05
-3.2472589151965464e-05
-2.9522767894360653e-05
-2.6709703227359785e-05
-2.403446742003674e-05
-2.1497510224234052e-05
-1.909858249828089e-05
-1.6836679556357474e-05
-1.4710004474042908e-05
-1.2715951005445349e-05
-1.0851105225515023e-05
-9.111264524091882e-06
-7.491472164738826e-06
-5.986065294377903e-06
-4.588734055351908e-06
-3.2925893128721642e-06
-2.0902364639314996e-06
-9.738528313294609e-07
6.473374256858039e-08
1.0339673147501116e-06
1.9424892664793303e-06
2.7990684766891066e-06
3.6125377154659633e-06
4.391737452868159e-06
5.145468006947235e-06
5.882450696094617e-06
6.611298422223681e-06
7.3404958970046605e-06
8.078389534769796e-06
8.833186874974454e-06
9.612965261894708e-06
1.0425689397466735e-05
1.127923729228944e-05
1.2181434064699112e-05
1.3140092976831122e-05
1.4163063041668436e-05
1.5258282484935382e-05
1.6433837296123653e-05
1.7698024047551296e-05
1.905941609938594e-05
2.0526932236799786e-05
2.210990670179977e-05
2.3818159484193316e-05
2.5662065624148557e-05
2.7652622151095804e-05
2.980151114119218e-05
3.2121157219434926e-05
3.4624777664040395e-05
3.732642309392433e-05
-3.3852512346689394e-05
-3.0823717491711145e-05
-2.792954964118792e-05
-2.517239486907446e-05
-2.255401547377519e-05
-2.0075446618510878e-05
-1.7736914727011117e-05
-1.5537778558133257e-05
-1.3476493181005696e-05
-1.155059638142334e-05
-9.756716385844397e-06
-8.090599215552705e-06
-6.547153503645535e-06
-5.120510236044339e-06
-3.804094621946176e-06
-2.590707160011335e-06
-1.472610938105419e-06
-4.416222767165967e-07
5.10798015702571e-07
1.3934552793018126e-06
2.215335756864875e-06
2.985527379255337e-06
3.7131481674780933e-06
4.407283507191356e-06
5.076933233635894e-06
5.73096916723758e-06
6.378103470970967e-06
7.0268679646960305e-06
7.68560432853893e-06
8.362464959813312e-06
9.06542411197378e-06
9.802298836424951e-06
1.0580779165411495e-05
1.1408466909466897e-05
1.2292922394300382e-05
1.3241718419579676e-05
1.4262500684217305e-05
1.536305388391817e-05
1.655137264015144e-05
1.7835736365107678e-05
1.9224787098321393e-05
2.0727609266563314e-05
2.2353810216827787e-05
2.4113600250897683e-05
2.6017870750151377e-05
2.807826881952736e-05
3.030726670052216e-05
3.271822400905712e-05
3.532544064439435e-05
-3.212132797282292e-05
-2.9148322027118187e-05
-2.6309688279792937e-05
-2.360866272219011e-05
-2.1047747123450512e-05
-1.8628596603983798e-05
-1.6351932323231157e-05
-1.4217480328688678e-05
-1.2223936762117103e-05
-1.0368958788270315e-05
-8.649179841694818e-06
-7.060247111096048e-06
-5.596878624418954e-06
-4.252936877363611e-06
-3.021515672122811e-06
-1.8950366997257453e-06
-8.653523999911997e-07
7.614824673943255e-08
9.384341220219916e-07
1.7307293935509005e-06
2.4624164360366463e-06
3.142946337712435e-06
3.781758683304992e-06
4.38821191212687e-06
4.971525178362052e-06
5.540732299576072e-06
6.104648077721528e-06
6.671847018271254e-06
7.250654257820108e-06
7.849148338375314e-06
8.475175333500298e-06
9.136373732650596e-06
9.84020941992899e-06
1.0594020035098635e-05
1.1405067971914477e-05
1.2280601244608717e-05
1.3227921431189366e-05
1.4254457877773026e-05
1.5367847314162048e-05
1.6576017984291924e-05
1.7887277331812314e-05
1.931040219776796e-05
2.085473038257457e-05
2.253025229461813e-05
2.434770125505758e-05
2.631864085060956e-05
2.845554752346855e-05
3.077188636450845e-05
3.328217783141359e-05
-3.036426998498116e-05
-2.74465131612691e-05
-2.4663203261716775e-05
-2.201849553961667e-05
-1.9515684555117783e-05
-1.7157081522528594e-05
-1.4943920760489456e-05
-1.287629642604017e-05
-1.09531296786404e-05
-9.172165418215583e-06
-7.52999682059486e-06
-6.0221150962203734e-06
-4.64298125327136e-06
-3.3861161735874307e-06
-2.244205016859596e-06
-1.209211850114987e-06
-2.725004435554651e-07
5.750426408752604e-07
1.3428862407236994e-06
2.0407372487603326e-06
2.6784304719158075e-06
3.2658279555302164e-06
3.8127295537765046e-06
4.328796061154119e-06
4.823485786910851e-06
5.306005065554807e-06
5.78527286031541e-06
6.269899335658614e-06
6.7681780501951255e-06
7.288091248618296e-06
7.837327606523628e-06
8.423311697700227e-06
9.053244401795862e-06
9.734153444182665e-06
1.0472953249006725e-05
1.1276513285109896e-05
1.2151734083369788e-05
1.310563009781704e-05
1.4145418564875598e-05
1.5278613479791786e-05
1.6513123753452916e-05
1.7857354532037004e-05
1.932031055474053e-05
2.091170028764751e-05
2.2642039405404955e-05
2.4522751995693925e-05
2.6566267634514813e-05
2.8786112225369885e-05
3.119699021425504e-05
-2.85815474559397e-05
-2.5718344379843314e-05
-2.2990054607846533e-05
-2.0401828836341326e-05
-1.795781204727044e-05
-1.566100928209e-05
-1.3513185276564643e-05
-1.1514799279606705e-05
-9.66497511729978e-06
-7.961505349962303e-06
-6.4008872679051365e-06
-4.97838752945394e-06
-3.688131499318334e-06
-2.5232128175994156e-06
-1.4758184256405404e-06
-5.373641855229913e-07
3.0136366340437204e-07
1.050065694056801e-06
1.718789203522357e-06
2.317794421446105e-06
2.857430027464365e-06
3.348020403115201e-06
3.7997664630046862e-06
4.222661358270138e-06
4.626421842765342e-06
5.0204356519464866e-06
5.41372487255793e-06
5.814924980675207e-06
6.232278995173431e-06
6.673646026653622e-06
7.146523391969931e-06
7.658081402159983e-06
8.215209906139997e-06
8.824575675298388e-06
9.49268973290951e-06
1.0225983759428077e-05
1.1030894730270323e-05
1.1913956959716879e-05
1.288190072606249e-05
1.394175663244502e-05
1.510096481209533e-05
1.636748801010085e-05
1.7749927465237486e-05
1.9257640371556084e-05
2.0900857519253434e-05
2.269079949841074e-05
2.463978959612624e-05
2.676136122932698e-05
2.907035743478486e-05
-2.6773312706590557e-05
-2.396380113918982e-05
-2.129013211776571e-05
-1.875853577782815e-05
-1.6374069951671615e-05
-1.4140472804932518e-05
-1.2060055035610986e-05
-1.0133633105083827e-05
-8.360503425972575e-06
-6.738455959180191e-06
-5.263824350002465e-06
-3.93156862027802e-06
-2.7353855739245883e-06
-1.667841489414075e-06
-7.205213677537181e-07
1.1581103609784038e-07
8.510479749960012e-07
1.4955724491217542e-06
2.0600975641389685e-06
2.5555145012371924e-06
2.9927523876194934e-06
3.382652635218128e-06
3.7358596160141574e-06
4.0627288920274535e-06
4.373253637997981e-06
4.67700939857027e-06
4.983116915445278e-06
5.3002224435615836e-06
5.63649474529665e-06
5.999637798523652e-06
6.396918168271974e-06
6.835205960442452e-06
7.321028286499248e-06
7.860634207748109e-06
8.460070184432116e-06
9.125265117865614e-06
9.862124131483976e-06
1.0676630282668333e-05
1.1574953422354393e-05
1.256356541649243e-05
1.3649360910554173e-05
1.483978274792637e-05
1.6142951044031094e-05
1.7567794768040025e-05
1.9124184490385346e-05
2.082306471854877e-05
2.267658396303343e-05
2.4698220352894866e-05
2.6902900256681357e-05
-2.493964961894444e-05
-2.2182788180937982e-05
-1.9563243131641775e-05
-1.7088417007861574e-05
-1.4764348264759489e-05
-1.2595548961913047e-05
-1.0584888875628598e-05
-8.733527649834767e-06
-7.040894701182757e-06
-5.504714802245965e-06
-4.12107567683475e-06
-2.8845326274741165e-06
-1.7882442271540885e-06
-8.241324701424579e-07
1.6939512757774278e-08
7.449790332030373e-07
1.370671257429519e-06
1.9051884399849325e-06
2.360006246887418e-06
2.746731604647175e-06
3.0769456298672393e-06
3.362064312385088e-06
3.6132187853166534e-06
3.841156252537906e-06
4.056161979199696e-06
4.268002196910169e-06
4.485887337164936e-06
4.718454681474672e-06
4.973769295705394e-06
5.259341987755468e-06
5.5821629772476525e-06
5.948749976903908e-06
6.365209442932979e-06
6.837309838469974e-06
7.370565857725726e-06
7.970332665456319e-06
8.641909302820744e-06
9.39065049096726e-06
1.0222086117174858e-05
1.1142047706973364e-05
1.2156801167683556e-05
1.327318502704778e-05
1.4498753282464125e-05
1.584192182045238e-05
1.731211715945251e-05
1.891992601268759e-05
2.0677243859263707e-05
2.259742035339886e-05
2.4695398993044258e-05
-2.3080560265700996e-05
-2.0375115041350138e-05
-1.780909865491294e-05
-1.5391189328028965e-05
-1.312847986161686e-05
-1.1026298274811885e-05
-9.088083169935326e-06
-7.315315563831935e-06
-5.70750658918269e-06
-4.26223828281936e-06
-2.9752527643213053e-06
-1.8405835574336268e-06
-8.507216774766152e-07
3.191575430154525e-09
7.311534259849331e-07
1.3440781931666965e-06
1.8535732848939598e-06
2.2717195225837455e-06
2.6108617507646092e-06
2.883414625170534e-06
3.10168737292435e-06
3.2777302429298077e-06
3.4232043624911335e-06
3.549275825675928e-06
3.6665340829361223e-06
3.7849340908295906e-06
3.91376121687461e-06
4.061617570982716e-06
4.236428236081488e-06
4.445465781159792e-06
4.695391439783238e-06
4.992311404953577e-06
5.341846808285672e-06
5.74921609840847e-06
6.219328693836054e-06
6.756888944545701e-06
7.3665095804411815e-06
8.052833944388084e-06
8.820666393741065e-06
9.675110298707455e-06
1.06217130649627e-05
1.1666617556338986e-05
1.2816719187650968e-05
1.407982779637676e-05
1.546483318293386e-05
1.6981872931375736e-05
1.864250078589466e-05
2.045985346292578e-05
2.2448813323707427e-05
-2.1195949596065737e-05
-1.8540479481427702e-05
-1.6027297627915424e-05
-1.366647314204536e-05
-1.1466233509240496e-05
-9.432765768181695e-06
-7.570082492273575e-06
-5.879954414799229e-06
-4.361908644312171e-06
-3.0132887416604165e-06
-1.8293706230930462e-06
-8.035264264820083e-07
7.257280437190927e-08
8.087254764754803e-07
1.4159488735138864e-06
1.906219357744078e-06
2.2922123267465552e-06
2.5870498659768745e-06
2.8040627938425225e-06
2.956572445680407e-06
3.0576961766778238e-06
3.1201792571730266e-06
3.1562546441016304e-06
3.177531080776619e-06
3.1949091261829557e-06
3.2185240520935313e-06
3.257714068275429e-06
3.3210120280449326e-06
3.4161586082021023e-06
3.5501349253414666e-06
3.729212618513132e-06
3.9590195706519504e-06
4.2446196329539235e-06
4.590604937136471e-06
5.001199609268488e-06
5.480373918988202e-06
6.03196809697247e-06
6.659825218860264e-06
7.367932676441598e-06
8.160571830981983e-06
9.042475462162601e-06
1.0018992585869926e-05
1.10962601121865e-05
1.2281380648669973e-05
1.3582605522097571e-05
1.5009521793223936e-05
1.657324167358195e-05
1.8286592319856527e-05
2.0164303480055788e-05
-1.9285607865411614e-05
-1.6678448511849193e-05
-1.4217309089458417e-05
-1.191377858393225e-05
-9.77730683800887e-06
-7.814983484095463e-06
-6.031393984582897e-06
-4.42855465381236e-06
-3.0059249479640754e-06
-1.760492028068418e-06
-6.869198174701968e-07
2.2224737396964178e-07
9.76338027734898e-07
1.5862754825816602e-06
2.0642810076654597e-06
2.4235694362027133e-06
2.6780478627743895e-06
2.842026504122977e-06
2.929949202678736e-06
2.9561493407395667e-06
2.9346352432698883e-06
2.8789075679222856e-06
2.8018097774128517e-06
2.715411605716013e-06
2.6309244839494567e-06
2.5586471873633235e-06
2.5079394895518095e-06
2.487221339254886e-06
2.5039949809648604e-06
2.564887489515076e-06
2.675711347704425e-06
2.841540933238261e-06
3.0668030663325366e-06
3.3553800781859627e-06
3.7107241706154856e-06
4.135982128734839e-06
4.634129709271857e-06
5.208115244904367e-06
5.861012168150402e-06
6.596180264388692e-06
7.417435504263742e-06
8.329228277949123e-06
9.33682975666223e-06
1.0446525935695061e-05
1.1665818668580956e-05
1.3003632683097031e-05
1.4470527174401289e-05
1.607891009915499e-05
1.7843252746739362e-05
-1.7349190431238323e-05
-1.4788436622722306e-05
-1.2378451945094585e-05
-1.0132490261629407e-05
-8.061319535936952e-06
-6.172975348949644e-06
-4.472606600860844e-06
-2.9624152099727574e-06
-1.6416871509005587e-06
-5.069081394143068e-07
4.4804608947957014e-07
1.2316574839951744e-06
1.854465529904474e-06
2.3287341012331528e-06
2.6680999685550766e-06
2.8872167113893135e-06
3.0014062945725103e-06
3.026328686174355e-06
2.9776777940252602e-06
2.8709098386673834e-06
2.7210081999075666e-06
2.5422868763303255e-06
2.348233055669488e-06
2.151387950395482e-06
1.9632640208301633e-06
1.7942959809986656e-06
1.6538225347997176e-06
1.5500955873057679e-06
1.4903136761872798e-06
1.4806765280019063e-06
1.526457921687506e-06
1.632094397042809e-06
1.8012877449919557e-06
2.0371196303116054e-06
2.342177100955224e-06
2.718688112034011e-06
3.168666522227609e-06
3.6940662946488567e-06
4.296944842983354e-06
4.9796356029752076e-06
5.7449299738238785e-06
6.596268759861794e-06
7.537943150301082e-06
8.575305099437283e-06
9.714986712663909e-06
1.0965127903681503e-05
1.2335611163542988e-05
1.3838301773176284e-05
1.5487291196388843e-05
-1.5386194456383333e-05
-1.2869680749599474e-05
-1.050987200682408e-05
-8.321850570135528e-06
-6.31780714845185e-06
-4.506765315926559e-06
-2.894416760700416e-06
-1.483068875264039e-06
-2.717006911002323e-07
7.438818148226486e-07
1.5708040726532951e-06
2.218810903648928e-06
2.6999018452704415e-06
3.027932081238645e-06
3.2181967240547255e-06
3.287014790913541e-06
3.251327138566358e-06
3.128320115355042e-06
2.9350839787275346e-06
2.688312414797847e-06
2.404046948632603e-06
2.097467770752204e-06
1.7827306041350022e-06
1.4728477337128468e-06
1.1796102203408612e-06
9.135476012828506e-07
6.839209969779214e-07
4.987454486436033e-07
3.6483744576820687e-07
2.8788391006825953e-07
2.725293309678925e-07
3.2247824918296003e-07
4.4061082044802996e-07
6.291097275970547e-07
8.895972191452425e-07
1.2232815184715778e-06
1.6311122526266666e-06
2.1139448846520595e-06
2.672714390298224e-06
3.3086185939786017e-06
4.023311667420738e-06
4.819108294318482e-06
5.699198915702121e-06
6.667876291485686e-06
7.730773343782305e-06
8.895111886409075e-06
1.0169961391794276e-05
1.156650640008871e-05
1.309832053460365e-05
-1.3395931958202698e-05
-1.0921211410178967e-05
-8.610515920303048e-06
-6.4809415666411754e-06
-4.546216030143664e-06
-2.8163900206833875e-06
-1.2976624202886908e-06
7.659731795020552e-09
1.101072302594347e-06
1.9876682164641016e-06
2.6758316328959544e-06
3.176852499063229e-06
3.5044836604828516e-06
3.6744630337245954e-06
3.7040223272661113e-06
3.6114017025728334e-06
3.4153869023327565e-06
3.1348820522100404e-06
2.7885278633330013e-06
2.3943715745855174e-06
1.9695918739960974e-06
1.530279364021954e-06
1.0912709607390284e-06
6.660349703745475e-07
2.666024520670343e-07
-9.646019142901113e-08
-4.140427178403461e-07
-6.784519019841992e-07
-8.833466837322029e-07
-1.0236520459382462e-06
-1.095455443780348e-06
-1.0958889282326745e-06
-1.0229994107735854e-06
-8.756088406272275e-07
-6.531654360188155e-07
-3.5558654597721284e-07
1.690676642521899e-08
4.639637267468688e-07
9.852870504426653e-07
1.5808261651728897e-06
2.25098138798268e-06
2.9968200049345153e-06
3.820305115555082e-06
4.724537920663963e-06
5.7140138492728365e-06
6.794892537899562e-06
7.975281194600933e-06
9.265530296879813e-06
1.0678539887730952e-05
-1.1377498513140405e-05
-8.941819325705529e-06
-6.6791015388466615e-06
-4.608665461845046e-06
-2.74590022150082e-06
-1.1019176098985353e-06
3.1663180391321155e-07
1.5075800149366714e-06
2.473108932999138e-06
3.2194799174456792e-06
3.7566475779311076e-06
4.097783837129533e-06
4.258740102691845e-06
4.2574753066826e-06
4.1134758136732175e-06
3.847190149319432e-06
3.479497580388159e-06
3.031225204942929e-06
2.5227237659157173e-06
1.9735081935841683e-06
1.401965141642654e-06
8.251266544146915e-07
2.585066574177855e-07
-2.840047943295648e-07
-7.901956897791301e-07
-1.24954138402706e-06
-1.6531758721804318e-06
-1.993831523531067e-06
-2.2657532198488983e-06
-2.464592095674338e-06
-2.587283228831956e-06
-2.6319107404408626e-06
-2.597562883732696e-06
-2.4841788682540555e-06
-2.2923884062300143e-06
-2.023344297957634e-06
-1.678547804310343e-06
-1.2596660925595637e-06
-7.683406890029998e-07
-2.059856282115094e-07
4.264261441100023e-07
1.1285895834120194e-06
1.9011089598501563e-06
2.745755069789857e-06
3.6657391456569252e-06
4.66600396141232e-06
5.753532122204641e-06
6.937670908145274e-06
8.230472315624675e-06
-9.3297367625058e-06
-6.930016691739614e-06
-4.714084240854156e-06
-2.70372387737184e-06
-9.161213375512289e-07
6.365250280583948e-07
1.9471949898684088e-06
3.014040377420993e-06
3.8401945292336134e-06
4.433419017913984e-06
4.805616520751205e-06
4.9722431377415e-06
4.951655182322025e-06
4.7644247064418735e-06
4.432655188432548e-06
3.979324443340558e-06
3.4276764893821643e-06
2.8006783777973637e-06
2.120552345037316e-06
1.4083884568739241e-06
6.838384431625752e-07
-3.5112182841801065e-08
-7.322993160032223e-07
-1.3934701635024555e-06
-2.006316271955383e-06
-2.5604584209023423e-06
-3.0473919194898627e-06
-3.460400232940808e-06
-3.79444397911443e-06
-4.046031282480683e-06
-4.213074343215918e-06
-4.2947359452389505e-06
-4.291268539454579e-06
-4.203847534577608e-06
-4.034399531086148e-06
-3.785425456428841e-06
-3.4598179093747045e-06
-3.0606714982199176e-06
-2.591084560980318e-06
-2.0539503823614746e-06
-1.4517358704543848e-06
-7.862456211787938e-07
-5.8369380169509544e-08
7.32188892017295e-07
1.5872018355490847e-06
2.5102304481256985e-06
3.50695730727546e-06
4.585541129899229e-06
5.7569917751099445e-06
-7.251193656473455e-06
-4.883992077001943e-06
-2.7136186201591125e-06
-7.64596166149753e-07
9.439470069509334e-07
2.3987136280505597e-06
3.5924311610601584e-06
4.523806228381132e-06
5.197257315517172e-06
5.622455096708848e-06
5.8137082387136815e-06
5.789237456012286e-06
5.570381943199171e-06
5.1807804796006815e-06
4.645565114827499e-06
3.990599162555231e-06
3.241784043191663e-06
2.4244520552552107e-06
1.562855025971123e-06
6.797524444521891e-07
-2.0390259798230143e-07
-1.0691854136803125e-06
-1.8993382937130057e-06
-2.679836024764397e-06
-3.3983894990553473e-06
-4.04489855764488e-06
-4.6113645957622865e-06
-5.091772425602249e-06
-5.481949595039642e-06
-5.779409931591303e-06
-5.983186621876142e-06
-6.093658723962947e-06
-6.1123736949794324e-06
-6.041867332267671e-06
-5.885481490219835e-06
-5.647179053541208e-06
-5.331354921112377e-06
-4.942641177604033e-06
-4.485704195958742e-06
-3.965031116614365e-06
-3.384702983377612e-06
-2.7481517747337397e-06
-2.0578986522938256e-06
-1.3152709519891406e-06
-5.200957674915407e-07
3.29631580406331e-07
1.2381053314750728e-06
2.2120937895834386e-06
3.2613501975350956e-06
-5.1400701064890225e-06
-2.8015576968628414e-06
-6.755149112953537e-07
1.2104826846064468e-06
2.8352080993550993e-06
4.184272452236078e-06
5.250315358823303e-06
6.032903046557236e-06
6.538159214247198e-06
6.778168278234915e-06
6.770200797011523e-06
6.535816148949859e-06
6.099898126089853e-06
5.489675628776031e-06
4.733774036369542e-06
3.8613341688141165e-06
2.9012261155113295e-06
1.8813755452975686e-06
8.28211178578557e-07
-2.3376557888640098e-07
-1.2822939766069658e-06
-2.2975598696229477e-06
-3.262306840950621e-06
-4.161866588926408e-06
-4.984123043384053e-06
-5.719424146407616e-06
-6.360454061510139e-06
-6.902076989038879e-06
-7.341161956381584e-06
-7.676396072144563e-06
-7.908091895254474e-06
-8.037992849156857e-06
-8.069079055564483e-06
-8.005374596066137e-06
-7.851756040707161e-06
-7.613761106957037e-06
-7.297395521601441e-06
-6.908935539004686e-06
-6.454723107763259e-06
-5.940950365283283e-06
-5.373429965171463e-06
-4.757347699241125e-06
-4.096993961994616e-06
-3.395470817358845e-06
-2.6543717655804974e-06
-1.8734317720030258e-06
-1.0501457093472014e-06
-1.79354079925427e-07
7.472042763368922e-07
-2.9941613730426198e-06
-6.800875182568292e-07
1.4028105497828486e-06
3.223543713175292e-06
4.7586213621940085e-06
5.9925992316823065e-06
6.918256447131614e-06
7.536414043026254e-06
7.85543044318996e-06
7.890427606392116e-06
7.662313526595604e-06
7.196672165740714e-06
6.522591095870292e-06
5.671491148523389e-06
4.676012599029791e-06
3.5690003780571022e-06
2.382617954090234e-06
1.147607100325694e-06
-1.0730033270754669e-07
-1.355821690069911e-06
-2.5744238671323444e-06
-3.7424995728545934e-06
-4.842437107053371e-06
-5.859602326450421e-06
-6.782251192355426e-06
-7.601390022340254e-06
-8.310598644479562e-06
-8.905829361689592e-06
-9.385192200868711e-06
-9.748734516893884e-06
-9.998220759734056e-06
-1.0136916164744762e-05
-1.0169376327520338e-05
-1.0101243086051495e-05
-9.939045847090489e-06
-9.690006442967386e-06
-9.361844769322468e-06
-8.962581809952158e-06
-8.500336181043767e-06
-7.983110009508916e-06
-7.418559783825551e-06
-6.813747774760993e-06
-6.174869713681565e-06
-5.506954635705295e-06
-4.8135331462322364e-06
-4.096270851617484e-06
-3.3545643099795047e-06
-2.5850976040778587e-06
-1.78135851242045e-06
-8.107860714652582e-07
1.4835557102677727e-06
3.5243915717077592e-06
5.2769038480478606e-06
6.715167708092225e-06
7.82276165064641e-06
8.592915830582352e-06
9.028218646778101e-06
9.139931895035987e-06
8.946987451768917e-06
8.474752417821259e-06
7.753654644948593e-06
6.8177573974504205e-06
5.70336217403742e-06
4.447704476239801e-06
3.0877907044018355e-06
1.6594073429234898e-06
1.963177313742473e-07
-1.2703518998012295e-06
-2.7125462146067314e-06
-4.105551190489859e-06
-5.428122816964094e-06
-6.662498025855959e-06
-7.794312067227298e-06
-8.812445280892423e-06
-9.708819915228359e-06
-1.0478164739993745e-05
-1.1117762032867087e-05
-1.1627188347380392e-05
-1.2008057471210934e-05
-1.2263771266986245e-05
-1.2399281707998686e-05
-1.242086539405933e-05
-1.233591014669199e-05
-1.2152711910517165e-05
-1.18802790929802e-05
-1.1528140621501655e-05
-1.1106153351580876e-05
-1.0624303991381423e-05
-1.0092500397763764e-05
-9.520346928745989e-06
-8.916898501011745e-06
-8.290388095412785e-06
-7.647922678372457e-06
-6.995142868275461e-06
-6.335842174251018e-06
-5.671542273827032e-06
-5.0010215739589026e-06
-4.319795210375003e-06
1.4132988991376674e-06
3.6931068644755274e-06
5.6927758050832195e-06
7.3731818654851e-06
8.705795083366677e-06
9.67335511223473e-06
1.0269967543307876e-05
1.0500653590220232e-05
1.0380424458673876e-05
9.932979862645706e-06
9.189146078027871e-06
8.185172622712095e-06
6.960999596269772e-06
5.558592418912663e-06
4.020420186060837e-06
2.388131101020534e-06
7.014560631417657e-07
-1.0026485647313815e-06
-2.6906244628439185e-06
-4.332718927389095e-06
-5.9032024999862084e-06
-7.380427097785497e-06
-8.746756435029646e-06
-9.98839950107789e-06
-1.1095175185384457e-05
-1.2060232463399594e-05
-1.2879746406896722e-05
-1.35526060578324e-05
-1.408010618388772e-05
-1.4465651289298498e-05
-1.4714477073922774e-05
-1.4833391841953536e-05
-1.4830538143715752e-05
-1.471517314631781e-05
-1.4497464817199955e-05
-1.4188299909756799e-05
-1.379909890811444e-05
-1.3341632471204797e-05
-1.2827833475789231e-05
-1.2269598469133274e-05
-1.1678572184719085e-05
-1.106590874354503e-05
-1.0442003258756376e-05
-9.816187785996987e-06
-9.196385926528092e-06
-8.588720900194052e-06
-7.997072566144105e-06
-7.422579680434714e-06
-6.86308463189976e-06
3.6820009546578714e-06
5.953001216782265e-06
7.912096562309907e-06
9.515307196484267e-06
1.0731335803255797e-05
1.1542307659433322e-05
1.1943780060232924e-05
1.1944072385240007e-05
1.156301807474485e-05
1.0830274578220271e-05
9.7833449076044e-06
8.465465282261539e-06
6.923500077889513e-06
5.205961796220238e-06
3.3612444590158663e-06
1.4361278672832267e-06
-5.254190312171947e-07
-2.4831324626677434e-06
-4.4010621868123545e-06
-6.24792392908257e-06
-7.997234063077119e-06
-9.627268122374896e-06
-1.1120884406789003e-05
-1.2465250988494443e-05
-1.36515097985037e-05
-1.4674406005089902e-05
-1.5531905210960928e-05
-1.6224815536912754e-05
-1.6756426702789137e-05
-1.713217390638625e-05
-1.7359330682809038e-05
-1.7446731978072727e-05
-1.7404526329961763e-05
-1.7243954231340765e-05
-1.697714836714024e-05
-1.661695038039819e-05
-1.617673805973975e-05
-1.5670256288589923e-05
-1.5111444708483524e-05
-1.4514254795126164e-05
-1.3892448906207937e-05
-1.3259373831918386e-05
-1.262770146649543e-05
-1.200912943314942e-05
-1.1414034851576875e-05
-1.0851074950465195e-05
-1.0326728906643982e-05
-9.844776139206028e-06
-9.405707290009203e-06
6.0000163993505565e-06
8.268497217612213e-06
1.0187153219001766e-05
1.1706516636817745e-05
1.2792383735490617e-05
1.3426612489774586e-05
1.3606993137941018e-05
1.3346270886083547e-05
1.2670464906638576e-05
1.1616670472382358e-05
1.023054936026991e-05
8.56370907271857e-06
6.671148361643911e-06
4.608911038812662e-06
2.4320485259628905e-06
1.929497835638505e-07
-2.0599404354183434e-06
-4.28302483030437e-06
-6.43811071421134e-06
-8.492667947264908e-06
-1.0419841680299469e-05
-1.2198275277921708e-05
-1.3811795838085394e-05
-1.5249008992414617e-05
-1.650284244037424e-05
-1.7570069944236773e-05
-1.845084000130781e-05
-1.914822656754172e-05
-1.96678132729838e-05
-2.0017317626337336e-05
-2.0206257728084577e-05
-2.02456609066249e-05
-2.0147811334786554e-05
-1.9926031937419694e-05
-1.9594494634960977e-05
-1.9168052065557557e-05
-1.866208329203995e-05
-1.8092345554912743e-05
-1.747482382335845e-05
-1.6825569689518476e-05
-1.6160521030521117e-05
-1.5495293828689596e-05
-1.4844937604448043e-05
-1.4223646101355417e-05
-1.3644415193712033e-05
-1.3118640488959943e-05
-1.265564778799022e-05
-1.226215045192075e-05
-1.1941628791925334e-05
8.37298274204961e-06
1.0645823815913155e-05
1.2523500203927285e-05
1.3950331440521282e-05
1.488911424668126e-05
1.532196080125496e-05
1.5249953215960323e-05
1.4691735645674421e-05
1.3681249880051309e-05
1.2264872020118119e-05
1.0498224855050656e-05
8.442926240655353e-06
6.1634955008573605e-06
3.724586904520731e-06
1.188660890020718e-06
-1.3858522608942506e-06
-3.945889618243645e-06
-6.4446239883310386e-06
-8.841918925679357e-06
-1.110443983785847e-05
-1.3205495411761602e-05
-1.5124681370033352e-05
-1.6847391663191852e-05
-1.8364252646687305e-05
-1.9670525197271367e-05
-2.0765509254875095e-05
-2.1651975684209776e-05
-2.2335642042488682e-05
-2.282470196640022e-05
-2.312941242659048e-05
-2.326173890853083e-05
-2.3235055476182598e-05
-2.3063894453568753e-05
-2.2763738919711306e-05
-2.23508501779315e-05
-2.1842121680986683e-05
-2.12549504506436e-05
-2.060711673665047e-05
-1.991666245470744e-05
-1.9201758792438545e-05
-1.8480553263951552e-05
-1.777098643653517e-05
-1.7090568569196052e-05
-1.645610652843514e-05
-1.5883371623577787e-05
-1.5386699470845006e-05
-1.4978513685533039e-05
-1.4668766128406174e-05
-1.446428758534058e-05
1.080766628968298e-05
1.3092357947878074e-05
1.4927543721000164e-05
1.6250503368390144e-05
1.7021022310530903e-05
1.7222236715618358e-05
1.6859957258519125e-05
1.596065679570352e-05
1.4568417118569245e-05
1.2741191422887231e-05
1.0546750929082103e-05
8.058653052476702e-06
5.352506803336411e-06
2.502732879944812e-06
-4.2006547359974e-07
-3.3510788728721708e-06
-6.232633601726753e-06
-9.014960121938448e-06
-1.1656475869799808e-05
-1.4123681502997698e-05
-1.6390769871558672e-05
-1.8439039150047222e-05
-2.0256189015997912e-05
-2.1835564128288784e-05
-2.3175394384154085e-05
-2.4278067778189284e-05
-2.5149459852381352e-05
-2.579833398954571e-05
-2.6235819147695308e-05
-2.64749658656048e-05
-2.6530377207008987e-05
-2.641790843940263e-05
-2.6154427361048914e-05
-2.575762602745682e-05
-2.524587396032351e-05
-2.4638102567007408e-05
-2.3953710320547342e-05
-2.321247815238476e-05
-2.2434484430134023e-05
-2.164000879985393e-05
-2.0849414061831564e-05
-2.008299513995941e-05
-1.9360784134735826e-05
-1.8702300472968336e-05
-1.8126235345820342e-05
-1.7650060022570378e-05
-1.7289548294588744e-05
-1.7058204271702335e-05
-1.6966588016574004e-05
1.3312194931674667e-05
1.5616839167389637e-05
1.740664378501334e-05
1.8610912285383155e-05
1.9186543098357982e-05
1.9118820215502548e-05
1.842023574401188e-05
1.712762670682058e-05
1.5298051339090492e-05
1.3003900679458245e-05
1.0327740523070027e-05
7.357319723290748e-06
4.181083288819221e-06
8.844142901347912e-07
-2.4532838128771967e-06
-5.760649519361526e-06
-8.975628852202558e-06
-1.2046050771888361e-05
-1.4929643809359454e-05
-1.7593631084230656e-05
-2.0014033070852102e-05
-2.2174791248229936e-05
-2.4066805475969448e-05
-2.5686956837961752e-05
-2.703716795602641e-05
-2.8123535624010113e-05
-2.895555655794361e-05
-2.954545611749161e-05
-2.990762174584667e-05
-3.0058137165604737e-05
-3.0014409577738127e-05
-2.9794879776228085e-05
-2.9418803802487917e-05
-2.890609418008689e-05
-2.8277208620027666e-05
-2.7553074164711304e-05
-2.6755034896553363e-05
-2.59048114750228e-05
-2.5024460825623547e-05
-2.4136324261388696e-05
-2.326295217855781e-05
-2.242699326469172e-05
-2.1651035946154175e-05
-2.0957389659926988e-05
-2.0367793550322977e-05
-1.9903040459661597e-05
-1.9582504688061934e-05
-1.94235629974171e-05
-1.94408997390514e-05
1.5896349260740607e-05
1.8229630004417373e-05
1.9969216410410315e-05
2.103538868789695e-05
2.1382502892875258e-05
2.0999621109824874e-05
1.9908578423741968e-05
1.815991762981698e-05
1.5827307628746637e-05
1.3001137540256426e-05
9.781952126812661e-06
6.274288784654733e-06
2.581324472666381e-06
-1.1994249298910922e-06
-4.979263761289293e-06
-8.680368934885739e-06
-1.223685686555561e-05
-1.5595036056078454e-05
-1.871303476132062e-05
-2.1559988018533295e-05
-2.4114948048582774e-05
-2.6365653870792996e-05
-2.8307265520020018e-05
-2.9941139286874044e-05
-3.1273695105788965e-05
-3.23154065405562e-05
-3.307992786355778e-05
-3.358336107915378e-05
-3.384365773283649e-05
-3.388014522624338e-05
-3.37131644058096e-05
-3.336380377875602e-05
-3.2853715315916965e-05
-3.2204997020002235e-05
-3.144012796454671e-05
-3.0581942124837357e-05
-2.9653627879253942e-05
-2.86787404627821e-05
-2.7681214855756336e-05
-2.6685366578778e-05
-2.5715867655676412e-05
-2.4797684650587105e-05
-2.395596525837842e-05
-2.3215859532703734e-05
-2.2602261598191932e-05
-2.2139457749441663e-05
-2.185066732096532e-05
-2.1757463719434232e-05
-2.1879064584819953e-05
1.8571929604238417e-05
2.094303250525526e-05
2.2624826050583573e-05
2.352742021592691e-05
2.3603323416173695e-05
2.2847733535984877e-05
2.1295467999828295e-05
1.9015193032599284e-05
1.6101849456967576e-05
1.2668244509904045e-05
8.836703713909107e-06
4.731496127568721e-06
4.725126042026337e-07
-3.829561316116316e-06
-8.076542446019616e-06
-1.218463568333425e-05
-1.6085123943901034e-05
-1.9724122423308947e-05
-2.3061661183563197e-05
-2.607033643857188e-05
-2.8733732062709468e-05
-3.1044768489042404e-05
-3.3004093016437974e-05
-3.461858757170238e-05
-3.59000389700383e-05
-3.6863992978701694e-05
-3.752879640506277e-05
-3.791481994269968e-05
-3.8043847426521074e-05
-3.793861333379039e-05
-3.7622468838178526e-05
-3.711915668072694e-05
-3.6452675950880524e-05
-3.564721912157221e-05
-3.472716503692512e-05
-3.3717112795774405e-05
-3.2641942475985196e-05
-3.152688932670216e-05
-3.039761838604174e-05
-2.9280286465096887e-05
-2.8201578105452665e-05
-2.7188701533460702e-05
-2.6269329895287942e-05
-2.5471472293724963e-05
-2.482325852953219e-05
-2.4352621168548076e-05
-2.40868588088387e-05
-2.4052065381498927e-05
-2.4272412083903988e-05
2.1353222663940234e-05
2.377167343112392e-05
2.538425024231107e-05
2.6089678705124193e-05
2.583986511065211e-05
2.4639551126364942e-05
2.2541531963500214e-05
1.96384545914155e-05
1.6052511313529617e-05
1.1924390965804832e-05
7.4026848860871824e-06
2.6346424319726933e-06
-2.2411848483710334e-06
-7.100208518621108e-06
-1.1835047431679215e-05
-1.6357004535865437e-05
-2.0596128393633728e-05
-2.450023865468564e-05
-2.8033271562985865e-05
-3.117324888783201e-05
-3.3910108620758064e-05
-3.624357055879643e-05
-3.818115184733937e-05
-3.973640013636096e-05
-4.092737594745856e-05
-4.177539025309023e-05
-4.2303986432149984e-05
-4.253814575132242e-05
-4.2503690496862104e-05
-4.222685727953059e-05
-4.1734013610481534e-05
-4.105149266111618e-05
-4.020552350178421e-05
-3.922223660552358e-05
-3.81277267061976e-05
-3.694815703307857e-05
-3.5709890407499556e-05
-3.443963363738197e-05
-3.3164582074024854e-05
-3.191255112420469e-05
-3.0712080985460105e-05
-2.9592499968596198e-05
-2.858393060106018e-05
-2.7717221427369515e-05
-2.7023786251531914e-05
-2.65353317645059e-05
-2.6283454360113978e-05
-2.629908774451177e-05
-2.6611784888718425e-05
2.4257600008958068e-05
2.673297248169393e-05
2.8259484437208326e-05
2.872326859972192e-05
2.807773732087064e-05
2.6342109588311895e-05
2.359404415980086e-05
1.9957954725254717e-05
1.5590947113516308e-05
1.0668296356740499e-05
5.370056313953701e-06
-1.3010245432463347e-07
-5.6732660861690334e-06
-1.1120771575374652e-05
-1.635707718000961e-05
-2.129047085885731e-05
-2.585216032586178e-05
-2.9994277216303065e-05
-3.368725909944602e-05
-3.691697740710025e-05
-3.968187932937902e-05
-4.1990321304120025e-05
-4.3858197674494746e-05
-4.530691213289976e-05
-4.6361700386348716e-05
-4.705028726831057e-05
-4.74018470669477e-05
-4.7446229114445765e-05
-4.7213409141782896e-05
-4.673312856381517e-05
-4.6034687268158535e-05
-4.514685962824037e-05
-4.409790768082015e-05
-4.2915669292739426e-05
-4.162770245702465e-05
-4.0261469488843404e-05
-3.88445467946405e-05
-3.7404847065073896e-05
-3.5970841217440076e-05
-3.457176722649648e-05
-3.3237812189119975e-05
-3.2000252644307295e-05
-3.0891536433115714e-05
-2.9945287410643867e-05
-2.9196212371884397e-05
-2.8679887971679897e-05
-2.843240462895545e-05
-2.8489844848068706e-05
-2.8887575438694968e-05
2.730629270874564e-05
2.9847708980039987e-05
3.1263630933016893e-05
3.1426540093667035e-05
3.0294814005265257e-05
2.7909313537010164e-05
2.4382094641209676e-05
1.9879706855209338e-05
1.4603957409979607e-05
8.772841168330076e-06
2.603730715541354e-06
-3.699884488908567e-06
-9.957615624727953e-06
-1.6017494160653484e-05
-2.1757959771015987e-05
-2.7087286855315834e-05
-3.1941251487750504e-05
-3.627975845268538e-05
-4.008300788954557e-05
-4.334762559928939e-05
-4.608303738712783e-05
-4.830824957731839e-05
-5.004910898850478e-05
-5.13360543036457e-05
-5.220233220100401e-05
-5.268263034160538e-05
-5.2812070217293956e-05
-5.262550172240553e-05
-5.2157044900879614e-05
-5.1439830346178446e-05
-5.05058966582643e-05
-4.9386210224556734e-05
-4.8110778831675013e-05
-4.670883594485708e-05
-4.5209076797521515e-05
-4.3639930701641454e-05
-4.202985625800359e-05
-4.040764747459489e-05
-3.880273925254904e-05
-3.7245500329596316e-05
-3.576750063383639e-05
-3.440173815971639e-05
-3.318280803328057e-05
-3.2146993558806666e-05
-3.133225602259225e-05
-3.077809730913164e-05
-3.052526754862388e-05
-3.061528974586305e-05
-3.1089775292822766e-05
3.0525403518090466e-05
3.314070118535899e-05
3.441057404305042e-05
3.4193216744804467e-05
3.2457553454477185e-05
2.9276538558615194e-05
2.4809884035966595e-05
1.928009497588999e-05
1.2946108951816977e-05
6.078330632877486e-06
-1.062239605952725e-06
-8.239372369502583e-06
-1.5251219479615885e-05
-2.1934756821645647e-05
-2.8166120183355063e-05
-3.385804391496921e-05
-3.8955535393981125e-05
-4.343071651180183e-05
-4.7277518880262624e-05
-5.050668639498476e-05
-5.3141345415539526e-05
-5.521325820000318e-05
-5.6759776802239696e-05
-5.782145429067062e-05
-5.844023825880666e-05
-5.865815927901148e-05
-5.8516426994803875e-05
-5.8054853613576617e-05
-5.731153496948797e-05
-5.6322730710335264e-05
-5.512289611686941e-05
-5.374482783761063e-05
-5.221989408906325e-05
-5.0578326553128196e-05
-4.8849556362247186e-05
-4.706258032305573e-05
-4.5246346030345524e-05
-4.3430145893964996e-05
-4.164401044384671e-05
-3.9919090661317234e-05
-3.828801754676876e-05
-3.6785224701784205e-05
-3.544721642637517e-05
-3.431275983806735e-05
-3.342297509217017e-05
-3.2821293437692266e-05
-3.255324936926162e-05
-3.266607155918977e-05
-3.3208038677396204e-05
3.39472425913076e-05
3.6641605539932884e-05
3.77142703510535e-05
3.700943249965085e-05
3.4515497929933116e-05
3.035284755295055e-05
2.4747366247192606e-05
1.7995913951394417e-05
1.0430176695067073e-05
2.384181944745968e-06
-5.83116447618829e-06
-1.3945192609229363e-05
-2.173655393106124e-05
-2.9035642648681838e-05
-3.572216495112673e-05
-4.171966192657861e-05
-4.698851420862661e-05
-5.1518568813327566e-05
-5.532214241060068e-05
-5.8427830647665886e-05
-6.087531120346247e-05
-6.271116607746603e-05
-6.398565186641406e-05
-6.475029807957201e-05
-6.505619698482339e-05
-6.495285145436888e-05
-6.448746072224096e-05
-6.37045418630704e-05
-6.264580347019235e-05
-6.135020540626139e-05
-5.985415364799518e-05
-5.819179182593899e-05
-5.639536111451144e-05
-5.449560787868391e-05
-5.252222422019899e-05
-5.050431057769273e-05
-4.847085207466354e-05
-4.645120157966559e-05
-4.44755625848255e-05
-4.257546409570587e-05
-4.078421776699138e-05
-3.9137344475088064e-05
-3.767295333873249e-05
-3.643205089798058e-05
-3.545875194295098e-05
-3.480035688664066e-05
-3.450725460240993e-05
-3.463260578692815e-05
-3.5231761963876694e-05
3.7612108201504416e-05
4.038582383649337e-05
4.1187352532600155e-05
3.98490130131407e-05
3.639297141241806e-05
3.1009675909814474e-05
2.4017133631680683e-05
1.5810960192859033e-05
6.814871590945203e-06
-2.5611264305178474e-06
-1.195093693179012e-05
-2.1050182583231408e-05
-2.962310364115414e-05
-3.750118855554065e-05
-4.457643740235235e-05
-5.079181864709251e-05
-5.6130865425643196e-05
-6.060770361790077e-05
-6.425824331664481e-05
-6.713284806122554e-05
-6.929052093879694e-05
-7.079448734513202e-05
-7.170897838303276e-05
-7.209699717981854e-05
-7.201886011372512e-05
-7.153133027634501e-05
-7.068719145753716e-05
-6.953514174208152e-05
-6.811991351368587e-05
-6.648255009120922e-05
-6.466078819937927e-05
-6.268951033832747e-05
-6.060124241238744e-05
-5.842668030011256e-05
-5.619523494082915e-05
-5.393558944182149e-05
-5.167626404075157e-05
-4.944618576173138e-05
-4.727525945449982e-05
-4.519493567864668e-05
-4.3238768557544126e-05
-4.14429531441678e-05
-3.984682680119051e-05
-3.8493312402033616e-05
-3.7429272793122574e-05
-3.670573635141533e-05
-3.6377943785365595e-05
-3.650515863051415e-05
-3.7150181034692996e-05
4.1570685478431284e-05
4.4415459960254686e-05
4.483850946058066e-05
4.2665891828836365e-05
3.797641185307194e-05
3.106425211475434e-05
2.2375980062662795e-05
1.2438051758392743e-05
1.7893146995340975e-06
-9.071811250638967e-06
-1.9721489981181818e-05
-2.9826698052274996e-05
-3.914713640855612e-05
-4.752747566565303e-05
-5.488431044998066e-05
-6.1191241243444e-05
-6.646437242246225e-05
-7.074951645919501e-05
-7.411164982365145e-05
-7.662668298494962e-05
-7.837533659490244e-05
-7.943879554243253e-05
-7.9895785828339e-05
-7.982074388204925e-05
-7.928279585664791e-05
-7.83453186427906e-05
-7.706590573743934e-05
-7.549660558078385e-05
-7.368433632983038e-05
-7.167140958853728e-05
-6.949611735704991e-05
-6.719335259044567e-05
-6.479524541595609e-05
-6.233180523620985e-05
-5.9831564445146646e-05
-5.732222292245161e-05
-5.4831294310510835e-05
-5.238675563862694e-05
-5.0017701342005595e-05
-4.77550012024687e-05
-4.563195914358397e-05
-4.368496589857423e-05
-4.1954132904630306e-05
-4.04838868148143e-05
-3.9323493304695666e-05
-3.852746543230208e-05
-3.815579679484864e-05
-3.8273945795966845e-05
-3.895248885105694e-05
4.5887310952091e-05
4.878016335775181e-05
4.866767058753479e-05
4.5381779033949916e-05
3.909481764564297e-05
3.0255123953575568e-05
1.948896239377558e-05
7.495137579353016e-06
-5.046120723451938e-06
-1.7537782927811753e-05
-2.9501448633650548e-05
-4.0587660045222386e-05
-5.056840173289952e-05
-5.931938208460479e-05
-6.679828442804087e-05
-7.302319206804742e-05
-7.805355250964634e-05
-8.197466617677202e-05
-8.48858039792363e-05
-8.689158350883627e-05
-8.809603840750913e-05
-8.859878734212775e-05
-8.849276663632031e-05
-8.78630822198018e-05
-8.678663297447681e-05
-8.533224452406032e-05
-8.356112466359131e-05
-8.152750836406316e-05
-7.927940324269338e-05
-7.685937796981027e-05
-7.430535873322302e-05
-7.165141474977949e-05
-6.8928524649744e-05
-6.616532271118934e-05
-6.338882839162629e-05
-6.062516511483058e-05
-5.79002753294134e-05
-5.524063880675903e-05
-5.2674000202302534e-05
-5.0230110150616125e-05
-4.7941481517042514e-05
-4.584415855472465e-05
-4.397849094319242e-05
-4.238989597544606e-05
-4.1129579299575315e-05
-4.0255166771295016e-05
-3.98311776604373e-05
-3.99292457440659e-05
-4.0627976059032754e-05
5.064445802292804e-05
5.353746573092972e-05
5.2657203019993836e-05
4.7865829637469635e-05
3.948920058528902e-05
2.8205809380118813e-05
1.4893017134514491e-05
4.740939037566061e-07
-1.4202453910386326e-05
-2.8437561849550472e-05
-4.171200121229042e-05
-5.368320804302303e-05
-6.416181818026667e-05
-7.307945190028128e-05
-8.045578725713936e-05
-8.636945548479765e-05
-9.093462125659302e-05
-9.428343239161006e-05
-9.655365709872058e-05
-9.78805032844695e-05
-9.839159952743353e-05
-9.820424781334033e-05
-9.74242361816511e-05
-9.61456741242657e-05
-9.445146304056743e-05
-9.241413241825418e-05
-9.009686149900973e-05
-8.755457080876407e-05
-8.483501344860693e-05
-8.19798272982215e-05
-7.902553023023205e-05
-7.600445410341997e-05
-7.294562192688807e-05
-6.987557775219814e-05
-6.681918165268776e-05
-6.380038332421973e-05
-6.084298787589065e-05
-5.7971426590891495e-05
-5.521154403340979e-05
-5.259141096959196e-05
-5.0142170123233624e-05
-4.789891847755811e-05
-4.5901624820214766e-05
-4.419607290804921e-05
-4.2834806635136564e-05
-4.187803138350991e-05
-4.1394394140292605e-05
-4.146152653342061e-05
-4.2166198220781534e-05
5.594894724064237e-05
5.875170861002971e-05
5.6755745048759146e-05
4.990058204236859e-05
3.8764288664304425e-05
2.4370610456213478e-05
7.946397760803456e-06
-9.298773621462496e-06
-2.632682136452383e-05
-4.234819783257345e-05
-5.683452761509524e-05
-6.948969419658373e-05
-8.020150689047427e-05
-8.899000204208455e-05
-9.59615159518484e-05
-0.00010127224226396834
-0.0001051016235738768
-0.00010763427083697492
-0.00010904855616928515
-0.00010951006888457139
-0.00010916841890566296
-0.00010815622505982872
-0.00010658944873276821
-0.00010456849436467439
-0.00010217969450727893
-9.949693763832953e-05
-9.658329382926335e-05
-9.349255815472961e-05
-9.02706738172528e-05
-8.69570234779786e-05
-8.358559340512339e-05
-8.018602438810991e-05
-7.678456836976606e-05
-7.340497203635679e-05
-7.006930920649881e-05
-6.679878340667793e-05
-6.361452088803066e-05
-6.0538372755079145e-05
-5.7593743007545994e-05
-5.480645729428416e-05
-5.2205685150631155e-05
-4.982492631842167e-05
-4.770306867814267e-05
-4.588551934592115e-05
-4.442539779486981e-05
-4.338475506425899e-05
-4.283574122810555e-05
-4.2861583981597395e-05
-4.355717431360137e-05
6.194057455087207e-05
6.448952093824917e-05
6.0848149711940826e-05
5.112387197448581e-05
3.631131018585164e-05
1.7953896521626708e-05
-2.2401856138113546e-06
-2.2709891498559967e-05
-4.222520558866535e-05
-5.9946523460554374e-05
-7.539632219764414e-05
-8.838634542572511e-05
-9.893385549535018e-05
-0.00010718645533337083
-0.00011336335016855995
-0.00011771377115793414
-0.00012048994057220182
-0.00012193101181614749
-0.00012225465754384232
-0.00012165365093842837
-0.00012029550418008557
-0.00011832383819622037
-0.00011586062063720327
-0.00011300873698605069
-0.00010985458114116681
-0.00010647049561733363
-0.00010291698162528864
-9.924465365883633e-05
-9.549594452869974e-05
-9.170658365726054e-05
-8.790687957478628e-05
-8.412284058674762e-05
-8.037716779433612e-05
-7.669015341644266e-05
-7.308051546001202e-05
-6.956619761487029e-05
-6.616516097611783e-05
-6.289619188453149e-05
-5.9779747886558494e-05
-5.683886172434035e-05
-5.410012170725155e-05
-5.1594746156884835e-05
-4.935976973403835e-05
-4.7439358593782954e-05
-4.5886264457298265e-05
-4.4763405432021036e-05
-4.414551148750837e-05
-4.412068638830029e-05
-4.479162257647971e-05
6.880402189231045e-05
7.080719730533352e-05
6.469854523452221e-05
5.0927874750445346e-05
3.118344455365881e-05
7.790925002370847e-06
-1.6893608704640108e-05
-4.0908343021211786e-05
-6.28739193392837e-05
-8.199164596270955e-05
-9.793582569226278e-05
-0.0001107134960225643
-0.00012053598820741755
-0.00012772023791653674
-0.00013262150859394287
-0.0001355919801544897
-0.00013695800173208492
-0.0001370096464552951
-0.00013599777759458953
-0.00013413534040530167
-0.00013160077200993336
-0.00012854225332763463
-0.00012508207683127343
-0.00012132074983104346
-0.00011734066131755113
-0.00011320926017112853
-0.00010898175742111212
-0.00010470339726123155
-0.00010041135464047401
-9.613632002824233e-05
-9.190382953001537e-05
-8.773539387972639e-05
-8.36494746054542e-05
-7.96623506942617e-05
-7.578891472116928e-05
-7.204343371013501e-05
-6.844030684397982e-05
-6.499484935317511e-05
-6.172412936016622e-05
-5.86478822373151e-05
-5.578952569459169e-05
-5.317729945215465e-05
-5.084555728315874e-05
-4.8836246432198884e-05
-4.720061533911588e-05
-4.600118174274536e-05
-4.5313945497231674e-05
-4.5230716677431646e-05
-4.5861241643670256e-05
7.678485850456072e-05
7.771911919366272e-05
6.783983133332129e-05
4.8280147591406915e-05
2.1894196699489762e-05
-7.823971341028562e-06
-3.768652500088293e-05
-6.534396716523921e-05
-8.94013713707985e-05
-0.0001092722144390235
-0.00012493560927148142
-0.0001367055601374039
-0.00014505669061203996
-0.00015051083184947685
-0.00015357194084694627
-0.00015469396277522328
-0.00015426891517903146
-0.00015262627656087305
-0.00015003801272807198
-0.00014672589716584411
-0.000142869288468744
-0.00013861244338671036
-0.00013407097093877862
-0.0001293373196717797
-0.0001244853349028803
-0.00011957398723050567
-0.00011465039466964245
-0.0001097522599061325
-0.00010490983341390585
-0.00010014749904957432
-9.548506456677226e-05
-9.093882683741498e-05
-8.652247102093917e-05
-8.2247854562885e-05
-7.812572053792323e-05
-7.416638013680666e-05
-7.03804005989816e-05
-6.677933213812114e-05
-6.337650496702476e-05
-6.018792523297071e-05
-5.723329702089818e-05
-5.4537198336038466e-05
-5.2130445597215e-05
-5.0051697787312915e-05
-4.8349378177278603e-05
-4.70840147476859e-05
-4.633108113369887e-05
-4.6184295021904805e-05
-4.6759047110147764e-05
8.620903580539106e-05
8.512106151683987e-05
6.935265547068853e-05
4.1400800337986886e-05
6.093002512645024e-06
-3.137153403981333e-05
-6.684327106447861e-05
-9.775916413895828e-05
-0.00012300701261112445
-0.00014249449451829042
-0.0001567095418572237
-0.00016639329323981126
-0.00017233942866280976
-0.00017528921613177038
-0.00017588713436473506
-0.00017467033325419424
-0.0001720748165288605
-0.00016844848773687159
-0.00016406585902153242
-0.00015914194649749693
-0.0001538443620705222
-0.00014830336802986507
-0.00014262001176312605
-0.00013687259499878127
-0.00013112176269121584
-0.00012541447907084974
-0.00011978712249607676
-0.00011426789125495171
-0.00010887867595937677
-0.00010363652311445697
-9.855478930572738e-05
-9.364406582572414e-05
-8.891293874141145e-05
-8.436863860588695e-05
-8.001762649537331e-05
-7.586615810314468e-05
-7.192086454771342e-05
-6.818938661410029e-05
-6.468109755742614e-05
-6.140794766918041e-05
-5.8385461440481085e-05
-5.563391698449986e-05
-5.3179742656401206e-05
-5.1057187991787253e-05
-4.931037764169298e-05
-4.799593687734296e-05
-4.7186439189757755e-05
-4.6974851249706115e-05
-4.747977581997902e-05
9.750019072733143e-05
9.260142938589044e-05
6.740923254600724e-05
2.717151767937494e-05
-1.994080649626341e-05
-6.638722458003621e-05
-0.00010717913318331442
-0.0001400644046681979
-0.000164765222808358
-0.00018208257490838617
-0.00019323363949021264
-0.00019947561027472416
-0.0002019326699673656
-0.0002015392904166891
-0.00019904053245319887
-0.00019501562860624409
-0.00018990784015696528
-0.00018405298163895857
-0.000177703814545085
-0.00017104976656916572
-0.00016423237209292358
-0.00015735713513952056
-0.00015050253954149119
-0.00014372684517547155
-0.00013707319366768793
-0.00013057343587138948
-0.0001242509987331203
-0.00011812303321852248
-0.00011220202615803759
-0.000106497014374879
-0.00010101450639544854
-9.575919292245227e-05
-9.073451007253876e-05
-8.59431076013161e-05
-8.138726678233454e-05
-7.706930834630414e-05
-7.299202910899518e-05
-6.915920576260103e-05
-6.557620472046836e-05
-6.22507365577638e-05
-5.919379113999111e-05
-5.642078485224716e-05
-5.395294881773089e-05
-5.181900187322015e-05
-5.005721677918233e-05
-4.8718140442741316e-05
-4.786845484412673e-05
-4.759659260526001e-05
-4.802037106854673e-05
0.00011116010405632856
9.896467994196774e-05
5.829183110321037e-05
6.110754582813044e-08
-6.202982335177035e-05
-0.00011767215442028177
-0.0001619177253633637
-0.00019397373044599238
-0.00021524892712596055
-0.00022786959266388402
-0.00023392371865694084
-0.00023517367965859588
-0.00023300180272627438
-0.00022844969236930678
-0.000222284119509664
-0.00021506159685440217
-0.00020718238399507509
-0.00019893252946750605
-0.0001905153998119015
-0.00018207484282506186
-0.00017371201127736914
-0.0001654975070137072
-0.00015748011993859962
-0.00014969310787811595
-0.00014215870663190477
-0.00013489136759729401
-0.0001279000802630239
-0.00012119003604183767
-0.00011476381795403516
-0.00010862224964329568
-0.0001027650012700586
-9.719102481496383e-05
-9.18988743093675e-05
-8.688695547712927e-05
-8.2153742853116e-05
-7.769799970271801e-05
-7.351903629804115e-05
-6.961704460453633e-05
-6.599355118897844e-05
-6.265203347141429e-05
-5.959874455759625e-05
-5.684378530961291e-05
-5.4402447654108496e-05
-5.22968409083272e-05
-5.0557848568234896e-05
-4.922765420425435e-05
-4.836353810885744e-05
-4.8044274341828026e-05
-4.838055874259494e-05
0.0001276091104775775
0.00010093231321813261
3.425368921749442e-05
-4.979385342805849e-05
-0.00012889480850402377
-0.00019108268958274981
-0.00023396015470270384
-0.00026023854279533937
-0.000273928998977335
-0.0002786943513114928
-0.00027739269857021253
-0.00027209980906182886
-0.0002642684065259026
-0.000254894289791586
-0.0002446512964315714
-0.00023399101730829045
-0.0002232132810146602
-0.0002125148999424331
-0.00020202302809948407
-0.00019181788438099113
-0.00018194820947453052
-0.0001724417799121719
-0.00016331256172900715
-0.0001545655758538331
-0.00014620020095134972
-0.00013821240576789712
-0.00013059624567517266
-0.0001233448520507139
-0.0001164510715315108
-0.00010990786378464864
-0.00010370853379865251
-9.784685289101038e-05
-9.231710843575708e-05
-8.71141136825097e-05
-8.223320470132287e-05
-7.767025072972751e-05
-7.342170664997264e-05
-6.948474174573935e-05
-6.585748682280549e-05
-6.253945094459798e-05
-5.953216625311517e-05
-5.6840118043779454e-05
-5.447199672417883e-05
-5.2442259214942246e-05
-5.077293125667782e-05
-4.94956626921751e-05
-4.865466147122976e-05
-4.8312632172684e-05
-4.8563512065069765e-05
0.00014616492802620694
8.958541351380966e-05
-2.1442507618875742e-05
-0.00013936188743084556
-0.0002322723517973217
-0.0002919032165993531
-0.00032416292551103133
-0.00033738838112870205
-0.00033840789966031563
-0.00033199375666292637
-0.00032126529941225697
-0.00030819633386780943
-0.0002940123612094098
-0.0002794626954675749
-0.0002649972021644769
-0.0002508785799515516
-0.00023725310677962484
-0.00022419513548803524
-0.00021173510211409518
-0.00019987717699188447
-0.00018861038811280543
-0.0001779156117281003
-0.00016776993438918962
-0.00015814933649393147
-0.00014903030102111914
-0.0001403907332152652
-0.00013221043892314805
-0.00012447132121504775
-0.0001171573984111913
-0.00011025471023182968
-0.00010375115536090255
-9.763628880586281e-05
-9.190109829629312e-05
-8.653777394763669e-05
-8.153948363381815e-05
-7.690016762482458e-05
-7.261437014219937e-05
-6.867713297545796e-05
-6.508398771710956e-05
-6.183109866582642e-05
-5.891562652288662e-05
-5.633639764430782e-05
-5.409495858594562e-05
-5.219703671099007e-05
-5.0654266235154385e-05
-4.948579685024957e-05
-4.8719574597385316e-05
-4.8395334490273275e-05
-4.8576580944680644e-05
0.00016160814147506792
3.8455971136848194e-05
-0.00014383464856204025
-0.00029558393473364886
-0.00038267397672471287
-0.0004204497713324361
-0.0004284628472226411
-0.00042021743629347885
-0.00040375422687224114
-0.00038358595679001536
-0.00036217125537753086
-0.0003408131604633914
-0.00032017307115142675
-0.0003005586071510918
-0.0002820843072218605
-0.00026476153055800386
-0.00024854886453118613
-0.00023338034897253277
-0.00021918114456378427
-0.0002058760505138568
-0.0001933939375947575
-0.00018166985240018058
-0.00017064580605305382
-0.00016027083479729738
-0.00015050067324158404
-0.00014129723687375615
-0.00013262802566781692
-0.0001244655105239658
-0.00011678653469006329
-0.00010957174491095121
-0.0001028050569661168
-9.647315462567698e-05
-9.056501822950506e-05
-8.507147818971952e-05
-7.998478937125669e-05
-7.529822457642311e-05
-7.100568971718946e-05
-6.71013706368957e-05
-6.357943342304899e-05
-6.0433818438400747e-05
-5.765819517536538e-05
-5.5246180175846146e-05
-5.319195425694447e-05
-5.149141079769217e-05
-5.014381677989578e-05
-4.915344556680884e-05
-4.852958798970191e-05
-4.82836874292074e-05
-4.8432103186510714e-05
0.0001381421856033009
-0.00012526704176720328
-0.00040759885289597944
-0.0005413171478765048
-0.0005762187166987757
-0.0005649170018899368
-0.0005348722900892712
-0.0004988570980482684
-0.00046244388293778353
-0.0004279095616387591
-0.0003960438678372101
-0.0003669789805903394
-0.00034057012371484533
-0.00031657063833826155
-0.0002947115457950034
-0.0002747362264931925
-0.0002564139215678399
-0.00023954335438063643
-0.00022395191561066586
-0.0002094930411784498
-0.0001960430379008178
-0.00018349793455093872
-0.00017177060207617788
-0.00016078822402236558
-0.00015049012147302226
-0.0001408259031723041
-0.00013175389918379868
-0.00012323983432216716
-0.000115255700012043
-0.00010777878732420388
-0.00010079084831918477
-9.42773568608766e-05
-8.82268435175161e-05
-8.26302820436959e-05
-7.748050739260276e-05
-7.277164756694723e-05
-6.849855444959752e-05
-6.46562230403199e-05
-6.123919595506146e-05
-5.8240963499123135e-05
-5.5653393815222746e-05
-5.346626945264667e-05
-5.1667073405903784e-05
-5.024125441429727e-05
-4.917324028517415e-05
-4.844815530522526e-05
-4.805253481483937e-05
-4.796754872084773e-05
-4.814911461355469e-05
-5.2461591060198355e-05
-0.0006639126916419102
-0.0008629793419501204
-0.0008479773394881617
-0.000775870415834611
-0.0006961136422956294
-0.0006231267091232817
-0.0005597459012926511
-0.0005054530640353399
-0.0004589164185435611
-0.000418778329695931
-0.00038386735401461924
-0.0003532282484918804
-0.00032609816918197695
-0.00030187178443023604
-0.00028006865379198156
-0.00026030623215846744
-0.00024227855784453647
-0.00022573974839818758
-0.00021049130259731194
-0.0001963723317873296
-0.00018325201961664258
-0.00017102377119816324
-0.0001596006442504249
-0.0001489117560698307
-0.00013889943628939356
-0.0001295169518854833
-0.00012072667262296452
-0.00011249857586187115
-0.00010480901222213561
-9.763967009391531e-05
-9.097668888587845e-05
-8.4809879286414e-05
-7.913201441993919e-05
-7.393815913265623e-05
-6.922500611490027e-05
-6.499018748116038e-05
-6.123152918729698e-05
-5.7946214006586016e-05
-5.5129818293042816e-05
-5.277519189464614e-05
-5.087116675969424e-05
-4.9401123176989574e-05
-4.8341541049223575e-05
-4.7660852590247684e-05
-4.731914548356843e-05
-4.726887311396312e-05
-4.745158361383348e-05
-4.776280853463445e-05
-0.0015955336476196499
-0.0016242371851603315
-0.0013329394379234705
-0.0010915079104862988
-0.0009089484697145265
-0.0007733117319430212
-0.0006700537594761212
-0.0005893397429122455
-0.0005246186987320307
-0.00047154115238642793
-0.00042714699179528933
-0.00038937264877439426
-0.0003567450018440361
-0.0003281898747909103
-0.0003029091150453171
-0.00028029983052135126
-0.0002599000718966648
-0.00024135150840681957
-0.00022437326866252359
-0.0002087432732333274
-0.00019428469274848518
-0.00018085597585671548
-0.00016834340456026511
-0.00015665546577206058
-0.00014571854580207148
-0.0001354736001460844
-0.00012587354983912375
-0.00011688122367051927
-0.00010846771288101605
-0.00010061103812654751
-9.329505177653897e-05
-8.650851482262713e-05
-8.024429863260794e-05
-7.449866864146001e-05
-6.927061047420566e-05
-6.456115918612206e-05
-6.0372689151392146e-05
-5.670811510630853e-05
-5.356994297583007e-05
-5.095909086914874e-05
-4.887337397349329e-05
-4.7305509796246974e-05
-4.62404516013387e-05
-4.565180425335604e-05
-4.549704702739221e-05
-4.57113646840702e-05
-4.620016043088834e-05
-4.6829816616152705e-05
-4.7398918241808256e-05

SCALARS STRAIN_XY float 1
LOOKUP_TABLE default
7.495345857172486e-08
0.007576293803330763
-3.8930590911395724e-07
7.550177156395721e-08
1.4990277395765528e-07
2.997889439748658e-07
4.4964178232825835e-07
5.994443138222783e-07
7.491791920201385e-07
8.988285760645753e-07
1.0483740072696202e-06
1.197796286593611e-06
1.3470753525528234e-06
1.4961901598428695e-06
1.64511855925073e-06
1.7938371790829355e-06
1.9423213086441904e-06
2.0905447838705238e-06
2.238479876407601e-06
2.3860971863458313e-06
2.5333655397294375e-06
2.6802518922688923e-06
2.826721239367752e-06
2.9727365345941226e-06
3.1182586180400484e-06
3.2632461558421144e-06
3.40765559310105e-06
3.55144112200792e-06
3.694554667796335e-06
3.836945894637039e-06
3.978562234541877e-06
4.119348942659834e-06
4.259249181379904e-06
4.398204137542883e-06
4.536153177307073e-06
4.673034041665497e-06
4.808783087856955e-06
4.943335582426739e-06
5.076626050468103e-06
5.208588687386634e-06
5.339157839557435e-06
5.468268560914619e-06
5.595857253227338e-06
5.721862397663896e-06
5.846225387903109e-06
5.9688914734318255e-06
6.089810824731062e-06
6.2089397330315765e-06
6.326241957049089e-06
6.441690233581487e-06
6.555267968947481e-06
6.666971131386035e-06
6.776810368730457e-06
6.884813378149959e-06
6.991027561065871e-06
7.0955230015087856e-06
7.1983958148721244e-06
7.299771923494416e-06
7.399811326597866e-06
7.498712949577727e-06
7.5967201754317815e-06
7.694127185989968e-06
7.791286272694833e-06
7.888616315572528e-06
7.986612680279531e-06
8.085858848287317e-06
8.187040178953692e-06
8.290960311694087e-06
8.39856085644089e-06
8.510945206128412e-06
8.629407547165735e-06
8.755468465168614e-06
8.890918971611594e-06
9.037875351941907e-06
9.19884801561105e-06
9.376828593511688e-06
9.575400999804057e-06
9.798884226691965e-06
1.0052517536928221e-05
1.0342702855919289e-05
1.0677325152873979e-05
1.1066180393174904e-05
1.1521553756660766e-05
1.205901070218049e-05
1.2698494175638134e-05
1.3465869669626943e-05
1.439513783796191e-05
1.553166313978012e-05
1.6936985419753123e-05
1.8696163314150735e-05
2.092928946440583e-05
2.3810118514436956e-05
2.7597306590429124e-05
3.268908150880559e-05
3.9723874466300775e-05
4.977763076741658e-05
6.478324578455298e-05
8.85187350218421e-05
0.00012939870022704147
0.0002093469391937731
0.00040829345088853235
0.001038376237270204
0.004549778074910561
0.0048653471902794666
0.001534201585330054
0.0006971787134450219
0.0003887618830297401
0.0002497303576411299
0.00017460508083581242
0.0001293559614719041
9.997943547608926e-05
7.985627459945396e-05
6.549416094415918e-05
5.490309629676941e-05
4.6880042353294495e-05
4.0662672214491005e-05
3.574893236451583e-05
3.179730409974286e-05
2.856896761426267e-05
2.5892878742798595e-05
2.3643940422249897e-05
2.172894384296336e-05
2.007727293002696e-05
1.8634613999986283e-05
1.7358610249005278e-05
1.621580385925605e-05
1.5179448338839725e-05
1.4227920190325316e-05
1.3343550630662455e-05
1.251175667581119e-05
1.1720389153604092e-05
1.095924069439546e-05
1.0219674100335127e-05
9.494343611225059e-06
8.776990339044548e-06
8.062299793522992e-06
7.345814876082157e-06
6.623902712686591e-06
5.893778936913972e-06
5.153599358065711e-06
4.402637525964016e-06
3.641579391117089e-06
2.8729862274782733e-06
2.1020099523327146e-06
1.3375016949561044e-06
5.93755827335736e-07
-1.0668092468180818e-07
-7.283558545231189e-07
-1.215028918255534e-06
-1.4768351589795545e-06
-1.3765555503158014e-06
-8.023609956372968e-07
-8.021582865629442e-07
-1.3736546777623482e-06
-1.4648031207058557e-06
-1.1850570411486155e-06
-6.717500827431444e-07
-1.6843794876236773e-08
7.200004171351373e-07
1.499096495264328e-06
2.293218663317921e-06
3.083201847118959e-06
3.855303767631366e-06
4.599569996727865e-06
5.308786308368119e-06
5.977785367485347e-06
6.6029729464036485e-06
7.181993295557118e-06
7.71348452024978e-06
8.196893296310431e-06
8.632329497496732e-06
9.020448304012177e-06
9.362351793112608e-06
9.65950485429072e-06
9.913662107511462e-06
1.0126803686833288e-05
1.0301078508438352e-05
1.0438754117646568e-05
1.0542172499213368e-05
1.0613711402322062e-05
1.0655750819623527e-05
1.0670644299192941e-05
1.0660694779188185e-05
1.0628134630152886e-05
1.0575109579819691e-05
1.0503666185194063e-05
1.041574250868274e-05
1.0313161653643238e-05
1.0197627818748362e-05
1.0070724537880257e-05
9.933914788522874e-06
9.788542668854455e-06
9.635836364289482e-06
9.476912149593286e-06
9.312779195840698e-06
9.14434497726116e-06
8.972421098049979e-06
8.797729383605221e-06
8.620908102578359e-06
8.442518208343422e-06
8.263049508117765e-06
8.082926684777059e-06
7.902515113096878e-06
7.722126425416947e-06
7.542023795187314e-06
7.362426914365311e-06
7.183516652367605e-06
7.005439391260387e-06
6.8283110350696175e-06
6.652220699520511e-06
6.4772340904774295e-06
6.303396582283544e-06
6.130736009798271e-06
5.959265189713764e-06
5.788984186960722e-06
5.619882343117083e-06
5.451940083688045e-06
5.285130521035658e-06
5.119420869434399e-06
4.954773687865233e-06
4.791147966320269e-06
4.628500069388253e-06
4.466784550957031e-06
4.30595485330712e-06
4.14596390150429e-06
3.986764604630572e-06
3.8283102744562925e-06
3.670554969796569e-06
3.5134537753715722e-06
3.356963023656845e-06
3.2010404659200964e-06
3.0456453986339727e-06
2.8907387518289918e-06
2.736283143376511e-06
2.582242904485693e-06
2.4285840808241366e-06
2.275274410996897e-06
2.1222832879003173e-06
1.9695817046160025e-06
1.8171421863576176e-06
1.6649387122279202e-06
1.5129466279170667e-06
1.3611425505911934e-06
1.2095042677233436e-06
1.0580106308867576e-06
9.066414452425786e-07
7.553773564046573e-07
6.041997341332817e-07
4.530905542039776e-07
3.020322790793506e-07
1.5100773687048985e-07
1.4876120600637588e-07
2.9227572048359796e-07
4.2976632803198855e-07
5.612037107631529e-07
6.865608228184827e-07
8.058130976235089e-07
9.189386094253515e-07
1.0259181918714777e-06
1.1267355156108216e-06
1.2213771273146545e-06
1.3098324530905203e-06
1.3920937685894808e-06
1.4681561382595687e-06
1.5380173264585573e-06
1.6016776829795576e-06
1.6591400050364191e-06
1.7104093782416285e-06
1.7554929988596035e-06
1.7943999792054133e-06
1.8271411385724357e-06
1.853728781371633e-06
1.8741764642969672e-06
1.8884987548137278e-06
1.8967109822812245e-06
1.898828983645795e-06
1.8948688454353824e-06
1.884846643755711e-06
1.8687781841858486e-06
1.846678743037261e-06
1.8185628119643527e-06
1.784443848035916e-06
1.7443340308148647e-06
1.6982440284481204e-06
1.6461827752195513e-06
1.5881572623215046e-06
1.5241723442041555e-06
1.4542305628618968e-06
1.3783319921557846e-06
1.2964741048469841e-06
1.2086516645200274e-06
1.1148566449771524e-06
1.0150781795982555e-06
9.093025427689416e-07
7.975131660412083e-07
6.796906910702671e-07
5.558130615306023e-07
4.2585565606517717e-07
2.8979146395047284e-07
1.4759130514963026e-07
2.95174471630702e-07
5.795670410084497e-07
8.516882106079232e-07
1.1115964290396574e-06
1.359345791112146e-06
1.594985598244239e-06
1.8185600077040565e-06
2.0301077674183404e-06
2.229662032806473e-06
2.417250261644091e-06
2.5928941826507124e-06
2.7566098333257905e-06
2.9084076622453575e-06
3.04829269109734e-06
3.17626473160873e-06
3.2923186523980963e-06
3.3964446909794804e-06
3.4886288060847342e-06
3.5688530656708545e-06
3.6370960660673385e-06
3.6933333777255245e-06
3.737538013475969e-06
3.769680914931031e-06
3.789731453131273e-06
3.797657939825713e-06
3.7934281453076008e-06
3.7770098192547313e-06
3.748371211236695e-06
3.7074815871576683e-06
3.6543117383439766e-06
3.5888344797896377e-06
3.5110251338319604e-06
3.4208619961693942e-06
3.3183267801554367e-06
3.203405035668433e-06
3.07608653881547e-06
2.936365648164782e-06
2.784241623489045e-06
2.619718902438159e-06
2.442807330485519e-06
2.25352233949698e-06
2.051885069923043e-06
1.8379224315818316e-06
1.6116670979223618e-06
1.37315742862118e-06
1.1224373153047307e-06
8.595559455055329e-07
5.84567480175352e-07
2.9753063999354845e-07
5.903163294903452e-07
1.1590704234090005e-06
1.7032838597903083e-06
2.2230738897701524e-06
2.7185489961546044e-06
3.189808016281284e-06
3.636939442788756e-06
4.0600208958685435e-06
4.4591187598596455e-06
4.8342879761034685e-06
5.18557198339771e-06
5.513002796926278e-06
5.816601216342837e-06
6.09637715329181e-06
6.352330068577772e-06
6.584449509185533e-06
6.792715735490229e-06
6.977100429088681e-06
7.137567471783915e-06
7.274073786657162e-06
7.386570232380263e-06
7.47500254221975e-06
7.539312299232465e-06
7.57943793999738e-06
7.5953157792334886e-06
7.586881047518326e-06
7.554068935071087e-06
7.496815634637152e-06
7.4150593763686046e-06
7.308741447912756e-06
7.177807192794081e-06
7.022206980013615e-06
6.841897137961628e-06
6.636840845224146e-06
6.407008970839637e-06
6.152380856097248e-06
5.872945029803192e-06
5.568699848529021e-06
5.2396540528992785e-06
4.885827230816445e-06
4.507250177912189e-06
4.1039651453994574e-06
3.6760259652622584e-06
3.2234980424372672e-06
2.7464582035684887e-06
2.244994392152158e-06
1.719205200059054e-06
1.1691992256850775e-06
5.950942496869838e-07
8.853927241543602e-07
1.7384460448601619e-06
2.554693765175614e-06
3.334312645611459e-06
4.077466142169903e-06
4.784303095554596e-06
5.454956688209778e-06
6.0895436594324975e-06
6.688163767587518e-06
7.250899487169088e-06
7.777815927669657e-06
8.268960960466226e-06
8.724365539397247e-06
9.144044200640536e-06
9.527995726949304e-06
9.876203961442162e-06
1.0188638756576662e-05
1.0465257043660095e-05
1.0706004008820269e-05
1.091081436175971e-05
1.107961368384397e-05
1.1212319843011478e-05
1.130884446288484e-05
1.136909443394743e-05
1.1392973455676136e-05
1.1380383598465563e-05
1.1331226874352479e-05
1.1245406806126984e-05
1.1122829984456725e-05
1.0963407602830946e-05
1.0767056960020102e-05
1.0533702919555965e-05
1.026327931582735e-05
9.955730295796786e-06
9.611011585223747e-06
9.229091667721512e-06
8.809952864305068e-06
8.35359230085854e-06
7.860022750189044e-06
7.329273334763173e-06
6.761390075821563e-06
6.156436273968557e-06
5.514492705879434e-06
4.835657621672304e-06
4.1200465273685816e-06
3.3677917367306437e-06
2.5790416773273372e-06
1.7539599360804486e-06
8.927240305062895e-07
1.180370335088915e-06
2.3176289160736774e-06
3.405823503601843e-06
4.445191425294509e-06
5.4359519848865695e-06
6.378304723806544e-06
7.272428041738346e-06
8.118478162729564e-06
8.916588431929356e-06
9.66686892637722e-06
1.0369406362188346e-05
1.1024264279575757e-05
1.1631483486363586e-05
1.219108274045505e-05
1.2703059651345688e-05
1.3167391780838367e-05
1.3584037923439207e-05
1.3952939546908391e-05
1.4274022374187456e-05
1.4547198088413898e-05
1.4772366143089508e-05
1.4949415660358775e-05
1.5078227401016386e-05
1.5158675790230558e-05
1.519063098374615e-05
1.517396095999067e-05
1.510853362367108e-05
1.499421890692118e-05
1.4830890854369838e-05
1.4618429678597486e-05
1.4356723772456989e-05
1.4045671664427925e-05
1.3685183903123024e-05
1.3275184856557237e-05
1.2815614411342338e-05
1.2306429556383641e-05
1.1747605834713445e-05
1.1139138646747149e-05
1.048104438715683e-05
9.773361396779937e-06
9.016150710486337e-06
8.209496580972864e-06
7.353506757927161e-06
6.448312501787512e-06
5.494068310964509e-06
4.490951341445948e-06
3.4391604981833662e-06
2.3389151782311074e-06
1.1904536468664711e-06
1.4752151354709836e-06
2.8965527186577966e-06
4.256576793291306e-06
5.555586659562045e-06
6.793858628811877e-06
7.971643865858913e-06
9.089166682850133e-06
1.014662326742806e-05
1.11441808260445e-05
1.208197712139307e-05
1.2960120381351817e-05
1.3778689555810769e-05
1.45377348970549e-05
1.5237278838765855e-05
1.587731714861214e-05
1.64578203293176e-05
1.697873524341212e-05
1.743998693751192e-05
1.7841480642244098e-05
1.8183103924795593e-05
1.8464728971951533e-05
1.8686214982039512e-05
1.884741064536212e-05
1.894815669339911e-05
1.8988288497685107e-05
1.8967638700198575e-05
1.8886039857590395e-05
1.874332708195342e-05
1.8539340661321776e-05
1.8273928643139023e-05
1.794694936396897e-05
1.755827390859631e-05
1.710778848110217e-05
1.6595396670416457e-05
1.6021021591832232e-05
1.5384607885084514e-05
1.4686123549144739e-05
1.3925561592615862e-05
1.3102941477447297e-05
1.2218310332965526e-05
1.1271743915979363e-05
1.0263347291905242e-05
9.193255211117218e-06
8.061632154039364e-06
6.868672018194716e-06
5.614597420572354e-06
4.299658588955216e-06
2.924131816590264e-06
1.4883174560328255e-06
1.769892157832409e-06
3.4751493646224124e-06
5.1068548789900275e-06
6.665371722601801e-06
8.151034654218375e-06
9.564147603596113e-06
1.0904981651228135e-05
1.2173773532757684e-05
1.3370724644315435e-05
1.4496000522917774e-05
1.554973077418087e-05
1.6532009418484747e-05
1.7442895625890617e-05
1.828241480922657e-05
1.9050560045051623e-05
1.9747293792064108e-05
2.0372549876725154e-05
2.0926235716966016e-05
2.1408234755160294e-05
2.1818409072530895e-05
2.2156602158329014e-05
2.2422641808194504e-05
2.2616343127083646e-05
2.273751161292574e-05
2.2785946298649676e-05
2.2761442930929396e-05
2.266379716460952e-05
2.2492807752367422e-05
2.2248279709714477e-05
2.193002743566992e-05
2.153787776915453e-05
2.107167296139245e-05
2.0531273543801173e-05
1.9916561070401975e-05
1.922744071296105e-05
1.8463843685907408e-05
1.762572947718727e-05
1.67130878598893e-05
1.5725940658042198e-05
1.4664343238737082e-05
1.3528385701540649e-05
1.2318193734895191e-05
1.1033929108020257e-05
9.67578976629642e-06
8.244009497509683e-06
6.738857136060969e-06
5.160635272911246e-06
3.5096784396383e-06
1.7863507366204512e-06
2.0643652602157087e-06
4.053348558141073e-06
5.956555921690296e-06
7.774416180671845e-06
9.507324254035693e-06
1.1155638188731568e-05
1.2719676841100105e-05
1.4199718175037998e-05
1.559599814830205e-05
1.69087101559752e-05
1.813800499788666e-05
1.928399133541321e-05
2.034673660236859e-05
2.1326268333649034e-05
2.2222575875651546e-05
2.3035612442528358e-05
2.37652974826464e-05
2.441151932070125e-05
2.4974138041793797e-05
2.5452988584848124e-05
2.5847884014228856e-05
2.6158618939483083e-05
2.6384973054576974e-05
2.6526714769586207e-05
2.6583604908340594e-05
2.6555400447122665e-05
2.6441858270505325e-05
2.624273892074848e-05
2.5957810318000263e-05
2.5586851428806984e-05
2.512965586012883e-05
2.4586035356261374e-05
2.3955823175334304e-05
2.323887732120014e-05
2.243508360565659e-05
2.1544358514745746e-05
2.0566651851383275e-05
1.950194912506316e-05
1.8350273657888327e-05
1.7111688374222417e-05
1.57862972399829e-05
1.4374246315883646e-05
1.2875724387455267e-05
1.1290963133908302e-05
9.62023679699879e-06
7.863861310681078e-06
6.022192852766367e-06
4.095625780575762e-06
2.0845899141273827e-06
2.3585968939466434e-06
4.631077360742544e-06
6.805574394379635e-06
8.88258505005006e-06
1.0862566383764913e-05
1.2745932112577865e-05
1.4533050016569612e-05
1.6224240051911087e-05
1.7819773141025674e-05
1.931987060318878e-05
2.072470418654042e-05
2.2034396660972067e-05
2.3249022930462576e-05
2.4368611622738873e-05
2.539314711414581e-05
2.632257194797212e-05
2.7156789605103926e-05
2.7895667586930184e-05
2.8539040771768942e-05
2.9086715007314856e-05
2.9538470903252984e-05
2.989406778998449e-05
3.015324781070229e-05
3.0315740115942e-05
3.0381265131097096e-05
3.034953886858413e-05
3.022027725774548e-05
2.999320046629013e-05
2.9668037187669666e-05
2.924452886940085e-05
2.8722433857063245e-05
2.8101531428445514e-05
2.7381625691972125e-05
2.6562549322447712e-05
2.5644167105846535e-05
2.462637926365155e-05
2.3509124525389682e-05
2.2292382916054912e-05
2.097617822342454e-05
1.956058010809704e-05
1.8045705816802093e-05
1.643172145789941e-05
1.4718842796359113e-05
1.2907335523629215e-05
1.0997514957146806e-05
8.989745123727522e-06
6.884437180798911e-06
4.682047130496331e-06
2.3830727832289955e-06
2.6525478728084417e-06
5.208259760459272e-06
7.653800485136336e-06
9.98973806643974e-06
1.221659392760567e-05
1.4334839196909407e-05
1.6344891852931517e-05
1.8247114677572007e-05
2.0041813977083808e-05
2.172923902812353e-05
2.3309582203567478e-05
2.478297973123808e-05
2.614951303763456e-05
2.740921062809737e-05
2.8562050455089097e-05
2.960796272676383e-05
3.054683310880352e-05
3.137850627393454e-05
3.2102789754968886e-05
3.271945805911197e-05
3.3228257003053985e-05
3.362890823034766e-05
3.3921113874709266e-05
3.4104561334628164e-05
3.417892812646213e-05
3.4143886784852515e-05
3.399910978080754e-05
3.374427442864522e-05
3.337906775379568e-05
3.29031912940491e-05
3.231636580686148e-05
3.16183358548619e-05
3.080887424103396e-05
2.9887786264143346e-05
2.8854913763339332e-05
2.7710138919305113e-05
2.64533877770666e-05
2.5084633453508268e-05
2.360389899021091e-05
2.2011259809703865e-05
2.030684573074877e-05
1.8490842495796564e-05
1.6563492761750495e-05
1.4525096503122809e-05
1.2376010775305701e-05
1.01166487848324e-05
7.747478213259579e-06
5.269018741822784e-06
2.681838725806726e-06
2.946177144361878e-06
5.784816246481861e-06
8.501119510149341e-06
1.1095728969299015e-05
1.3569232884877783e-05
1.5922161710970814e-05
1.81549850101978e-05
2.026810927610069e-05
2.226187661634807e-05
2.4136564247198566e-05
2.589238474714345e-05
2.7529487015801046e-05
2.904795788340013e-05
3.0447824315490285e-05
3.172905615781395e-05
3.2891569367234086e-05
3.393522967555518e-05
3.485985663483071e-05
3.566522799458918e-05
3.6351084363672737e-05
3.691713411168099e-05
3.7363058467224444e-05
3.768851677267253e-05
3.789315185749771e-05
3.797659549437636e-05
3.7938473903974604e-05
3.777841327630774e-05
3.74960452775696e-05
3.709101251248709e-05
3.656297391273211e-05
3.591161002179828e-05
3.5136628146784435e-05
3.4237767346442793e-05
3.321480322354513e-05
3.206755248808674e-05
3.0795877255867035e-05
2.9399689044289773e-05
2.787895242479209e-05
2.6233688288345228e-05
2.4463976677376736e-05
2.25699591346034e-05
2.0551840516153802e-05
1.840989021380246e-05
1.6144442728517963e-05
1.3755897535655884e-05
1.1244718180937127e-05
8.611430545622106e-06
5.856620219658881e-06
2.9809289229833225e-06
3.2394415642889723e-06
6.360663390912041e-06
9.347411338898534e-06
1.2200404804320678e-05
1.4920301581261564e-05
1.7507693520442402e-05
1.996310324594089e-05
2.2286981881107504e-05
2.447970773044976e-05
2.654158586041719e-05
2.8472848519684943e-05
3.0273656337677715e-05
3.194410023900536e-05
3.348420401129773e-05
3.489392746442062e-05
3.617317012006953e-05
3.732177537218474e-05
3.833953506083773e-05
3.9226194404410816e-05
3.998145723761899e-05
4.060499150558908e-05
4.10964349672107e-05
4.145540106362429e-05
4.1681484910538816e-05
4.1774269375887546e-05
4.1733331206186136e-05
4.1558247167096385e-05
4.1248600165392016e-05
4.080398532057411e-05
4.022401595501872e-05
3.9508329471610315e-05
3.865659308751636e-05
3.766850939187702e-05
3.654382169352745e-05
3.5282319123045025e-05
3.388384145111209e-05
3.2348283582089854e-05
3.06755996786201e-05
2.8865806869763158e-05
2.691898849149603e-05
2.4835296804590415e-05
2.261495513143641e-05
2.0258259350165037e-05
1.7765578680856153e-05
1.5137355696531393e-05
1.2374105489655965e-05
9.476413923495755e-06
6.444934897964147e-06
3.280386560486348e-06
3.5322956742980804e-06
6.935713438968941e-06
1.019254983413917e-05
1.3303605248168524e-05
1.6269609910442642e-05
1.909121927489918e-05
2.176901057441595e-05
2.4303480489692997e-05
2.6695043871503843e-05
2.8944033451376583e-05
3.1050700472835466e-05
3.3015216174067316e-05
3.483767405183802e-05
3.651809283608011e-05
3.8056420105807634e-05
3.945253647805007e-05
4.0706260303585706e-05
4.1817352805909036e-05
4.278552360230392e-05
4.361043654942803e-05
4.4291715858976385e-05
4.4828952432421354e-05
4.5221710367015014e-05
4.546953358887905e-05
4.55719525718299e-05
4.55284911030536e-05
4.5338673059501164e-05
4.500202916058946e-05
4.451810366411929e-05
4.3886460973089486e-05
4.310669212135264e-05
4.217842110562295e-05
4.1101311030229334e-05
3.987507002934862e-05
3.849945692930949e-05
3.697428661050828e-05
3.5299435025313436e-05
3.347484382463031e-05
3.15005245415962e-05
2.9376562276693316e-05
2.710311882418194e-05
2.4680435175266496e-05
2.2108833329365432e-05
1.938871734104286e-05
1.6520573526702595e-05
1.350496975266631e-05
1.0342553724573128e-05
7.034050197286812e-06
3.5802570252235766e-06
3.824691484816817e-06
7.509873910170953e-06
1.1036402310423549e-05
1.4405161960282312e-05
1.761695861191015e-05
2.067251364117409e-05
2.3572460481641883e-05
2.6317342281718253e-05
2.890761071490909e-05
3.134362586958844e-05
3.3625657141619567e-05
3.5753885051694606e-05
3.7728403908584424e-05
3.954922523948662e-05
4.12162819098897e-05
4.272943285720844e-05
4.408846836480816e-05
4.529311580610089e-05
4.634304579194219e-05
4.7237878658151766e-05
4.797719123384239e-05
4.85605238358406e-05
4.898738743780093e-05
4.925727096662634e-05
4.9369648682755576e-05
4.932398760362604e-05
4.9119754932715545e-05
4.8756425458545624e-05
4.823348888980186e-05
4.755045709372609e-05
4.670687120496633e-05
4.5702308572006384e-05
4.4536389506679916e-05
4.3208783800504844e-05
4.1719216969368644e-05
4.006747618407608e-05
3.825341584091056e-05
3.627696272194385e-05
3.4138120689974905e-05
3.183697485795167e-05
2.937369516727191e-05
2.674853930445531e-05
2.396185488046272e-05
2.1014080792117543e-05
1.7905747680839468e-05
1.4637477400681123e-05
1.120998140501095e-05
7.624057959695549e-06
3.880588091056264e-06
4.116578263086909e-06
8.083047212370173e-06
1.187882901439001e-05
1.5504897966421224e-05
1.896213859141696e-05
2.2251340590721466e-05
2.537319520590567e-05
2.8328292915744818e-05
3.111712238881674e-05
3.37400706082059e-05
3.619742408207671e-05
3.8489371052467455e-05
4.061600461386511e-05
4.2577326653895145e-05
4.43732525298203e-05
4.600361639702302e-05
4.746817710859705e-05
4.876662460877139e-05
4.989858674724068e-05
5.086363644570685e-05
5.166129915263121e-05
5.229106052727535e-05
5.275237429849984e-05
5.304467024823574e-05
5.316736227407165e-05
5.3119856488986414e-05
5.2901559319581265e-05
5.251188556660777e-05
5.1950266393775354e-05
5.1216157211871755e-05
5.030904542560957e-05
4.922845801013688e-05
4.79739688826631e-05
4.654520603282128e-05
4.4941858372164745e-05
4.316368225921671e-05
4.121050765245812e-05
3.9082243838353334e-05
3.677888467579042e-05
3.430051329264376e-05
3.1647306163515646e-05
2.8819536491985626e-05
2.5817576814251772e-05
2.2641900735123968e-05
1.9293083702401e-05
1.5771802720812925e-05
1.2078834903492264e-05
8.215054756543702e-06
4.181430091705976e-06
4.407902328694077e-06
8.655130272003028e-06
1.2719682631756254e-05
1.660262708079452e-05
2.0304930292593462e-05
2.3827452750889433e-05
2.7170945094610183e-05
3.0336045913473275e-05
3.332328090423567e-05
3.613306329347185e-05
3.876569542974641e-05
4.1221371447219476e-05
4.350018090213542e-05
4.560211328451594e-05
4.752706330961136e-05
4.927483689660429e-05
5.084515774567491e-05
5.22376744289052e-05
5.3451967915601334e-05
5.448755945776894e-05
5.534391876710516e-05
5.602047242042954e-05
5.651661243576307e-05
5.683170496701036e-05
5.6965099069983954e-05
5.6916135496472287e-05
5.668415547756614e-05
5.6268509460064356e-05
5.5668565762388364e-05
5.4883719117647736e-05
5.391339907199165e-05
5.275707820602028e-05
5.141428014530068e-05
4.98845873239985e-05
4.816764846169233e-05
4.6263185709469884e-05
4.4171001416178773e-05
4.189098445971616e-05
3.942311608182841e-05
3.676747515794776e-05
3.392424282612494e-05
3.08937063918345e-05
2.767626241808284e-05
2.4272418903003093e-05
2.068279644071129e-05
1.6908128255520294e-05
1.2949258994976454e-05
8.807142163570411e-06
4.482836077700225e-06
4.69860685741591e-06
9.226014183344802e-06
1.3558807826098002e-05
1.7698153373945508e-05
2.164510312891582e-05
2.540059083150012e-05
2.8965428051475062e-05
3.234030214878565e-05
3.552577570273621e-05
3.852228730354297e-05
4.133015359766845e-05
4.3949572477131396e-05
4.638062730321496e-05
4.862329205652591e-05
5.067743730777577e-05
5.254283690751642e-05
5.421917529743227e-05
5.5706055350945166e-05
5.7003006657192073e-05
5.810949416828158e-05
5.902492713620415e-05
5.974866827268381e-05
6.0280043071393036e-05
6.061834923820966e-05
6.076286618101126e-05
6.0712864515590284e-05
6.046761554896231e-05
6.0026400704633887e-05
5.938852085734386e-05
5.85533055464469e-05
5.752012203777586e-05
5.628838420322982e-05
5.485756118562418e-05
5.322718581382904e-05
5.139686272910039e-05
4.9366276178712185e-05
4.713519742695349e-05
4.470349172683123e-05
4.2071124788380446e-05
3.923816867120247e-05
3.620480702028542e-05
3.297133955557606e-05
2.9538185716866325e-05
2.590588735696016e-05
2.207511036826995e-05
1.8046645120881055e-05
1.3821405583787708e-05
9.400426996309524e-06
4.784861954317682e-06
4.98863169591697e-06
9.795583881340789e-06
1.4396040815040437e-05
1.8791270693194195e-05
2.2982414984827268e-05
2.6970483137806964e-05
3.075634908716006e-05
3.43407494566416e-05
3.772428333891423e-05
4.090741353539665e-05
4.389046913432816e-05
4.6673649304712975e-05
4.925702818450728e-05
5.1640560743341016e-05
5.3824089503468064e-05
5.580735200710896e-05
5.758998892377992e-05
5.917155269737594e-05
6.0551516639880884e-05
6.172928438580999e-05
6.270419962898371e-05
6.3475556071153e-05
6.404260751921749e-05
6.440457807529651e-05
6.456067237021156e-05
6.451008579737294e-05
6.425201470914785e-05
6.37856665417786e-05
6.311026983851949e-05
6.22250841424924e-05
6.112940973160806e-05
5.982259716730623e-05
5.8304056627234493e-05
5.657326698876343e-05
5.462978462584221e-05
5.247325187611625e-05
5.0103405128570574e-05
4.752008247402989e-05
4.47232308520059e-05
4.1712912618415907e-05
3.84893114482969e-05
3.5052737477505105e-05
3.140363157709547e-05
2.7542568643759008e-05
2.3470259780264402e-05
1.9187553230635285e-05
1.4695433927149754e-05
9.995021500241313e-06
5.08756659773138e-06
5.277913189135133e-06
1.0363717841634437e-05
1.523120899105633e-05
1.9881762246740792e-05
2.4316611799614363e-05
2.8536845185138035e-05
3.2543399990141164e-05
3.6337062380193894e-05
3.991846731849283e-05
4.3288100342868396e-05
4.644630076547883e-05
4.939326615911038e-05
5.2129057995209047e-05
5.4653608301320766e-05
5.6966727210032084e-05
5.9068111276767976e-05
6.095735245031583e-05
6.263394758753045e-05
6.409730841154711e-05
6.534677182153982e-05
6.63816104710304e-05
6.720104354054207e-05
6.780424763901984e-05
6.819036777721763e-05
6.83585283634755e-05
6.830784417977652e-05
6.80374313018154e-05
6.75464179317152e-05
6.683395511609264e-05
6.589922732433938e-05
6.474146286304834e-05
6.335994410200559e-05
6.175401748540442e-05
5.992310329826396e-05
5.786670515312009e-05
5.5584419155730105e-05
5.307594270100892e-05
5.034108284115643e-05
4.7379764158051244e-05
4.41920360614665e-05
4.0778079422699315e-05
3.713821244127023e-05
3.3272895630247906e-05
2.918273579373236e-05
2.486848885841636e-05
2.033106140992766e-05
1.557151077542958e-05
1.0591043485740081e-05
5.3910119436687e-06
5.566384022012358e-06
1.0930287812245532e-05
1.6064130593193907e-05
2.0969400259477494e-05
2.564742724513007e-05
3.009937942985777e-05
3.432625913599684e-05
3.83289020772868e-05
4.210797811468603e-05
4.56639936699723e-05
4.899729564606346e-05
5.210807670300542e-05
5.4996381740168854e-05
5.766211543876444e-05
6.01050507240946e-05
6.23248380133036e-05
6.432101512201562e-05
6.609301771237468e-05
6.764019017418445e-05
6.896179684085478e-05
7.005703345242496e-05
7.092503878814924e-05
7.156490640113956e-05
7.197569639738784e-05
7.215644721045474e-05
7.210618733130905e-05
7.182394695964649e-05
7.130876954908848e-05
7.055972322280585e-05
6.957591203906287e-05
6.835648708770035e-05
6.690065739757903e-05
6.520770063353151e-05
6.327697355713348e-05
6.110792222004981e-05
5.8700091851731154e-05
5.6053136394342354e-05
5.316682762770107e-05
5.004106381568431e-05
4.6675877792898626e-05
4.3071444397134104e-05
3.9228087139339674e-05
3.5146283988441926e-05
3.0826672134080454e-05
2.6270051576628498e-05
2.1477387380565774e-05
1.6449810415512453e-05
1.118861639873292e-05
5.695263044457749e-06
5.853973079493827e-06
1.149515858414607e-05
1.689461443980106e-05
2.205394571306446e-05
2.697458251219552e-05
3.165777513414875e-05
3.610459145517858e-05
4.031591640869803e-05
4.429245338793443e-05
4.803472740684718e-05
5.154308985114153e-05
5.481772465177649e-05
5.785865571554874e-05
6.066575545208425e-05
6.323875424277259e-05
6.557725070498177e-05
6.768072261380265e-05
6.954853835404277e-05
7.11799687863942e-05
7.257419942300995e-05
7.373034281990196e-05
7.464745110562741e-05
7.532452857721139e-05
7.576054430557394e-05
7.595444470314718e-05
7.590516601577516e-05
7.561164670895695e-05
7.507283972549468e-05
7.428772459654003e-05
7.32553193914659e-05
7.197469249375227e-05
7.044497418936049e-05
6.866536805213291e-05
6.663516210629432e-05
6.435373974001714e-05
6.18205903358763e-05
5.903531957415255e-05
5.599765935345412e-05
5.2707477260223456e-05
4.9164785504233685e-05
4.5369749221911906e-05
4.132269403328212e-05
3.702411272183369e-05
3.247467088976497e-05
2.7675211424648197e-05
2.2626757598129613e-05
1.7330514602339336e-05
1.1787869317103628e-05
6.000388089818023e-06
6.140605326984683e-06
1.205818780517301e-05
1.77224597309681e-05
2.313514818422062e-05
2.8297786223629648e-05
3.321170838506589e-05
3.787804858227349e-05
4.2297740234288964e-05
4.647151843793773e-05
5.0399923999567414e-05
5.408330913885158e-05
5.7521844679133544e-05
6.0715528541359365e-05
6.366419536475189e-05
6.636752708468092e-05
6.882506430733182e-05
7.103621833184567e-05
7.300028368213869e-05
7.471645102395848e-05
7.618382035586013e-05
7.740141437680668e-05
7.836819194709764e-05
7.908306157240405e-05
7.954489485388627e-05
7.9752539859387e-05
7.970483438145097e-05
7.940061905716694e-05
7.883875033286997e-05
7.801811326256687e-05
7.693763413305424e-05
7.559629291055588e-05
7.399313550342061e-05
7.212728583317479e-05
6.999795770120179e-05
6.760446643163699e-05
6.494624026200102e-05
6.202283144192411e-05
5.883392698728847e-05
5.5379359022424135e-05
5.1659114626652694e-05
4.767334508409132e-05
4.3422374416960535e-05
3.8906707063357526e-05
3.412703454150519e-05
2.90842409228758e-05
2.3779406917829107e-05
1.821381235995491e-05
1.2388936859734218e-05
6.3064583836480725e-06
6.42620171489687e-06
1.2619225845137902e-05
1.8547455931104337e-05
2.4212745793507698e-05
2.9616734489862698e-05
3.476084228880641e-05
3.964626921174226e-05
4.4273995944839675e-05
4.864478691842325e-05
5.275919534684058e-05
5.6617570020756416e-05
6.022006364623904e-05
6.356664252879507e-05
6.665709740747046e-05
6.94910552532825e-05
7.206799185682095e-05
7.438724504269141e-05
7.644802836228107e-05
7.824944513145325e-05
7.979050269500687e-05
8.107012681623019e-05
8.208717610553445e-05
8.284045641748436e-05
8.332873516091015e-05
8.355075548009856e-05
8.350525027767987e-05
8.319095606069277e-05
8.260662660038859e-05
8.17510464029645e-05
8.062304399339068e-05
7.922150501689547e-05
7.754538516229273e-05
7.559372290893811e-05
7.336565209375111e-05
7.08604142872632e-05
6.807737095752657e-05
6.501601538795761e-05
6.167598430094519e-05
5.805706912217351e-05
5.415922680204223e-05
4.998259009078056e-05
4.552747714265358e-05
4.079440030247197e-05
3.5784073905155075e-05
3.049742089679397e-05
2.4935578063432426e-05
1.9099899632814277e-05
1.2991958995045225e-05
6.613548270880884e-06
6.7106791111909425e-06
1.3178115719823455e-05
1.9369382744147123e-05
2.5286465282228776e-05
3.093111112864935e-05
3.6304827364988176e-05
4.140887968908345e-05
4.6244294262736546e-05
5.081186185095128e-05
5.5112144022371676e-05
5.914548118042713e-05
6.291200219706548e-05
6.641163542633888e-05
6.964412088351739e-05
7.26090233859715e-05
7.530574646481478e-05
7.773354687092005e-05
7.989154951528084e-05
8.177876270084108e-05
8.339409352083917e-05
8.47363633174978e-05
8.58043231126912e-05
8.659666894047027e-05
8.711205702829038e-05
8.734911878927748e-05
8.730647560262379e-05
8.698275337134555e-05
8.637659685711667e-05
8.548668379980591e-05
8.431173883496207e-05
8.285054722537329e-05
8.110196842273966e-05
7.906494947263788e-05
7.673853827057202e-05
7.412189666835926e-05
7.121431341865214e-05
6.801521693152422e-05
6.452418780081119e-05
6.074097103879114e-05
5.666548793713602e-05
5.229784744941769e-05
4.763835696603401e-05
4.268753232751672e-05
3.7446106896031964e-05
3.191503947883728e-05
2.6095520871597874e-05
1.9988978764876736e-05
1.3597080733319944e-05
6.921735006229501e-06
6.9939502660675e-06
1.3734693082379304e-05
2.0188010194101616e-05
2.6356022234602997e-05
3.22405880706228e-05
3.7843302166723145e-05
4.316549486651708e-05
4.820823534439425e-05
5.297233697495324e-05
5.745836486383167e-05
6.166664528405377e-05
6.559727676544794e-05
6.925014259144026e-05
7.26249244673953e-05
7.572111713713588e-05
7.853804373913684e-05
8.10748717110614e-05
8.333062907018088e-05
8.530422091679139e-05
8.699444602875556e-05
8.840001343655111e-05
8.951955888885331e-05
9.035166113941125e-05
9.08948580055427e-05
9.114766216644123e-05
9.110857668601091e-05
9.077611025910988e-05
9.01487921920862e-05
8.922518713775675e-05
8.800390961117947e-05
8.648363831621417e-05
8.466313031298828e-05
8.25412350534769e-05
8.011690830632238e-05
7.738922598240876e-05
7.435739786071024e-05
7.102078119768096e-05
6.737889418566637e-05
6.343142920454958e-05
5.917826578704863e-05
5.4619483192934123e-05
4.97553724596797e-05
4.458644776838411e-05
3.911345693399966e-05
3.333739079902122e-05
2.7259491279272435e-05
2.0881257781676585e-05
1.420445168585742e-05
7.2310985556062884e-06
7.2759238136047705e-06
1.4288786291999714e-05
2.1003098826201036e-05
2.742112146532534e-05
3.354482597606526e-05
3.937589415787396e-05
4.491571925986995e-05
5.016541022463336e-05
5.5125798477245747e-05
5.979744697475614e-05
6.418066123216153e-05
6.827550204545514e-05
7.208179964073372e-05
7.559916898991145e-05
7.882702604802665e-05
8.176460468486621e-05
8.441097410327551e-05
8.676505655803163e-05
8.882564521222984e-05
9.059142199210196e-05
9.206097532528032e-05
9.323281767162524e-05
9.41054027791613e-05
9.467714262008202e-05
9.494642398224888e-05
9.491162471037158e-05
9.457112960756762e-05
9.392334602137051e-05
9.296671914900759e-05
9.169974710410665e-05
9.012099579119685e-05
8.822911363472359e-05
8.60228462063236e-05
8.350105078726647e-05
8.066271089286238e-05
7.750695077180132e-05
7.403304987552324e-05
7.02404572732844e-05
6.612880596422628e-05
6.169792701125887e-05
5.6947863393318546e-05
5.18788834412056e-05
4.649149368951555e-05
4.078645094321605e-05
3.4764773323127385e-05
2.8427750019344514e-05
2.177694944771255e-05
1.481422547170222e-05
7.541721320954153e-06
7.5565043153816985e-06
1.484021657012155e-05
2.18144000440363e-05
2.8481457593902346e-05
3.484347508992368e-05
4.090222087936926e-05
4.665914854431151e-05
5.2115402647103307e-05
5.727182714990349e-05
6.21289761915441e-05
6.668712690717331e-05
7.09462939815636e-05
7.49062456366651e-05
7.856652076792744e-05
8.192644696104236e-05
8.498515914094444e-05
8.774161862763578e-05
9.019463239841319e-05
9.234287238251565e-05
9.418489464169989e-05
9.571915831774018e-05
9.694404425559036e-05
9.785787323779611e-05
9.845892379087458e-05
9.874544954807142e-05
9.87156961744437e-05
9.836791787866742e-05
9.770039355138163e-05
9.671144258222367e-05
9.539944041634524e-05
9.376283391573752e-05
9.1800156591694e-05
8.951004377166262e-05
8.689124775584402e-05
8.394265300835577e-05
8.066329141229352e-05
7.705235759833916e-05
7.310922433445381e-05
6.883345793761743e-05
6.422483363902748e-05
5.928335080188432e-05
5.400924785599684e-05
4.840301677641427e-05
4.246541689479147e-05
3.61974877927055e-05
2.9600560985838797e-05
2.267627006863511e-05
1.542655895038665e-05
7.853687776745652e-06
7.835592351766035e-06
1.5388798255775576e-05
2.262165660094767e-05
2.95367158303049e-05
3.6136176365691997e-05
4.242189144102078e-05
4.8395371429857045e-05
5.4057791325808416e-05
5.941000102668674e-05
6.445253807077327e-05
6.918564247612724e-05
7.360927334089905e-05
7.772312687424551e-05
8.152665554346517e-05
8.501908804321376e-05
8.819944981564541e-05
9.10665838769701e-05
9.36191717345932e-05
9.585575420912804e-05
9.777475200730551e-05
9.937448592321242e-05
0.00010065319657682342
0.0001016090636295399
0.00010224022444518636
0.00010254479219163996
0.00010252087340294029
0.00010216658504249784
0.00010148007112583367
0.0001004595189753911
9.910317518959169e-05
9.740936141387942e-05
9.537649000265422e-05
9.300307965793599e-05
9.02877711223618e-05
8.722934299187912e-05
8.38267276968823e-05
8.007902767900345e-05
7.5985531765679e-05
7.154573171557453e-05
6.675933887487565e-05
6.162630084824774e-05
5.614681804936433e-05
5.032135995408117e-05
4.4150680835620265e-05
3.7635834716481104e-05
3.077818922568934e-05
2.357943800431611e-05
1.6041611257264915e-05
8.167084006067624e-06
8.113084667495801e-06
1.5934339173250683e-05
2.3424603265197533e-05
3.0586572997891304e-05
3.742256289106065e-05
4.393450837930808e-05
5.012397196472139e-05
5.5992152691817024e-05
6.153989855664163e-05
6.67677214595732e-05
7.167581431453442e-05
7.626406993589512e-05
8.053210133822722e-05
8.447926310289379e-05
8.810467348846322e-05
9.140723698879832e-05
9.438566707370248e-05
9.703850887933865e-05
9.936416165051351e-05
0.0001013609007731904
0.0001030268992715088
0.0001043602486795938
0.00010535897923317182
0.00010602107935899462
0.00010634451447040678
0.00010632724510526402
0.00010596724446596505
0.00010526251544172756
0.00010421110720916851
0.00010281113151824547
0.00010106077877734126
9.895833405253879e-05
9.650219309290109e-05
9.369087848514444e-05
9.052305602723527e-05
8.699755139215948e-05
8.311336712989864e-05
7.886970002753818e-05
7.426595881532098e-05
6.930178216978979e-05
6.397705692479452e-05
5.8291936357666996e-05
5.224685837112303e-05
4.5842563342203546e-05
3.908011135867785e-05
3.196089851106344e-05
2.4486671856211936e-05
1.665954261586937e-05
8.48199712345614e-06
8.388874377877192e-06
1.6476641125893338e-05
2.4222967680280483e-05
3.1630698822823766e-05
3.870226165196902e-05
4.543966992429267e-05
5.1844532316179526e-05
5.791806418217922e-05
6.36611023784768e-05
6.907412271749819e-05
7.415725962396993e-05
7.891032757317319e-05
8.333284390804434e-05
8.742405265377631e-05
9.118294897551317e-05
9.460830395561538e-05
9.769868940219008e-05
0.0001004525024382967
0.00010286798966116853
0.00010494327070180616
0.00010667636105659087
0.00010806519410367851
0.00010910764225627485
0.00010980153724224513
0.00011014468953418101
0.000110134906985292
0.00010977001275336816
0.00010904786261821224
0.00010796636181559412
0.00010652348152361858
0.00010471727514500644
0.00010254589453062221
0.00010000760628620098
9.710080829470127e-05
9.382404657217944e-05
9.01760325549162e-05
8.615566088973105e-05
8.17620277686476e-05
7.699444981372136e-05
7.185248347715313e-05
6.633594487702107e-05
6.0444929940655506e-05
5.4179834675451705e-05
4.754137533155914e-05
4.0530608163742016e-05
3.314894844041669e-05
2.5398188287914167e-05
1.7280512898109127e-05
8.798514568704452e-06
8.662851243165792e-06
1.701550053108576e-05
2.501647144394735e-05
3.2668757522292743e-05
3.99748956763403e-05
4.69369727257498e-05
5.3556636086707354e-05
5.98351081351374e-05
6.57732037659016e-05
7.13713506658737e-05
7.662961182380856e-05
8.154770981228139e-05
8.612505239592554e-05
9.036075904522885e-05
9.425368796652303e-05
9.780246329466752e-05
0.00010100550213486444
0.00010386104118373894
0.00010636716270543724
0.00010852181968525401
0.00011032286003047863
0.00011176804973484639
0.00011285509496770929
0.00011358166309141833
0.00011394540264960014
0.00011394396240411477
0.00011357500952927438
0.00011283624709761478
0.00011172543101149561
0.00011024038654963882
0.00010837902470603455
0.00010613935850104818
0.00010351951944107159
0.00010051777429294362
9.71325423233596e-05
9.336241313129788e-05
8.92061651734926e-05
8.466278504917421e-05
7.973148757110284e-05
7.441173660532874e-05
6.87032666128011e-05
6.260610477195824e-05
5.6120593503438884e-05
4.924741315648351e-05
4.198760455228524e-05
3.434259101273325e-05
2.6314199434638447e-05
1.7904679901340967e-05
9.116723255313264e-06
8.934902020153387e-06
1.75507092140207e-05
2.5804831431977884e-05
3.370040972615167e-05
4.124008660058055e-05
4.842601509045391e-05
5.5259872226718146e-05
6.174287636166037e-05
6.78758078211817e-05
7.36590323478347e-05
7.909252680468604e-05
8.417590662433694e-05
8.890845450997692e-05
9.328914992423436e-05
9.731669893736118e-05
0.00010098956404812516
0.00010430599363658345
0.00010726405075779655
0.00010986164103794945
0.00011209653948765497
0.00011396641610105646
0.00011546886016227352
0.00011660140323151505
0.00011736154083119565
0.00011774675289654736
0.00011775452309495567
0.0001173823571528499
0.00011662780035760593
0.00011548845442478292
0.00011396199393750792
0.00011204618257423804
0.00010973888934412944
0.0001070381050454431
0.00010394195915161206
0.00010044873731208243
9.65568996309351e-05
9.226509985560405e-05
8.757220557099529e-05
8.247731945137775e-05
7.697980157335416e-05
7.107929273898056e-05
6.47757386984596e-05
5.8069415097658506e-05
5.0960952907344245e-05
4.345136401872306e-05
3.554206661532042e-05
2.7234909853780104e-05
1.8532197308440343e-05
9.436708556404341e-06
9.204910898570617e-06
1.808205537766859e-05
2.6587761394695347e-05
3.472531477082853e-05
4.249745770859223e-05
4.9906400790373714e-05
5.695383961232432e-05
6.364097547005218e-05
6.996853950149567e-05
7.593681969032991e-05
8.154569014092068e-05
8.679464205254596e-05
9.168281584620748e-05
9.620903393133332e-05
0.00010037183364098104
0.00010416949991190472
0.0001076000973388256
0.00011066150128951659
0.00011335142782687921
0.00011566746224532694
0.00011760708609009213
0.00011916770258795818
0.00012034666047576643
0.00012114127626692596
0.00012154885504615277
0.00012156670992737387
0.00012119218034834477
0.00012042264940777953
0.0001192555604763914
0.00011768843333145006
0.00011571888007523047
0.0001133446211011753
0.0001105635013676793
0.00010737350722751955
0.0001037727840419514
9.975965478243795e-05
9.533263978908635e-05
9.049047781490259e-05
8.523214843787069e-05
7.955689586907483e-05
7.346425412568629e-05
6.695407347207319e-05
6.0026547961469084e-05
5.268224383493669e-05
4.4922128453953394e-05
3.6747599359615926e-05
2.81605129643734e-05
1.9163212293999213e-05
9.758553108328571e-06
9.47276003250043e-06
1.8609324769451943e-05
2.736497385738383e-05
3.574313340762997e-05
4.374663749675753e-05
5.1377743506761386e-05
5.8638152364469745e-05
6.552903303016881e-05
7.205105057318632e-05
7.820439716986656e-05
8.398882536831374e-05
8.940368298415886e-05
9.444794902079522e-05
9.91202700470796e-05
0.00010341899651329471
0.00010734221854096296
0.00011088780078317463
0.00011405341601762597
0.0001168365772027842
0.00011923466779731502
0.00012124497021267187
0.0001228646923367195
0.00012409099213153175
0.00012492100036956034
0.00012535184162852306
0.0001253806537153592
0.00012500460573280393
0.00012422091503827212
0.0001230268633731508
0.00012141981246070223
0.00011939721938286629
0.00011695665205028842
0.000114095805075402
0.00011081251634565553
0.00010710478457334228
0.00010297078807003889
9.840890495694567e-05
9.341773497870132e-05
8.799612303695553e-05
8.21431845015666e-05
7.585833229226298e-05
6.914130565181635e-05
6.199220045381877e-05
5.441150080490002e-05
4.6400111612431363e-05
3.7959391695437106e-05
2.909118691951998e-05
1.9797862736788477e-05
1.0082335410586257e-05
9.73833017793059e-06
1.913230206665624e-05
2.813618235847186e-05
3.6753530971822546e-05
4.498726382356176e-05
5.283967198087096e-05
6.0312445991811056e-05
6.740670467023438e-05
7.412302759654196e-05
8.046149059328864e-05
8.642170344507795e-05
9.200284915519483e-05
9.720372406543318e-05
0.00010202277821144169
0.00010645815534077001
0.00011050773208425534
0.0001141691558416754
0.00011743988101740703
0.00012031720332016972
0.0001227982919205419
0.00012488021933890897
0.00012655998901386564
0.00012783456057481428
0.0001287008729111746
0.00012915586519366383
0.0001291964960590357
0.00012881976121787743
0.0001280227097850712
0.00012680245966393937
0.0001251562123374579
0.0001230812674329982
0.0001205750374316996
0.00011763506288844407
0.0001142590285145191
0.00011044478045284245
0.00010619034504437755
0.00010149394934476884
9.635404360264395e-05
9.076932585536102e-05
8.473876873463584e-05
7.826164850346234e-05
7.133757626773783e-05
6.39665312208871e-05
5.614889568788216e-05
4.7885491637676e-05
3.9177618229710096e-05
3.0027089851919486e-05
2.0436273995843787e-05
1.0408128200092848e-05
1.0001501446942063e-05
1.9650772503867694e-05
2.89011040625186e-05
3.77561810637108e-05
4.621898870975187e-05
5.4291835951236767e-05
6.197638445010721e-05
6.927368221098379e-05
7.618420105610056e-05
8.270787711667921e-05
8.88441535255146e-05
9.45920245220902e-05
9.995008022138652e-05
0.00010491655135037338
0.00010948935331985508
0.00011366612907244382
0.00011744429022813273
0.00012082105613520598
0.00012379349052354417
0.00012635853554827936
0.00012851304310167004
0.00013025380335848248
0.00013157757060354783
0.0001324810864673856
0.00013296110076612723
0.0001330143902046159
0.00013263777525496408
0.0001318281355669644
0.00013058242430147825
0.0001288976818022685
0.0001267710490359241
0.00012419978123437252
0.00012118126216888354
0.00011771301946935861
0.00011379274137813394
0.00010941829529370964
0.00010458774841716131
9.929939076223394e-05
9.355176073002833e-05
8.734367338062224e-05
8.067425145695875e-05
7.354295913172652e-05
6.594963835550305e-05
5.789454758387859e-05
4.9378402554376213e-05
4.0402418670332924e-05
3.0968354428787676e-05
2.1078555204737115e-05
1.0735996575240297e-05
1.0262154191500311e-05
2.0164523769060708e-05
2.9659462789250954e-05
3.8750769798097384e-05
4.744148386036373e-05
5.573391296404863e-05
6.36296682197321e-05
7.112970295238344e-05
7.823435576354183e-05
8.49433966387432e-05
9.125607518906467e-05
9.71711701465601e-05
0.0001026870392795403
0.00010780166895499668
0.00011251272264925505
0.00011681758779232519
0.00012071342042445886
0.00012419718724241378
0.00012726570471526671
0.00012991567505320212
0.00013214371891514566
0.00013394640483986066
0.00013532027547907832
0.0001362618707980972
0.00013676774848766192
0.00013683450190065012
0.00013645877588615643
0.0001356372809418957
0.00013436680614389677
0.0001326442313387289
0.0001304665390987978
0.00012783082694597242
0.00012473432034236683
0.00012117438693070963
0.00011714855247961162
0.0001126545189525114
0.00010769018507288813
0.00010225366970246196
9.634333828431596e-05
8.995783252908895e-05
8.309610343942668e-05
7.57574476763171e-05
6.794154717071517e-05
5.964851177490266e-05
5.087892463139822e-05
4.16338898121555e-05
3.191508164870731e-05
2.1724795035439268e-05
1.1065995843733203e-05
1.0520170030271087e-05
2.0673348196654368e-05
3.0410992503076065e-05
3.9737000683813875e-05
4.865444698849697e-05
5.7165616154002466e-05
6.527204351454777e-05
7.29745602405206e-05
8.027334267325312e-05
8.71679647190815e-05
9.365745228268572e-05
9.974033875550549e-05
0.00010541472062894353
0.00011067831237321357
0.0001155284998083806
0.00011996239129188208
0.00012397686615390167
0.00012756861992605298
0.00013073420602581834
0.00013347007367757978
0.00013577260196743525
0.00013763813004064908
0.00013906298355637406
0.00014004349761163708
0.00014057603643396165
0.0001406570102187657
0.00014028288955312933
0.00013945021792034773
0.00013815562282031534
0.0001363958260693337
0.0001341676538590842
0.0001314680471586442
0.00012829407303609902
0.00012464293745778968
0.0001205120000938413
0.00011589879161897666
0.0001108010339473213
0.00010521666378036226
9.914385977738069e-05
9.258107357853693e-05
8.552706482181476e-05
7.798094019667232e-05
6.994219646917765e-05
6.141076729572655e-05
5.238707351595297e-05
4.287207647867518e-05
3.286733381025787e-05
2.237505688135015e-05
1.1398169067512731e-05
1.077543303321278e-05
2.1177045288768223e-05
3.1155441312786386e-05
4.07146002025828e-05
4.985760902945745e-05
5.858670310332492e-05
6.690331274829611e-05
7.480811545735808e-05
8.230109226699603e-05
8.938158718842064e-05
9.604836855081969e-05
0.00010229969115401784
0.0001081333581915006
0.00011354678198695518
0.00011853704268749952
0.00012310094417001052
0.0001272350665405316
0.0001309358147383033
0.00013419946288983388
0.0001370221941937068
0.00013940013624903422
0.0001413293918666146
0.00014280606552082714
0.00014382628570902382
0.0001443862235824163
0.00014448210829700117
0.00014411023960443116
0.0001432669982604079
0.0001419488548716763
0.0001401523778326863
0.00013787424101953556
0.00013511123191228477
0.0001318602608080515
0.00012811837176621328
0.00012388275589494957
0.00011915076754526535
0.00011391994392452413
0.00010818802857763023
0.00010195299910918144
9.52130994356249e-05
8.796687676131988e-05
8.021322336728906e-05
7.195142318599732e-05
6.318120300870776e-05
5.3902788035357224e-05
4.411696132894903e-05
3.382512657847982e-05
2.3029373405957995e-05
1.1732544275703041e-05
1.1027831080399203e-05
2.167542459963201e-05
3.189257603665452e-05
4.168332416355433e-05
5.105074234332263e-05
5.999698589862629e-05
6.852334639850799e-05
7.66303115914968e-05
8.431762968131792e-05
9.158437663640134e-05
9.842902524642705e-05
0.00010484951468828912
0.0001108433194384837
0.00011640751646518725
0.00012153884974949562
0.00012623379131697365
0.00013048859810393595
0.00013429936413396695
0.0001376620676344347
0.00014057261287675656
0.0001430268666743964
0.00014502068961545246
0.00014654996223996929
0.0001476106064932075
0.0001481986028938672
0.00014831000394932743
0.00014794094442721097
0.0001470876491546664
0.00014574643906301032
0.0001439137362264746
0.00014158606866013744
0.00013876007564424253
0.00013543251433151098
0.00013160026837033892
0.0001272603592410871
0.00012240996095591594
0.0001170464187146298
0.0001111672720404619
0.00010477028284022055
9.785346874359446e-05
9.041514197550247e-05
8.245395390374735e-05
7.396894528119598e-05
6.495960206651455e-05
5.542591656069844e-05
4.5368453437404435e-05
3.478842007350984e-05
2.3687740402235716e-05
1.206913131605522e-05
1.127725741235236e-05
2.216830902107038e-05
3.262218739356372e-05
4.2642964918689075e-05
5.223367001659131e-05
6.139634252071494e-05
7.013209642548271e-05
7.844118856780921e-05
8.632309177227827e-05
9.37765709836981e-05
0.00010079976093732568
0.00010739024397497278
0.00011354512670264452
0.00011926111429865806
0.00012453458141676796
0.00012936163878222821
0.0001337381947449038
0.00013766001122764507
0.0001411227536857254
0.00014412203486880056
0.00014665345234743388
0.00014871261992763403
0.0001502951932262249
0.00015139688981443897
0.0001520135044558741
0.000152140920066806
0.00015177511511015214
0.0001509121682005815
0.00014954826074643074
0.00014767967848563178
0.0001453028127886124
0.00014241416260118642
0.00013901033788665286
0.00013508806539974834
0.0001306441975855617
0.00012567572534527213
0.00012017979534867038
0.00011415373250032307
0.00010759506808190322
0.00010050157399862751
9.287130345135217e-05
8.470263823788342e-05
7.599434275718485e-05
6.674562464666772e-05
5.695620182642573e-05
4.662637555361525e-05
3.575710890508024e-05
2.4350109906751474e-05
1.2407918314232685e-05
1.1523612392252622e-05
2.265553851140377e-05
3.334409588803301e-05
4.3593359534485274e-05
5.340627638617153e-05
6.278472971807045e-05
7.172961142303848e-05
8.02409005350186e-05
8.831774633479526e-05
9.595855436919133e-05
0.00010316107374615247
0.0001099224841371732
0.00011623948102173348
0.000122108357841667
0.00012752508389253514
0.0001324853769578329
0.00013698476988528545
0.00014101867050552927
0.00014458241449753773
0.00014767131100626614
0.00015028068101145646
0.00015240588862856265
0.00015404236568983438
0.00015518563010278805
0.0001558312986138996
0.0001559750947156529
0.00015561285252428843
0.00015474051752532338
0.00015335414513354372
0.0001514498980449957
0.00014902404337236753
0.00014607295055259033
0.0001425930909976971
0.00013858104042939814
0.00013403348479385999
0.00012894723059743776
0.0001233192204377464
0.00011714655442667671
0.00011042651811330947
0.00010315661741519024
9.533462095510058e-05
8.695861007688814e-05
7.802703667752695e-05
6.853878884168982e-05
5.849326409975916e-05
4.789044994844491e-05
3.6731011075093883e-05
2.5016382511500873e-05
1.2748867709948958e-05
1.1766805500796132e-05
2.3136974314991524e-05
3.405815846582727e-05
4.453439902761189e-05
5.456851892502411e-05
6.416219753431832e-05
7.331605369997538e-05
8.202973533512174e-05
9.030201372058934e-05
9.813088061052556e-05
0.0001055136462901167
0.00011244703681350353
0.0001189272887728212
0.00012495024010643167
0.00013051141564162858
0.00013560610627651702
0.00014022944093063788
0.00014437645062685515
0.00014804212430199158
0.0001512214561735451
0.00015390948470941565
0.00015610132345265232
0.0001577921841396726
0.0001589773927153388
0.0001596523989909615
0.00015981278081000222
0.00015945424368102312
0.00015857261690968225
0.00015716384731119873
0.0001552239916141028
0.0001527492086765541
0.00014973575262979336
0.0001461799680410273
0.00014207828815183607
0.00013742723719934596
0.00013222343776707682
0.00012646362404071868
0.00012014466176191001
0.00011326357558053349
0.00010581758440203308
9.780414521053105e-05
8.922100572056682e-05
8.006626606803582e-05
7.033844959343158e-05
6.0036582597254584e-05
4.916028275547997e-05
3.77098556723441e-05
2.5686398817000716e-05
1.3091911838779627e-05
1.2006757588563233e-05
2.361250372557612e-05
3.476427602567937e-05
4.546603878569609e-05
5.572044164747249e-05
6.552890568332567e-05
7.489171851848483e-05
8.380813640901721e-05
9.227649113085871e-05
0.00010029429952826928
0.00010785837361678569
0.00011496492923444845
0.00012160969138156653
0.00012778799457600562
0.00013349487677179195
0.00013872516563457823
0.00014347355622967503
0.00014773467944901968
0.00015150316077376484
0.00015477366923217703
0.00015754095666198342
0.00015979988761658133
0.00016154546046236
0.00016277282039598925
0.00016347726526537605
0.00016365424520484693
0.00016329935719423122
0.00016240833572525246
0.00016097704080667193
0.0001590014445657581
0.0001564776177093042
0.00015340171709474736
0.00014976997563379175
0.000145578695708257
0.00014082424722308695
0.00013550307135576714
0.00012961169098452824
0.0001231467286913826
0.00011610493313954015
0.0001084832145171969
0.00010027868962064757
9.148873701791266e-05
8.211106258775719e-05
7.214377556603001e-05
6.158547505128592e-05
5.043534672088956e-05
3.869326928638249e-05
2.63599299719329e-05
1.343694802896818e-05
1.224340341315737e-05
2.4082045453305972e-05
3.546240188509117e-05
4.6388310312162756e-05
5.6862190214734126e-05
6.688514199249679e-05
7.645705574652918e-05
8.557672742644587e-05
9.424197989572544e-05
0.00010244978646094596
0.00011019639446881342
0.00011747744669458014
0.00012428809842061385
0.00013062312832660787
0.00013647704157439093
0.00014184416375914374
0.00014671872470583928
0.00015109493140407285
0.00015496702968608236
0.00015832935455385028
0.0001611763693439676
0.00016350269417780491
0.00016530312437494643
0.00016657263970704106
0.00016730640553622167
0.00016749976701620206
0.0001671482376365118
0.00016624748346330022
0.00016479330447487402
0.0001627816144105631
0.00016020842055026324
0.0001570698048217068
0.0001533619075962684
0.00014908091548398658
0.0001442230543766826
0.00013878458891613578
0.00013276182948222456
0.00012615114770572929
0.00011894900141053502
0.00011115196977962323
0.00010275679941851475
9.376046185534392e-05
8.41602228678108e-05
7.395372386138736e-05
6.313907533737027e-05
5.171496228154916e-05
3.968076107224022e-05
2.7036667247657548e-05
1.3783833184380714e-05
1.2476694490918747e-05
2.4545555663389382e-05
3.6152551311802866e-05
4.7301334453511354e-05
5.7994028946718734e-05
6.823134316666889e-05
7.801269421842637e-05
8.733633996871326e-05
9.619951609446398e-05
0.00010459857534051917
0.00011252912625113291
0.00011998616878600328
0.0001269642244427719
0.0001334574587743085
0.0001394597944995163
0.0001449650137476076
0.00014996684833558545
0.00015445905734425003
0.0001584354916181925
0.00016189014515959055
0.00016481719370627784
0.000167211021074639
0.0001690662341027726
0.00017037766724656116
0.00017114037805953178
0.00017134963492754403
0.0001710008985326885
0.0001700897985901645
0.00016861210744099388
0.00016656371209527662
0.00016394058630968267
0.0001607387642528109
0.0001569543172654734
0.00015258333516357872
0.00014762191346158644
0.00014206614781562751
0.00013591213689799486
0.000129155994820657
0.00012179387412311615
0.00011382200022814343
0.00010523671814746671
9.603455208450663e-05
8.621227843222216e-05
7.576701249640411e-05
6.469630908624915e-05
5.299827690149854e-05
4.06717064051175e-05
2.771621060031204e-05
1.413237782629112e-05
1.2706602299197844e-05
2.5003034764386686e-05
3.6834812248309756e-05
4.8205336290865763e-05
5.911635997745898e-05
6.956811816283097e-05
7.955946914141657e-05
8.908804464133856e-05
9.815040492121632e-05
0.00010674219574735404
0.00011485830412053671
0.0001224930098001984
0.0001296401299299369
0.00013629315438824265
0.00014244536985809526
0.0001480899710135375
0.00015322015764344422
0.00015782921695900974
0.0001619105907479032
0.0001654579274317676
0.0001684651194472364
0.0001709263266946471
0.00017283598707949765
0.00017418881540709995
0.00017497979207910588
0.00017520414318462907
0.0001748573136800772
0.00017393493541454155
0.00017243279178733029
0.00017034678082397843
0.00016767287843303703
0.00016440710356288926
0.0001605454869187256
0.00015608404482940139
0.00015101875977426883
0.00014534556899389005
0.0001390603625161975
0.0001321589918316466
0.0001246372903471564
0.00011649110663728215
0.00010771635139078355
9.83090588175372e-05
8.826546313398485e-05
7.758209057864666e-05
6.625586722073216e-05
5.428424261053923e-05
4.1665329074760254e-05
2.8398056179997078e-05
1.4482339569821603e-05
1.2933121868386604e-05
2.545453503576857e-05
3.7509357378302105e-05
4.910066190812884e-05
6.022974483089333e-05
7.08962745132307e-05
8.109845293884435e-05
9.08331860500454e-05
0.00010009625925968581
0.00010888251442267571
0.00011718602467317152
0.00012500026375420956
0.000132318266777922
0.00013913277974062985
0.00014543639555930805
0.00015122167487578546
0.00015648125037251437
0.00016120791384105493
0.00016539468572606547
0.00016903486731836143
0.00017212207618125773
0.00017465026575599028
0.00017661373039983864
0.00017800709736300567
0.00017882530740723733
0.0001790635859133874
0.00017871740642072705
0.00017778244859301823
0.0001762545526213747
0.0001741296720577032
0.00017140382703142998
0.00016807305974229914
0.00016413339404750156
0.00015958080087754949
0.00015441117112471522
0.00014862029755335036
0.00014220386718356848
0.00013515746549915518
0.00012747659372681214
0.00011915670032427127
0.00011019322769833043
0.00010058167504560685
9.031767806666133e-05
7.939710614273884e-05
6.781617737921901e-05
5.557159170656821e-05
4.266068198296481e-05
2.90815827565169e-05
1.4833416016386824e-05
1.3156275810284612e-05
2.5900169199706904e-05
3.817645770791585e-05
4.998779728322689e-05
6.13349287377999e-05
7.221684798842248e-05
8.263098998353112e-05
9.257342214162058e-05
0.0001020390429995622
0.00011102178178390779
0.00011951479476798692
0.00012751065455165154
0.00013500152878112397
0.0001419793452940958
0.00014843594120626975
0.00015436319402610532
0.00015975313347186063
0.00016459803324654805
0.00016889048258326815
0.00017262343788951133
0.00017579025528219328
0.00017838470520707
0.00018040097067157854
0.00018183363088796096
0.00018267763232590085
0.00018292824931414112
0.00018258103641499365
0.000181631774831454
0.00018007641510150128
0.0001779110182964054
0.0001751316978765606
0.0001717345642773746
0.00016771567420444632
0.00016307098651719906
0.0001577963264770936
0.0001518873600327448
0.00014533957971123168
0.00013814830358266708
0.00013030868866288105
0.00012181576001386689
0.0001126644566916777
0.00010284969557140464
9.236645394572127e-05
8.120987164084333e-05
6.93753732163415e-05
5.685881060762954e-05
4.365662632589175e-05
2.976603704246336e-05
1.5185237048806824e-05
1.3376118837153499e-05
2.6340120058967673e-05
3.8836497863979635e-05
5.08673895920457e-05
6.243286807109099e-05
7.353113605877877e-05
8.415873575000257e-05
9.431076849228566e-05
0.00010398111970986307
0.0001131626840671163
0.0001218475860954079
0.00013002739184951422
0.0001376933076275991
0.00014483636235657071
0.00015144757088448278
0.0001575180761027228
0.00016303926851467167
0.00016800288254837422
0.00017240106955548028
0.00017622644802860448
0.00017947213209068124
0.00018213173975452357
0.00018419938281308713
0.0001856696405019339
0.00018653751927812188
0.00018679840118986102
0.00018644798337784808
0.00018548221126130256
0.00018389720792944854
0.0001816892021927717
0.00017885445765721854
0.00017538920507728303
0.0001712895801276827
0.00016655156861436916
0.0001611709610279356
0.00015514331822898478
0.00014846394994727768
0.00014112790767368058
0.0001331299934253568
0.00012446478576685037
0.00011512668436990288
0.00010510997428708844
9.440891099437611e-05
8.301782711900817e-05
7.093126160441846e-05
5.8144111867160925e-05
4.465180926485537e-05
3.045051790947443e-05
1.5537356522244382e-05
1.3592742834259153e-05
2.6774651344885388e-05
3.9489993348820925e-05
5.174027126753685e-05
6.352476134515068e-05
7.48407356952474e-05
8.568370100531762e-05
9.60476482216397e-05
0.00010592530738185758
0.00011530840181588845
0.00012418789618702346
0.00013255423327338152
0.00014039755496750989
0.0001477079036649523
0.00015447540098484196
0.00016069040158058628
0.00016634362062091165
0.00017142623431902655
0.00017592995363415343
0.00017984707194314015
0.00018317048806516106
0.00018589370651152324
0.00018801081722023393
0.00018951645732447585
0.0001904057577006577
0.00019067427715356057
0.00019031792713589644
0.00018933288987877002
0.0001877155327412467
0.00018546232148413354
0.00018256973504659525
0.00017903418426513593
0.0001748519368306124
0.0001700190506375085
0.00016453131754604403
0.00015838421945390917
0.00015157289846201138
0.00014409214281745075
0.00013593639022475412
0.00012709975002945205
0.00011757604569248483
0.00010735887888354244
9.644171642001712e-05
8.48180011588243e-05
7.248128780272534e-05
5.942540440300251e-05
4.564464011827963e-05
3.113395951451735e-05
1.588924335698804e-05
1.3806282561839266e-05
2.720411994762157e-05
4.0137610036911596e-05
5.2607487220146694e-05
6.461208430499389e-05
7.614758614580587e-05
8.720830176883743e-05
9.778694832989973e-05
0.00010787494007301248
0.00011746267554634329
0.0001265398166592005
0.00013509555370298885
0.0001431188511745252
0.00015059867008894445
0.00015752416340481922
0.00016388484216119104
0.00016967071090188968
0.0001748723718978133
0.0001794810985416683
0.00018348887905699374
0.00018688843231807334
0.0001896731981110662
0.0001918373045763479
0.00019337551586291225
0.00019428316320665648
0.00019455606272787522
0.00019419042324430626
0.00019318274733071562
0.00019152972874111364
0.00018922814916013612
0.0001862747770797219
0.000182666271419254
0.00017839909233088
0.00017346942146460789
0.00016787309381576573
0.00016160554314297807
0.00015466176282948225
0.0001470362839629709
0.00013872317232655178
0.00012971604592183598
0.00012000811457892405
0.00010959224314025483
9.846103962932087e-05
8.660696972133484e-05
7.402249871308036e-05
6.0700262034201966e-05
4.663326514066542e-05
3.181511337417304e-05
1.6240272048069666e-05
1.4016922075681809e-05
2.762898973238028e-05
4.078018625243863e-05
5.3470325704828466e-05
6.569662973519158e-05
7.745401744750722e-05
8.87354159046427e-05
9.95320833929534e-05
0.00010983393741933155
0.00011962987954580121
0.0001289081095943393
0.00013765642243735495
0.00014586248147873803
0.0001535140639724415
0.00016059927446233132
0.0001671067238013732
0.00017302567236734175
0.00017834613718941284
0.00018305896369912034
0.00018715586369154498
0.00019062942181113755
0.00019347307345357265
0.000195681057400773
0.00019724834678867213
0.00019817056216010417
0.00019844387039599527
0.00019806487326581076
0.00019703048921446836
0.0001953378318277901
0.00019298408821072973
0.00018996640028900481
0.00018628175181974096
0.0001819268636819374
0.0001768980998213751
0.0001711913860523457
0.00016480214377393755
0.00015772524054157282
0.00014995495934341622
0.0001414849883628732
0.00013230843295695786
0.00012241785153945146
0.00011180531701945884
0.00010046250540205436
8.838081309751541e-05
7.555150439942423e-05
6.196589046940891e-05
4.761554099474378e-05
3.2492529453923696e-05
1.6589712621516498e-05
1.4224901974876046e-05
2.8049847188917586e-05
4.1418757838479134e-05
5.433035341906832e-05
6.678055274236469e-05
7.876280557906571e-05
9.026844737205098e-05
0.00010128706771974846
0.00011180688315082926
0.00012181510491780789
0.00013129829309728013
0.0001402426891512175
0.00014863452021379037
0.00015646026965234535
0.00016370690983548517
0.00017036209445535876
0.00017641430913006503
0.00018185298029956866
0.00018666854358252716
0.0001908524737496758
0.00019439727927496927
0.00019729646504210684
0.00019954446721570738
0.00020113656454666048
0.000202068770489147
0.00020233771048635846
0.0002019404886584985
0.00020087454792681696
0.0001991375273561165
0.00019672712021832905
0.0001936409359915084
0.000189876369228157
0.00018543047796737346
0.00018029987413618886
0.00017448062819216525
0.00016796819010473762
0.00016075732865654304
0.00015284209096563632
0.0001442157840799898
0.0001348709804708621
0.00012479954924302702
0.00011399271487897919
0.00010244114533006481
9.013507124985831e-05
7.706443812198049e-05
6.321909295325338e-05
4.858900707174242e-05
3.316453637323014e-05
1.6936720086092698e-05
1.4430527607666062e-05
2.846741921313546e-05
4.205458671342668e-05
5.5189455535841446e-05
6.786642241705422e-05
8.007723533845403e-05
9.181139935856078e-05
0.00010305659728342478
0.00011379911394567791
0.00012402425316696605
0.00013371673721441178
0.00014286107966536479
0.0001514419239848049
0.0001594443417067288
0.00016685408580095155
0.00017365779651269328
0.00017984315860352165
0.00018539901043286133
0.00019031540664957158
0.00019458363737767485
0.00019819620766326797
0.00020114678159760362
0.00020343009595431404
0.0002050418483974057
0.00020597856535746126
0.0002062374545687166
0.0002058162470419374
0.00020471303295065222
0.0002029260955621259
0.00020045374697647955
0.00019729416907149876
0.00019344526270569616
0.00018890450792177337
0.00018366883762703078
0.000177734527012423
0.0001710971008086733
0.00016375126036609605
0.00015569083248014124
0.00014690874186047524
0.00013739700915032203
0.00012714677643482514
0.00011614836222236316
0.00010439134792786589
9.186469792182676e-05
7.855691521835208e-05
6.445623484670985e-05
4.95508568700764e-05
3.382922086549601e-05
1.7280323447672018e-05
1.4634178393768855e-05
2.888259338328092e-05
4.268919351636379e-05
5.6049881526141e-05
6.895728097313335e-05
8.140117225402619e-05
9.336895776060946e-05
0.0001048461429815177
0.00011581682019340747
0.00012626414182877275
0.0001361707715757561
0.00014551930267527914
0.00015429263462730502
0.00016247430148421792
0.00017004874697764023
0.00017700154378569224
0.00018331955620266155
0.0001889910472438177
0.00019400573274697738
0.00019835478628271643
0.000202030799641823
0.00020502770433432783
0.00020734065992776638
0.00020896591520287722
0.0002099006480495904
0.00021014278980754485
0.0002096908394150221
0.00020854367230948093
0.00020670034855947272
0.00020415992423342133
0.00020092126955328048
0.00019698289696106538
0.0001923428018589038
0.0001869983184786374
0.00018094599310032426
0.00017418147667023
0.00016669943876614513
0.00015849350481514195
0.00014955621847812135
0.00013987903116656573
0.00012945232073904422
0.00011826544152602342
0.0001063068079367735
9.356401399958619e-05
8.002399126021131e-05
6.567320749886144e-05
5.0497908707295217e-05
3.448440667769628e-05
1.7619414377848842e-05
1.4836318459482585e-05
2.9296441176876985e-05
4.3324395078680675e-05
5.6914297813415345e-05
7.005671169684358e-05
8.273914510881046e-05
9.494658677369587e-05
0.00010666205708334629
0.00011786716052430545
0.0001285426239007537
0.0001386688063202855
0.0001482261687169072
0.00015719569288541284
0.00016555924244434327
0.00017329986068087815
0.00018040200272306534
0.0001868517018138111
0.00019263667153353228
0.0001977463475689575
0.0002021718740169388
0.00020590604023324865
0.0002089431748985857
0.00021127900430737128
0.00021291048193182883
0.00021383559612510837
0.000214053162457397
0.00021356260668127427
0.0002123637437478655
0.00021045655768876619
0.00020784098657749932
0.00020451671622001913
0.0002004829857182493
0.00019573840762088755
0.00019028080503050594
0.00018410706777864574
0.00017721302961104524
0.0001695933682379436
0.00016124153009156646
0.00015214968168468946
0.0001423086895679269
0.00013170813102619458
0.00012033633782284042
0.00010818047547701132
9.522666073197468e-05
8.14601200222597e-05
6.686539185936976e-05
5.142657611250344e-05
3.5127633144462454e-05
1.795273565425009e-05
1.50375088253836e-05
2.9710244675679523e-05
4.396234762663563e-05
5.77858485362754e-05
7.116891733121612e-05
8.409644099633285e-05
9.655063871620746e-05
0.00010851169508684609
0.00011995839230418293
0.00013086872312647723
0.0001412204680912672
0.00015099172279022834
0.00016016136378447284
0.0001687094447853704
0.00017661751784110637
0.00018386887728588566
0.00019044872698186985
0.0001963442738040378
0.00020154475231245073
0.00020604138708868545
0.00020982730028052624
0.00021289737252527027
0.00021524806565346218
0.00021687721547174188
0.0002177838025527335
0.00021796770839257757
0.0002174294635997904
0.00021616999401415527
0.0002141903698750355
0.00021149156240759647
0.00020807421150830646
0.00020393840761072195
0.0001990834903154463
0.00019350786598205418
0.00018720884620727473
0.00018018250894928298
0.00017242358399493975
0.0001639253644942322
0.00015467964639130898
0.00014467669775008064
0.00013390526018799975
0.00012235258487926486
0.00011000450585036282
9.684555355078672e-05
8.285911192141594e-05
6.802762238506451e-05
5.2332838330372555e-05
3.5756133731463906e-05
1.8278869521980504e-05
1.5238421443874474e-05
3.0125527435638337e-05
4.460559683096797e-05
5.866822598929629e-05
7.229881088759594e-05
8.547921524567226e-05
9.818848065810178e-05
0.00011040355565043822
0.00012210002070210235
0.00013325278752902847
0.00014383675314430088
0.00015382739220814578
0.00016320127469948015
0.0001719364997387748
0.00018001304022424638
0.0001874129965966807
0.0001941207613469888
0.00020012309869742086
0.00020540914614352538
0.00020997034620791593
0.00021380031783934696
0.00021689467743373977
0.0002192508195261733
0.00022086766688793162
0.00022174539914873118
0.00022188516824234693
0.00022128880802731263
0.00021995854443697133
0.00021789671152775726
0.0002151054778702071
0.00021158658690096765
0.00020734111415010407
0.00020236924369118267
0.0001966700657371548
0.00019024139702200106
0.00018307962545760156
0.00017517958052763911
0.0001665344309609391
0.00015713561139814054
0.0001469727800124639
0.0001360338093481274
0.0001243048129806381
0.00011177021096349209
9.841283738726541e-05
8.421409372054347e-05
6.915415190878339e-05
5.3212211458104897e-05
3.6366814905932146e-05
1.8596226158178186e-05
1.5439855457228396e-05
3.054409036327716e-05
4.525713608663842e-05
5.9565752680623696e-05
7.345212133290455e-05
8.689461907339033e-05
9.986864097500867e-05
0.0001123474418060098
0.00012430296942964741
0.0001357066639932963
0.0001465301998949866
0.000156746151382719
0.00016632856711353786
0.00017525344374928146
0.00018349909338623294
0.00019104640404029628
0.00019787899632637065
0.00020398328273414125
0.0002093484384313492
0.00021396629429823975
0.00021783116394469716
0.00022093961685454386
0.0002232902096376936
0.00022488318676350434
0.00022572016121487435
0.0002258037843563803
0.0002251374130537928
0.0002237247808046048
0.00022156967841153313
0.00021867564860806286
0.0002150456980649241
0.00021068202939238112
0.0002055857951178972
0.0001997568751618238
0.000193193679050384
0.00018589297398246933
0.00017784973988838482
0.00016905705276716587
0.00015950599784339374
0.00014918561442470082
0.0001380828747464466
0.0001261826995390576
0.00011346801352728631
9.991984454864669e-05
8.551747043971433e-05
7.023861826546424e-05
5.4059720837699825e-05
3.6956235763239975e-05
1.8903032459186182e-05
1.5642756137856928e-05
3.09680536473159e-05
4.5920474744365856e-05
6.048347741134056e-05
7.463551717547257e-05
8.835094846881657e-05
0.00010160097962740207
0.00011435464731765748
0.0001265797768373305
0.00013824389716601306
0.00014931508354706045
0.00015976270539294624
0.00016955806299957105
0.00017867490250735897
0.00018708980436633361
0.00019478244591764234
0.00020173574334291997
0.0002079358819909432
0.00021337224688923288
0.0002180372670855706
0.00022192618840295286
0.0002250367893396393
0.00022736905434290675
0.00022892481768255462
0.0002297073898004454
0.00022972117645786872
0.00022897129936764234
0.00022746322538625893
0.00022520240983341187
0.00022219395816022898
0.0002184423090414809
0.00021395094104107414
0.000208722104300999
0.00020275657822587875
0.00019605345586637055
0.0001886099556260342
0.00018042126100588883
0.00017148038933518985
0.0001617780907921156
0.00015130277946973688
0.00014004049876665224
0.00012797492395606475
0.00011508740538975024
0.00010135705640275904
8.676089057997258e-05
7.127401360708472e-05
5.486987543486255e-05
3.75205889165545e-05
1.9197321411748222e-05
1.5848237091176283e-05
3.1399906061047034e-05
4.659971844652496e-05
6.142728837238084e-05
7.585675169700327e-05
8.985781863162737e-05
0.0001033968868050586
0.00011643817285359424
0.00012894482175397452
0.0001408799564829354
0.00015220763577789616
0.00016289369428127386
0.00017290644661770594
0.0001822172444248425
0.0001908008825363362
0.00019863585699017323
0.0002057044830080356
0.00021199288538279078
0.0002174908767539922
0.00022219174107780335
0.00022609194031673972
0.00022919076214810742
0.0002314899255114163
0.00023299315928609985
0.0002337057675071627
0.00023363419246361702
0.00023278558493180536
0.00023116738879213738
0.00022878694545080003
0.0002256511218978255
0.00022176596491366423
0.0002171363829022487
0.00021176585607751187
0.00020565617524870468
0.00019880720921594194
0.00019121670077458693
0.00018288009150711597
0.00017379037588321957
0.00016393798566535084
0.00015331070619945854
0.0001418936268320608
0.00012966912841162487
0.00011661691157989745
0.00010271407031553666
8.793521593718299e-05
7.225265748427457e-05
5.563664505160888e-05
3.805568323727183e-05
1.947692235162047e-05
1.6057606452068128e-05
3.1842563290205086e-05
4.72996642690935e-05
6.240404700515786e-05
7.712483449228823e-05
9.142636929701606e-05
0.00010526951561773846
0.0001186129776183948
0.00013141458428983076
0.00014363249574970722
0.00015522629280424229
0.0001661579200713621
0.0001763924622602527
0.00018589874259438907
0.00019464974121935572
0.00020262283924837605
0.0002097999005203615
0.0002161672079898317
0.0002217152748955351
0.00022643855255040108
0.00023033505693597581
0.00023340593550652024
0.00023565499397601528
0.00023708820064067757
0.00023771318322854396
0.00023753873058028098
0.00023657430882692825
0.0002348295992742411
0.0002323140630212609
0.00022903653549126175
0.00022500485256156822
0.00022022550884900124
0.00021470334792602751
0.00020844128378224962
0.0002014400526748391
0.000193697994592925
0.00018521086385772656
0.0001759716688557282
0.00016597054152342298
0.0001551946379364337
0.00014362807217423862
0.00013125188650879149
0.0001180440618744642
0.00010397957349690679
8.903049746762041e-05
7.316617492680519e-05
5.6353441341847055e-05
3.855692912079194e-05
1.9739452459294378e-05
1.627239800070998e-05
3.2299437379795966e-05
4.80259140783236e-05
6.34217473326525e-05
7.845023513993604e-05
9.306950756327731e-05
0.00010723405580650817
0.00012089627328792669
0.00013400794781470889
0.00014652165040002305
0.00015839197549177755
0.00016957659845173202
0.00018003712804015408
0.00018973974348100546
0.00019865561659896704
0.0002067611289157589
0.00021403790107378355
0.00022047265733853624
0.0002260569512299573
0.00023078677971392295
0.00023466211312320878
0.00023768636640971418
0.00023986583481458608
0.00024120911392578985
0.00024172652068270035
0.00024142952844265642
0.0002403302259458293
0.00023844080704705194
0.0002357730955175972
0.00023233810710552878
0.0002281456493923341
0.0002232039587833634
0.0002175193731890849
0.0002110960385509359
0.00020393564729357608
0.00019603720699518535
0.0001873968380132372
0.00017800759944117898
0.00016785934356255798
0.00015693859987809134
0.00014522849077658155
0.00013270868197561188
0.00011935537194550112
0.00010514132562889408
9.003595885638972e-05
7.400548091417332e-05
5.70131037253346e-05
3.901932704178639e-05
1.998230989009881e-05
1.6494408376111283e-05
3.27745199600743e-05
4.878501042157937e-05
6.448970669973263e-05
7.984512630817685e-05
9.480219645215896e-05
0.0001093080570602617
0.00012330786854690325
0.00013674654949127635
0.00014957037832525558
0.00016172840547150086
0.00017317363686897898
0.0001838639651316077
0.00019376283947212213
0.00020283967896480952
0.0002110700449736531
0.00021843559719803007
0.00022492386363829817
0.00023052785796010434
0.00023524557852890038
0.000239079422209746
0.00024203554335436393
0.00024412318470623702
0.00024535400268965637
0.0002457414050894601
0.0002452999147793244
0.00024404456914172822
0.0002419903612912548
0.0002391517262477225
0.00023554207283768558
0.00023117336032251953
0.00022605571752197084
0.00022019710146961666
0.00021360299233886843
0.00020627612145052328
0.00019821622955354737
0.00018941985320253957
0.0001798801378874084
0.00016958667755957897
0.00015852538130557963
0.00014667836911158843
0.0001340238999127906
0.00012053633640334276
0.00010618615237499487
9.093998963319912e-05
7.476077278862313e-05
5.760789142196347e-05
3.943746025192492e-05
2.02026689835157e-05
1.6725741892236433e-05
3.327248264685216e-05
4.958460045086186e-05
6.561879544945016e-05
8.132367549359195e-05
9.664179947597561e-05
0.00011151181252852093
0.00012587057430486857
0.00013965518811358615
0.0001528048509978992
0.0001652624614314098
0.00017697594033494381
0.00018789924082233435
0.00019799304083703995
0.0002072251293572915
0.0002155705102396023
0.00022301125757817532
0.00022953616260919848
0.00023514021493092375
0.00023982396061805744
0.0002435927772888773
0.0002464561019902122
0.0002484266425310036
0.00024951959717946746
0.0002497519019024671
0.0002491415189170912
0.0002477067754832656
0.0002454657577349315
0.00024243576098809897
0.00023863279537776703
0.0002340711438192167
0.00022876296809326568
0.00022271795823555502
0.00021594302027967867
0.00020844199767742523
0.0002002154223201087
0.00019126029194438052
0.000181569871766484
0.00017113351940330375
0.00015993653346587852
0.0001479600276197623
0.0001351808333685308
0.00012157143630780586
0.00010709995209590845
9.173014987389708e-05
7.542153232300338e-05
5.812948295368624e-05
3.980549256114591e-05
2.039747804224567e-05
1.696886489205296e-05
3.3798798976496756e-05
5.043363491916055e-05
6.682171512450291e-05
8.29023970280833e-05
9.860849408305662e-05
0.00011386881562630222
0.00012861068182363176
0.00014276229958835266
0.00015625490246500354
0.00016902457978334746
0.00018101374545413922
0.000192172222177627
0.00020245794045537727
0.0002118372720213155
0.0002202850331074176
0.0002277842038918348
0.00023432541661802617
0.0002399062666988399
0.0002445304993737782
0.0002482071200438467
0.00025094947015895635
0.0002527743032998443
0.0002537008885755256
0.00025375016119261705
0.000252943933430113
0.0002513041735131864
0.0002488523551410311
0.00024560887670912416
0.0002415925465298471
0.00023682012850702837
0.00023130594164648063
0.0002250615063643796
0.00021809523067056486
0.0002104121298464167
0.00020201357411364466
0.00019289705992274302
0.00018305600181450776
0.0001724795432748484
0.0001611523865726475
0.00014905464321181023
0.00013616170831606215
0.00012244416397754528
0.0001078677183176972
9.23931887128861e-05
7.597653931014706e-05
5.856898458196733e-05
4.011717222843908e-05
2.0563460217595288e-05
1.7226672138857986e-05
3.435989350187435e-05
5.134261130716657e-05
6.81133374679909e-05
8.46005791357322e-05
0.00010072577016355128
0.00011640630635853348
0.0001315585286041504
0.00014610051220887918
0.0001599545446010417
0.00017304920363080036
0.00018532098183841016
0.0001967154348330863
0.000207187861643191
0.0002167035495430087
0.00022523763427459865
0.00023277463841928428
0.00023930775626764163
0.0002448379537207321
0.0002493729476576046
0.0002529261220623807
0.0002555154292159254
0.00025716231447440834
0.00025789069342746756
0.0002577260011741942
0.00025669432548167115
0.00025482162891597455
0.00025213305972755524
0.0002486523472891855
0.0002444012751118031
0.00023939922274676412
0.000233662767052935
0.00022720533319677775
0.000220036886209354
0.00021216365481437592
0.00020358788045616184
0.00019430758590820944
0.0001843163594660779
0.00017360315247229394
0.00016215208974960406
0.0001499422944057074
0.00013694773039613865
0.00012313706817514147
0.0001084735807103188
9.291507906878608e-05
7.641389868325715e-05
5.891694925822845e-05
4.03658430640462e-05
2.0697118077354394e-05
1.750256849371041e-05
3.496332535570402e-05
5.2323872805038266e-05
6.951112002312031e-05
8.644080490906401e-05
0.0001030210340329657
0.00011915592730776456
0.00013474917003177857
0.00014970729589547198
0.00016394255767489783
0.00017737528319210043
0.00018993565794172846
0.0002015649181378639
0.00021221597524281183
0.0002218535228537136
0.00023045369791179545
0.00023800338044694704
0.0002444992202473399
0.00024994647631863733
0.00025435774744371736
0.00025775166129534104
0.0002601515769741023
0.00026158434286325995
0.00026207913931370567
0.0002616664245784278
0.00026037699299929877
0.000258241146865101
0.0002552879775883114
0.0002515447477482481
0.0002470363629109816
0.00024178492072315667
0.00023580932434821324
0.00022912494764973975
0.00022174334043554254
0.00021367196340073627
0.00020491394402576395
0.00019546784650211878
0.0001853274507096431
0.0001744815373089688
0.00016291367811124575
0.00015060203302634002
0.0001375191570553375
0.00012363182297271853
0.00010890086752535742
9.328107114437312e-05
7.672108330536616e-05
5.916340776323213e-05
4.054446391226797e-05
2.0794742466584068e-05
1.7800570128397725e-05
3.5618015829659046e-05
5.3391978419077384e-05
7.103561878257347e-05
8.844959140674302e-05
0.00010552634374464288
0.00012215451432584078
0.00013822317854633379
0.00015362572175703013
0.0001682631656174556
0.0001820468292705931
0.00019490026505020533
0.00020676046316222326
0.00021757836645554078
0.00022731877209529894
0.0002359597204966658
0.0002434914836101417
0.00024991526604564024
0.0002552417257467299
0.0002594894084121339
0.0002626831739712711
0.000264852676208481
0.00026603093971526003
0.0002662530628755296
0.00026555506225503425
0.00026397286289636755
0.0002615414306514569
0.00025829403665208073
0.00025426164004372677
0.000249472372852254
0.00024395110997194307
0.00023771910743533228
0.00023079369307078563
0.0002231879951425826
0.00021491069642011213
0.00020596580320640483
0.00019635242107786909
0.00018606453138733658
0.0001750907649270073
0.00016341417151787083
0.00015101198668105408
0.0001378553989506478
0.00012390932380425095
0.00010913219260929793
9.347576739787353e-05
7.688499467295353e-05
5.929791379091689e-05
4.064563773788395e-05
2.0852426300636308e-05
1.812543086982671e-05
3.633453253226726e-05
5.456416422107164e-05
7.271112451984977e-05
9.065817807430657e-05
0.00010827930858036804
0.0001254450530898503
0.0001420275965592823
0.0001579053505478831
0.0001729668050751065
0.00018711351856696284
0.00020026218817253798
0.0002123458134089505
0.00022331402416575236
0.0002331326862099782
0.00024178292260858703
0.00024925969909798344
0.00025557011796622803
0.0002607315517996105
0.0002647697289560203
0.0002677168600426841
0.00026960987160300036
0.0002704887915758493
0.00027039531211728134
0.00026937153970662923
0.0002674589302642232
0.00026469739811967215
0.00026112458171503004
0.0002567752454300026
0.00025168079537587866
0.00024586888694870697
0.0002393631029451405
0.00023218268278618354
0.0002243422855984648
0.0002158517723736611
0.00020671599503187775
0.00019693458286833103
0.00018650171951994574
0.00017540590623200958
0.00016362970983442061
0.00015114949646202053
0.0001379351546859746
0.00012394981437153282
0.00010914957024101783
9.34832217902859e-05
7.689204386236714e-05
5.930960479285947e-05
4.066165157795565e-05
2.0866083947293154e-05
1.848280110090285e-05
3.712544677958885e-05
5.5860922169937224e-05
7.456645770685666e-05
9.310350492410229e-05
0.00011132419460298769
0.00012907784030816768
0.0001462170745163173
0.000162603270616608
0.00017811099592668876
0.00019263134494781203
0.000206074105149813
0.0002183687986808229
0.00022946471506049646
0.00023933009851026185
0.00024795067899246234
0.00025532774087795064
0.00026147591173766513
0.0002664208310523891
0.0002701968295271565
0.00027284471837337853
0.00027440975760057666
0.0002749398452150404
0.0002744839464764561
0.00027309076446042566
0.000270807639995198
0.00026767966010308314
0.00026374894870989044
0.00025905411085777336
0.0002536298012657187
0.00024750638920946044
0.00024070969382540032
0.00023326076668383176
0.00022517570153313387
0.0002164654542887558
0.00020713565950592448
0.0001971864326687535
0.0001866121506295202
0.000175401205448655
0.000163535729744947
0.00015099129449790832
0.00013773658308236132
0.00012373304818212236
0.00010893456113385182
9.328706618666732e-05
7.672825510369932e-05
5.918728043829459e-05
4.058452864280377e-05
2.0831476864027233e-05
1.88794291486093e-05
3.800578647177987e-05
5.730673166435933e-05
7.663596807125708e-05
9.582943316111241e-05
0.00011471328984597167
0.0001331118978213008
0.00015085523135610016
0.00016778530734192203
0.00018376131767204595
0.00019866330324628395
0.0002123943443817439
0.0002248813594372982
0.0002360746908183966
0.000245946711749016
0.000254489709749812
0.00026171329863487226
0.0002676415869275941
0.0002723102942386339
0.00027576396503743716
0.00027805338676841363
0.000279233280231001
0.0002793602968568405
0.00027849133098813237
0.00027668213553477296
0.0002739862158734445
0.000270453968605029
0.0002661320277349954
0.00026106277993315826
0.0002552840118279307
0.00024882865502172304
0.00024172459807298482
0.0002339945386355801
0.00022565585297764333
0.00021672046403373776
0.00020719469288052635
0.00019707908203878566
0.00018636818230758061
0.00017505029797568183
0.00016310718829044054
0.00015051372605648546
0.0001372375172439145
0.00012323848854870357
0.0001084684529883478
9.287066682911113e-05
7.637939439642319e-05
5.891950056183173e-05
4.0406093856709506e-05
2.0744246156867083e-05
1.9323418558534096e-05
3.899361444767175e-05
5.8930990979718864e-05
7.896079999752774e-05
9.888827729120659e-05
0.00011850859787461941
0.0001376166994883259
0.00015601628094462014
0.0001735274260847748
0.00018999248979764856
0.00020528008034370084
0.0002192871556588854
0.0002319394007611747
0.0002431901579320623
0.0002530182385962884
0.00026142496021739226
0.00026843073190992075
0.0002740714695859559
0.0002783950658681398
0.00028145808069106673
0.0002833227621671184
0.0002840544581902008
0.0002837194395302334
0.000282383125309189
0.0002801086810882156
0.00027695594702331714
0.0002729806470797092
0.0002682338285430906
0.00026276148259971564
0.00025660430038700836
0.00024979752371757577
0.00024237085497713032
0.00023434839603408628
0.00022574859109474564
0.00021658415314775893
0.00020686195791964727
0.00019658289313268743
0.0001857416543834629
0.000174326482238394
0.00016231883827267767
0.00014969302086065804
0.00013641572464760839
0.00012244555085957464
0.00010773247897637173
9.221731380306027e-05
7.583112558801498e-05
5.8494704473754586e-05
4.011805412340325e-05
2.0599952718500063e-05
1.98245595054514e-05
4.011077311609403e-05
6.076921237787268e-05
8.159050572243212e-05
0.00010234273968288184
0.0001227839481151181
0.00014267428490715578
0.00016178697437519308
0.00017991734809822725
0.00019688954306885768
0.00021256071006866585
0.00022682282562117712
0.00023960238995007852
0.00025085841499097525
0.00026057916112492453
0.0002687780786602501
0.00027548936513111227
0.0002807634785463283
0.00028466286467058316
0.0002872580749437295
0.0002886243786660069
0.000288838912960436
0.0002879783682425384
0.00028611717491790027
0.0002833261370023682
0.0002796714479701753
0.00027521402095441894
0.0002700090672391369
0.00026410586194551815
0.0002575476424922056
0.0002503715927598838
0.00024260887321285278
0.00023428466409734436
0.00022541819502853392
0.00021602273972502403
0.0002061055593820223
0.00019566778228845803
0.000184704210921708
0.00017320305104723526
0.00016114556046218243
0.00014850561809584897
0.00013524921734089836
0.00012133389083354967
0.00010670807748504752
9.131044639771029e-05
7.506919633019221e-05
5.7901353501759074e-05
3.971209458986016e-05
2.039412559085886e-05
2.039475945326847e-05
4.1383851422481e-05
6.28645679887586e-05
8.458511693289379e-05
0.0001062683681435899
0.00012762763682551328
0.00014838185088583786
0.00016826891329234806
0.00018705639153315193
0.00020454904988064827
0.00022059312078570158
0.00023507753645788526
0.0002479325774171594
0.0002591265299037521
0.0002686609851298462
0.0002765653792881871
0.0002828912883784994
0.0002877068805315526
0.00029109181094686375
0.0002931327354362299
0.0002939195265996503
0.00029354220552717594
0.00029208855159018436
0.0002896423210124047
0.00028628198801486284
0.00028207991665910644
0.00027710187359627526
0.0002714067988540273
0.00026504676130195606
0.00025806703590183343
0.0002505062501868367
0.00024239655697150427
0.00023376379873965656
0.000224627636387008
0.00021500162105470705
0.00020489319281733788
0.00019430359417343078
0.00018322768984140817
0.00017165368750747187
0.0001595627571149543
0.00014692854922228413
0.00013371661605723027
0.00011988374229319511
0.00010537719635280319
9.013391722646671e-05
7.407965632648134e-05
5.712809864004149e-05
3.917999218094534e-05
2.012231918869893e-05
2.1048608008459625e-05
4.2845452013716076e-05
6.526990657939116e-05
8.801782530344637e-05
0.00011075669718687946
0.0001331457454813315
0.00015485493101639446
0.00017558129165905472
0.00019506153421334875
0.00021308035101632802
0.00022947446299395515
0.00024413281970702382
0.0002569936740943572
0.00026803938783915085
0.000277289831294456
0.0002847951537346292
0.00029062855397418187
0.00029487951320379506
0.00029764778812719876
0.0002990383203754325
0.00029915710612257035
0.00029810798942614923
0.00029599029123276045
0.0002928971580790675
0.0002889145044246222
0.00028412042473900407
0.00027858496126180205
0.0002723701271491064
0.0002655300999326697
0.00025811151514814213
0.0002501538036320562
0.00024168952784900822
0.00023274468254385738
0.0002233389330968845
0.0002134857714017292
0.00020319257416156252
0.0001924605525106234
0.00018128458511917217
0.00016965292972138425
0.00015754681059130648
0.00014493988213049296
0.00013179757164189128
0.00011807630772949461
0.00010372264470468861
8.867229794785273e-05
7.284911031551523e-05
5.616397522578004e-05
3.8513747704506385e-05
1.9780180024971117e-05
2.1804125179868475e-05
4.4535868017781845e-05
6.805040862381886e-05
9.197847864480298e-05
0.00011591928828232675
0.0001394663255211018
0.00016223129479576992
0.00018386411903356832
0.00020406766560836231
0.00022260666685561085
0.00023931104245493093
0.00025407439117357614
0.0002668487563468108
0.00027763688794095204
0.0002864831653882644
0.0002934641683294036
0.0002986796464629132
0.000302244394065866
0.0003042813132603083
0.0003049157711562771
0.0003042712254177479
0.00030246600779988524
0.000299611108281422
0.0002958087843256147
0.00029115182157266745
0.000285723286264407
0.0002795966300390539
0.00027283603023845436
0.0002654968708395815
0.0002576262889953272
0.0002492637292080416
0.00024044146117295495
0.00023118502846493534
0.00022151360383502062
0.0002114402333510089
0.00020097195639818492
0.0001901097920792745
0.00017884858521431072
0.00016717670730468336
0.00015507560982633024
0.00014251922935757614
0.0001294732466035663
0.00011589420459209854
0.00010172849536251027
8.691122944905465e-05
7.136500834109636e-05
5.499862668721569e-05
3.770573791741713e-05
1.9363523616477973e-05
2.2683763266714493e-05
4.6505325144127405e-05
7.128711567197261e-05
9.657817898164021e-05
0.00012189295897727711
0.0001467446917407635
0.00017067571801560998
0.00019328196099101247
0.00021422994329706006
0.0002332659033052525
0.00025021759331568354
0.00026499006128355516
0.00027755708758873086
0.00028795000200408215
0.0002962454250409127
0.00030255316005597596
0.0003070050968860599
0.00030974564045862813
0.0003109238882763113
0.00031068756492478363
0.0003091785789898164
0.0003065299873426918
0.0003028641189686838
0.0002982916105655556
0.00029291112629248155
0.00028680956449183594
0.0002800625880549695
0.0002727353479792397
0.0002648832991107332
0.0002565530319832759
0.0002477830648268311
0.00023860455552205534
0.00022904190508331052
0.0002191132328221426
0.0002088307093430072
0.00019820073757231826
0.0001872239746739104
0.00017589518944330623
0.00016420295102698157
0.00015212914596674822
0.0001396483219766563
0.0001267268588553182
0.00011332196983161562
9.938054069651581e-05
8.483781946834641e-05
6.961597609983581e-05
5.362255966997673e-05
3.6748889142587324e-05
1.8868422343327855e-05
2.371576401217091e-05
4.8817013723329375e-05
7.508167074906768e-05
0.00010195538292908594
0.00012884659281346168
0.0001551701325268988
0.000180385790061759
0.00020402819045000058
0.0002257260795381251
0.00024521084160964834
0.00026231549292311633
0.0002769662892474385
0.0002891694405618055
0.00029899533164623113
0.0003065622546144179
0.0003120211262190248
0.0003155421172630884
0.00031730364733018566
0.0003174838353513301
0.00031625425184661493
0.0003137756779337192
0.00031019551592135434
0.00030564649163087806
0.0003002463177744826
0.0002940980340151427
0.0002872907911195821
0.00027990089664387506
0.00027199298393011835
0.00026362120319641316
0.00025483036296123154
0.00024565697255343917
0.00023613015299586444
0.0002262723952000138
0.00021610015221919243
0.00020562425721048182
0.00019485016154981247
0.00018377798889264094
0.00017240240142741246
0.00016071227459911637
0.00014869017660183378
0.00013631164934385653
0.00012354428876785138
0.00011034662475556574
9.666680474058886e-05
8.244109090653658e-05
6.75921886121823e-05
5.202743333233232e-05
3.563687440535923e-05
1.829130522785702e-05
2.49360204299413e-05
5.1551239528784334e-05
7.95627564877813e-05
0.00010828406954533753
0.000136990061329759
0.00016497442311615065
0.00019159891987880883
0.00021632965756198698
0.0002387582329287461
0.00025860821471857583
0.0002757293287934861
0.0002900827796955838
0.0003017213732928563
0.0003107677155880697
0.0003173930195471183
0.00032179820046060025
0.00032419815672586616
0.0003248095126460234
0.0003238416714924563
0.0003214907751682679
0.0003179360540450215
0.0003133380343864258
0.0003078381131912623
0.0003015590819300581
0.0002946062613660948
0.00028706898715144275
0.0002790222537592327
0.0002705283800916152
0.00026163860372141814
0.00025239454338710395
0.00024282949280314374
0.00023296952490368342
0.00022283439599910752
0.00021243824544570425
0.00020179008949642967
0.00019089410896108022
0.00017974972989615989
0.00016835149535074367
0.0001566887246892655
0.000144744955610265
0.00013249716308663673
0.00011991474950291073
0.00010695830174649659
9.357811445903034e-05
7.971248459398648e-05
6.528579124111256e-05
5.0206386419719695e-05
3.4364336710081093e-05
1.7629070942938932e-05
2.6390666686598556e-05
5.481118256593816e-05
8.489494419319267e-05
0.00011578478106803562
0.0001465859786848548
0.00017644261293861714
0.00020460065808611955
0.00023045152138515337
0.00025355393147940067
0.0002736358891540563
0.00029058095713913826
0.00030440429786733267
0.000315223756901099
0.00032323035499216314
0.00032866125079524487
0.0003317769351413053
0.00033284333959117916
0.00033211877534542345
0.00032984515658785515
0.0003262427469555504
0.000321507625098999
0.0003158111269338437
0.000309300635219072
0.00030210121555168754
0.00029431772032703033
0.0002860370879805979
0.00027733065022138206
0.0002682563253862628
0.00025886062391371374
0.00024918042540855636
0.0002392445090037016
0.00022907483251869993
0.00021868756357972235
0.00020809386922263258
0.00019730047093604198
0.0001863099706449836
0.00017512095054407224
0.00016372784651984967
0.000152120591585341
0.00014028402265448686
0.00012819704148741336
0.00011583151918931334
0.00010315093382735289
9.010873327466948e-05
7.664642113429723e-05
6.269137332234626e-05
4.8154407038758507e-05
3.292714213857812e-05
1.6879215935070198e-05
2.813973628269968e-05
5.873100429033048e-05
9.129101431595496e-05
0.00012473969483665307
0.0001579652628894198
0.00018992663355992413
0.00021973432463290136
0.0002467016854474256
0.0002703650488707571
0.00029047694560844703
0.00030697981658126244
0.00031996859917607454
0.00032964968554424247
0.0003363018625344733
0.0003402426918570926
0.00034180188890632884
0.0003413018552597914
0.0003390446499429737
0.00033530426306302517
0.00033032295212275485
0.000324310490159462
0.000317445357102558
0.0003098771150461298
0.0003017294059983423
0.0002931031788168262
0.0002840798850085105
0.0002747244825110776
0.0002650881573768365
0.0002552107212782217
0.00024512267348472585
0.00023484693413290594
0.00022440026496752669
0.00021379439710756624
0.00020303688485815655
0.0001921317016189729
0.0001810795895488904
0.0001698781695259645
0.00015852181255701474
0.00014700126846714078
0.00013530304269987643
0.00012340850767357872
0.00011129273177971737
9.892300741617781e-05
8.625706037790337e-05
7.324092774569843e-05
5.980650154448555e-05
4.5868752060809585e-05
3.1322668116577114e-05
1.6039980471796444e-05
3.0262417448237953e-05
6.348744545483023e-05
9.902934974434681e-05
0.0001355134062708159
0.00017154780776672176
0.00020586229926054106
0.00023741163723750222
0.0002654337426326288
0.000289463206615043
0.0003093088244328331
0.00032500775653569996
0.00033676903877340007
0.0003449167464712414
0.00034983963767787514
0.0003519507225607562
0.000351657579360439
0.0003493425523053593
0.0003453511186790456
0.00033998647026452396
0.000333508479204209
0.00032613551934377455
0.00031804796438542234
0.0003093925120564835
0.0003002867568886935
0.00029082364518667574
0.0002810755990990685
0.000271098202368536
0.00026093340928677426
0.0002506122805042152
0.0002401572726913829
0.0002295841197577234
0.00021890334586838374
0.00020812144798172064
0.00019724178017333296
0.00018626516499972452
0.0001751902494613912
0.00016401361527784881
0.00015272964548565006
0.0001413301419708685
0.00012980368154238715
0.00011813469166383796
0.00010630222126927543
9.427837780654185e-05
8.202639992637133e-05
6.949833786596554e-05
5.663232293567997e-05
4.334942606924654e-05
2.955013472311866e-05
1.511051686006043e-05
3.286474669003583e-05
6.931671322767466e-05
0.00010847885986130928
0.0001485818760062164
0.00018786997600838632
0.00022479015569142318
0.00025812342187547105
0.0002870463971900508
0.00031112895023755784
0.00033028480248909267
0.00034469599749318864
0.0003547300829531471
0.0003608635519015699
0.0003636190913062342
0.0003635191711798269
0.00036105514493949
0.0003566692694992341
0.00035074648838955
0.00034361298513958284
0.00033553902480641575
0.00032674420566659607
0.0003174038021686188
0.0003076553361200428
0.00029760485491607536
0.00028733263574055
0.0002768981936947237
0.0002663445707374486
0.0002557019391125079
0.00024499058155116535
0.00023422332114492184
0.00022340747345085937
0.00021254638682958928
0.0002016406272396503
0.00019068885257405611
0.0001796884102038352
0.00016863568027005935
0.00015752617670507577
0.00014635440803116313
0.00013511349061569658
0.0001237944981168299
0.00011238552219297333
0.0001008704111797789
8.92271457683955e-05
7.742580492746311e-05
6.542607373784346e-05
5.3174251110998765e-05
4.0599734093323125e-05
2.761099070233003e-05
1.4091086286461413e-05
3.6091111330055665e-05
7.65395546137252e-05
0.00012013527251572564
0.0001645731378903852
0.00020762106298393736
0.00024738017271155096
0.00028244826801168514
0.00031197572183843617
0.00033563046437037804
0.0003535038282997229
0.0003659910929598425
0.0003736736809191576
0.0003772195481275215
0.000377308590785691
0.0003745829767989421
0.00036961851530357623
0.00036291183772076737
0.000354878339899509
0.0003458567266666013
0.0003361170784797335
0.0003258703446007245
0.0003152779492608341
0.0003044607640338001
0.0002935070818359921
0.0002824794690507145
0.00027142051332672106
0.00026035755884545615
0.0002493065527990855
0.00023827513345944708
0.00022726508274336157
0.00021627425163864896
0.00020529804947046204
0.00019433057013886704
0.00018336541137218415
0.0001723962272504216
0.0001614170398966672
0.00015042232322964953
0.0001394068598080866
0.00012836536076935544
0.0001172918282670004
0.00010617862915789089
9.501523752791785e-05
8.378659186568122e-05
7.247100112868499e-05
6.103752520968207e-05
4.9442754546702265e-05
3.762692851708594e-05
2.5509371421444764e-05
1.2983294076829126e-05
4.014185880728055e-05
8.55992993226513e-05
0.00013467488925300586
0.00018432503474808196
0.00023169119359905694
0.0002744590496867542
0.00031105464754274843
0.00034067389609222527
0.00036318522169325905
0.00037896314700125227
0.0003887060446079514
0.000393274472660366
0.0003935676163272818
0.00039044072279337955
0.00038465792244600895
0.0003768715617159654
0.00036761921904836844
0.0003573311818869931
0.00034634316409699016
0.00033491084279411044
0.00032322417862661913
0.0003114204471526879
0.0002995955274256012
0.0002878133609461736
0.0002761136920851875
0.00026451829245661366
0.0002530359000744
0.00024166609790614475
0.00023040233326768623
0.00021923424971625593
0.00020814947236570593
0.00019713495867997987
0.00018617800094651756
0.00017526694401884778
0.00016439166231618004
0.00015354382305378476
0.00014271694777210145
0.00013190627094974636
0.0001211083823062422
0.00011032062768549181
9.954023129982864e-05
8.876308850634326e-05
7.798216210404534e-05
6.718539612589162e-05
5.635304131627189e-05
4.5454272238022383e-05
3.444297910168946e-05
2.325265418478325e-05
1.1790378233336382e-05
4.530098654978009e-05
9.712098734284596e-05
0.0001530356548470565
0.00020896760844328057
0.00026123284238540375
0.0003070360158693459
0.00034468761415123094
0.0003735636177827546
0.0003938945917212862
0.00040648634537478797
0.0004124523789819138
0.0004130024838995081
0.00040930016957788995
0.0004023817720882109
0.0003931218214809104
0.0003822286101864869
0.0003702568924751231
0.00035762852958215506
0.00034465532553021403
0.0003315608413105909
0.00031849965860218004
0.0003055735807225
0.00029284481626358494
0.00028034645890214404
0.00026809067501225737
0.0002560750169197574
0.00024428724141896396
0.00023270895773237071
0.00022131837094731006
0.00021009233308322012
0.0001990078670465658
0.00018804328927794073
0.00017717902425809767
0.00016639817715447848
0.000155686908615533
0.00014503463701293767
0.00013443407741561917
0.00012388111254244168
0.00011337447824752954
0.0001029152340026639
9.250597622508048e-05
8.214973733501434e-05
7.184849356274906e-05
6.160117722859865e-05
5.1401054183219073e-05
4.12322901135187e-05
3.106550670797792e-05
2.085214820310953e-05
1.0517573789572965e-05
5.198103242168902e-05
0.0001120057672905567
0.00017654172073848506
0.00024004084192480414
0.0002977361134945868
0.00034631663347584355
0.0003841231212066685
0.0004109503455539975
0.0004276370757989095
0.000435618005058782
0.00043654976593153006
0.00043205393196575365
0.00042357175281250437
0.00041230339588512604
0.00039920115468573825
0.0003849918107775266
0.00037021127233119455
0.0003552414788782917
0.0003403444220620097
0.0003256911596742438
0.0003113853921482266
0.0002974820056468432
0.0002840013202421187
0.00027093984860042863
0.00025827831000794143
0.00024598753456857216
0.00023403277325827155
0.00022237681982273686
0.00021098225715118725
0.00019981306474794883
0.00018883576359875458
0.00017802022747586722
0.00016734025281378313
0.00015677395024240584
0.00014630399761615676
0.00013591777528711418
0.0001256073882174493
0.00011536956545953742
0.00010520541495283222
9.511999990413286e-05
8.512169117142789e-05
7.522123578092114e-05
6.543046069078847e-05
5.576049689449882e-05
4.6219356006286204e-05
3.680862041839563e-05
2.7518936714234637e-05
1.8323973741188153e-05
9.172587258324434e-06
6.0798446803919746e-05
0.00013158619885753889
0.00020709841187335114
0.00027966160201409575
0.0003431110875390022
0.00039368054298442477
0.00043005862096750624
0.0004528641550124862
0.0004639012607154341
0.0004654765235549796
0.00045991303540779014
0.0004492749851533551
0.0004352550356498293
0.0004191634502627175
0.0004019691409560093
0.0003843600069792399
0.00036680449059880256
0.0003496060004341021
0.0003329474616920597
0.0003169260833687801
0.0003015796286653196
0.0002869058071289744
0.0002728763340084342
0.00025944697280940983
0.00024656461447371356
0.00023417220525355628
0.00022221213401844072
0.00021062853049350766
0.0001993688039623213
0.0001883846603729345
0.00017763276775082087
0.0001670751894498686
0.00015667966727714398
0.0001464198081641585
0.00013627520597381693
0.00012623151211760796
0.00011628045343945121
0.00010641978239813886
9.665313253954264e-05
8.698974147574538e-05
7.744399370420828e-05
6.803472474930681e-05
5.8784210928217694e-05
4.971673456482433e-05
4.085654661660325e-05
3.222493413622494e-05
2.3835947558073067e-05
1.5690209750378152e-05
7.766233545574569e-06
7.270541027066049e-05
0.00015789043830423182
0.000247502582110491
0.00033075390988036467
0.0003997516177031129
0.0004505711047484702
0.0004828842594831748
0.0004987896986157329
0.0005015375743016169
0.0004945619801477274
0.0004809244782423227
0.0004630909108726232
0.00044291282856870513
0.000421706615147629
0.0004003632343157408
0.00037945459466677415
0.00035932301230588194
0.0003401509425867747
0.0003220128332352733
0.00030491246866132986
0.0002888092347515304
0.000273636236857729
0.0002593125787760521
0.00024575153478957265
0.00023286587698103777
0.00022057125988894947
0.00020878829856911703
0.0001974437841469603
0.0001864713444575507
0.00017581176122845538
0.00016541308783306775
0.00015523066428472414
0.00014522709253972886
0.00013537221075066294
0.00012564308654918572
0.00011602403437022167
0.00010650664864303222
9.70898324553814e-05
8.777978986852049e-05
7.858994001207513e-05
6.95407034666893e-05
6.0659106455993993e-05
5.1978142046611286e-05
4.3535805865763805e-05
3.537365686475053e-05
2.7534599121317293e-05
2.0059312175354366e-05
1.298042446236684e-05
6.313315940585738e-06
8.923160521011981e-05
0.00019410882396607865
0.0003019423712637497
0.000397343724533609
0.00047050646482291224
0.0005181892640552096
0.0005422416262973921
0.0005472312657767904
0.0005384157826253053
0.0005205318291287308
0.0004973150063673488
0.00047146471332130827
0.00044480591769772504
0.00041849907062371013
0.0003932313183824315
0.0003693678294173059
0.0003470629070565184
0.0003263378835233195
0.0003071340066249672
0.000289347459538489
0.0002728520284520455
0.0002575134230387659
0.0002431980551351712
0.00022977819631432453
0.00021713480926764932
0.00020515891636286579
0.00019375207596938416
0.0001828263407015079
0.0001723039409628705
0.00016211685062352422
0.00015220633457201267
0.00014252254020054355
0.00013302416974343223
0.0001236782530803374
0.00011446002783718073
0.00010535292302164953
9.634863237535825e-05
8.744725313965598e-05
7.865745490516366e-05
6.999663280659067e-05
6.149099237879587e-05
5.317551405740898e-05
4.509375578995965e-05
3.729746285779977e-05
2.9845924928998974e-05
2.280486496678653e-05
1.6244250377084844e-05
1.0233751713092498e-05
4.833874290636076e-06
0.00011295403959556442
0.0002454513800239609
0.00037680102477641916
0.00048485970688589295
0.0005583649160489728
0.0005967810986013955
0.0006062311744552541
0.0005950676283264984
0.0005710079082586346
0.0005399918670856989
0.000506102948030608
0.0004719239714884283
0.00043896313740793367
0.00040801325329744035
0.00037941518377437216
0.0003532373815127378
0.0003293927648570713
0.0003077123264412962
0.000287990160178725
0.00027001014342996907
0.00025356109319849343
0.00023844481696807
0.0002244798735979059
0.0002115028141436849
0.0001993680028182193
0.0001879466942251054
0.0001771257767559458
0.0001668064262307931
0.0001569028115293047
0.00014734093152856363
0.0001380576251447628
0.00012899977412982348
0.00012012370537358482
0.00011139479178835744
0.0001027872456549183
9.428409358299339e-05
8.587731643934374e-05
7.756812958800751e-05
6.936736812196594e-05
6.129592945030475e-05
5.338521553117665e-05
4.5677517806292246e-05
3.822631295226321e-05
3.1096496832281034e-05
2.4364651566294217e-05
1.8119392752486817e-05
1.2461413721697161e-05
7.501736917444202e-06
3.354996879435454e-06
0.000148472131833448
0.0003207958654591358
0.0004819011217610486
0.0006001717212257853
0.0006653906416914067
0.0006841413062625987
0.0006701159453397134
0.0006367203265423434
0.0005939995846328148
0.0005484083956604972
0.0005036707073413156
0.0004617069079460431
0.0004233419125020798
0.0003887759015738061
0.0003578756958514881
0.0003303469267128016
0.00030583195389354305
0.00028396324771885664
0.00026439076622327383
0.0002467945103523301
0.00023088886896212605
0.00021642260195486656
0.00020317666765876964
0.00019096113565634197
0.00017961186472133846
0.0001689873021774222
0.00015896557751682522
0.00014944196137017286
0.00014032670663814435
0.00013154326163393633
0.00012302683360337213
0.00011472327801900816
0.00010658829044281554
9.858688097231887e-05
9.069311462044875e-05
8.289010308357636e-05
7.517023294374573e-05
6.75356110873041e-05
5.999869877373713e-05
5.258309103050923e-05
4.532438054157808e-05
3.827103495404171e-05
3.148523796445016e-05
2.5043741374623785e-05
1.9038989176168794e-05
1.3581026928416885e-05
8.800573967211213e-06
4.852237206308483e-06
1.9135014030263915e-06
0.00020462634522365637
0.0004359498790227315
0.0006321711905065961
0.0007504383955346115
0.0007898474634908123
0.0007728077901577239
0.0007245086005510212
0.0006633833280966718
0.0006001802233975163
0.0005403192677228049
0.00048608199370298076
0.0004380776742582016
0.0003960980713239772
0.0003595820689160818
0.00032785517440014986
0.00030024592266930964
0.00027613729076888475
0.0002549849278048119
0.00023631918616470694
0.0002197398452690397
0.00020490807201620307
0.00019153785656144317
0.0001793879554721949
0.0001682547549540117
0.00015796615919205477
0.0001483764650868709
0.00013936212572025677
0.00013081828866783269
0.00012265599954542098
0.00011479997436891895
0.0001071868605562673
9.976392285403809e-05
9.24881058233908e-05
8.532543818836648e-05
7.825075599138991e-05
7.124773068747751e-05
6.430919426083466e-05
5.7437754797119364e-05
5.0646690599000406e-05
4.3961096332578546e-05
3.741922936053828e-05
3.107397295854051e-05
2.4994319120172533e-05
1.9266846456151253e-05
1.3997477383973465e-05
9.314525026064141e-06
5.374898009866819e-06
2.37466133432224e-06
5.599507573402808e-07
0.00029992002764598355
0.0006203201675614215
0.0008485213686287131
0.0009378496002702755
0.0009196197583375516
0.0008456134194395589
0.000753734615362019
0.0006629687803277095
0.0005810356827510321
0.0005100577275388377
0.00044972546144275314
0.0003988310945038172
0.00035595691725759035
0.0003197578745447764
0.00028905907777930853
0.0002628731790841341
0.00024038598633814752
0.000220931934135111
0.00020396859565787037
0.00018905375269228546
0.0001758260318835028
0.0001639890672113218
0.00015329876483250945
0.0001435531545945978
0.0001345843402625127
0.00012625212958916046
0.00011843900177969718
0.00011104614013662979
0.00010399031750543035
9.720147133761813e-05
9.06208450537579e-05
8.419960464964597e-05
7.789786581448993e-05
7.168408863424168e-05
6.55348152954283e-05
5.943474169727188e-05
5.3377126523053604e-05
4.736455020326559e-05
4.141003901270146e-05
3.553856194141213e-05
2.9788883292797188e-05
2.4215705117321042e-05
1.8891963516969382e-05
1.3911100955544837e-05
9.389319363193715e-06
5.4687701410648625e-06
2.3252145303696674e-06
1.8657529561377437e-07
-6.353531925968291e-07
0.00047828841237509533
0.0009286004768099014
0.0011510745347949138
0.0011430322094636981
0.0010193880114820106
0.0008719948168359032
0.0007362936368168539
0.0006218593919924513
0.0005284931811480043
0.00045311670235519694
0.00039227791702640957
0.00034293807879155237
0.000302632810004757
0.00026942792850674245
0.0002418238136867772
0.00021866052316200793
0.00019903843233252602
0.00018225605496384424
0.00016776268609476836
0.00015512275380865585
0.0001439890728449668
0.00013408275199106078
0.00012517804385501086
0.00011709086467684817
0.00010967004838015153
0.0001027906493704365
9.634879224964523e-05
9.025770081148117e-05
8.444463692088575e-05
7.884855229619604e-05
7.34183102441572e-05
6.811137547059346e-05
6.289290216709639e-05
5.773517657712852e-05
5.261739233157958e-05
4.7525756568045276e-05
4.245394316525425e-05
3.740392647748987e-05
3.238724348932987e-05
2.7426740449686474e-05
2.255885303465181e-05
1.783642999446909e-05
1.3332012096814016e-05
9.141297903652104e-06
5.386336887652776e-06
2.2183190599776685e-06
-1.771690700288868e-07
-1.5594194026540345e-06
-1.5738543486061227e-06
0.0008503995069782846
0.001453536723093986
0.0015160331110573926
0.0012794566510624496
0.001022385899096625
0.0008114337953645874
0.0006504125938195933
0.0005293481620020695
0.0004378955012391528
0.0003679920232443697
0.00031380247545739195
0.0002711842377361067
0.00023719329767727055
0.00020971827377638114
0.00018722603247548668
0.00016858820436981004
0.0001529629796757758
0.00013971400907476783
0.00012835417421111148
0.00011850613042616986
0.00010987427216706432
0.00010222456769593035
9.53698816405649e-05
8.915917243212902e-05
8.346946000596482e-05
7.819979895081278e-05
7.326672212572098e-05
6.860077719338066e-05
6.414388785449176e-05
5.984734871485129e-05
5.5670318223506425e-05
5.157871510599399e-05
4.754445510440214e-05
4.3544990148847856e-05
3.956313397026831e-05
3.558717873579668e-05
3.161132832240222e-05
2.763649680993796e-05
2.3671546554544527e-05
1.9735068159348283e-05
1.585783017217469e-05
1.2086034920024465e-05
8.485471167856817e-06
5.146469772604641e-06
2.189091520143991e-06
-2.3287539855504358e-07
-1.930595307036119e-06
-2.6729439287706547e-06
-2.1190418632113274e-06
0.001761637553079727
0.002223451941181424
0.001671712308915614
0.0011814194256231194
0.0008503717605967188
0.0006323372738074864
0.00048578286270472594
0.00038411560125682035
0.0003113868281724077
0.0002578989334046126
0.000217594064949477
0.00018656851884374381
0.00016223145343475381
0.00014281618824635517
0.00012708832659536233
0.00011416631648878978
0.00010340810321997655
9.433770736054633e-05
8.659655856340428e-05
7.991055440438339e-05
7.406733302867076e-05
6.89003174728078e-05
6.427733538286792e-05
6.0092384941081486e-05
5.625960009152022e-05
5.270877736046446e-05
4.9382028515983136e-05
4.623125759260858e-05
4.3216251716523494e-05
4.030323791488679e-05
3.7463802403864006e-05
3.4674101092795756e-05
3.191431452971615e-05
2.9168320315519757e-05
2.6423573493340735e-05
2.3671202618569774e-05
2.090634816244918e-05
1.812879288214976e-05
1.5343963568009798e-05
1.2564423440830641e-05
9.812027588845806e-06
7.120980314978716e-06
4.5420999046771535e-06
2.1486038712767615e-06
4.347308256782978e-08
-1.632667905959815e-06
-2.6975559710485687e-06
-2.9368171417165287e-06
-2.0977490463587427e-06
0.003641944951824022
0.0020983083656877758
0.0011672423458860216
0.0007191050755310264
0.0004805441340967546
0.00034263427097114144
0.0002565092771994464
0.00019947029722585915
0.00015990272367918425
0.00013142318123007422
0.00011029613625802197
9.42225353468668e-05
8.172668231839434e-05
7.18273667193836e-05
6.385223820386731e-05
5.7328457604113175e-05
5.191586101406737e-05
4.736478021314522e-05
4.3488665845224823e-05
4.0145872119264504e-05
3.722726669328977e-05
3.464763483744526e-05
3.2339609363828646e-05
3.0249315488312112e-05
2.8333201471273436e-05
2.6555703237659233e-05
2.4887505221384172e-05
2.330423449383584e-05
2.1785475294090403e-05
2.031402527877691e-05
1.887533875632487e-05
1.745711949011639e-05
1.60490387872427e-05
1.4642565278133804e-05
1.3230902413816342e-05
1.1809039528852625e-05
1.0373933734229412e-05
8.924854724011617e-06
7.463945434430484e-06
5.997082455384741e-06
4.535167612244352e-06
3.0960562309874894e-06
1.7074422389625615e-06
4.11186753789157e-07
-7.302384248193856e-07
-1.62461511884213e-06
-2.1394619620631813e-06
-2.102363617569134e-06
-1.362142937696379e-06

