# vtk DataFile Version 2.0
mesh vtk view
ASCII
DATASET UNSTRUCTURED_GRID
POINTS 5151 double
0.0 -2.409815134640495 0.0
200.0 0.0 0.0
199.33755181777192 99.27633010372678 0.0
0.0 97.59423848393679 0.0
2.007795459660533 -2.4095827092193742 0.0
4.015587503137423 -2.408885502872944 0.0
6.023372714625388 -2.4077237253449013 0.0
8.03114767907925 -2.4060977261841954 0.0
10.038908982602111 -2.4040079947086026 0.0
12.046653212840992 -2.40145515995244 0.0
14.05437695939422 -2.3984399905971614 0.0
16.06207681423233 -2.3949633948831845 0.0
18.06974937213768 -2.3910264205008724 0.0
20.077391231164817 -2.386630254458238 0.0
22.084998993122042 -2.381776222922505 0.0
24.092569264079238 -2.376465791032193 0.0
26.100098654903668 -2.3707005626759656 0.0
28.107583781830126 -2.3644822802339895 0.0
30.115021267062968 -2.3578128242770555 0.0
32.122407739412324 -2.3506942132181847 0.0
34.1297398349727 -2.3431286029108147 0.0
36.137014197842745 -2.3351182861871855 0.0
38.14422748088868 -2.3266656923297413 0.0
40.151376346554066 -2.3177733864679055 0.0
42.15845746771768 -2.308444068891683 0.0
44.165467528601496 -2.2986805742729217 0.0
46.17240322573012 -2.288485870784198 0.0
48.17926126894325 -2.277863059104475 0.0
50.186038382461746 -2.26681537129981 0.0
52.192731306008135 -2.25534616956634 0.0
54.19933679598158 -2.243458944821942 0.0
56.20585162668681 -2.2311573151316937 0.0
58.212272591616255 -2.2184450239512703 0.0
60.21859650478354 -2.2053259381712023 0.0
62.22482020210618 -2.191804045943523 0.0
64.23094054283695 -2.1778834542710888 0.0
66.23695441103087 -2.163568386338403 0.0
68.24285871704754 -2.1488631785611796 0.0
70.24865039909963 -2.1337722773300434 0.0
72.25432642480982 -2.1183002354224136 0.0
74.25988379278662 -2.1024517080542413 0.0
76.26531953420405 -2.0862314485414357 0.0
78.27063071437347 -2.069644303538383 0.0
80.27581443429368 -2.052695207818582 0.0
82.28086783216331 -2.0353891785595994 0.0
84.28578808483779 -2.017731309091463 0.0
86.29057240920999 -1.999726762064346 0.0
88.29521806349203 -1.981380761987399 0.0
90.29972234837174 -1.962698587086398 0.0
92.30408260801488 -1.9436855604229435 0.0
94.30829623088066 -1.9243470402122638 0.0
96.31236065031348 -1.9046884092702745 0.0
98.3162733448709 -1.8847150635130472 0.0
100.32003183834124 -1.8644323994229974 0.0
102.32363369940123 -1.843845800386053 0.0
104.32707654085571 -1.8229606217918088 0.0
106.33035801839675 -1.8017821747746838 0.0
108.3334758288103 -1.7803157084569765 0.0
110.33642770755036 -1.7585663905348081 0.0
112.33921142559178 -1.736539286023779 0.0
114.34182478545743 -1.7142393339524213 0.0
116.34426561630579 -1.6916713217568111 0.0
118.34653176794568 -1.668839857087887 0.0
120.34862110362593 -1.645749336692322 0.0
122.35053149142584 -1.6224039119662919 0.0
124.35226079404022 -1.598807450706478 0.0
126.35380685672123 -1.5749634944909694 0.0
128.35516749310077 -1.5508752110101418 0.0
130.3563404685401 -1.5265453405292275 0.0
132.3573234806156 -1.5019761354925343 0.0
134.3581141362905 -1.477169292065787 0.0
136.3587099251278 -1.4521258721480002 0.0
138.35910818786135 -1.4268462140489693 0.0
140.35930607942933 -1.4013298296068397 0.0
142.3593005253705 -1.3755752849836345 0.0
144.35908817019927 -1.349580061690034 0.0
146.35866531602102 -1.323340393505383 0.0
148.35802784916754 -1.2968510738081285 0.0
150.35717115201098 -1.270105226322726 0.0
152.35608999627854 -1.243094030290775 0.0
154.354778413067 -1.2158063884008614 0.0
156.35322953323046 -1.1882285221944628 0.0
158.35143538972088 -1.1603434747108468 0.0
160.3493866705453 -1.1321304932566953 0.0
162.34707240689082 -1.1035642555000988 0.0
164.344479575093 -1.0746138882273715 0.0
166.3415925825596 -1.0452417079160656 0.0
168.33839259509185 -1.0154015823114524 0.0
170.33485664386794 -0.9850367667506843 0.0
172.3309564207075 -0.9540769983936138 0.0
174.32665662314187 -0.9224345189995062 0.0
176.32191263396385 -0.8899985116011819 0.0
178.31666718948017 -0.8566271229948977 0.0
180.3108454644032 -0.8221356794468935 0.0
182.30434756892285 -0.7862787094584207 0.0
184.29703669850687 -0.7487211486901479 0.0
186.28871912062692 -0.7089910408640185 0.0
188.2791100953754 -0.6663899221979737 0.0
190.26775911093796 -0.6198489960131022 0.0
192.25392870472183 -0.5674460681778271 0.0
194.23596233088347 -0.5062458809012903 0.0
196.21054336998938 -0.42543174225550984 0.0
198.15726476924496 -0.3247450620806197 0.0
200.1243076986263 1.77152560973398 0.0
200.13285277553004 3.671251153696133 0.0
200.1403246191675 5.614833310626641 0.0
200.13793081973185 7.574540703162355 0.0
200.1317060904801 9.54327971104058 0.0
200.1228230513479 11.517647392147964 0.0
200.11220434337758 13.4959407899332 0.0
200.10033246818293 15.477131359959149 0.0
200.08752431486926 17.460558896356403 0.0
200.0739907599598 19.445772292931547 0.0
200.05987986547535 21.432450472920067 0.0
200.04529843419186 23.42035701434755 0.0
200.03032527659593 25.409313011387372 0.0
200.01501943225313 27.39917991803666 0.0
199.99942556571443 29.389848285725563 0.0
199.98357762465085 31.38123011675265 0.0
199.96750140097723 33.37325352535395 0.0
199.9512163724527 35.3658589181345 0.0
199.934737059053 37.35899620284808 0.0
199.91807404375734 39.35262270986286 0.0
199.90123475626004 41.34670161803469 0.0
199.88422408613107 43.341200744215044 0.0
199.86704487142254 45.336091599253514 0.0
199.8496982952235 47.331348642196545 0.0
199.83218421361505 49.326948683850624 0.0
199.81450143229728 51.3228704042707 0.0
199.79664794488042 53.31909395811252 0.0
199.7786211428386 55.31560064846402 0.0
199.76041800501716 57.31237265460618 0.0
199.74203527310618 59.309392802715024 0.0
199.723469618469 61.30664437119499 0.0
199.70471780503155 63.30411092440066 0.0
199.68577685251927 65.30177617014768 0.0
199.66664420412368 67.2996238377612 0.0
199.64731790265543 69.29763757476466 0.0
199.62779677938028 71.29580086132437 0.0
199.6080806600169 73.29409694301067 0.0
199.5881705927918 75.29250878390363 0.0
199.56806910396517 77.2910190440612 0.0
199.54778048679577 79.28961008810901 0.0
199.52731113034505 81.28826403572563 0.0
199.50666989445753 83.28696287095663 0.0
199.48586853581725 85.28568863715319 0.0
199.46492218505603 87.28442376083504 0.0
199.44384986103572 89.28315157677908 0.0
199.4226749708986 91.28185718023892 0.0
199.4014256372282 93.28052883615769 0.0
199.38013435462804 95.27916036777069 0.0
199.35883531167084 97.277755144004 0.0
197.33707685783736 99.25505651714117 0.0
195.33658208305644 99.23379845650311 0.0
193.33605061447727 99.21253250765588 0.0
191.3354793037397 99.19122433225374 0.0
189.33487477481842 99.16984137703095 0.0
187.33424943722736 99.14835571741796 0.0
185.33361904776035 99.12674455390793 0.0
183.33300121931296 99.10499001136066 0.0
181.33241446761784 99.08307873589911 0.0
179.33187757511425 99.0610014493119 0.0
177.33140915217942 99.03875251536023 0.0
175.3310273274712 99.01632953552304 0.0
173.33074952662304 98.99373297805332 0.0
171.33059231389427 98.97096583926934 0.0
169.33057128032922 98.94803333444705 0.0
167.33070096738425 98.92494261545686 0.0
165.33099481832875 98.9017025125512 0.0
163.3314651518566 98.8783232981063 0.0
161.3321231537237 98.85481647050894 0.0
159.3329788831441 98.83119455670426 0.0
157.33404129130074 98.8074709321726 0.0
155.3353182497619 98.7836596572855 0.0
153.33681658691822 98.75977532911556 0.0
151.33854213079238 98.73583294785398 0.0
149.3404997567778 98.71184779703503 0.0
147.34269343902335 98.68783533678928 0.0
145.34512630433147 98.66381110935535 0.0
143.34780068757044 98.63979065608085 0.0
141.35071818772494 98.61578944514002 0.0
139.35387972382907 98.59182280919552 0.0
137.35728559013245 98.56790589223353 0.0
135.3609355099571 98.54405360480953 0.0
133.3648286877957 98.52028058695532 0.0
131.3689638592944 98.49660117801699 0.0
129.37333933884105 98.47302939271931 0.0
127.37795306455548 98.4495789027811 0.0
125.38280264053692 98.42626302344115 0.0
123.38788537632078 98.40309470429166 0.0
121.39319832345753 98.38008652385575 0.0
119.39873830925852 98.35725068738758 0.0
117.4045019677638 98.33459902741576 0.0
115.41048576799129 98.31214300659308 0.0
113.4166860395712 98.28989372245611 0.0
111.4230989958847 98.26786191373989 0.0
109.42972075483492 98.2460579679302 0.0
107.43654735739153 98.22449192977321 0.0
105.44357478405347 98.20317351049637 0.0
103.45079896937702 98.18211209752627 0.0
101.45821581471694 98.16131676451874 0.0
99.4658211993256 98.14079628154322 0.0
97.47361098995181 98.12055912528798 0.0
95.4815810490749 98.1006134891749 0.0
93.48972724190493 98.08096729329164 0.0
91.49804544227143 98.06162819406724 0.0
89.50653153751693 98.04260359363215 0.0
87.51518143250316 98.0239006488172 0.0
85.52399105283102 98.00552627975792 0.0
83.53295634736622 97.98748717808039 0.0
81.54207329015678 97.96978981465406 0.0
79.55133788181956 97.9524404469035 0.0
77.56074615046735 97.9354451256776 0.0
75.57029415224007 97.91880970168017 0.0
73.5799779714987 97.9025398314691 0.0
71.58979372072827 97.88664098303549 0.0
69.59973754021316 97.87111844097642 0.0
67.60980559751816 97.85597731127702 0.0
65.61999408677835 97.84122252571872 0.0
63.6302992278864 97.82685884593253 0.0
61.64071726557227 97.81289086711561 0.0
59.65124446840573 97.79932302143078 0.0
57.66187712774415 97.78615958110791 0.0
55.67261155664337 97.77340466126657 0.0
53.683444088747706 97.76106222247837 0.0
51.694371077172505 97.74913607308767 0.0
49.70538889338984 97.7376298713079 0.0
47.71649392612749 97.72654712711098 0.0
45.727682580288324 97.7158912039255 0.0
43.738951275896085 97.70566532015985 0.0
41.750296447072856 97.69587255056429 0.0
39.76171454105174 97.68651582744609 0.0
37.77320201722698 97.67759794175083 0.0
35.78475534624404 97.6691215440218 0.0
33.796371009130326 97.66108914524892 0.0
31.808045496466747 97.65350311761784 0.0
29.819775307600317 97.6463656951688 0.0
27.83155694989716 97.63967897437446 0.0
25.843386938034616 97.63344491464501 0.0
23.85526179333109 97.62766533876797 0.0
21.867178043112236 97.62234193328992 0.0
19.87913222011146 97.61747624884632 0.0
17.89112086190227 97.61306970044521 0.0
15.903140510360803 97.60912356770999 0.0
13.915187711155731 97.60563899508571 0.0
11.927259013262976 97.60261699201332 0.0
9.939350968502891 97.60005843307508 0.0
7.951460131097221 97.5979640581145 0.0
5.963583057242551 97.59633447233348 0.0
3.9757163046985418 97.5951701463687 0.0
1.9878564323870276 97.59447141634925 0.0
0.0 95.59157940547378 0.0
0.0 93.58906849659121 0.0
0.0 91.58670038347994 0.0
0.0 89.58446991764596 0.0
0.0 87.58237217689984 0.0
0.0 85.58040246627081 0.0
0.0 83.5785563188388 0.0
0.0 81.57682949647894 0.0
0.0 79.57521799051494 0.0
0.0 77.57371802227888 0.0
0.0 75.57232604357579 0.0
0.0 73.57103873705333 0.0
0.0 71.56985301647745 0.0
0.0 69.56876602691595 0.0
0.0 67.567775144833 0.0
0.0 65.56687797809835 0.0
0.0 63.56607236591581 0.0
0.0 61.56535637867606 0.0
0.0 59.56472831772919 0.0
0.0 57.564186715136074 0.0
0.0 55.56373033330578 0.0
0.0 53.56335816461427 0.0
0.0 51.56306943098073 0.0
0.0 49.56286358340786 0.0
0.0 47.56274030149715 0.0
0.0 45.562699492947594 0.0
0.0 43.56274129304606 0.0
0.0 41.56286606415822 0.0
0.0 39.56307439522843 0.0
0.0 37.563367101297096 0.0
0.0 35.56374522304417 0.0
0.0 33.56421002636408 0.0
0.0 31.564763001981802 0.0
0.0 29.565405865149046 0.0
0.0 27.566140555340077 0.0
0.0 25.566969236053556 0.0
0.0 23.567894294674346 0.0
0.0 21.568918342411422 0.0
0.0 19.57004421431709 0.0
0.0 17.57127496939196 0.0
0.0 15.572613890779362 0.0
0.0 13.574064486051652 0.0
0.0 11.575630487590072 0.0
0.0 9.57731585305914 0.0
0.0 7.579124765974514 0.0
0.0 5.5810616363631524 0.0
0.0 3.5831311015123646 0.0
0.0 1.585338026803682 0.0
0.0 -0.4123124933741731 0.0
2.0073345538061456 -0.4120795157331747 0.0
2.00688128282128 1.5855715338964282 0.0
2.006435322887552 3.583365115579242 0.0
2.005996351436908 5.581296135197962 0.0
2.0055640470699854 7.5793597276203215 0.0
2.005138089465388 9.577551255783677 0.0
2.004718159281551 11.575866309859189 0.0
2.0043039380528707 13.574300706501237 0.0
2.003895108081642 15.572850488186269 0.0
2.0034913523273614 17.571511922644213 0.0
2.0030923542948025 19.57028150238401 0.0
2.0026977979222274 21.569155944313813 0.0
2.0023073674710328 23.568132189455266 0.0
2.001920747417985 25.567207402749915 0.0
2.0015376223511745 27.566378972955427 0.0
2.0011576768706716 29.565644512627646 0.0
2.00078059549483 31.565001858184594 0.0
2.0004060625730404 33.564449070046145 0.0
2.000033762205705 35.56398443283469 0.0
1.9996633781720496 37.56360645568104 0.0
1.9992945938663864 39.56331387253091 0.0
1.998927092243275 41.56310564253126 0.0
1.9985605557720054 43.56298095045786 0.0
1.9981946664007297 45.562939207174495 0.0
1.9978291055304787 47.56298005011816 0.0
1.9974635539992542 49.56310334380197 0.0
1.9970976920762904 51.56330918032694 0.0
1.9967311994665249 53.563597879894274 0.0
1.9963637553252307 55.56396999130943 0.0
1.9959950382827005 57.564426292469335 0.0
1.9956247264788343 59.56496779082491 0.0
1.9952524976073416 61.56559572380703 0.0
1.9948780289692791 63.566311559210625 0.0
1.9945009975355164 65.56711699555879 0.0
1.9941210800176772 67.56801396235434 0.0
1.9937379529470263 69.56900462030909 0.0
1.9933512927606687 71.57009136149281 0.0
1.992960775894401 73.5712768094065 0.0
1.992566078881408 75.57256381897444 0.0
1.992166878455953 77.57395547645108 0.0
1.9917628516611314 79.57545509923828 0.0
1.9913536759596155 81.5770662356101 0.0
1.990939029346271 83.57879266434381 0.0
1.9905185904614295 85.58063839425473 0.0
1.990092038703481 87.5826076636363 0.0
1.9896590543393695 89.58470493960573 0.0
1.9892193186114928 91.58693491735806 0.0
1.988772513839409 93.5893025193324 0.0
1.988318323514675 95.59181289429544 0.0
4.014665830825999 -0.4113806527873374 0.0
4.013759427411499 1.5862719851418206 0.0
4.012867645304374 3.584067087697858 0.0
4.011989839423673 5.581999561579317 0.0
4.011125367032496 7.580064542403123 0.0
4.010273587555292 9.578257393781811 0.0
4.009433862380411 11.576573706481676 0.0
4.008605554651189 13.575009297667922 0.0
4.007788029048742 15.573560210240109 0.0
4.006980651569522 17.572222712262008 0.0
4.006182789300488 19.570993296486265 0.0
4.005393810194625 21.569868679975343 0.0
4.004613082849373 23.56884580381731 0.0
4.003839976290338 25.567921832934783 0.0
4.003073859762465 27.567094155984563 0.0
4.002314102530726 29.566360385344137 0.0
4.001560073692127 31.565718357180398 0.0
4.000811142000727 33.56516613159502 0.0
4.000066675707115 35.56470199283142 0.0
3.999326042413659 37.56432444958688 0.0
3.9985886089467026 39.56403223532662 0.0
3.997853741246606 41.563824308677155 0.0
3.997120804276513 43.56369985386176 0.0
3.996389161950434 45.563658281167406 0.0
3.995658177081178 47.56369922743802 0.0
3.9949272113484646 49.56382255658558 0.0
3.9941956252874484 51.564028360109916 0.0
3.9934627782976753 53.56431695761928 0.0
3.992728028672427 55.56468889734234 0.0
3.9919907336482323 57.56514495662358 0.0
3.9912502494741844 59.56568614239325 0.0
3.99050593150059 61.56631369160126 0.0
3.9897571342862905 63.56702907160833 0.0
3.9890032117239187 65.56783398055688 0.0
3.9882435171821458 67.56873034762936 0.0
3.9874774036638794 69.56972033328363 0.0
3.9867042239791424 71.5708063294074 0.0
3.9859233309313034 73.57199095939646 0.0
3.9851340775150765 75.57327707815116 0.0
3.9843358171245695 77.5746677719866 0.0
3.9835279037695126 79.57616635845295 0.0
3.982709692297555 81.5777763860618 0.0
3.981880538620364 83.57950163391818 0.0
3.981039799941127 85.58134611125506 0.0
3.980186834980721 87.58331405687217 0.0
3.979321004199823 89.58540993847879 0.0
3.97844167001384 91.58763845194395 0.0
3.977548196997561 93.590004520457 0.0
3.976639952076078 95.5925132936044 0.0
6.021990554634142 -0.4102161144628198 0.0
6.0206312958771155 1.5874391704449424 0.0
6.019293967088851 3.5852368076240646 0.0
6.017977600786616 5.583171705138354 0.0
6.016681233020397 7.58123899985799 0.0
6.01540390309575 9.579434056524438 0.0
6.0141446532746 11.57775246689883 0.0
6.012902528459003 13.576190048999603 0.0
6.011676575862585 15.574742846432901 0.0
6.010465844674264 17.573407127819287 0.0
6.009269385718565 19.572179386317657 0.0
6.008086251116622 21.571056339246887 0.0
6.006915493951683 23.570034927804492 0.0
6.005756167942739 25.569112316879902 0.0
6.004607327129496 27.568285894959807 0.0
6.003468025571809 29.567553274121817 0.0
6.002337317066237 31.566912290111567 0.0
6.001214254882289 33.56636100249736 0.0
6.0000978915205225 35.56589769488765 0.0
5.998987278494462 37.56552087525401 0.0
5.997881466138039 39.56522927625708 0.0
5.996779503440021 41.56502185565245 0.0
5.9956804379066 43.56489779673877 0.0
5.9945833154531085 45.564856508837934 0.0
5.993487180325647 47.56489762780169 0.0
5.992391075053093 49.56502101653622 0.0
5.99129404042986 51.56522676553578 0.0
5.990195115529392 53.56551519341657 0.0
5.9890933377483915 55.56588684744242 0.0
5.9879877428813995 57.56634250403333 0.0
5.986877365225187 59.56688316924848 0.0
5.985761237712267 61.567510079232754 0.0
5.984638392072564 63.5682247006201 0.0
5.983507859022051 65.56902873091543 0.0
5.982368668477081 67.56992409876463 0.0
5.9812198497926845 69.57091296419969 0.0
5.9800604320231265 71.57199771880272 0.0
5.978889444202567 73.57318098579213 0.0
5.977705915643561 75.57446562002681 0.0
5.976508876250798 77.57585470792199 0.0
5.975297356847254 79.57735156727414 0.0
5.974070389509651 81.5789597469907 0.0
5.972827007909779 83.58068302672336 0.0
5.9715662476580835 85.5825254164024 0.0
5.970287146645497 87.58449115567302 0.0
5.968988745379276 89.586584713234 0.0
5.967670087308313 91.58881078608093 0.0
5.966330219133142 93.5911742986581 0.0
5.964968191095557 95.59368040192348 0.0
8.029305449529952 -0.40858625061416065 0.0
8.027493751002316 1.5890727396686843 0.0
8.025711288699926 3.586873924970928 0.0
8.023956772906969 5.58481221527933 0.0
8.022228918648933 7.582882749228225 0.0
8.020526445317238 9.581080893147337 0.0
8.018848076264694 11.579402240196416 0.0
8.017192538378444 13.577842609592661 0.0
8.015558561636762 15.576398045934015 0.0
8.013944878655803 17.575064818621733 0.0
8.0123502242321 19.573839421383095 0.0
8.010773334886334 21.572718571894608 0.0
8.00921294841336 23.571699211504487 0.0
8.007667803443411 25.570778505052026 0.0
8.006136639018754 27.569953840781398 0.0
8.004618194189893 29.569222830345197 0.0
8.003111207635001 31.56858330889354 0.0
8.00161441730583 33.5680333352416 0.0
8.000126560103102 35.56757119210206 0.0
7.998646371583906 37.56719538642328 0.0
7.99717258570349 39.56690464973215 0.0
7.995703934593181 41.56669793855733 0.0
7.994239148376187 43.56657443489517 0.0
7.992776955022489 45.566533546708534 0.0
7.9913160802438075 47.5665749084522 0.0
7.989855247429343 49.56669838161643 0.0
7.988393177622684 51.56690405527967 0.0
7.986928589540008 53.56719224666165 0.0
7.985460199629374 55.56756350166772 0.0
7.9839867221707514 57.56801859541626 0.0
7.982506869416014 59.56855853273975 0.0
7.981019351767953 61.56918454864904 0.0
7.979522877997076 63.56989810875391 0.0
7.978016155494588 65.57070090966063 0.0
7.976497890559863 67.57159487925803 0.0
7.974966788720155 69.57258217697671 0.0
7.973421555080195 71.573665193966 0.0
7.971860894698919 73.57484655319226 0.0
7.970283512990258 75.57612910945286 0.0
7.968688116144529 77.5775159493007 0.0
7.967073411566717 79.57901039087574 0.0
7.965438108327467 81.58061598363929 0.0
7.963780917622257 83.58233650800928 0.0
7.962100553233898 85.58417597489445 0.0
7.960395731993033 87.5861386251275 0.0
7.958665174231012 89.58822892879776 0.0
7.956907604219016 91.59045158448542 0.0
7.955121750587113 93.59281151840068 0.0
7.9533063467164125 95.59531388343271 0.0
10.036607240907188 -0.4064915509900784 0.0
10.034343656594155 1.5911722026660153 0.0
10.032116611532778 3.588977949239336 0.0
10.029924494002907 5.586920601208818 0.0
10.02776569826068 7.584995299493435 0.0
10.025638624059924 9.583197412478114 0.0
10.023541676137446 11.581522535130883 0.0
10.021473263670508 13.579966488217366 0.0
10.019431799714514 15.578525317615005 0.0
10.017415700628671 17.577195293730693 0.0
10.015423385496717 19.5759729110221 0.0
10.013453275549754 21.574854887622934 0.0
10.011503793597461 23.57383816507064 0.0
10.009573363473715 25.57291990813406 0.0
10.007660409502105 27.572097504737826 0.0
10.00576335598636 29.571368565979313 0.0
10.003880626730322 31.570730926232795 0.0
10.002010644591499 33.57018264333435 0.0
10.00015183107199 35.56972199883324 0.0
9.998302605949833 37.569347498350076 0.0
9.996461386953799 39.569057871941254 0.0
9.99462658948381 41.568852074544786 0.0
9.992796626379093 43.56872928646939 0.0
9.990969907735598 45.56868891391711 0.0
9.989144840773843 47.56873058953307 0.0
9.987319829758242 49.56885417297353 0.0
9.985493275968008 51.569059751483266 0.0
9.983663577720236 53.569347640473254 0.0
9.9818291304446 55.56971838408936 0.0
9.97998832680929 57.57017275576364 0.0
9.978139556897279 59.57071175873912 0.0
9.976281208431738 61.571336626556764 0.0
9.974411667048967 63.572048823498235 0.0
9.972529316616983 65.57285004500373 0.0
9.970632539597597 67.57374221797883 0.0
9.968719717449169 69.57472750107182 0.0
9.96678923106716 71.57580828486759 0.0
9.964839461259045 73.57698719200134 0.0
9.962868789249736 75.57826707718571 0.0
9.960875597213295 77.57965102714643 0.0
9.958858268826228 79.5811423604627 0.0
9.956815189837181 81.58274462730722 0.0
9.954744748647455 83.58446160908454 0.0
9.952645336896174 85.58629731796532 0.0
9.950515350043482 87.58825599631538 0.0
9.948353187944834 89.59034211602122 0.0
9.946157255408577 91.59256037771252 0.0
9.943925962728942 93.5949157098854 0.0
9.941657726185882 95.59741326793103 0.0
12.043892655629985 -0.4039326451843106 0.0
12.041177877833087 1.593736929326441 0.0
12.038506938238918 3.591548249862119 0.0
12.035877903415031 5.589496231977863 0.0
12.033288847173047 7.587576019409982 0.0
12.030737849980618 9.585782983075283 0.0
12.028222998330357 11.584112720167202 0.0
12.025742384076043 13.582561053354619 0.0
12.023294103745675 15.581124030085412 0.0
12.02087625784074 17.579797921998317 0.0
12.018486950130285 19.578579224442812 0.0
12.016124286948246 21.57746465610743 0.0
12.013786376501569 23.576451158754043 0.0
12.0114713281964 25.575535897055833 0.0
12.009177251988833 27.574716258535226 0.0
12.00690225776647 29.57398985359725 0.0
12.004644454766 31.573354515652756 0.0
12.002401951031901 33.57280830132434 0.0
12.000172852920675 35.57234949072152 0.0
11.997955264654285 37.57197658782327 0.0
11.995747287926296 39.5716883208694 0.0
11.993547021563556 41.571483642833755 0.0
11.991352561245606 43.57136173194205 0.0
11.989161999283816 45.57132199222372 0.0
11.986973424461736 47.57136405409146 0.0
11.984784921937464 49.57148777493947 0.0
11.982594573208777 51.57169323975098 0.0
11.98040045614104 53.57198076170613 0.0
11.978200645057814 55.57235088278048 0.0
11.975993210893272 57.57280437432593 0.0
11.973776221405634 59.573342237624 0.0
11.97154774144997 61.573965704401104 0.0
11.969305833308638 63.57467623729836 0.0
11.967048557076986 65.57547553031473 0.0
11.964773971101812 67.57636550913878 0.0
11.962480132469265 69.57734833144863 0.0
11.960165097538635 71.57842638712721 0.0
11.957826922518143 73.57960229839405 0.0
11.955463664077891 75.58087891984961 0.0
11.95307337999521 77.58225933842456 0.0
11.95065412982654 79.58374687323082 0.0
11.948203975599803 81.58534507530955 0.0
11.945720982520577 83.5870577272735 0.0
11.943203219684627 85.58888884284109 0.0
11.940648760788898 87.59084266626178 0.0
11.938055684832664 89.5929236716324 0.0
11.935422076799277 91.59513656210619 0.0
11.932746028309356 93.59748626899679 0.0
11.930025638234797 95.59997795078213 0.0
14.051158422419167 -0.40091030257020543 0.0
14.04799328163231 1.5967661496379035 0.0
14.04487927305366 3.594584056262983 0.0
14.041814141897857 5.592538336538372 0.0
14.038795641930623 7.590624137565231 0.0
14.035821534763429 9.588836833280752 0.0
14.032889589098879 11.587172023529817 0.0
14.029997579938483 13.585625533245619 0.0
14.027143287764444 15.584193411741154 0.0
14.024324497706202 17.582871932114536 0.0
14.02153899870193 19.581657590767943 0.0
14.018784582664807 21.58054710703958 0.0
14.016059043663043 23.579537422946593 0.0
14.01336017712185 25.57862570303556 0.0
14.010685779055368 27.577809334336816 0.0
14.008033645335319 29.577085926417677 0.0
14.005401571002917 31.57645331152858 0.0
14.002787349629733 33.5759095448344 0.0
14.000188772732498 35.575452904717686 0.0
13.997603629246463 37.575081893190806 0.0
13.99502970506103 39.57479523631912 0.0
13.992464782621022 41.574591884726935 0.0
13.989906640596221 43.574471014149545 0.0
13.987353053621353 45.574432026019714 0.0
13.98480179210815 47.57447454808277 0.0
13.982250622130667 49.57459843503057 0.0
13.979697305384342 51.57480376914489 0.0
13.977139599219143 53.57509086094102 0.0
13.974575256746451 55.57546024980188 0.0
13.972002027018743 57.57591270459366 0.0
13.969417655281132 59.57644922425347 0.0
13.966819883292882 61.57707103833787 0.0
13.96420644971689 63.577779607524725 0.0
13.961575090574296 65.57857662408679 0.0
13.958923539761516 67.57946401225287 0.0
13.956249529625623 69.58044392853515 0.0
13.95355079159431 71.58151876196894 0.0
13.95082505685551 73.58269113426778 0.0
13.948070057081548 75.583963899887 0.0
13.945283525191838 77.58534014599005 0.0
13.942463196147798 79.58682319231286 0.0
13.939606807772561 81.58841659092128 0.0
13.936712101588006 83.59012412585857 0.0
13.93377682366018 85.59194981268038 0.0
13.93079872544437 87.59389789787559 0.0
13.927775564619356 89.59597285817273 0.0
13.924705105900614 91.59817939973334 0.0
13.921585121820964 93.60052245723409 0.0
13.91841339346656 95.60300719284156 0.0
16.058401272250148 -0.39742543221745796 0.0
16.054786737007106 1.600258953765854 0.0
16.05123062213188 3.5980844579319324 0.0
16.047730351918084 5.596046003815444 0.0
16.04428336056262 7.594138742447284 0.0
16.040887091334103 9.592358051287311 0.0
16.037538995685978 11.590699533268204 0.0
16.03423653232773 13.58915901595573 0.0
16.03097716626737 15.587732550826832 0.0
16.027758367837983 17.58641641266807 0.0
16.024577611719653 19.585207099094013 0.0
16.021432375968317 21.584101330184275 0.0
16.018320141061604 23.58309604823678 0.0
16.015238388971365 25.58218841763344 0.0
16.012184602271663 27.581375824814067 0.0
16.0091562632902 29.580655878353035 0.0
16.006150853310572 31.580026409132337 0.0
16.003165851831728 33.57948547060287 0.0
16.000198735890496 35.57903133912041 0.0
15.99724697945214 37.578662514392484 0.0
15.994308052873357 39.57837771993837 0.0
15.991379422441359 41.578175903633614 0.0
15.988458549992185 43.57805623830128 0.0
15.985542892610404 45.57801812233924 0.0
15.982629902412345 47.57806118037618 0.0
15.979717026413773 49.57818526394705 0.0
15.976801706483094 51.578390452178176 0.0
15.973881379379833 53.57867705247214 0.0
15.970953476878323 55.57904560118312 0.0
15.968015425975635 57.579496864272855 0.0
15.965064649182295 59.580031837938094 0.0
15.962098564894033 61.58065174919767 0.0
15.959114587841961 63.5813580564317 0.0
15.956110129618345 65.58215244989027 0.0
15.953082599274527 67.58303685208928 0.0
15.950029403986733 69.58401341816901 0.0
15.946947949785256 71.58508453616331 0.0
15.943835642341678 73.58625282718117 0.0
15.940689887808082 75.58752114549371 0.0
15.93750809370177 77.5888925785203 0.0
15.934287669828018 79.59037044670896 0.0
15.931026029232777 81.59195830330512 0.0
15.927720589176383 83.59365993400628 0.0
15.924368772118669 85.595479356498 0.0
15.920968006704864 87.59742081987068 0.0
15.91751572874091 89.59948880391528 0.0
15.914009382146066 91.60168801829906 0.0
15.910446419869775 93.60402340162312 0.0
15.906824304758898 95.60650012036477 0.0
18.06561793876747 -0.3934790827888337 0.0
18.061555115458326 1.6042142921514815 0.0
18.057557993895866 3.6020484045192322 0.0
18.053623677962833 5.600018182797729 0.0
18.049749282848527 7.598118782532278 0.0
18.045931934080738 9.59634558522329 0.0
18.042168766496573 11.594694197339315 0.0
18.03845692316741 13.593160449454906 0.0
18.034793554293348 15.591740395514282 0.0
18.031175816080943 17.590430312222956 0.0
18.02760086961785 19.58922669856612 0.0
18.024065879756773 21.588126275452417 0.0
18.02056801402042 23.58712598547977 0.0
18.017104441538287 25.586222992819046 0.0
18.013672332025166 27.585414683210985 0.0
18.01026885481032 29.584698664070196 0.0
18.00689117792555 31.584072764689466 0.0
18.003536467259444 33.583535036535565 0.0
18.00020188578402 35.58308375362314 0.0
17.996884592859725 37.58271741300125 0.0
17.993581743623324 39.58243473525589 0.0
17.990290488462833 41.58223466509827 0.0
17.98700797258298 43.582116372001515 0.0
17.983731335663638 45.582079250873825 0.0
17.98045771161326 47.5821229227617 0.0
17.977184228418775 49.58224723557246 0.0
17.9739080080927 51.58245226480683 0.0
17.970626166717278 53.582738314291056 0.0
17.967335814585805 55.583105916898866 0.0
17.96403405643952 57.583555835253776 0.0
17.960717991798976 59.58408906240139 0.0
17.95738471538757 61.58470682244074 0.0
17.954031317644514 63.58541057110599 0.0
17.950654885324052 65.58620199631527 0.0
17.94725250217706 67.58708301860604 0.0
17.94382124971041 69.58805579152961 0.0
17.940358208019035 71.58912270195422 0.0
17.936860456684656 73.59028637027713 0.0
17.9333250757348 75.59154965053852 0.0
17.92974914665454 77.59291563043118 0.0
17.926129753442698 79.59438763119935 0.0
17.922463983703718 81.59596920742169 0.0
17.91874892976507 83.59766414667426 0.0
17.914981689809196 85.59947646906926 0.0
17.91115936900857 87.60141042666741 0.0
17.907279080650707 89.60347050276314 0.0
17.90333794723955 91.60566141104114 0.0
17.899333101558582 93.60798809460675 0.0
17.895261687679785 95.61045572489252 0.0
20.0728051587172 -0.3890724424145513 0.0
20.068295291371406 1.6086309756316304 0.0
20.06385839939615 3.606474705950411 0.0
20.059491266858476 5.604453682648225 0.0
20.055190690592113 7.602563066391626 0.0
20.05095347908101 9.600798243256866 0.0
20.046776451276436 11.599154823709213 0.0
20.042656435365135 13.597628641716927 0.0
20.038590267505118 15.596215753999642 0.0
20.034574790545374 17.594912439413427 0.0
20.03060685274398 19.593715198470356 0.0
20.026683306498956 21.59262075299082 0.0
20.022801007104704 23.5916260458844 0.0
20.018956811546094 25.59072824105487 0.0
20.015147577341196 27.589924723423714 0.0
20.011370161442557 29.589213099065656 0.0
20.007621419206206 31.588591195448853 0.0
20.00389820343612 33.58805706177017 0.0
20.000197363511447 35.58760896937201 0.0
19.99651574460262 37.58724541227421 0.0
19.992850186981393 39.586965107724396 0.0
19.989197525429702 41.58676699683609 0.0
19.985554588750407 43.58665024527614 0.0
19.981918199383156 45.586614243990304 0.0
19.978285173127503 47.5866586099589 0.0
19.97465231897442 49.586783186972916 0.0
19.97101643904727 51.58698804641939 0.0
19.967374328652177 53.58727348806686 0.0
19.96372277643746 55.58764004083982 0.0
19.960058564660798 57.5880884635726 0.0
19.95637846956258 59.58861974573264 0.0
19.952679261843038 61.589235108101214 0.0
19.948957707240314 63.58993600340287 0.0
19.94521056720557 65.59072411690013 0.0
19.94143459967142 67.59160136687268 0.0
19.937626559908352 69.59256990505331 0.0
19.93378320146342 71.59363211696889 0.0
19.929901277175357 73.5947906221874 0.0
19.925977540258085 75.59604827446316 0.0
19.922008745445194 77.59740816177286 0.0
19.91799165018601 79.59887360623685 0.0
19.91392301588344 81.60044816391833 0.0
19.909799609162587 83.6021356244971 0.0
19.90561820315815 85.60394001081225 0.0
19.901375578807485 87.60586557827156 0.0
19.897068526135154 89.60791681412493 0.0
19.892693845513797 91.6100984366016 0.0
19.888248348884616 93.61241539391136 0.0
19.88372886092027 95.61487286311191 0.0
22.07995967239777 -0.3842068385413171 0.0
22.075004142430767 1.6135076755832496 0.0
22.0701288526849 3.611362032565184 0.0
22.065330268099547 5.6093511728385534 0.0
22.060604867903066 7.607470262822354 0.0
22.055949144334495 9.605714693722867 0.0
22.05135960129443 11.60408008047697 0.0
22.046832752943928 13.60256226084061 0.0
22.04236512227052 15.601157294621835 0.0
22.037953239638846 17.59986146305974 0.0
22.033593641342435 19.5986712683468 0.0
22.029282868172213 21.597583433291888 0.0
22.025017464015836 23.596594901119254 0.0
22.02079397450155 25.595702835398257 0.0
22.016608945698056 27.59490462009764 0.0
22.01245892288185 29.59419785975711 0.0
22.008340449381514 31.593580379768277 0.0
22.004250065507804 33.59305022675453 0.0
22.000184307577292 35.592605669036516 0.0
21.996139707035976 37.5922451972147 0.0
21.992112789688907 39.59196752477371 0.0
21.98810007504028 41.591771588775764 0.0
21.984098075747898 43.591656550605286 0.0
21.980103297195264 45.59162179675238 0.0
21.97611223718326 47.59166693962738 0.0
21.972121385743048 49.59179181839606 0.0
21.96812722507104 51.591996499824226 0.0
21.96412622958575 53.59228127912208 0.0
21.960114866106228 55.59264668077689 0.0
21.95608959415065 57.59309345936459 0.0
21.95204686635332 59.593622600329304 0.0
21.94798312899734 61.59423532071896 0.0
21.943894822660084 63.59493306986849 0.0
21.93977838296725 65.59571753004472 0.0
21.93563024145123 67.59659061697536 0.0
21.93144682650829 69.59755448033073 0.0
21.927224564448593 71.59861150410778 0.0
21.922959880632014 73.59976430691657 0.0
21.918649200682108 75.6010157421605 0.0
21.914288951769283 77.60236889810331 0.0
21.909875563953598 79.60382709781562 0.0
21.905405471576213 81.60539389899387 0.0
21.900875114687608 83.60707309364713 0.0
21.896280940499587 85.60886870764556 0.0
21.89161940484648 87.61078500012782 0.0
21.886886973640134 89.61282646276376 0.0
21.882080124301936 91.61499781887113 0.0
21.877195347153425 93.61730402238628 0.0
21.872229146746495 95.61975025668971 0.0
24.087078224133357 -0.3788837377527936 0.0
24.081678550053372 1.618842924095766 0.0
24.07636637120532 3.6167089152836924 0.0
24.071137834190488 5.614709183309957 0.0
24.065989101488476 7.612838901003609 0.0
24.06091635000255 9.611093465275632 0.0
24.055915769529644 11.60946849602405 0.0
24.050983561176853 13.607959835196084 0.0
24.046115935744847 15.606563546005857 0.0
24.041309112097604 17.605275912308315 0.0
24.036559315536763 19.60409343812624 0.0
24.031862776197542 21.603012847326642 0.0
24.027215727481952 23.60203108344125 0.0
24.022614404543617 25.60114530962491 0.0
24.018055042837545 27.600352908745098 0.0
24.013533876746568 29.599651483594442 0.0
24.00904713829509 31.59903885721763 0.0
24.004591055959658 33.59851307334152 0.0
24.000161853584483 35.598072396894814 0.0
23.995755749409106 37.59771531464736 0.0
23.991368955214217 39.597440535874426 0.0
23.986997675590754 41.59724699311162 0.0
23.982638107336225 43.597133842962656 0.0
23.97828643898157 45.59710046694696 0.0
23.97393885045068 47.59714647237927 0.0
23.96959151285432 49.59727169326982 0.0
23.96524058841905 51.59747619123438 0.0
23.96088223055117 53.59776025640323 0.0
23.956512584035053 55.59812440831817 0.0
23.95212778536449 57.59856939680741 0.0
23.947723963204933 59.59909620282713 0.0
23.943297238984023 61.5997060392577 0.0
23.938843727606958 63.60040035164585 0.0
23.9343595382924 65.6011808189054 0.0
23.929840775524433 67.60204935390122 0.0
23.925283540114584 69.60300810398199 0.0
23.920683930367552 71.60405945141198 0.0
23.916038043343317 73.60520601370162 0.0
23.911341976207154 75.60645064382777 0.0
23.90659182765831 77.60779643033533 0.0
23.90178369942686 79.60924669731315 0.0
23.896913697827063 81.61080500423603 0.0
23.891977935354358 83.61247514566737 0.0
23.88697253231193 85.61426115081625 0.0
23.881893618451087 87.61616728294398 0.0
23.87673733460872 89.61819803861702 0.0
23.87149983432338 91.62035814680357 0.0
23.86617728541014 93.62265256781212 0.0
23.86076587147279 95.6250864920736 0.0
26.09415756277135 -0.37310474555765216 0.0
26.088315399842635 1.6246351141751134 0.0
26.082567976197723 3.6225137458038086 0.0
26.076911121000606 5.620526104664943 0.0
26.07134068095475 7.6186673706835455 0.0
26.06585251865544 9.61693294707156 0.0
26.060442510863417 11.615318459193162 0.0
26.055106546723998 13.613819753600097 0.0
26.04984052595388 15.612432897234592 0.0
26.044640357016984 17.611154176799907 0.0
26.039501955309316 19.60998009829431 0.0
26.034421241371188 21.608907386704203 0.0
26.029394139144067 23.607932985849857 0.0
26.02441657428741 25.607054058376995 0.0
26.019484472570063 27.606267985886387 0.0
26.01459375834845 29.605572369192682 0.0
26.00974035314363 31.60496502870288 0.0
26.00492017432669 33.60444400490259 0.0
26.000129133921593 35.60400755893597 0.0
25.995363137532784 37.60365417330789 0.0
25.990618083404264 39.603382552614434 0.0
25.985889861615004 41.60319162436562 0.0
25.98117435341526 43.6030805398625 0.0
25.976467430706798 45.60304867511536 0.0
25.97176495566958 47.603095631794304 0.0
25.96706278053625 49.603221238200845 0.0
25.962356747515255 51.60342555024912 0.0
25.957642688862407 53.603708852445834 0.0
25.95291642710016 55.604071658857286 0.0
25.948173775383058 57.60451471405336 0.0
25.943410538007175 59.60503899401691 0.0
25.938622511060682 61.6056457070064 0.0
25.93380548321178 63.60633629436222 0.0
25.928955236629818 65.60711243126923 0.0
25.924067548034415 67.60797602740085 0.0
25.919138189866622 69.60892922750794 0.0
25.914162931575245 71.60997441190383 0.0
25.909137541010747 73.61111419684393 0.0
25.904057785917637 75.61235143479048 0.0
25.898919435515722 77.6136892145537 0.0
25.893718262158938 79.61513086130105 0.0
25.88845004305944 81.61667993642634 0.0
25.883110562063198 83.61834023727167 0.0
25.877695611461995 85.6201157966955 0.0
25.87220099382493 87.62201088248132 0.0
25.866622523831403 89.62402999658183 0.0
25.860956030085468 91.62617787419569 0.0
25.855197356890056 93.6284594826744 0.0
25.849342365957973 95.63088002025857 0.0
28.10119444220978 -0.36687160614093894 0.0
28.094911582067926 1.6308824999837874 0.0
28.088730693127072 3.6287747768339225 0.0
28.082647288136855 5.626800188393888 0.0
28.076656899123382 7.62495392240057 0.0
28.070755075530364 9.623231388985849 0.0
28.06493738227932 11.621628219500888 0.0
28.059199397774933 13.620140265524707 0.0
28.053536711879975 15.618763598053555 0.0
28.047944923883072 17.61749450687001 0.0
28.042419640480894 19.616329500087186 0.0
28.036956473794756 21.61526530386207 0.0
28.031551039440036 23.614298862271106 0.0
28.026198954665343 25.61342733733984 0.0
28.020895836576482 27.61264810921802 0.0
28.015637300459115 29.611958776490518 0.0
28.010418958211982 31.611357156613565 0.0
28.005236416901493 33.61084128646313 0.0
28.000085277446942 35.61040942298174 0.0
27.994961133444097 37.610060043950064 0.0
27.98985957013407 39.60979184878987 0.0
27.984776163522643 41.60960375946128 0.0
27.97970647965448 43.6094949214156 0.0
27.97464607404557 45.60946470459043 0.0
27.969590491276183 47.609512704437606 0.0
27.964535264745795 49.60963874297242 0.0
27.959475916590577 51.60984286983211 0.0
27.95440795776326 53.61012536333266 0.0
27.949326888274435 55.61048673151196 0.0
27.944228197593723 57.610927713148634 0.0
27.939107365208326 59.61144927874508 0.0
27.9339598613359 61.612052631462134 0.0
27.928781147788122 63.61273920799528 0.0
27.923566678980098 65.61351067940448 0.0
27.918311903080674 67.61436895182399 0.0
27.91301226329716 69.61531616711274 0.0
27.90766319928731 71.61635470339807 0.0
27.902260148690804 73.61748717550944 0.0
27.896798548770672 75.61871643529315 0.0
27.891273838154437 77.62004557179739 0.0
27.885681458663434 79.62147791132014 0.0
27.88001685721694 81.62301701730914 0.0
27.874275487796886 83.62466669010747 0.0
27.8684528134569 85.62643096653606 0.0
27.86254430835781 87.62831411930698 0.0
27.856545459810164 89.63032065626143 0.0
27.85045177030226 91.63245531942786 0.0
27.844258759490522 93.6347230838971 0.0
27.837961966127033 95.63712915651237 0.0
30.108185621951588 -0.36018620207404783 0.0
30.101463992166128 1.6375831971216614 0.0
30.094851552128265 3.6354901223659395 0.0
30.08834349933014 5.633529547141423 0.0
30.081935052356755 7.631696667744176 0.0
30.07562144879598 9.629986901868346 0.0
30.069397943066615 11.628395887388907 0.0
30.063259804192054 13.626919481344169 0.0
30.057202313546913 15.625553759113167 0.0
30.0512207626012 17.624295013786387 0.0
30.045310450685644 19.62313975572353 0.0
30.039466682799755 21.622084712291706 0.0
30.03368476748208 23.621126827775683 0.0
30.02796001476119 25.620263263451303 0.0
30.02228773420304 27.61949139781204 0.0
30.016663233069604 29.618808826938263 0.0
30.01108181460145 31.618213364997622 0.0
30.00553877643538 33.61770304486259 0.0
30.00002940916697 35.617276118830674 0.0
29.99454899506595 37.61693105947215 0.0
29.989092806951525 39.61666656051259 0.0
29.983656107232992 41.616481537810984 0.0
29.978234147120087 43.61637513039521 0.0
29.972822166006345 45.616346701540415 0.0
29.967415391027668 47.61639583988069 0.0
29.96200903679753 49.6165223605423 0.0
29.95659830531919 51.616726306285486 0.0
29.951178386074684 53.6170079486442 0.0
29.945744456289347 55.61736778905126 0.0
29.940291681370326 57.617806559937904 0.0
29.934815215516224 59.61832522579631 0.0
29.92931020249495 61.61892498419176 0.0
29.923771776585653 63.619607266714745 0.0
29.91819506368 65.62037373988353 0.0
29.91257518253758 67.6212263059253 0.0
29.906907246188656 69.62216710349388 0.0
29.901186363477283 71.62319850827738 0.0
29.89540764073617 73.62432313349203 0.0
29.88956618358402 75.6255438302516 0.0
29.883657098834448 77.62686368780255 0.0
29.877675496504274 79.62828603361491 0.0
29.87161649190784 81.62981443331851 0.0
29.86547520782175 83.63145269047654 0.0
29.859246776703362 85.63320484618662 0.0
29.85292634294395 87.63507517850246 0.0
29.84650906513586 89.63706820166816 0.0
29.839990118330807 91.6391886651602 0.0
29.833364696264354 93.64144155253169 0.0
29.826628013519528 95.643832080056 0.0
32.11512786768777 -0.35305055397788765 0.0
32.10796953126716 1.6447351829529548 0.0
32.10092758847039 3.642657757993935 0.0
32.09399692283604 5.640712155018068 0.0
32.08717244089409 7.638893579660454 0.0
32.08044906982343 9.637197457843747 0.0
32.07382175502692 11.635619434519398 0.0
32.06728545765443 13.634155372625392 0.0
32.06083515210299 15.63280135225426 0.0
32.054465823520864 17.63155367002879 0.0
32.048172465340855 19.630408838677813 0.0
32.04195007686575 21.629363586804264 0.0
32.0357936609272 23.628414858835914 0.0
32.02969822163709 25.627559815148622 0.0
32.02365876224867 27.62679583235101 0.0
32.01767028314254 29.626120503718965 0.0
32.01172777995116 31.625531639767257 0.0
32.00582624183337 33.62502726894321 0.0
31.99996064990901 35.624605638427624 0.0
31.99412597586187 37.62426521506587 0.0
31.98831718071813 39.62400468633675 0.0
31.98252921380588 41.623822961418796 0.0
31.97675701189966 43.62371917231488 0.0
31.970995498553705 45.623692675020564 0.0
31.96523958362561 47.62374305072616 0.0
31.959484162991725 49.62387010703989 0.0
31.953724118454716 51.624073879219466 0.0
31.947954317842424 53.62435463140062 0.0
31.942169615297175 55.62471285781021 0.0
31.936364851753115 57.62514928395218 0.0
31.93053485559935 59.62566486775539 0.0
31.924674443525102 61.626260800668966 0.0
31.91877842154313 63.62693850869607 0.0
31.91284158618633 65.62769965337478 0.0
31.906858725872244 67.62854613263619 0.0
31.900824622428594 69.62948008159556 0.0
31.89473405277262 71.63050387322947 0.0
31.88858179073575 73.63162011893532 0.0
31.882362609023605 75.63283166896191 0.0
31.87607128130073 77.63414161269985 0.0
31.86970258438709 79.6355532788211 0.0
31.86325130055264 81.63707023525738 0.0
31.8567122198938 83.63869628900648 0.0
31.85008014277437 85.64043548575695 0.0
31.84334988231077 87.64229210932226 0.0
31.836516266879965 89.64427068087556 0.0
31.829574142625727 91.64637595797817 0.0
31.822518375936525 93.64861293339489 0.0
31.815343855866363 95.65098683369256 0.0
34.12201795191673 -0.3454668201334625 0.0
34.114425106749714 1.652336296985248 0.0
34.10695584304585 3.6502755212844256 0.0
34.09960473185547 5.648345847963121 0.0
34.09236636920309 7.646542492808702 0.0
34.08523537346896 9.644860890662523 0.0
34.078206382689025 11.643296694120487 0.0
34.0712740518065 13.641845772468105 0.0
34.0644330499062 15.640504210842419 0.0
34.05767805746074 17.63926830961701 0.0
34.05100376361535 19.638134584000934 0.0
34.04440486353623 21.637099763842592 0.0
34.03787605584457 23.6361607936274 0.0
34.03141204015681 25.635314832657834 0.0
34.02500751474894 27.634559255403424 0.0
34.01865717436121 29.633891652008028 0.0
34.01235570815689 31.63330982894028 0.0
34.00609779784717 33.63281180977104 0.0
33.999878115992786 35.63239583606267 0.0
33.993691324490264 37.632060368390796 0.0
33.98753207325038 39.631804087407104 0.0
33.98139499907391 41.631625895000816 0.0
33.97527472472909 43.63152491551938 0.0
33.96916585823358 45.63150049703363 0.0
33.96306299234293 47.63155221263665 0.0
33.95696070424642 49.63167986176305 0.0
33.950853555470495 51.631883471516716 0.0
33.94473609198877 53.63216329799383 0.0
33.938602844537286 55.63251982758974 0.0
33.93244832913286 57.632953778277376 0.0
33.926267047791654 59.63346610084561 0.0
33.92005348944433 61.63405798008375 0.0
33.913802131044044 63.63473083590248 0.0
33.90750743886188 65.63548632439883 0.0
33.90116386996424 67.63632633879725 0.0
33.89476587386614 69.63725301031957 0.0
33.88830789435195 71.63826870893818 0.0
33.88178437145584 73.63937604400712 0.0
33.875189743592 75.6405778647597 0.0
33.868518449822794 77.64187726066062 0.0
33.86176493225306 79.64327756160078 0.0
33.854923638535446 81.64478233792305 0.0
33.8479890244706 83.64639540026789 0.0
33.84095555668405 85.64812079922726 0.0
33.83381771535884 87.64996282479659 0.0
33.826569997001116 89.65192600561437 0.0
33.81920691721309 91.65401510798117 0.0
33.81172301344519 93.65623513464949 0.0
33.80411284769658 95.65859132337854 0.0
36.12885265459828 -0.33743729603322636 0.0
36.12082763282536 1.6603842413071686 0.0
36.112933362882146 3.6583411122048552 0.0
36.10516410497269 5.656428324165342 0.0
36.09751414634366 7.654641103975378 0.0
36.08997779836439 9.652974896108926 0.0
36.0825493935278 11.651425361388636 0.0
36.07522328240804 13.649988375901371 0.0
36.06799383060837 15.648660030158151 0.0
36.06085541573042 17.647436628493622 0.0
36.0538024243932 19.646314688694368 0.0
36.04682924932858 21.64529094184516 0.0
36.03993028657671 23.644362332381032 0.0
36.03309993280276 25.643526018331773 0.0
36.02633258275386 27.642779371745384 0.0
36.01962262687316 29.64211997927606 0.0
36.012964449085054 31.641545642921866 0.0
36.00635242476437 33.64105438089415 0.0
35.99978091889938 35.640644428602975 0.0
35.99324428445759 37.64031423977789 0.0
35.98673686096091 39.64006248763188 0.0
35.9802529732757 41.63988806612551 0.0
35.97378693062158 43.639790091290905 0.0
35.96733302580143 45.63976790260036 0.0
35.96088553465463 47.63982106436857 0.0
35.9544387157338 49.639949367174495 0.0
35.94798681020484 51.64015282929093 0.0
35.94152404196936 53.64043169810822 0.0
35.93504461800761 55.64078645154041 0.0
35.928542728939654 57.641217799401645 0.0
35.92201254980164 59.6417266847407 0.0
35.91544824103378 61.64231428512045 0.0
35.90884394967564 63.642982013830974 0.0
35.90219381076391 65.64373152104486 0.0
35.89549194892698 67.64456469484684 0.0
35.888732480169985 69.64548366218875 0.0
35.88190951384262 71.64649078972458 0.0
35.87501715478155 73.6475886845199 0.0
35.86804950561735 75.64878019462294 0.0
35.861000669234855 77.65006840948494 0.0
35.85386475137425 79.65145666021711 0.0
35.84663586335814 81.6529485196707 0.0
35.83930812492775 83.65454780232858 0.0
35.831875667169804 85.65625856399473 0.0
35.82433263551242 87.65808510127036 0.0
35.81667319276613 89.66003195080421 0.0
35.80889152218345 91.6621038883071 0.0
35.80098183050724 93.6643059273205 0.0
35.792938350975106 95.6666433177306 0.0
38.13562876384417 -0.32896441386621866 0.0
38.12717403115259 1.6688765810918156 0.0
38.11885720167701 3.6668520936175097 0.0
38.11067222661083 5.664957144548941 0.0
38.10261308634438 7.663186972553186 0.0
38.09467378721581 9.661537032473667 0.0
38.08684835818733 11.660002993955164 0.0
38.07913084748489 13.658580740343698 0.0
38.07151531923737 15.65726636784984 0.0
38.06399585014858 17.656056184968797 0.0
38.05656652623224 19.65494671214514 0.0
38.04922143963813 21.653934681669327 0.0
38.04195468559415 23.65301703779229 0.0
38.03476035948688 25.65219093704307 0.0
38.0276325541001 27.651453748734454 0.0
38.02056535702872 29.650803055640832 0.0
38.013552848283034 31.650236654831737 0.0
38.00658909809519 33.649752558642 0.0
37.999668164939116 35.64934899576209 0.0
37.992784093771576 37.64902441246578 0.0
37.98593091450149 39.64877747388355 0.0
37.97910264069231 41.64860706537677 0.0
37.97229326850101 43.64851229397227 0.0
37.96549677585595 45.648492489841345 0.0
37.958707121874994 47.648547207811525 0.0
37.95191824652379 49.648676228897735 0.0
37.94512407051362 51.64887956183908 0.0
37.93831849543773 53.64915744462925 0.0
37.931495404143575 55.649510346027384 0.0
37.92464866133896 57.64993896703789 0.0
37.91777211442842 59.650444242346616 0.0
37.91085959457634 61.651027341700235 0.0
37.90390491799281 63.65168967121771 0.0
37.89690188743692 65.65243287464116 0.0
37.88984429393224 67.65325883445983 0.0
37.882725918688244 69.65416967295629 0.0
37.87554053522016 71.6551677531299 0.0
37.86828191165907 73.65625567949074 0.0
37.86094381324295 75.65743629871156 0.0
37.853520004976794 77.65871270012333 0.0
37.84600425445025 79.66008821604146 0.0
37.83839033479696 81.66156642190838 0.0
37.83067202777961 83.66315113623791 0.0
37.82284312698103 85.66484642034848 0.0
37.81489744107974 87.6666565778703 0.0
37.80682879718497 89.66858615401352 0.0
37.7986310442038 91.6706399345846 0.0
37.79029805620874 93.67282294473895 0.0
37.781823735771816 95.67514044745936 0.0
40.142343076646675 -0.32005074192909433 0.0
40.133461231481455 1.6778107451738897 0.0
40.124724420357595 3.6758058918468204 0.0
40.11612628750538 5.673929733332579 0.0
40.107660508591174 7.6721775210929355 0.0
40.099320787109676 9.670544721099304 0.0
40.091100850707626 11.669027012425083 0.0
40.08299444747998 13.667620286134907 0.0
40.07499534227679 15.666320644457695 0.0
40.06709731305636 17.665124400234774 0.0
40.059294147316855 19.664028076629172 0.0
40.05157963863583 21.663028407081224 0.0
40.04394758334381 23.662122335495024 0.0
40.03639177735528 25.66130701663879 0.0
40.02890601317766 27.660579816742416 0.0
40.021484077115765 29.659938314274857 0.0
40.01411974668673 31.659380300883157 0.0
40.00680678825828 33.65890378247276 0.0
39.99953895492019 35.6585069804118 0.0
39.99230998459728 37.65818833287426 0.0
39.985113598410436 39.657946496231155 0.0
39.97794349928972 41.65778034654244 0.0
39.97079337084308 43.657688981109644 0.0
39.96365687648198 45.657671720071825 0.0
39.95652765880492 47.657728108033936 0.0
39.949399339238504 49.65785791571251 0.0
39.94226551793443 51.658061141586145 0.0
39.93511977392129 53.65833801353764 0.0
39.927955665508414 55.65868899047497 0.0
39.92076673093868 57.659114763919625 0.0
39.91354648928759 59.65961625954964 0.0
39.90628844160422 61.660194638684096 0.0
39.89898607229022 63.66085129969813 0.0
39.89163285071191 65.66158787937496 0.0
39.88422223304026 67.66240625413005 0.0
39.87674766431278 69.6633085411546 0.0
39.86920258071019 71.66429709943388 0.0
39.86158041204 73.66537453063279 0.0
39.85387458441795 75.66654367983563 0.0
39.84607852313613 77.66780763612482 0.0
39.838185655706056 79.66916973298461 0.0
39.83018941506131 81.67063354851365 0.0
39.822083242903865 83.6722029054319 0.0
39.81386059317411 85.67388187086506 0.0
39.80551493562283 87.67567475589202 0.0
39.7970397594595 89.67758611483872 0.0
39.788428577048435 91.67962074430437 0.0
39.77967492762031 93.68178368190519 0.0
39.77077238096302 95.68408020472285 0.0
42.14899239964721 -0.31069898395453066 0.0
42.13968617233008 1.687184026709116 0.0
42.13053208766412 3.685199797328777 0.0
42.12152348519543 5.683343378670391 0.0
42.11265373822802 7.681610035937199 0.0
42.10391624982573 9.679995247007069 0.0
42.09530444875365 11.678494700997076 0.0
42.08681178540334 13.677104297148567 0.0
42.078431727742355 15.67582014401747 0.0
42.07015775732583 17.674638558959156 0.0
42.061983365404465 19.673556067891685 0.0
42.05390204915921 21.672569405320683 0.0
42.045907308090655 23.671675514607912 0.0
42.0379926405871 25.670871548465158 0.0
42.03015154069229 27.67015486965436 0.0
42.02237749509095 29.669523051875075 0.0
42.014663980327 31.668973880819536 0.0
42.00700446026726 33.66850535537295 0.0
41.99939238382031 35.66811568894135 0.0
41.99182118291822 37.66780331091948 0.0
41.98428427076723 39.667566868208084 0.0
41.97677504037075 41.667405226831825 0.0
41.96928686332751 43.66731747361686 0.0
41.9618130889057 45.6673029179113 0.0
41.95434704339293 47.6673610933357 0.0
41.946882029721316 49.66749175954987 0.0
41.93941132736572 51.66769490402202 0.0
41.93192819251286 53.66797074378804 0.0
41.92442585849869 55.66831972718753 0.0
41.916897536510554 57.66874253556546 0.0
41.90933641655103 59.669240084926706 0.0
41.90173566865914 61.66981352753079 0.0
41.89408844438535 63.6704642534154 0.0
41.886387878515244 65.67119389185476 0.0
41.878627091037345 67.67200431269004 0.0
41.870799189349164 69.67289762757595 0.0
41.86289727069502 71.67387619110063 0.0
41.8549144248284 73.67494260177001 0.0
41.84684373688995 75.67609970284308 0.0
41.838678290491046 77.67735058300204 0.0
41.830411170991056 79.67869857684208 0.0
41.82203546895406 81.6801472651634 0.0
41.81354428376883 83.68170047504975 0.0
41.80493072741244 85.68336227971427 0.0
41.79618792833573 87.68513699809677 0.0
41.78730903544458 89.68702919419314 0.0
41.7782872221476 91.68904367610062 0.0
41.769115690437 93.69118549476144 0.0
41.7597876749649 95.69345994238941 0.0
44.15557354994546 -0.3009119783477252 0.0
44.145845801693284 1.6969935839253267 0.0
44.136277280757554 3.695030965351835 0.0
44.12686102453187 5.693195233384469 0.0
44.117590106568485 7.691481667945429 0.0
44.108457632155805 9.689885759614967 0.0
44.099456733846054 11.688403208174357 0.0
44.09058056698014 13.68702992149468 0.0
44.081822305253425 15.685762014753378 0.0
44.07317513636183 17.684595809965927 0.0
44.06463225776458 19.683527835813884 0.0
44.056186872595596 21.68255482775031 0.0
44.04783218575244 23.681673728362334 0.0
44.03956140018753 25.680881687970263 0.0
44.03136771342324 27.680176065442165 0.0
44.0232443143091 29.679554429202923 0.0
44.01518438003602 31.679014558416487 0.0
44.00718107341982 33.67855444431699 0.0
43.999227540463565 35.6781722916703 0.0
43.99131690820541 37.677866520376 0.0
43.98344228285771 39.677635767119796 0.0
43.97559674823959 41.67747888712536 0.0
43.96777336450515 43.67739495596471 0.0
43.95996516716702 45.67738327140921 0.0
43.95216516641468 47.67744335530921 0.0
43.944366346725474 49.677574955486755 0.0
43.93656166676618 51.67777804762927 0.0
43.92874405958196 53.678052837170185 0.0
43.92090643306947 55.67839976114487 0.0
43.913041670730735 57.67881949000988 0.0
43.90514263270415 59.679312929413484 0.0
43.89720215706838 61.67988122190508 0.0
43.889213061415575 63.680525748571824 0.0
43.88116814468939 65.68124813060872 0.0
43.87306018928335 67.6820502307604 0.0
43.86488196339435 69.68293415467714 0.0
43.85662622362546 71.683902252143 0.0
43.84828571783156 73.68495711816621 0.0
43.83985318819955 75.68610159391801 0.0
43.83132137455423 77.68733876750305 0.0
43.822683017878134 79.68867197454443 0.0
43.81393086403234 81.69010479856581 0.0
43.80505766766239 83.69164107115144 0.0
43.79605619627 85.69328487186512 0.0
43.78691923442914 87.69504052790805 0.0
43.77763958812027 89.69691261349537 0.0
43.768210089152724 91.69890594893165 0.0
43.758623599641446 93.70102559936487 0.0
43.748873016498514 95.7032768732009 0.0
46.162083355949974 -0.29069269732086234 0.0
46.151937077783195 1.7072364409754148 0.0
46.141957085851246 3.705296416899741 0.0
46.13213611820213 5.7034823157992065 0.0
46.12246695151699 7.7017894333208865 0.0
46.11294239622648 9.700213273557534 0.0
46.103555291591086 11.698749547576815 0.0
46.094298500794665 13.697394172323078 0.0
46.08516490609832 15.696143269870914 0.0
46.07614740409593 17.69499316701517 0.0
46.067238901109356 19.69394039517617 0.0
46.058432308757304 21.69298169059864 0.0
46.04972053972705 23.692113994821284 0.0
46.041096503774995 25.691334455394262 0.0
46.03255310397761 27.690640426821147 0.0
46.02408323325133 29.690029471702275 0.0
46.015679771155796 31.689499362056228 0.0
46.00733558099215 33.68904808079319 0.0
45.99904350720564 35.68867382332101 0.0
45.990796373097886 37.688374999291256 0.0
45.98258697885372 39.68815023439574 0.0
45.97440809988401 41.68799837226072 0.0
45.966252485485036 43.68791847639711 0.0
45.95811285781361 45.687909832189305 0.0
45.949981911175925 47.687971948909095 0.0
45.94185231162722 49.68810456174032 0.0
45.93371669687926 51.68830763380105 0.0
45.92556767651187 53.68858135815047 0.0
45.91739783248449 55.68892615976832 0.0
45.909199719944205 57.68934269749566 0.0
45.90096586832601 59.68983186592547 0.0
45.892688782741814 61.69039479723027 0.0
45.884360945654 63.691032862916714 0.0
45.875974818829796 65.69174767551159 0.0
45.86752284557246 67.69254109012047 0.0
45.8589974532249 69.69341520589923 0.0
45.85039105594046 71.6943723673966 0.0
45.841696057715694 73.69541516575852 0.0
45.832904855677675 75.69654643977901 0.0
45.82400984361798 77.69776927677972 0.0
45.815003415762945 79.69908701330084 0.0
45.80587797076805 81.70050323558375 0.0
45.79662591592116 83.70202177982512 0.0
45.787239671536874 85.70364673218046 0.0
45.777711675520024 87.70538242849611 0.0
45.768034388072934 89.70723345374584 0.0
45.75820029651629 91.709204641149 0.0
45.74820192018876 93.7113010709486 0.0
45.73803181538529 95.71352806882504 0.0
48.16851865827089 -0.2800442459146222 0.0
48.15795696980198 1.7179094889032474 0.0
48.14756859886526 3.7159930396073504 0.0
48.13734598726968 5.714201510688848 0.0
48.12728161799817 7.712530214550841 0.0
48.11736800982434 9.7109746696189 0.0
48.10759771190876 11.709530598866165 0.0
48.09796329842899 13.708193928739183 0.0
48.08845736329174 15.706960788460842 0.0
48.079072514971415 17.705827509692195 0.0
48.06980137151492 19.704790626528958 0.0
48.06063655574798 21.70384687580825 0.0
48.05157069071264 23.70299319769994 0.0
48.04259639536328 25.70222673655711 0.0
48.03370628054239 27.70154484199954 0.0
48.02489294525427 29.70094507020505 0.0
48.01614897325086 31.70042518538336 0.0
48.0074669299411 33.69998316140398 0.0
47.99883935963081 35.699617183557976 0.0
47.99025878309886 37.69932565045865 0.0
47.981717695512074 39.699107175991514 0.0
47.973208564679865 41.698960591359054 0.0
47.964723829647 43.69888494717845 0.0
47.95625589962321 45.69887951561429 0.0
47.94779715324559 47.698943792532496 0.0
47.93933993817044 49.6990774996617 0.0
47.93087657098978 51.69928058674809 0.0
47.922399337468654 53.69955323369216 0.0
47.913900493098055 55.69989585265504 0.0
47.90537226395962 57.70030909012414 0.0
47.89680684789765 59.70079382892661 0.0
47.88819641599496 61.701351190179025 0.0
47.87953311434854 63.70198253516313 0.0
47.87080906614192 65.70268946713246 0.0
47.8620163740108 67.70347383299242 0.0
47.85314712269838 69.70433772489301 0.0
47.844193381996604 71.70528348169277 0.0
47.83514720996849 73.70631369028446 0.0
47.82600065644665 75.70743118676637 0.0
47.81674576680032 77.70863905744133 0.0
47.8073745859626 79.70994063962436 0.0
47.797879162706806 81.71133952223776 0.0
47.78825155415841 83.71283954617199 0.0
47.778483830524905 85.71444480438834 0.0
47.76856808002388 87.71615964173918 0.0
47.75849641398321 89.71798865447924 0.0
47.74826097208401 91.71993668944299 0.0
47.73785392771132 93.72200884286025 0.0
47.72726749337123 95.72421045878504 0.0
50.174876310654426 -0.26896986089478636 0.0
50.16390245874585 1.7290094867345505 0.0
50.15310892610253 3.727117588841691 0.0
50.14248786172664 5.725349570350478 0.0
50.132031458392454 7.723700761472379 0.0
50.12173194672132 9.722166695791365 0.0
50.11158158925628 11.720743108796364 0.0
50.10157267459356 13.719425936844303 0.0
50.0916975116219 15.718211316526755 0.0
50.08194842391695 17.717095584418875 0.0
50.07231774433164 19.716075277183165 0.0
50.062797809819166 21.715147132000435 0.0
50.05338095651994 23.714308087299145 0.0
50.04405951513887 25.713555283754907 0.0
50.034825806635034 27.71288606553122 0.0
50.02567213824138 29.71229798173385 0.0
50.016590799827874 31.71178878805094 0.0
50.007574060617934 33.71135644854879 0.0
49.998614166264915 35.71099913760115 0.0
49.989703336292195 37.71071524195544 0.0
49.980833761897976 39.71050336284571 0.0
49.97199760412408 41.71036231819638 0.0
49.96318699238594 43.71029114487479 0.0
49.954394023360344 45.71028910097364 0.0
49.945610760225605 47.71035566811053 0.0
49.93682923224965 49.71049055372968 0.0
49.928041434719844 51.71069369339336 0.0
49.919239329209375 53.71096525305134 0.0
49.910414844175016 55.711305631276616 0.0
49.901559875881105 57.71171546145826 0.0
49.89266628964552 59.712195613940175 0.0
49.88372592140411 61.71274719809541 0.0
49.87473057958965 63.713371564326124 0.0
49.8656720473232 65.71407030599428 0.0
49.85654208491484 67.7148452612279 0.0
49.84733243267156 69.71569851463998 0.0
49.838034814009816 71.71663239892061 0.0
49.828640938869526 73.71764949629119 0.0
49.81914250742568 75.71875263980597 0.0
49.80953121409249 77.71994491448024 0.0
49.7997987518128 79.72122965822639 0.0
49.78993681662406 81.72261046257476 0.0
49.77993711248817 83.72409117315573 0.0
49.76979135637021 85.72567588991656 0.0
49.75949128354644 87.72736896704644 0.0
49.74902865311722 89.7291750125803 0.0
49.73839525369623 91.7310988876516 0.0
49.72758290924001 93.73314570536475 0.0
49.71658348497746 95.73532082925513 0.0
52.181153180959306 -0.25747290951118895 0.0
52.1697705382393 1.7405330627057518 0.0
52.1585751849449 3.738666688921351 0.0
52.147558981057685 5.736923115815781 0.0
52.1367138329746 7.735297692477298 0.0
52.1260316869972 9.733785968473168 0.0
52.11550452284409 11.732383692403001 0.0
52.10512434724711 13.731086810914372 0.0
52.094883187685575 15.72989146814973 0.0
52.08477308630773 17.72879400559996 0.0
52.074786094081986 19.72779096233348 0.0
52.064914265216274 21.726879075569645 0.0
52.05514965187687 23.72605528156441 0.0
52.0454842992337 25.725316716776568 0.0
52.03591024085377 27.724660719283037 0.0
52.0264194944596 29.724084830412362 0.0
52.01700405806505 31.723586796566593 0.0
52.00765590649706 33.72316457119855 0.0
51.99836698830873 35.722816316921744 0.0
51.98912922308468 37.72254040775301 0.0
51.97993449913912 39.7223354313985 0.0
51.9707746716029 41.72220019162473 0.0
51.96164156089545 43.7221337106728 0.0
51.95252695157567 45.722135231696655 0.0
51.943422591565614 47.72220422121226 0.0
51.9343201917396 49.72234037154366 0.0
51.92521142587214 51.72254360325343 0.0
51.91608793093793 53.72281406754675 0.0
51.90694130775781 55.72315214863844 0.0
51.89776312198494 57.72355846607397 0.0
51.888544905427025 59.72403387699534 0.0
51.87927815770036 61.72457947834133 0.0
51.869954348213135 63.72519660897403 0.0
51.8605649184755 65.72588685173642 0.0
51.851101284735414 67.72665203538847 0.0
51.84155484093868 69.72749423645769 0.0
51.831916962012514 71.7284157809646 0.0
51.82217900747112 73.72941924601467 0.0
51.812332325341636 75.73050746123764 0.0
51.80236825640729 77.73168351005691 0.0
51.79227813876296 79.73295073076604 0.0
51.782053312676226 81.73431271738961 0.0
51.77168512574379 83.73577332030212 0.0
51.761164938330296 85.73733664657624 0.0
51.75048412927115 87.73900706003127 0.0
51.73963410181746 89.74078918094823 0.0
51.72860628979436 91.74268788541961 0.0
51.71739216393856 93.74470830429759 0.0
51.70598323837342 95.74685582170724 0.0
54.187346152173866 -0.24555688810504028 0.0
54.17555821539747 1.7524767156448529 0.0
54.163964504566756 3.7506368344884438 0.0
54.15255659481197 5.748918638215888 0.0
54.14132611035324 7.747317495870579 0.0
54.130264717356624 9.745828973820045 0.0
54.11936411684159 11.744448834346256 0.0
54.10861603770328 13.743173034731509 0.0
54.09801222990784 15.741997726804705 0.0
54.087544457910866 17.7409192569194 0.0
54.07720449434479 19.739934166328574 0.0
54.06698411401327 21.73903919192106 0.0
54.05687508822515 23.738231267283666 0.0
54.046869179494834 25.737507524054028 0.0
54.03695813663004 27.736865293529036 0.0
54.027133690222904 29.73630210849544 0.0
54.017387548555135 31.73581570524963 0.0
54.007711393924964 33.735404025771736 0.0
53.99809687939774 35.735065220029 0.0
53.988535625980546 37.73479764840689 0.0
53.97901922021799 39.734599884177925 0.0
53.969539212203394 41.734470716048385 0.0
53.96008711399899 43.73440915074088 0.0
53.95065439845692 45.73441441559353 0.0
53.9412324984326 47.73448596116289 0.0
53.93181280638151 49.73462346381661 0.0
53.9223866743309 51.73482682830495 0.0
53.91294541421824 53.735096190300254 0.0
53.90348029858945 55.735431918895515 0.0
53.89398256165042 57.73583461905423 0.0
53.88444340066721 59.73630513400312 0.0
53.87485397771101 61.736844547559286 0.0
53.86520542174536 63.73745418638402 0.0
53.85548883105461 65.73813562216961 0.0
53.845695276013 67.73889067370813 0.0
53.835815802195356 69.73972140887746 0.0
53.825841433829424 71.7406301465075 0.0
53.81576317759173 73.74161945811514 0.0
53.80557202674675 75.74269216949291 0.0
53.795258965629436 77.7438513621294 0.0
53.78481497446825 79.74510037444016 0.0
53.77423103454568 81.74644280278368 0.0
53.76349813368763 83.74788250223402 0.0
53.75260727207175 85.74942358707989 0.0
53.74154946833917 87.75107043101667 0.0
53.73031576598882 89.7528276669954 0.0
53.71889724002806 91.75470018669172 0.0
53.707285003846074 93.75669313955464 0.0
53.69547021626903 95.75881193139604 0.0
56.19345212347266 -0.2332254205497657 0.0
56.18126251171536 1.7648368165194253 0.0
56.169274026663196 3.763024392048471 0.0
56.157477963179765 5.7613325003149285 0.0
56.14586566790658 7.759756531398072 0.0
56.134428531436065 9.758292069266307 0.0
56.12315798056845 11.756934890423263 0.0
56.11204547072003 13.755680963084389 0.0
56.1010824785435 15.754526446844302 0.0
56.09026049481337 17.753467692801888 0.0
56.07957101762326 19.752501244103808 0.0
56.069005545934495 21.75162383686673 0.0
56.05855557350874 23.750832401438604 0.0
56.0482125832512 25.750124063959653 0.0
56.037968041984286 27.749496148184853 0.0
56.02781339566656 29.748946177530676 0.0
56.01774006506628 31.74847187731074 0.0
56.0077394418938 33.748071177122306 0.0
55.99780288539403 35.74774221335751 0.0
55.98792171939535 37.74748333183488 0.0
55.97808722980988 39.74729309046094 0.0
55.968290662576756 41.747170261960946 0.0
55.95852322203857 43.74711383663592 0.0
55.948776069741186 45.74712302512741 0.0
55.93904032364481 47.74719726117693 0.0
55.92930705773618 49.747336204367215 0.0
55.91956730203069 51.74753974283481 0.0
55.909812042955295 53.74780799594492 0.0
55.9000322241033 55.74814131692052 0.0
55.890218747354716 57.748540295419744 0.0
55.88036247435598 59.749005760054374 0.0
55.87045422835642 61.749538780842926 0.0
55.86048479639881 63.750140671592185 0.0
55.85044493186386 65.75081299221324 0.0
55.840325357370276 67.7515575509256 0.0
55.830116768031914 69.75237640638255 0.0
55.81980983507585 71.7532718696822 0.0
55.809395209824366 73.75424650625473 0.0
55.79886352804435 75.7553031376082 0.0
55.7882054146668 77.75644484291236 0.0
55.77741148887725 79.7576749603982 0.0
55.76647236957676 81.7589970885448 0.0
55.755378681208676 83.76041508702524 0.0
55.74412105994455 85.76193307737663 0.0
55.73269016021581 87.76355544335925 0.0
55.72107666157436 89.76528683096372 0.0
55.7092712758569 91.76713214802572 0.0
55.69726475462202 93.76909656340256 0.0
55.68504789681955 95.77118550566627 0.0
58.19946801131031 -0.22048225650915176 0.0
58.18688046397986 1.7776096101681476 0.0
58.174500906189536 3.775825601694693 0.0
58.16232035756989 5.774160938228968 0.0
58.15032989221049 7.772611031960347 0.0
58.13852063009651 9.77117148523255 0.0
58.1268837286672 11.769838089267182 0.0
58.11541037456757 13.768606823454624 0.0
58.104091775656876 15.767473855167152 0.0
58.09291915332931 17.7664355400567 0.0
58.0818837351952 19.76548842279281 0.0
58.070976748162884 21.764629238196378 0.0
58.060189411954134 23.763854912725016 0.0
58.04951293307872 25.763162566266274 0.0
58.03893849928732 27.76254951419667 0.0
58.02845727451533 29.762013269665747 0.0
58.018060394324706 31.761551546066435 0.0
58.007738961845924 33.76116225965111 0.0
57.997484044217515 35.76084353226535 0.0
57.987286669517296 37.76059369419217 0.0
57.97713782417631 39.76041128701679 0.0
57.96702845086385 41.76029506654905 0.0
57.956949446831345 43.76024400576085 0.0
57.946891662700544 45.76025729772003 0.0
57.936845901683064 47.760334358508274 0.0
57.92680291921659 49.76047483011136 0.0
57.91675342300587 51.76067858327194 0.0
57.906688073456415 53.76094572029781 0.0
57.89659748449132 55.76127657781914 0.0
57.886472224743365 57.76167172949033 0.0
57.87630281911648 59.76213198863187 0.0
57.866079750713226 61.76265841080668 0.0
57.855793463127114 63.763252296327586 0.0
57.84543436310002 65.76391519270271 0.0
57.834992823548525 67.76464889697542 0.0
57.824459186962564 69.76545545799156 0.0
57.81382376918291 71.76633717856087 0.0
57.80307686356318 73.76729661750227 0.0
57.79220874552383 75.76833659155722 0.0
57.781209677503654 77.7694601771489 0.0
57.7700699143143 79.77067071196451 0.0
57.75877970890017 81.77197179633151 0.0
57.74732931850457 83.77336729435619 0.0
57.735709011237695 85.77486133478845 0.0
57.72390907303816 87.77645831157292 0.0
57.71191981501376 89.77816288404247 0.0
57.69973158113991 91.77997997670798 0.0
57.68733475628675 93.7819147785938 0.0
57.67471977453674 95.78397274206712 0.0
60.20539075055006 -0.20733126949550984 0.0
60.192409125201515 1.7907912172334255 0.0
60.179642312106964 3.7890365790347804 0.0
60.16708106118267 5.7874000633484615 0.0
60.154716179453494 7.7858771055311475 0.0
60.14253852169682 9.784463327038502 0.0
60.13053898125189 11.783154534251358 0.0
60.11870848107053 13.781946717907601 0.0
60.107037965075165 15.780836053089358 0.0
60.0955183898826 17.77981889972213 0.0
60.08414071694274 19.778891803536176 0.0
60.07289590513321 21.778051497440376 0.0
60.061774903842306 23.77729490325942 0.0
60.05076864656519 25.776619133785793 0.0
60.039868045030815 27.776021495100114 0.0
60.02906398386946 29.775499489115237 0.0
60.0183473158259 31.775050816302034 0.0
60.007708857516604 33.774673378552826 0.0
59.99713938572515 35.77436528215344 0.0
59.986629634226055 37.77412484085266 0.0
59.976170291124134 39.773950578940415 0.0
59.96575199669466 41.773841234369364 0.0
59.9553653417067 43.773795761877594 0.0
59.94500086621357 45.77381333609457 0.0
59.93464905879184 47.77389335461817 0.0
59.92430035621339 49.774035441052575 0.0
59.91394514353414 51.774239447998944 0.0
59.90357375458664 53.77450545999325 0.0
59.893176472864425 55.77483379638721 0.0
59.882743532789654 57.77522501417009 0.0
59.872265121357685 59.77567991072879 0.0
59.86173138015502 61.776199526543905 0.0
59.85113240775034 63.7767851478193 0.0
59.84045826246052 65.77743830905484 0.0
59.82969896549671 67.77816079552201 0.0
59.81884450449704 69.77895464567443 0.0
59.80788483745471 71.77982215346343 0.0
59.79680989705156 73.78076587054832 0.0
59.78560959540738 75.7817886083859 0.0
59.774273829255634 77.78289344017784 0.0
59.762792485554854 79.78408370265142 0.0
59.75115544754354 81.78536299764323 0.0
59.739352601243354 83.78673519345321 0.0
59.727373842411296 85.78820442592853 0.0
59.71520908393759 87.78977509923529 0.0
59.70284826367809 89.79145188626909 0.0
59.69028135270512 91.79323972865336 0.0
59.67749836394943 93.7951438362689 0.0
59.66448936119872 95.79716968625648 0.0
62.21121729562333 -0.1937764547092029 0.0
62.197845565561416 1.804377636314042 0.0
62.18469542812986 3.802653317339032 0.0
62.17175736957278 5.801045864483675 0.0
62.15902193583263 7.799550737299851 0.0
62.14647972234124 9.7981635770408 0.0
62.134121364027244 11.796880205618587 0.0
62.121937525618755 13.79569662520788 0.0
62.109918892311434 15.794609018438823 0.0
62.09805616086223 17.79361374913015 0.0
62.0863400311592 19.79270736350639 0.0
62.07476119830878 21.791886591843788 0.0
62.06331034527241 23.791148350490054 0.0
62.05197813607627 25.790489744204283 0.0
62.04075520960864 27.789908068765804 0.0
62.02963217401331 29.78940081380314 0.0
62.01859960167919 31.78896566579722 0.0
62.00764802482189 33.78860051121157 0.0
61.996767931646694 35.78830343971843 0.0
61.98594976307857 37.78807274750702 0.0
61.97518391004247 39.78790694058477 0.0
61.96446071127382 41.78780473810512 0.0
61.95377045163794 43.78776507567982 0.0
61.94310336093752 45.787787108658165 0.0
61.93244961318627 47.78787021536252 0.0
61.921799326329094 49.78801400027098 0.0
61.91114256239025 51.78821829714136 0.0
61.900469328033374 53.788483172072844 0.0
61.88976957551999 55.78880892650418 0.0
61.87903320405678 57.78919610014819 0.0
61.868250061524044 59.789645473863644 0.0
61.857409946583026 61.79015807246404 0.0
61.84650261116166 63.790735167464604 0.0
61.83551776332265 65.79137827977823 0.0
61.824445070521165 67.79208918232442 0.0
61.81327416326107 69.79286990258402 0.0
61.80199463916275 71.79372272507094 0.0
61.790596067455375 73.79465019371384 0.0
61.77906799390982 75.79565511413102 0.0
61.767399946226256 77.79674055577794 0.0
61.755581439892296 79.79790985394273 0.0
61.743601984523934 81.79916661155778 0.0
61.731451090700226 83.80051470079215 0.0
61.71911827729809 85.80195826438256 0.0
61.70659307932878 87.80350171665644 0.0
61.69386505627116 89.80514974419394 0.0
61.68092380088935 91.80690730607199 0.0
61.66775894851294 93.80877963362802 0.0
61.65436018674756 95.81077222967755 0.0
64.21694462171855 -0.17982192663938612 0.0
64.20318687337004 1.8183647463582329 0.0
64.1896574534703 3.816671689930806 0.0
64.17634659119769 5.815094210254092 0.0
64.1632445779254 7.813627792059529 0.0
64.15034175609665 9.812268097017078 0.0
64.13762850837338 11.811010962857104 0.0
64.12509524714267 13.809852403180603 0.0
64.11273240445364 15.808788607894018 0.0
64.10053042244738 17.807815944212653 0.0
64.08847974433175 19.8069309581702 0.0
64.07657080594205 21.80613037657209 0.0
64.06479402791913 23.80541110933204 0.0
64.05313980852597 25.804770252131995 0.0
64.04159851711545 27.804205089349296 0.0
64.0301604882537 29.80371309719732 0.0
64.01881601649555 31.80329194702993 0.0
64.00755535180262 33.80293950875884 0.0
63.99636869558928 35.80265385435075 0.0
63.98524619737652 37.80243326138747 0.0
63.97417795203175 39.802276216600234 0.0
63.9631539975693 41.80218141940978 0.0
63.952164313484914 43.80214778543145 0.0
63.94119881959912 45.80217444992779 0.0
63.930247375382386 47.80226077119983 0.0
63.91929977973908 49.80240633390977 0.0
63.90834577122758 51.80261095233139 0.0
63.89737502869846 53.80287467352756 0.0
63.88637717233427 55.8031977804562 0.0
63.875341765080364 57.80358079500843 0.0
63.86425831445877 59.80402448098243 0.0
63.85311627476221 61.804529846996466 0.0
63.841905049629254 63.80509814934546 0.0
63.8306139950065 65.80573089481409 0.0
63.819232422506595 67.8064298434153 0.0
63.807749603175445 69.80719701108748 0.0
63.79615477168447 71.8080346723248 0.0
63.78443713096631 73.80894536273429 0.0
63.77258585731434 75.80993188150528 0.0
63.76059010596653 77.81099729376977 0.0
63.74843901719483 79.81214493282928 0.0
63.73612172291929 81.81337840221535 0.0
63.723627353863854 83.81470157754586 0.0
63.71094504726734 85.81611860813298 0.0
63.69806395515718 87.81763391829142 0.0
63.68497325318789 89.81925220828991 0.0
63.671662150037506 91.82097845488273 0.0
63.65811989734532 93.82281791135249 0.0
63.64433580016418 95.82477610698989 0.0
66.22256972598497 -0.16547191640461634 0.0
66.20843015602333 1.8327483093189985 0.0
66.19452560356456 3.831087452841333 0.0
66.18084604793526 5.8295408517442455 0.0
66.16738153302211 7.8281040168630325 0.0
66.15412215516359 9.826772630819642 0.0
66.14105805138134 11.825542547346396 0.0
66.12817938803914 13.824409791342282 0.0
66.11547635000647 15.823370559590273 0.0
66.1029391303905 17.82242122207206 0.0
66.09055792088989 19.8215583238105 0.0
66.07832290281118 21.820778587170047 0.0
66.06622423877735 23.820078914547786 0.0
66.0542520651479 25.819456391388872 0.0
66.04239648515966 27.81890828946455 0.0
66.0306475627879 29.818432070353747 0.0
66.01899531732033 31.818025389074233 0.0
66.00742971862884 33.81768609780885 0.0
65.99594068311758 35.817412249691124 0.0
65.98451807032288 37.8172021026309 0.0
65.97315168013554 39.81705412309076 0.0
65.96183125061471 41.816966989844275 0.0
65.95054645636095 43.81693959767523 0.0
65.93928690741717 45.816971061002064 0.0
65.92804214866591 47.81706071742043 0.0
65.91680165969478 49.81720813115829 0.0
65.90555485510397 51.817413096443694 0.0
65.89429108523386 53.81767564078682 0.0
65.88299963729476 55.81799602818214 0.0
65.87166973688583 57.81837476223743 0.0
65.86029054989474 59.81881258923743 0.0
65.84885118477527 61.81931050114951 0.0
65.83734069520528 63.81986973857929 0.0
65.82574808313197 65.82049179369257 0.0
65.81406230221725 67.82117841307735 0.0
65.80227226169927 69.82193160058011 0.0
65.7903668306907 71.82275362009467 0.0
65.77833484293774 73.82364699829908 0.0
65.76616510206507 75.82461452732717 0.0
65.75384638733524 77.82565926735462 0.0
65.74136745994888 79.82678454907446 0.0
65.72871706991346 81.82799397602832 0.0
65.71588396350491 83.82929142675457 0.0
65.7028568913425 85.8306810567046 0.0
65.68962461709395 87.8321672998741 0.0
65.67617592681837 89.8337548700855 0.0
65.66249963894865 91.83544876185357 0.0
65.64858461490338 93.83725425075717 0.0
65.63441977030617 95.83917689323525 0.0
68.22808962874973 -0.15073076881004832 0.0
68.21357254095236 1.8475239730952127 0.0
68.19929711077695 3.845896247752904 0.0
68.18525307556625 5.84438142545036 0.0
68.17143023941262 7.842975043972101 0.0
68.1578184599958 9.84167280732325 0.0
68.14440763583407 11.840470585297853 0.0
68.13118769404332 13.839364413825844 0.0
68.11814857868313 15.838350496018558 0.0
68.105280239757 17.83742520384096 0.0
68.09257262291987 19.83658508033229 0.0
68.0800156599335 21.835826842297667 0.0
68.06759925989755 23.83514738339534 0.0
68.05531330127245 25.834543777546855 0.0
68.04314762469927 27.834013282601294 0.0
68.03109202661118 29.833553344189678 0.0
68.01913625362313 31.833161599710273 0.0
68.00726999767862 33.8328358823865 0.0
67.99548289192498 35.83257422535932 0.0
67.98376450728584 37.83237486579175 0.0
67.97210434969396 39.832236248896386 0.0
67.96049185794679 41.83215703191597 0.0
67.94891640214561 43.832136088016966 0.0
67.93736728268028 45.832172510082394 0.0
67.9258337297223 47.832265614397976 0.0
67.91430490319269 49.832414944230194 0.0
67.90276989317428 51.8326202732986 0.0
67.89121772074269 53.83288160914863 0.0
67.87963733919507 55.83319919643436 0.0
67.86801763566186 57.833573520122656 0.0
67.85634743309268 59.83400530863107 0.0
67.8446154926135 61.834495536911106 0.0
67.83281051625826 63.835045429489796 0.0
67.82092115008484 65.83565646348883 0.0
67.80893598769077 67.83633037160153 0.0
67.79684357414924 69.83706914506283 0.0
67.78463241039051 71.83787503659505 0.0
67.77229095805937 73.83875056332714 0.0
67.7598076448795 75.83969850967567 0.0
67.74717087056132 77.84072193016885 0.0
67.73436901328715 79.84182415218838 0.0
67.72139043681022 81.84300877859508 0.0
67.70822349819976 83.84427969019704 0.0
67.69485655626285 85.84564104801007 0.0
67.68127798066718 87.84709729525146 0.0
67.66747616178318 89.84865315900022 0.0
67.65343952125416 91.85031365144741 0.0
67.63915652329328 93.8520840706532 0.0
67.62461568669305 95.85397000071916 0.0
70.23350137475656 -0.13560293909633225 0.0
70.21861117657389 1.862687274783878 0.0
70.20396922508726 3.861093605256169 0.0
70.18956502422584 5.859611456543924 0.0
70.17538814663287 7.858236394125685 0.0
70.161428219373 9.856964143694126 0.0
70.14767491013829 11.855790591017364 0.0
70.13411791405215 13.85471178262705 0.0
70.12074694115303 15.853723927243587 0.0
70.10755170462876 17.852823397857406 0.0
70.09452190985344 19.85200673437852 0.0
70.08164724426734 21.85127064676827 0.0
70.06891736812524 23.850612018569134 0.0
70.05632190612502 25.850027910752495 0.0
70.04385043991721 27.849515565808158 0.0
70.03149250148367 29.849072412005913 0.0
70.0192375673663 31.848696067764383 0.0
70.00707505371518 33.84838434606487 0.0
69.99499431212205 35.8481352588693 0.0
69.98298462619744 37.84794702151701 0.0
69.9710352088481 39.84781805701148 0.0
69.95913520020771 41.847747000226086 0.0
69.94727366617472 43.84773270199059 0.0
69.93543959751139 45.8477742330457 0.0
69.92362190946059 47.8478708878634 0.0
69.9118094418406 49.848022188334475 0.0
69.89999095958215 51.84822788732954 0.0
69.8881551536783 53.84848797214475 0.0
69.87629064252256 55.84880266784618 0.0
69.86438597361918 57.849172440529436 0.0
69.85242962565486 59.84959800051236 0.0
69.84041001092999 61.850080305477384 0.0
69.82831547815336 63.85062056358211 0.0
69.81613431561335 65.85122023656128 0.0
69.80385475474375 67.85188104280691 0.0
69.79146497410989 69.85260496046413 0.0
69.77895310384612 71.85339423053021 0.0
69.7663072305807 73.85425135995703 0.0
69.75351540288803 75.85517912474795 0.0
69.74056563731175 77.85618057303171 0.0
69.72744592500212 79.85725902808842 0.0
69.71414423901358 81.85841809129406 0.0
69.70064854230466 83.85966164493944 0.0
69.6869467964815 85.8609938548718 0.0
69.67302697131892 87.86241917289567 0.0
69.65887705508865 89.86394233886043 0.0
69.64448506571287 91.86556838235262 0.0
69.62983906275201 93.86730262390006 0.0
69.61492716022094 95.86915067558797 0.0
72.23880203438829 -0.12009298935373192 0.0
72.22354323320326 1.8782336442705243 0.0
72.20853921472191 3.8766749484490215 0.0
72.19377925878571 5.875226362480195 0.0
72.17925271563142 7.873883480156114 0.0
72.16494899038814 9.872642049008647 0.0
72.15085752816947 11.871497970518465 0.0
72.13696779986411 13.870447301201136 0.0
72.12326928871272 15.869486254470004 0.0
72.10975147774096 17.86861120318416 0.0
72.09640383810368 19.86781868278371 0.0
72.08321581837703 21.86710539491589 0.0
72.07017683482222 23.866468211458837 0.0
72.05727626262716 25.86590417885419 0.0
72.04450342812122 27.86541052266451 0.0
72.03184760194468 29.86498465227917 0.0
72.01929799314426 31.864624165698498 0.0
72.0068437441573 33.86432685432887 0.0
71.9944739266397 35.8640907077457 0.0
71.98217753808751 37.863913918395525 0.0
71.96994349919856 39.86379488614903 0.0
71.95776065191839 41.86373222273362 0.0
71.94561775811498 43.86372475600816 0.0
71.93350349882792 45.86377153407101 0.0
71.9214064740414 47.863871829200825 0.0
71.9093152029338 49.864025141636745 0.0
71.89721812456294 51.86423120320846 0.0
71.88510359895227 53.86448998083276 0.0
71.87295990855064 55.864801679895955 0.0
71.86077526004631 57.865166747545395 0.0
71.84853778652439 59.86558587591285 0.0
71.83623554996484 61.866060005293775 0.0
71.82385654408793 63.86659032730562 0.0
71.81138869756164 65.8671782880546 0.0
71.79881987759357 67.86782559130428 0.0
71.78613789393859 69.86853420168632 0.0
71.77333050335905 71.86930634794636 0.0
71.76038541458118 73.87014452622944 0.0
71.74729029379633 75.87105150339721 0.0
71.73403277075893 77.8720303203634 0.0
71.72060044553605 79.8730842954221 0.0
71.70698089596381 81.87421702753588 0.0
71.69316168586558 83.87543239953865 0.0
71.67913037408324 85.87673458119806 0.0
71.66487452436945 87.87812803207082 0.0
71.65038171618077 89.87961750407304 0.0
71.63563955640267 91.88120804367583 0.0
71.62063569202675 93.88290499362628 0.0
71.60535782378459 95.88471399408142 0.0
74.24398870488046 -0.10420558457266749 0.0
74.22836590393376 1.8941584081870078 0.0
74.21300436673323 3.8926355969069126 0.0
74.19789315916873 5.891221456981871 0.0
74.1830214188588 7.889911610983684 0.0
74.16837833835203 9.888701828252948 0.0
74.15395314903263 11.887588025517566 0.0
74.13973510583854 13.88656626844099 0.0
74.12571347288392 15.885632773987696 0.0
74.11187751005816 17.884783913502623 0.0
74.09821646065565 19.88401621639532 0.0
74.08471954007165 21.883326374320852 0.0
74.07137592558288 23.882711245754425 0.0
74.05817474721567 25.882167860860662 0.0
74.04510507968727 27.881693426565654 0.0
74.03215593539531 29.88128533174754 0.0
74.01931625841672 31.88094115246957 0.0
74.00657491946869 33.88065865718349 0.0
73.99392071177604 35.88043581185708 0.0
73.98134234778367 37.880270784994394 0.0
73.96882845665026 39.88016195246098 0.0
73.95636758245571 41.88010790214221 0.0
73.94394818305788 43.880107438400024 0.0
73.93155862953347 45.880159586321696 0.0
73.91918720614444 47.88026359576442 0.0
73.90682211077508 49.88041894520681 0.0
73.89445145579175 51.88062534542372 0.0
73.88206326928574 53.88088274300682 0.0
73.86964549666781 55.8811913237572 0.0
73.85718600259224 57.88155151597926 0.0
73.84467257319854 59.881963993707025 0.0
73.8320929186684 61.88242967989236 0.0
73.81943467610625 63.88294974958622 0.0
73.80668541276056 65.88352563314776 0.0
73.79383262961389 67.88415901948258 0.0
73.78086376537789 69.88485185935431 0.0
73.76776620093709 71.88560636876896 0.0
73.75452726429404 73.88642503243943 0.0
73.7411342360731 75.88731060732727 0.0
73.72757435564542 77.8882661262497 0.0
73.71383482794167 79.88929490152869 0.0
73.69990283101912 81.89040052864841 0.0
73.68576552445153 83.89158688987611 0.0
73.6714100586061 85.89285815778815 0.0
73.65682358486949 87.8942187986311 0.0
73.64199326687566 89.89567357543383 0.0
73.62690629278187 91.89722755077533 0.0
73.61154988862495 93.89888608909709 0.0
73.59591133277667 95.90065485843984 0.0
76.24905851150936 -0.08794548829996351 0.0
76.23307640546759 1.9104567942680992 0.0
76.21736198750926 3.908970771056497 0.0
76.20190412057951 5.907591954430497 0.0
76.18669174026277 7.906315996022723 0.0
76.17171383659918 9.905138686736693 0.0
76.15695943672632 11.904055957844744 0.0
76.14241758846322 13.903063883070484 0.0
76.12807734493106 15.902158681529812 0.0
76.11392775028497 17.90133672141442 0.0
76.09995782661098 19.90059452429503 0.0
76.08615656201968 21.899928769924703 0.0
76.07251289995205 23.89933630142677 0.0
76.05901572969125 25.898814130758282 0.0
76.0456538780605 27.898359444347392 0.0
76.0324161022691 29.897969608812446 0.0
76.01929108385944 31.897642176680066 0.0
76.00626742369448 33.89737489202481 0.0
75.99333363791767 35.897165695981485 0.0
75.98047815481205 37.897012732095334 0.0
75.96768931248148 39.89691435142374 0.0
75.95495535727477 41.89686911741718 0.0
75.94226444287584 43.896875810548046 0.0
75.92960462998494 45.89693343268382 0.0
75.91696388652169 47.89704121121418 0.0
75.90433008828647 49.897198602947874 0.0
75.89169102002523 51.89740529780262 0.0
75.87903437685172 53.897661222317716 0.0
75.86634776599163 55.89796654302289 0.0
75.85361870882343 57.89832166970077 0.0
75.8408346432025 59.89872725858157 0.0
75.82798292606721 61.899184215508186 0.0
75.81505083633589 63.89969369910998 0.0
75.80202557811675 65.9002571240273 0.0
75.78889428426258 67.90087616419665 0.0
75.775644020313 69.90155275624542 0.0
75.76226178887676 71.9022891030022 0.0
75.74873453451474 73.90308767713523 0.0
75.735049149192 75.9039512249204 0.0
75.72119247837276 77.90488277012909 0.0
75.70715132783766 79.90588561801557 0.0
75.69291247130367 81.90696335937103 0.0
75.67846265892855 83.90811987459782 0.0
75.66378862678093 85.9093593377444 0.0
75.64887710735154 87.91068622042701 0.0
75.6337148411757 89.91210529554867 0.0
75.61828858962852 91.91362164071221 0.0
75.60258514894092 93.91524064120848 0.0
75.58659136547013 95.91696799244689 0.0
78.25400860874122 -0.07131755786759264 0.0
78.23767197887845 1.9271239361406236 0.0
78.22160940319445 3.925675596987109 0.0
78.20580955362897 5.9243329747006825 0.0
78.19026117516704 7.923091750034698 0.0
78.17495306617214 9.921947734957076 0.0
78.15987405968488 11.920896874306273 0.0
78.1450130058077 13.919935248489086 0.0
78.13035875527584 15.919059077079204 0.0
78.11590014429063 17.91826472318574 0.0
78.10162598066681 19.91754869845436 0.0
78.08752503132425 21.91690766856761 0.0
78.0735860111309 23.916338459115696 0.0
78.05979757308545 25.91583806171716 0.0
78.04614829980709 27.915403640277056 0.0
78.0326266962859 29.91503253728196 0.0
78.01922118383115 31.91472228004129 0.0
78.00592009514496 33.914470586792994 0.0
77.99271167043852 35.914275372620324 0.0
77.97958405450295 37.914134755143344 0.0
77.96652529464326 39.91404705989893 0.0
77.95352333938295 41.914010825438574 0.0
77.94056603784786 43.91402480811507 0.0
77.92764113974336 45.91408798656013 0.0
77.91473629584338 47.91419956586692 0.0
77.90183905891863 49.91435898150096 0.0
77.88893688504093 51.91456590296981 0.0
77.87601713521074 53.91482023728959 0.0
77.86306707726712 55.91512213229001 0.0
77.85007388805263 57.915471979805005 0.0
77.83702465581776 59.915870418795976 0.0
77.82390638286341 61.916318338455255 0.0
77.8107059884337 63.916816881336864 0.0
77.79741031188384 65.91736744656427 0.0
77.78400611616095 67.91797169313496 0.0
77.77048009164784 69.91863154337642 0.0
77.75681886043026 71.91934918656679 0.0
77.7430089810592 73.92012708273894 0.0
77.72903695388747 75.9209679666738 0.0
77.71488922706811 77.92187485207747 0.0
77.70055220330691 79.92285103592421 0.0
77.6860122474655 81.92390010293383 0.0
77.67125569511296 83.9250259301367 0.0
77.65626886212293 85.92623269146567 0.0
77.64103805541048 87.9275248622966 0.0
77.62554958489648 89.92890722384371 0.0
77.60978977677865 91.93038486729887 0.0
77.59374498817583 93.93196319758617 0.0
77.577401623197 95.93364793658756 0.0
80.25883618132482 -0.05432673915829289 0.0
80.24214989029113 1.9441548785815717 0.0
80.22574396000265 3.942745111737173 0.0
80.20960688433539 5.941439548474895 0.0
80.19372723001545 7.940233898466919 0.0
80.17809361536794 9.939123993951965 0.0
80.1626946901862 11.938105792038098 0.0
80.14751911685063 13.937175378106994 0.0
80.13255555280165 15.93632897016209 0.0
80.11779263444383 17.935562923972793 0.0
80.10321896253183 19.934873738861445 0.0
80.08882308906377 21.934258063983584 0.0
80.07459350568247 23.933712704958683 0.0
80.06051863356215 25.93323463071717 0.0
80.04658681473765 27.932820980440166 0.0
80.03278630481499 29.932469070481297 0.0
80.01910526698667 31.93217640117263 0.0
80.00553176726238 33.93194066342628 0.0
79.99205377081614 35.93175974507614 0.0
79.97865913934578 37.93163173691987 0.0
79.9653356293358 39.93155493837719 0.0
79.95207089111558 41.931527862794546 0.0
79.9388524686072 43.931549242371815 0.0
79.92566779966187 45.93161803271804 0.0
79.91250421689183 47.93173341705741 0.0
79.8993489489136 49.931894810116276 0.0
79.88618912193093 51.93210186173068 0.0
79.8730117615962 53.93235446022142 0.0
79.85980379510528 55.93265273558894 0.0
79.84655205349358 57.93299706258447 0.0
79.83324327411725 59.93338806371534 0.0
79.81986410331848 61.93382661224199 0.0
79.80640109928878 63.93431383522382 0.0
79.79284073516007 65.93485111667236 0.0
79.7791694023673 67.93544010084285 0.0
79.76537341434 69.9360826957246 0.0
79.75143901059397 71.93678107675254 0.0
79.73735236130433 73.93753769076507 0.0
79.72309957245358 75.9383552602199 0.0
79.70866669165507 77.93923678766643 0.0
79.69403971476041 79.94018556046149 0.0
79.67920459336369 81.94120515569662 0.0
79.664147243319 83.942299445293 0.0
79.64885355438633 85.9434726012002 0.0
79.63330940112006 87.94472910061819 0.0
79.6175006551087 89.94607373114383 0.0
79.60141319866443 91.94751159572284 0.0
79.58503294005104 93.94904811727028 0.0
79.5683458303218 95.95068904280242 0.0
82.26353844531047 -0.036978060869491625 0.0
82.24650743145529 1.9615445832845273 0.0
82.22976302440222 3.9601742690956807 0.0
82.21329355397879 5.958906623079803 0.0
82.19708742196067 7.9577373833181815 0.0
82.18113307912606 9.956662401184143 0.0
82.16541900360548 11.955677644392427 0.0
82.14993368066534 13.95477920121278 0.0
82.1346655840341 15.953963285670655 0.0
82.11960315884885 17.953226243568917 0.0
82.1047348062722 19.952564559158606 0.0
82.09004886979804 21.95197486229157 0.0
82.07553362323944 23.951453935896176 0.0
82.06117726036325 25.950998723626963 0.0
82.04696788611668 27.950606337552188 0.0
82.03289350936706 29.950274065757416 0.0
82.01894203706163 31.949999379759475 0.0
82.00510126969945 33.94977994163569 0.0
81.99135889799798 35.949613610809706 0.0
81.9777025006296 37.94949845045202 0.0
81.9641195429021 39.94943273341282 0.0
81.95059737625586 41.94941494771968 0.0
81.93712323845514 43.94944380162084 0.0
81.92368425435687 45.94951822818715 0.0
81.91026743714974 47.949637389502456 0.0
81.8968596899678 49.94980068048162 0.0
81.88344780779504 51.95000773236647 0.0
81.870018479594 53.95025841595677 0.0
81.85655829060511 55.950552844640214 0.0
81.84305372478231 57.95089137728938 0.0
81.82949116734662 59.951274621094925 0.0
81.81585690745706 61.95170343440421 0.0
81.80213714101615 63.95217892963367 0.0
81.78831797364383 65.95270247632362 0.0
81.77438542387063 67.9532757043781 0.0
81.76032542661652 69.95390050755817 0.0
81.7461238370362 71.95457904726025 0.0
81.73176643482557 73.95531375661243 0.0
81.71723892909624 75.9561073449065 0.0
81.70252696393402 77.95696280237084 0.0
81.68761612476791 79.95788340527312 0.0
81.67249194567985 81.95887272132589 0.0
81.65713991779242 83.95993461535039 0.0
81.6415454988698 85.96107325513489 0.0
81.62569412426953 87.96229311740447 0.0
81.60957121937419 89.96359899379785 0.0
81.59316221362751 91.96499599672622 0.0
81.5764525562854 93.96648956496689 0.0
81.55942773397783 95.96808546882245 0.0
84.26811264897394 -0.019276628233883653 0.0
84.25074192019159 1.979287935176882 0.0
84.23366398314587 3.9779579459621814 0.0
84.2168670187834 5.976729068888381 0.0
84.20033927826977 7.975597069576569 0.0
84.18406905823129 9.974557817002111 0.0
84.16804467749023 11.97360728740323 0.0
84.15225445544066 13.972741569419187 0.0
84.13668669217863 15.971956870259593 0.0
84.12132965046672 17.971249522717514 0.0
84.10617153957801 19.970615992833277 0.0
84.09120050103394 21.970052888022547 0.0
84.07640459621548 23.969556965491087 0.0
84.06177179580273 25.969125140770885 0.0
84.04728997096854 27.968754496227458 0.0
84.0329468862305 29.968442289404905 0.0
84.01873019384813 31.968185961093543 0.0
84.00462742963502 33.967983143019104 0.0
83.9906260100471 35.96783166509124 0.0
83.97671323040093 37.967729562167726 0.0
83.96287626407324 39.9676750802547 0.0
83.9491021625352 41.96766668217836 0.0
83.93537785607853 43.96770305271498 0.0
83.9216901550999 45.967783103200404 0.0
83.90802575182069 47.967905975657914 0.0
83.89437122233183 49.96807104649423 0.0
83.88071302887042 51.968277929825746 0.0
83.86703752225061 53.96852648050414 0.0
83.8533309443905 55.96881679691845 0.0
83.83957943089528 57.969149223654384 0.0
83.82576901367739 59.96952435409295 0.0
83.81188562361356 61.969943033031406 0.0
83.79791509325936 63.970406359405885 0.0
83.78384315965975 65.97091568919699 0.0
83.7696554673148 67.97147263857359 0.0
83.75533757137603 69.97207908735133 0.0
83.74087494116542 71.97273718280931 0.0
83.72625296412663 73.97344934390483 0.0
83.71145695032864 75.97421826591308 0.0
83.69647213765663 77.97504692550173 0.0
83.68128369783446 79.97593858623532 0.0
83.66587674342951 81.97689680448573 0.0
83.6502363359988 83.97792543570542 0.0
83.63434749553566 85.97902864100023 0.0
83.61819521137701 87.98021089391617 0.0
83.60176445472857 89.98147698733166 0.0
83.58504019295601 91.9828320403235 0.0
83.56800740578134 93.98428150484963 0.0
83.55065110350642 95.98583117206746 0.0
86.27255607362103 -0.0012276161516178163 0.0
86.25485070068295 1.9973797493339864 0.0
86.23744424311862 3.996090949312358 0.0
86.22032474939802 5.994901686335827 0.0
86.20348033551798 7.993807752277974 0.0
86.18689915830443 9.992805031726926 0.0
86.17056939043168 11.991889506879984 0.0
86.15447919731521 13.991057263736296 0.0
86.13861671599788 15.990304499365134 0.0
86.12297003610955 17.98962753003784 0.0
86.1075271829428 19.989022800007337 0.0
86.09227610264921 21.988486890725788 0.0
86.07720464952462 23.9880165303027 0.0
86.06230057532201 25.98760860301992 0.0
86.04755152049802 27.987260158736987 0.0
86.0329450072766 29.98696842204143 0.0
86.01846843439284 31.98673080101863 0.0
86.00410907336143 33.986544895533484 0.0
85.9898540661071 35.98640850495882 0.0
85.9756904237842 37.98631963530538 0.0
85.96160502661328 39.98627650567741 0.0
85.94758462456461 41.98627755409315 0.0
85.93361583872351 43.98632144266489 0.0
85.9196851631848 45.98640706216897 0.0
85.9057789673356 47.98653353605555 0.0
85.89188349840126 49.98670022396014 0.0
85.8779848841487 51.986906724792576 0.0
85.86406913565995 53.987152879486395 0.0
85.8501221501104 55.98743877350028 0.0
85.8361297135083 57.987764739167034 0.0
85.82207750337392 59.98813135798666 0.0
85.80795109135998 61.98853946296086 0.0
85.79373594583674 63.988990141062445 0.0
85.77941743448731 65.98948473593342 0.0
85.76498082697913 67.99002485088091 0.0
85.75041129779895 69.99061235225821 0.0
85.73569392935548 71.99124937328489 0.0
85.72081371547351 73.99193831835653 0.0
85.70575556541749 75.99268186787859 0.0
85.69050430859714 77.99348298364235 0.0
85.67504470011977 79.99434491474344 0.0
85.6593614273636 81.99527120402279 0.0
85.64343911775326 83.99626569499101 0.0
85.62726234792322 85.99733253917178 0.0
85.61081565445618 87.99847620377862 0.0
85.59408354638116 89.99970147961236 0.0
85.57705051960981 92.00101348904114 0.0
85.55970107347957 94.00241769389712 0.0
85.54201972955636 96.00391990309609 0.0
88.27686603424684 0.01716373831507534 0.0
88.25883114358145 2.015814778540337 0.0
88.24110123097137 4.014568023820413 0.0
88.22366423014232 6.013419213601553 0.0
88.20650813853871 8.012364164238647 0.0
88.18962098854958 10.011398773418593 0.0
88.17299082070384 12.01051902618375 0.0
88.1566056590017 14.009721002325762 0.0
88.14045348850887 16.00900088489906 0.0
88.12452223529425 18.00835496961506 0.0
88.10879974874788 20.007779674874026 0.0
88.0932737862742 22.007271552199864 0.0
88.07793200031475 24.006827296856997 0.0
88.06276192761872 26.006443758445226 0.0
88.04775098064606 28.00611795128895 0.0
88.0328864409607 30.005847064460887 0.0
88.01815545444948 32.005628471304746 0.0
88.00354502818377 34.00545973834214 0.0
87.98904202873025 36.00533863349591 0.0
87.97463318171147 38.00526313358402 0.0
87.96030507241422 40.00523143101256 0.0
87.94604414725028 42.00524193971279 0.0
87.93183671588004 44.00529330032597 0.0
87.91766895382375 46.005384384677384 0.0
87.90352690540003 48.00551429960231 0.0
87.88939648685114 50.0056823902004 0.0
87.87526348953364 52.005888242608876 0.0
87.86111358307902 54.00613168639422 0.0
87.84693231844925 56.00641279666975 0.0
87.83270513084098 58.006731896051235 0.0
87.81841734241455 60.007089556563535 0.0
87.80405416485078 62.007486601611106 0.0
87.78960070176335 64.0079241081217 0.0
87.77504195101851 66.00840340897031 0.0
87.76036280703822 68.0089260957691 0.0
87.7455480631838 70.0094940221207 0.0
87.73058241434049 72.01010930740186 0.0
87.71545045984055 74.01077434113911 0.0
87.70013670688208 76.01149178802005 0.0
87.68462557461666 78.01226459356668 0.0
87.66890139909161 80.01309599047775 0.0
87.65294843924636 82.0139895056264 0.0
87.6367508841696 84.01494896767566 0.0
87.62029286183075 86.01597851525148 0.0
87.6035584495031 88.01708260558486 0.0
87.58653168609354 90.01826602350889 0.0
87.56919658659065 92.01953389066652 0.0
87.55153715883344 94.0208916747545 0.0
87.53353742278831 96.0223451985979 0.0
90.28103988001874 0.03589214413813835 0.0
90.26268064589705 2.034587721552465 0.0
90.24463239250446 4.033383860194201 0.0
90.22688295798227 6.032276335014303 0.0
90.20942023909335 8.031260984519719 0.0
90.19223216022405 10.030333716380616 0.0
90.17530664463942 12.02949051474404 0.0
90.1586315881721 14.028727448993886 0.0
90.14219483547808 16.028040683674693 0.0
90.12598415893923 18.027426489308944 0.0
90.1099872402444 20.02688125383431 0.0
90.09419165463085 22.026401494397525 0.0
90.07858485772341 24.02598386925788 0.0
90.06315417486589 26.025625189573265 0.0
90.04788679280449 28.025322430865884 0.0
90.03276975355044 30.025072743992496 0.0
90.01778995022548 32.02487346547264 0.0
90.00293412467451 34.0247221270528 0.0
89.98818886661896 36.024616464436825 0.0
89.97354061411708 38.02455442513657 0.0
89.95897565509961 40.02453417537762 0.0
89.94448012975344 42.02455410611172 0.0
89.93004003353829 44.02461283815137 0.0
89.91564122063471 46.02470922648057 0.0
89.9012694076432 48.02484236381986 0.0
89.88691017737443 50.02501158353867 0.0
89.87254898259599 52.02521646202271 0.0
89.85817114962668 54.02545682061407 0.0
89.84376188169871 56.025732727250514 0.0
89.82930626203367 58.02604449793343 0.0
89.81478925660991 60.02639269815645 0.0
89.80019571662432 62.02677814442453 0.0
89.78551038068225 64.02720190598978 0.0
89.77071787677413 66.0276653069271 0.0
89.75580272412502 68.02816992865101 0.0
89.74074933502773 70.02871761298448 0.0
89.72554201679348 72.0293104658603 0.0
89.71016497397638 74.02995086172803 0.0
89.69460231104813 76.03064144872124 0.0
89.6788380357172 78.03138515462095 0.0
89.66285606310363 80.03218519362947 0.0
89.64664022099338 82.03304507394803 0.0
89.63017425640852 84.03396860612496 0.0
89.61344184373675 86.03495991211673 0.0
89.5964265946691 88.03602343497455 0.0
89.579112070196 90.03716394903937 0.0
89.56148179490945 92.03838657049731 0.0
89.54351927384992 94.03969676811255 0.0
89.52520801212638 96.04110037392121 0.0
92.28507499454977 0.05495226526940211 0.0
92.26639663063091 2.0536932321233694 0.0
92.24803519176143 4.05253310428428 0.0
92.22997844119317 6.051467690242854 0.0
92.21221419421931 8.050492847687057 0.0
92.19473028479052 10.04960449046685 0.0
92.17751453470594 12.048798597380522 0.0
92.16055472557535 14.048071222487167 0.0
92.14383857369077 16.047418506626702 0.0
92.12735370788832 18.046836689841193 0.0
92.11108765042393 20.046322124388965 0.0
92.09502780082944 22.04587128805575 0.0
92.0791614226656 24.045480797486334 0.0
92.06347563303984 26.0451474212839 0.0
92.0479573947174 28.0448680926528 0.0
92.032593510618 30.044639921393134 0.0
92.01737062046527 32.04446020508866 0.0
92.00227519933486 34.044326439359104 0.0
91.98729355783611 36.04423632710568 0.0
91.97241184365615 38.04418778670494 0.0
91.95761604419927 40.04417895909377 0.0
91.94289199005992 42.04420821380621 0.0
91.9282253590833 44.04427415399083 0.0
91.91360168078644 46.044375620478455 0.0
91.8990063409336 48.04451169499622 0.0
91.88442458608748 50.044681702639394 0.0
91.86984152798578 52.04488521372939 0.0
91.85524214762218 54.04512204519585 0.0
91.84061129894341 56.045392261629594 0.0
91.82593371210508 58.0456961761573 0.0
91.81119399626178 60.04603435128851 0.0
91.79637664189814 62.04640759988532 0.0
91.78146602273888 64.0468169863989 0.0
91.766446397306 66.0472638285122 0.0
91.75130191021988 68.04774969930993 0.0
91.73601659336906 70.04827643009831 0.0
91.72057436709915 72.04884611397111 0.0
91.70495904159534 74.04946111020831 0.0
91.6891543186566 76.05012404957313 0.0
91.67314379407907 78.05083784055351 0.0
91.65691096088513 80.05160567657286 0.0
91.6404392136511 82.05243104416878 0.0
91.62371185419902 84.0533177321145 0.0
91.60671209892969 86.05426984142753 0.0
91.5894230880806 88.05529179618095 0.0
91.57182789719651 90.05638835499929 0.0
91.55390955109921 92.05756462308717 0.0
91.5356510406379 94.05882606460102 0.0
91.51703534249083 96.06017851513718 0.0
94.28896879592381 0.07433873039994454 0.0
94.26997654611047 2.073125928854204 0.0
94.25130710978621 4.072010367034165 0.0
94.23294819766336 6.070987884341006 0.0
94.21488756421095 8.070054353936271 0.0
94.19711297170937 10.06920569126078 0.0
94.1796121572442 12.068437864499849 0.0
94.16237280285262 14.06774690665937 0.0
94.14538250896834 16.06712892889181 0.0
94.12862877124513 18.06658013472523 0.0
94.1120989607716 20.066096834846537 0.0
94.09578030762688 22.065675462106494 0.0
94.07965988766742 24.06531258643607 0.0
94.06372461238165 26.065004929393073 0.0
94.0479612216037 28.064749378090813 0.0
94.03235627883875 30.064542998299302 0.0
94.01689616892297 32.06438304654807 0.0
94.00156709772055 34.06426698109509 0.0
93.98635509354885 36.06419247169007 0.0
93.97124601001663 38.0641574080898 0.0
93.956225529968 40.064159907278736 0.0
93.94127917023263 42.06419831946673 0.0
93.92639228690206 44.06427123290895 0.0
93.91155008087384 46.064377477636484 0.0
93.89673760343302 48.06451612821394 0.0
93.88193976167005 50.06468650565754 0.0
93.86714132356762 52.064888178665186 0.0
93.8523269226243 54.065120964319085 0.0
93.83748106191686 56.06538492843154 0.0
93.82258811754168 58.06568038570611 0.0
93.80763234140885 60.066007899888575 0.0
93.79259786339978 62.066368284077186 0.0
93.77746869293301 64.06676260135774 0.0
93.76222872001534 66.0671921659205 0.0
93.7468617158883 68.06765854479978 0.0
93.73135133340892 70.0681635603725 0.0
93.71568110733372 72.06870929373007 0.0
93.69983445470058 74.06929808902206 0.0
93.68379467552796 76.06993255885175 0.0
93.66754495407596 78.07061559078012 0.0
93.65106836093135 80.07135035497426 0.0
93.63434785620042 82.07214031300698 0.0
93.61736629410787 84.07298922778986 0.0
93.60010642931316 86.07390117458942 0.0
93.58255092526686 88.07488055304496 0.0
93.56468236493447 90.07593210007106 0.0
93.54648326421773 92.07706090349002 0.0
93.52793608840129 94.07827241620045 0.0
93.5090232719418 96.07957247064434 0.0
96.29271873642944 0.09404614360395791 0.0
96.27341786497745 2.0928804059457775 0.0
96.25444564299414 4.091810235346055 0.0
96.23578975278639 6.0908314987226575 0.0
96.21743791018045 8.089940080160012 0.0
96.19937782582103 10.089131891204898 0.0
96.18159716982389 12.088402883244775 0.0
96.16408354001433 14.087749061586102 0.0
96.14682443390633 16.08716650082396 0.0
96.12980722449922 18.086651361108185 0.0
96.11301913989308 20.086199904911716 0.0
96.09644724665011 22.08580851392623 0.0
96.08007843676145 24.085473705736973 0.0
96.06389941801899 26.08519214996315 0.0
96.04789670753952 28.084960683589973 0.0
96.03205662814646 30.084776325262897 0.0
96.01636530728155 32.08463628836102 0.0
96.00080867809854 34.08453799270716 0.0
95.9853724823782 36.084479074844445 0.0
95.9700422749014 38.08445739684149 0.0
95.95480342892655 40.08447105359224 0.0
95.93964114242871 42.08451837869667 0.0
95.92454044478342 44.08459794898725 0.0
95.90948620360254 46.08470858781144 0.0
95.89446313146443 48.08484936721047 0.0
95.8794557923136 50.08501960915366 0.0
95.86444860734609 52.08521888600505 0.0
95.84942586023392 54.085447020409774 0.0
95.83437170158462 56.08570408479555 0.0
95.81927015257047 58.08599040068778 0.0
95.80410510770352 60.086306538035316 0.0
95.78886033677054 62.086653314740396 0.0
95.77351948598047 64.08703179657923 0.0
95.75806607841254 66.08744329769 0.0
95.74248351388876 68.08788938178992 0.0
95.72675506842673 70.08837186427326 0.0
95.71086389345963 72.08889281532203 0.0
95.69479301504104 74.08945456414268 0.0
95.67852533327715 76.09005970442286 0.0
95.6620436222576 78.09071110107807 0.0
95.64533053077646 80.09141189833434 0.0
95.62836858415899 82.09216552916554 0.0
95.61114018752656 84.09297572607444 0.0
95.59362763084943 86.09384653317548 0.0
95.57581309614979 88.09478231950163 0.0
95.55767866722655 90.09578779342145 0.0
95.53920634227919 92.09686801801101 0.0
95.52037804980702 94.09802842718278 0.0
95.50117566815645 96.09927484232763 0.0
98.29632230195506 0.11406909594566761 0.0
98.27671808277678 2.1129512449303274 0.0
98.25744830109717 4.111927283944427 0.0
98.23850063688165 6.110993103151095 0.0
98.21986279114167 8.110144592042559 0.0
98.20152244426438 10.109377651765993 0.0
98.18346721816836 12.108688209680729 0.0
98.16568464253814 14.108072235710218 0.0
98.14816212530188 16.107525760024163 0.0
98.130886927426 18.107044891600918 0.0
98.11384614201188 20.106625837223657 0.0
98.09702667759441 22.10626492048639 0.0
98.08041524546695 24.105958600419417 0.0
98.06399835078552 26.105703489383952 0.0
98.04776228714883 28.105496369933544 0.0
98.0316931343035 30.10533421039191 0.0
98.01577675858871 32.10521417895097 0.0
97.99999881571178 34.10513365614185 0.0
97.98434475543684 36.1050902456106 0.0
97.9687998277675 38.10508178316913 0.0
97.95334909021571 40.10510634410262 0.0
97.93797741576995 42.10516224883833 0.0
97.92266950119965 44.10524806706377 0.0
97.90740987537005 46.10536262043118 0.0
97.89218290727702 48.10550498401578 0.0
97.87697281355508 50.105674486716964 0.0
97.86176366525395 52.10587071080781 0.0
97.84653939372627 54.10609349085052 0.0
97.83128379551422 56.10634291220127 0.0
97.81598053616692 58.106619309330384 0.0
97.80061315296639 60.10692326418116 0.0
97.78516505658263 62.107255604785706 0.0
97.76961953171828 64.10761740434681 0.0
97.75395973684502 66.10800998098453 0.0
97.73816870316949 68.10843489832922 0.0
97.72222933300294 70.10889396713182 0.0
97.70612439774261 72.10938924803914 0.0
97.6898365357043 74.10992305566525 0.0
97.67334825007606 76.11049796406704 0.0
97.65664190728957 78.11111681370731 0.0
97.63969973613415 80.11178271996548 0.0
97.62250382796087 82.11249908322442 0.0
97.60503613834578 84.11326960053424 0.0
97.58727849060261 86.11409827881847 0.0
97.5692125815499 88.11498944955235 0.0
97.5508199899503 90.1159477848036 0.0
97.53208218805099 92.11697831448227 0.0
97.51298055665545 94.11808644460042 0.0
97.49349640415646 96.11927797629201 0.0
100.29977701098984 0.13440217813674793 0.0
100.27987471608269 2.133333027473144 0.0
100.26031260451903 4.132356088329302 0.0
100.24107838207692 6.13146726883622 0.0
100.22215976054942 8.130662457277154 0.0
100.20354441286868 10.129937536731635 0.0
100.18521993259405 12.129288402114545 0.0
100.16717379804324 14.128710979110364 0.0
100.14939334123937 16.128201244473058 0.0
100.13186572174267 18.12775524717805 0.0
100.1145779053326 20.127369129919 0.0
100.09751664740766 22.127039150469987 0.0
100.0806684808821 24.12676170247402 0.0
100.06401970827949 26.126533335267148 0.0
100.0475563976589 28.126350772404066 0.0
100.03126438195642 30.126210928612718 0.0
100.01512926128844 32.126110924968906 0.0
99.9991364077397 34.12604810213988 0.0
99.98327097215038 36.1260200316334 0.0
99.96751789242015 38.1260245250346 0.0
99.95186190286236 40.126059641230825 0.0
99.93628754416739 42.126123691753364 0.0
99.92077917356734 44.12621524435103 0.0
99.90532097483538 46.12633312496447 0.0
99.8898969677963 48.12647641830021 0.0
99.87449101707776 50.12664446722785 0.0
99.85908683987776 52.126836871238936 0.0
99.84366801257912 54.12705348421763 0.0
99.82821797609107 56.12729441177892 0.0
99.81272003985055 58.12756000842937 0.0
99.7971573844619 60.1278508748032 0.0
99.78151306300467 62.128167855217264 0.0
99.7657700010806 64.12851203577941 0.0
99.74991099571531 66.12888474327012 0.0
99.73391871327023 68.12928754500265 0.0
99.71777568655848 70.12972224984921 0.0
99.70146431139477 72.1301909106008 0.0
99.68496684284223 74.13069582780783 0.0
99.66826539145404 76.13123955522586 0.0
99.65134191983563 78.13182490696475 0.0
99.63417823988374 80.13245496641504 0.0
99.61675601108493 82.13313309699305 0.0
99.59905674028244 84.13386295471777 0.0
99.58106178334027 86.13464850259481 0.0
99.56275234915832 88.13549402674698 0.0
99.54410950650453 90.13640415418804 0.0
99.5251141941466 92.13738387209094 0.0
99.50574723477293 94.13843854835272 0.0
99.4859893531959 96.13957395320264 0.0
102.30308041317072 0.15503999434221805 0.0
102.28288530009546 2.1540203493444734 0.0
102.26303608122568 4.1530912389220465 0.0
102.24352051857626 6.152248582744762 0.0
102.22432636222173 8.151488260012124 0.0
102.20544130195138 10.15080612674461 0.0
102.18685292390433 12.150198035650526 0.0
102.16854867249353 14.149659857994651 0.0
102.15051581780018 16.149187506863303 0.0
102.13274142850133 18.14877696123789 0.0
102.11521235027082 20.148424290299864 0.0
102.09791518947976 22.148125677423625 0.0
102.0808363019245 24.147877443363136 0.0
102.063961786215 26.147676068196137 0.0
102.0472774813893 28.14751821165739 0.0
102.03076896825733 30.14740073156492 0.0
102.01442157394125 32.14732070011842 0.0
101.99822037905632 34.14727541791631 0.0
101.98215022696863 36.14726242563743 0.0
101.96619573457428 38.14727951338426 0.0
101.95034130406972 40.14732472771352 0.0
101.93457113520905 42.147396376510635 0.0
101.91886923759348 44.14749303185804 0.0
101.90321944257974 46.14761353110096 0.0
101.88760541445315 48.14775697634939 0.0
101.87201066056569 50.1479227326765 0.0
101.85641854019872 52.14811042529052 0.0
101.84081227196658 54.148319935967045 0.0
101.82517493963998 56.148551399031376 0.0
101.80948949631775 58.148805197179726 0.0
101.7937387669362 60.14908195742134 0.0
101.77790544914986 62.149382547413815 0.0
101.76197211267245 64.14970807245159 0.0
101.74592119720698 66.15005987335012 0.0
101.72973500913994 68.15043952545503 0.0
101.71339571721587 70.15084883898106 0.0
101.69688534744314 72.15128986086891 0.0
101.68018577752318 74.15176487832379 0.0
101.66327873112503 76.15227642417712 0.0
101.64614577236503 78.15282728418534 0.0
101.62876830087814 80.15342050635452 0.0
101.61112754790256 82.15405941234759 0.0
101.59320457382265 84.15474761099989 0.0
101.57498026764756 86.15548901393201 0.0
101.5564353489209 88.15628785321026 0.0
101.53755037258597 90.15714870096107 0.0
101.51830573734141 92.15807649079866 0.0
101.49868169804375 94.15907654087127 0.0
101.47865838271431 96.16015457827494 0.0
104.30623008730528 0.17597717724503825 0.0
104.28574738562887 2.1750078356747715 0.0
104.26561626288733 4.17412735651966 0.0
104.24582457022801 6.173331663241692 0.0
104.22636012555995 8.172616616645726 0.0
104.20721066144377 10.171978035194893 0.0
104.18836377867169 12.171411718101648 0.0
104.16980690587583 14.170913470533403 0.0
104.15152726536013 16.170479130238874 0.0
104.13351184520452 18.170104594920325 0.0
104.11574737755303 20.16978584969338 0.0
104.09822032286128 22.169518994017604 0.0
104.08091685976548 24.169300267540887 0.0
104.0638228801311 26.16912607437079 0.0
104.0469239887569 28.168993005366527 0.0
104.03020550715014 30.168897858131896 0.0
104.0136524807432 32.168837654476484 0.0
103.99724968890455 34.168809655193925 0.0
103.98098165709133 36.16881137211499 0.0
103.9648326705071 38.168840577454624 0.0
103.9487867886571 40.168895310509036 0.0
103.93282786023427 42.168973881895155 0.0
103.91693953782335 44.16907487552227 0.0
103.90110529196531 46.1691971485432 0.0
103.88530842419159 48.16933982956718 0.0
103.86953207870187 50.169502315438535 0.0
103.85375925242721 52.16968426690138 0.0
103.83797280328645 54.16988560347707 0.0
103.82215545650922 56.170106497883026 0.0
103.80628980895952 58.17034737031638 0.0
103.79035833145582 60.17060888291698 0.0
103.77434336913467 62.1708919347115 0.0
103.75822713996071 64.17119765732507 0.0
103.74199173153232 66.1715274117266 0.0
103.72561909637797 68.17188278626087 0.0
103.70909104598202 70.17226559619046 0.0
103.69238924381705 72.17267788495542 0.0
103.6754951977 74.17312192733321 0.0
103.65839025182528 76.17360023465548 0.0
103.6410555788635 78.17411556221505 0.0
103.6234721725489 80.17467091896575 0.0
103.6056208412111 82.17526957958947 0.0
103.58748220274101 84.17591509897105 0.0
103.56903668150832 86.17661132908546 0.0
103.55026450778006 88.17736243826133 0.0
103.53114572021552 90.1781729327408 0.0
103.51166017203649 92.17904768040488 0.0
103.49178754149192 94.17999193647874 0.0
103.4715073472526 96.18101137097038 0.0
106.3092236387944 0.19720840449427213 0.0
106.2884585354003 2.1962901576213185 0.0
106.26805068027507 4.1954591091887234 0.0
106.24798804929404 6.194711177196785 0.0
106.22825855997203 8.194042193104908 0.0
106.20885001525745 10.193447925604278 0.0
106.18975005383264 12.19292410738839 0.0
106.17094610729725 14.192466464157759 0.0
106.1524253644392 16.192070745060082 0.0
106.13417474262747 18.191732753790145 0.0
106.11618086619787 20.191448379595904 0.0
106.09843005154691 22.19121362749013 0.0
106.08090829851717 24.19102464703879 0.0
106.06360128753776 26.190877759183348 0.0
106.0464943818945 28.190769480649518 0.0
106.02957263443469 30.19069654559872 0.0
106.01282079797029 32.19065592428049 0.0
105.99622333862153 34.19064483854006 0.0
105.97976445134947 36.19066077415774 0.0
105.96342807694568 38.19070149006724 0.0
105.9471979197882 40.19076502454844 0.0
105.93105746572607 42.19084969862929 0.0
105.91498999951607 44.190954116936354 0.0
105.89897862130988 46.19107716629093 0.0
105.8830062617611 48.19121801238475 0.0
105.8670556954014 50.19137609488869 0.0
105.85110955201164 52.191551121363226 0.0
105.83515032578718 54.191743060341985 0.0
105.81916038217268 56.19195213395845 0.0
105.8031219623061 58.19217881047735 0.0
105.78701718507777 60.19242379707885 0.0
105.77082804686952 62.19268803322818 0.0
105.75453641909405 64.19297268494365 0.0
105.73812404370433 66.19327914025378 0.0
105.72157252689324 68.19360900611935 0.0
105.70486333124467 70.19396410706227 0.0
105.68797776664181 72.19434648572953 0.0
105.67089698027564 74.19475840559072 0.0
105.65360194613832 76.19520235594585 0.0
105.6360734544209 78.19568105939157 0.0
105.6182921012728 80.19619748186796 0.0
105.60023827941734 82.1967548453765 0.0
105.58189217015251 84.19735664342836 0.0
105.5632337373016 86.1980066592446 0.0
105.54424272371374 88.19870898669018 0.0
105.52489865094566 90.19946805387733 0.0
105.50518082278718 92.20028864932385 0.0
105.48506833332051 94.20117595049176 0.0
105.46454008022435 96.20213555447111 0.0
108.31205869636423 0.21872841667891763 0.0
108.29101631952283 2.2178620505921085 0.0
108.27033685778562 4.21708123074865 0.0
108.25000845030993 6.21638185870885 0.0
108.23001914839297 8.215759723762188 0.0
108.21035685479488 10.215210530656819 0.0
108.19100927051548 12.214729930574741 0.0
108.17196384943897 14.214313554466912 0.0
108.15320776106547 16.213957047826185 0.0
108.13472786133907 18.213656106003263 0.0
108.11651067139586 20.213406509201835 0.0
108.09854236386974 22.213204156354955 0.0
108.08080875624415 24.213045097172873 0.0
108.06329531059886 26.212925561756503 0.0
108.04598713900585 28.212841987286183 0.0
108.02886901374835 30.212791041417105 0.0
108.01192538149886 32.21276964213506 0.0
107.99514038057487 34.21277497393696 0.0
107.97849786040229 36.212804500340084 0.0
107.96198140234902 38.21285597280358 0.0
107.94557434114533 40.21292743620667 0.0
107.92925978617353 42.213017231171214 0.0
107.91302064198617 44.21312399352632 0.0
107.89683962750041 46.21324665127151 0.0
107.88069929340045 48.21338441943115 0.0
107.86458203737492 50.21353679321113 0.0
107.84847011689851 52.213703539879496 0.0
107.832345659358 54.21388468979228 0.0
107.81619066939693 56.21408052697939 0.0
107.79998703343392 58.21429157969171 0.0
107.78371652137326 60.2145186112935 0.0
107.76736078559384 62.21476261186324 0.0
107.750901357357 64.21502479084323 0.0
107.73431964083134 66.21530657105212 0.0
107.717596904975 68.215609584359 0.0
107.70071427356663 70.21593566927912 0.0
107.68365271371853 72.2162868707373 0.0
107.6663930232418 74.21666544221748 0.0
107.64891581728044 76.21707385048978 0.0
107.6312015146636 78.21751478308379 0.0
107.61323032446916 80.217991158646 0.0
107.59498223333021 82.21850614029363 0.0
107.57643699405335 84.2190631520418 0.0
107.55757411616199 86.21966589834773 0.0
107.53837285901291 88.22031838677316 0.0
107.51881222817836 90.2210249537226 0.0
107.49887097581893 92.22179029316094 0.0
107.47852760581253 94.22261948815589 0.0
107.45776038443157 96.22351804502279 0.0
110.31473290800982 0.24053203699016557 0.0
110.29341831008236 2.23971833419402 0.0
110.27247230696678 4.238988541015537 0.0
110.25188324290917 6.238338529622269 0.0
110.23163933977823 8.237764032166398 0.0
110.21172863149411 10.23726067304974 0.0
110.19213890700918 12.236824004711034 0.0
110.172857662303 14.23644954590479 0.0
110.15387206161746 16.236132821403192 0.0
110.13516890791516 18.235869402085832 0.0
110.11673462231735 20.23565494442475 0.0
110.09855523206885 22.235485228454536 0.0
110.08061636639526 24.235356193425755 0.0
110.0629032594714 26.235263970466512 0.0
110.04540075959933 28.235204911715766 0.0
110.02809334362574 30.235175615537766 0.0
110.01096513557756 32.23517294757013 0.0
109.99399992849226 34.23519405748947 0.0
109.97718120843827 36.235236391534556 0.0
109.96049217976888 38.23529770091887 0.0
109.94391579072222 40.23537604633773 0.0
109.9274347585628 42.23546979892221 0.0
109.91103159355711 44.23557763800724 0.0
109.89468862117708 46.23569854614028 0.0
109.8783880020294 48.23583180179128 0.0
109.86211174911519 50.235976970239584 0.0
109.84584174212085 52.23613389311919 0.0
109.82955973854041 54.236302677097804 0.0
109.81324738151531 56.2364836821521 0.0
109.79688620436076 58.236677509882995 0.0
109.78045763182008 60.23688499229057 0.0
109.7639429781557 62.23710718140292 0.0
109.74732344224702 64.23734534012645 0.0
109.73058009991475 66.23760093465245 0.0
109.71369389374797 68.23787562874233 0.0
109.69664562074877 70.23817128016627 0.0
109.67941591815693 72.2384899395606 0.0
109.66198524785693 74.23883385193773 0.0
109.64433387980988 76.23920546105926 0.0
109.6264418749948 78.2396074168563 0.0
109.6082890683835 80.24004258605645 0.0
109.58985505251789 82.24051406614907 0.0
109.57111916229958 84.24102520278859 0.0
109.55206046164872 86.24157961070236 0.0
109.53265773273401 88.24218119812961 0.0
109.51288946852198 90.2428341947737 0.0
109.49273386944006 92.24354318319592 0.0
109.47216884499207 94.24431313352149 0.0
109.45117202120623 96.24514944125552 0.0
112.31724393603466 0.2626141927593977 0.0
112.29566207466966 2.261853934097701 0.0
112.27445451890212 4.261175968003975 0.0
112.25360986346448 6.260576122036853 0.0
112.23311654043354 8.260050053789957 0.0
112.21296274828418 10.259593288365064 0.0
112.19313639077406 12.259201259677308 0.0
112.17362502617955 14.258869354387823 0.0
112.15441582711054 16.258592957221467 0.0
112.13549555085012 18.258367496468296 0.0
112.11685051989303 20.25818848852585 0.0
112.09846661211161 22.258051580441993 0.0
112.0803292597722 24.257952589552836 0.0
112.06242345645096 26.257887539463788 0.0
112.04473377077517 28.257852691790355 0.0
112.02724436583362 30.2578445732485 0.0
112.0099390230601 32.25785999785375 0.0
111.99280116939838 34.25789608414229 0.0
111.97581390658976 36.257950267503446 0.0
111.95896004149259 38.25802030781745 0.0
111.94222211643144 40.258104292678766 0.0
111.92558243867836 42.25820063663689 0.0
111.90902310828744 44.258308076904 0.0
111.8925260436247 46.25842566603871 0.0
111.87607300405917 48.25855276214429 0.0
111.85964560940029 50.25868901712998 0.0
111.84322535578345 52.25883436358367 0.0
111.82679362780875 54.258989000788894 0.0
111.81033170683786 56.259153380400456 0.0
111.79382077543977 58.25932819226505 0.0
111.77724191805613 60.259514350843034 0.0
111.76057611802302 62.25971298265595 0.0
111.74380425115133 64.25992541515183 0.0
111.72690707611892 66.26015316734401 0.0
111.70986522197722 68.2603979425649 0.0
111.69265917312254 70.2606616236238 0.0
111.67526925212086 72.26094627065102 0.0
111.65767560081893 74.26125412187645 0.0
111.63985816021383 76.26158759757001 0.0
111.62179664959415 78.26194930734577 0.0
111.60347054551124 80.26234206100982 0.0
111.58485906118192 82.26276888310389 0.0
111.56594112697302 84.26323303127064 0.0
111.54669537266692 86.26373801853336 0.0
111.52710011226188 88.26428763954492 0.0
111.50713333211206 90.26488600081899 0.0
111.48677268327022 92.26553755490279 0.0
111.46599547894701 94.2662471383917 0.0
111.44477869805931 96.2670200136153 0.0
114.31958945105565 0.28496993908891044 0.0
114.29774516871225 2.2842639060421086 0.0
114.27628095528969 4.283638572315418 0.0
114.25518570538176 6.283089703043829 0.0
114.23444810402269 8.282612861026205 0.0
114.21405654981415 10.282203450192338 0.0
114.19399908938536 12.2818567632488 0.0
114.17426336376568 14.281568032090656 0.0
114.1548365668974 16.281332479528196 0.0
114.13570541618215 18.281145370931558 0.0
114.11685613462778 20.281002064472876 0.0
114.09827444388026 22.2808980587766 0.0
114.07994556718278 24.280829036954163 0.0
114.0618542411085 26.28079090618849 0.0
114.04398473478177 28.280779832236796 0.0
114.02632087521208 30.280792268427625 0.0
114.00884607734037 32.28082497892824 0.0
113.99154337740633 34.280875056238806 0.0
113.97439546830715 36.28093993306828 0.0
113.95738473570276 38.28101738886591 0.0
113.94049329374067 40.28110555138164 0.0
113.92370301940541 42.28120289378362 0.0
113.906995584637 44.28130822788104 0.0
113.89035248551447 46.281420694056635 0.0
113.8737550679397 48.281539748537504 0.0
113.8571845493984 50.2816651486349 0.0
113.84062203650547 52.2817969365733 0.0
113.82404853815534 54.28193542250545 0.0
113.80744497421071 56.28208116728018 0.0
113.79079217974979 58.282234965493686 0.0
113.77407090497972 60.28239782931522 0.0
113.75726181098933 62.28257097354054 0.0
113.74034546158022 64.28275580228707 0.0
113.72330231146452 66.28295389770416 0.0
113.70611269116723 68.28316701105554 0.0
113.6887567890144 70.28339705647561 0.0
113.67121463062608 72.283646107694 0.0
113.65346605637647 74.28391639799105 0.0
113.63549069732011 76.28421032362577 0.0
113.61726795012653 78.28453045095581 0.0
113.5987769516113 80.2848795274495 0.0
113.57999655349529 82.28526049676596 0.0
113.56090529808078 84.28567651805574 0.0
113.54148139558305 86.28613098960486 0.0
113.52170270392058 88.28662757691107 0.0
113.50154671182429 90.28717024524052 0.0
113.48099052619631 92.28776329666213 0.0
113.46001086471047 94.28841141149897 0.0
113.43858405471612 96.28911969406276 0.0
116.32176712482303 0.30759448482786733 0.0
116.29966512643277 2.306943462238253 0.0
116.27794903802351 4.306371573979516 0.0
116.25660810785278 6.305874501958867 0.0
116.23563132007166 8.305447690708691 0.0
116.21500731129781 10.305086397769244 0.0
116.1947243002884 12.304785748638636 0.0
116.17477003135708 14.304540794625229 0.0
116.15513173175941 16.304346571902904 0.0
116.13579608286277 18.30419816013785 0.0
116.11674920453618 20.304090739159864 0.0
116.09797665185887 22.304019642314813 0.0
116.07946342296741 24.303980405342894 0.0
116.06119397664257 26.30396880985797 0.0
116.04315225809263 28.303980920750483 0.0
116.02532173129887 30.304013117084253 0.0
116.00768541627927 32.3040621162945 0.0
115.99022592965221 34.30412499170496 0.0
115.97292552697057 36.30419918360547 0.0
115.95576614541423 38.30428250426597 0.0
115.93872944557671 40.304373137375215 0.0
115.92179685124596 42.30446963254893 0.0
115.90494958625342 44.304570895572816 0.0
115.88816870763922 46.30467617509621 0.0
115.87143513455116 48.304785046506964 0.0
115.85472967245326 50.30489739371012 0.0
115.83803303236786 52.305013389509824 0.0
115.82132584500101 54.30513347525772 0.0
115.80458866972064 56.30525834038951 0.0
115.7878019984532 58.30538890242268 0.0
115.7709462546466 60.30552628794067 0.0
115.7540017875214 62.30567181504079 0.0
115.73694886188942 64.30582697767852 0.0
115.71976764387043 66.30599343229429 0.0
115.70243818288061 68.30617298709244 0.0
115.68494039030733 70.3063675942801 0.0
115.66725401532041 72.3065793455718 0.0
115.64935861830834 74.30681047123188 0.0
115.63123354246483 76.30706334290971 0.0
115.61285788409417 78.30734048050385 0.0
115.59421046224647 80.30764456327478 0.0
115.57526978834578 82.30797844540831 0.0
115.55601403652925 84.30834517621052 0.0
115.53642101547536 86.30874802509148 0.0
115.51646814256699 88.30919051146515 0.0
115.49613242130614 90.30967643965539 0.0
115.47539042297264 92.3102099388508 0.0
115.45421827359915 94.31079550809459 0.0
115.43259164741487 96.31143806622447 0.0
118.32377462168176 0.3304832211889641 0.0
118.30141945022618 2.3298880004760862 0.0
118.27945613705828 4.32937038206013 0.0
118.25787434284508 6.328925940369025 0.0
118.23666340076396 8.328549974469214 0.0
118.2158122258005 10.328237566450454 0.0
118.19530923923645 12.327983644812354 0.0
118.17514230904146 14.327783050883001 0.0
118.1552987063768 16.327630606270343 0.0
118.13576507792693 18.327521179436694 0.0
118.11652743331997 20.327449749625153 0.0
118.09757114650535 22.32741146657554 0.0
118.07888096963214 24.327401704725276 0.0
118.06044105772779 26.32741611087603 0.0
118.04223500232065 28.327450644606834 0.0
118.02424587206954 30.32750161101091 0.0
118.0064562584621 32.327565685614424 0.0
117.98884832470604 34.32763993158037 0.0
117.97140385605724 36.327721809552145 0.0
117.95410430998429 38.327809180642234 0.0
117.93693086476028 40.327900303195754 0.0
117.91986446527352 42.327993824114536 0.0
117.90288586506286 44.32808876554588 0.0
117.88597566378857 46.32818450778037 0.0
117.869114339546 48.32828076920578 0.0
117.85228227561456 50.328377584140625 0.0
117.8354597813939 52.32847527933244 0.0
117.8186271074247 54.32857444985338 0.0
117.80176445451123 56.32867593506966 0.0
117.78485197706829 58.3287807952983 0.0
117.76786978089645 60.328890289706244 0.0
117.75079791566031 62.32900585594889 0.0
117.73361636239986 64.32912909199291 0.0
117.71630501644904 66.32926174051678 0.0
117.69884366617754 68.32940567626491 0.0
117.68121196800256 70.32956289666491 0.0
117.6633894181505 72.3297355160192 0.0
117.64535532168338 74.3299257635499 0.0
117.62708875933725 76.33013598556283 0.0
117.60856855276046 78.33036865198041 0.0
117.58977322878638 80.3306263674854 0.0
117.57068098342467 82.3309118875016 0.0
117.55126964631614 84.3312281392258 0.0
117.53151664646084 86.33157824790608 0.0
117.5113989801061 88.33196556853706 0.0
117.49089318175993 90.33239372311115 0.0
117.46997529938393 92.33286664352285 0.0
117.44862087491386 94.33338862016753 0.0
117.42680493135013 96.33396435621063 0.0
120.32560958847031 0.35363175335344854 0.0
120.30300559821981 2.3530931362922605 0.0
120.28079955629707 4.352630627393047 0.0
120.25898160007225 6.352239665366398 0.0
120.23754146579037 8.351915372306891 0.0
120.21646838976955 10.351652621366757 0.0
120.19575102726864 12.351446109916127 0.0
120.17537738981713 14.35129043584925 0.0
120.15533480118138 16.351180174675612 0.0
120.13560987154533 18.351109955153916 0.0
120.11618848894666 20.351074531410383 0.0
120.09705582653909 22.351068849749016 0.0
120.07819636388417 24.351088108684078 0.0
120.05959392020141 26.35112781107728 0.0
120.04123169734295 28.351183807627038 0.0
120.02309233018822 30.351252331313333 0.0
120.00515794218353 32.35133002273279 0.0
119.98741020384709 34.351413946544454 0.0
119.96983039222964 36.35150159952764 0.0
119.95239944952395 38.351590910920685 0.0
119.9350980392589 40.35168023584376 0.0
119.91790659876574 42.351768342761716 0.0
119.90080538685648 44.35185439595384 0.0
119.88377452590251 46.35193793398352 0.0
119.86679403773067 48.35201884514551 0.0
119.8498438729571 50.35209734082559 0.0
119.8329039335644 52.352173927648 0.0
119.81595408868111 54.352249379215074 0.0
119.7989741836481 56.35232470816682 0.0
119.78194404256664 58.352401139212446 0.0
119.76484346459833 60.35248008371076 0.0
119.74765221435831 62.352563116309646 0.0
119.73035000678654 64.3526519540947 0.0
119.71291648692366 66.35274843863883 0.0
119.6953312050487 68.35285452132837 0.0
119.67757358765893 70.3529722522697 0.0
119.65962290480283 72.35310377308787 0.0
119.64145823429895 74.35325131389796 0.0
119.623058423408 76.35341719472181 0.0
119.6044020485622 78.35360383161404 0.0
119.58546737379797 80.35381374775777 0.0
119.5662323085938 82.35404958978486 0.0
119.54667436587806 84.35431414956852 0.0
119.5267706210405 86.35461039172628 0.0
119.50649767286718 88.35494148705381 0.0
119.48583160740938 90.35531085208423 0.0
119.46474796589561 92.35572219493362 0.0
119.44322171790623 94.35617956754058 0.0
119.42122724114517 96.35668742434781 0.0
122.3272696426223 0.37703593547534897 0.0
122.3044209697329 2.3765547386217705 0.0
122.28197651720116 4.376148198889487 0.0
122.25992696964238 6.375811586408675 0.0
122.23826252497892 8.37553980980618 0.0
122.21697278658694 10.375327494699562 0.0
122.19604667607663 12.375169068216442 0.0
122.17547236757332 14.375058846745553 0.0
122.15523724361813 16.374991124119912 0.0
122.13532787208284 18.374960257592377 0.0
122.11573000284805 20.374960749206224 0.0
122.09642858244521 22.374987320504477 0.0
122.07740778443747 24.37503497892586 0.0
122.05865105301241 26.37509907467155 0.0
122.0401411570948 28.37517534727156 0.0
122.02186025223989 30.375259961506945 0.0
122.00378994762954 32.37534953273465 0.0
121.98591137565109 34.375441141993306 0.0
121.96820526175662 36.37553234158075 0.0
121.95065199257787 38.37562115197769 0.0
121.93323168056995 40.37570605113255 0.0
121.9159242237699 42.37578595726767 0.0
121.89870935956219 44.375860206364536 0.0
121.88156671163269 46.375928525490735 0.0
121.86447582955775 48.375991003092636 0.0
121.84741622070719 50.37604805730847 0.0
121.83036737433937 52.376100403271884 0.0
121.81330877793252 54.37614902028022 0.0
121.7962199259282 56.376195119604446 0.0
121.77908032116622 58.37624011362193 0.0
121.76186946936978 60.37628558686343 0.0
121.74456686709097 62.37633326948839 0.0
121.7271519835728 64.37638501363207 0.0
121.70960423700595 66.37644277300664 0.0
121.69190296568236 68.37650858612028 0.0
121.67402739456146 70.37658456340647 0.0
121.6559565977811 72.37667287856675 0.0
121.63766945766898 74.37677576440397 0.0
121.61914462082865 76.37689551342265 0.0
121.6003604519134 78.37703448347041 0.0
121.5812949857414 80.37719510870038 0.0
121.56192587846002 82.37737991613739 0.0
121.54223035853377 84.37759154813389 0.0
121.52218517840763 86.37783279100029 0.0
121.50176656778925 88.37810661008544 0.0
121.4809501895954 90.37841619156849 0.0
121.4597110997232 92.37876499119261 0.0
121.43802371193055 94.37915679012998 0.0
121.41586176924464 96.37959575810896 0.0
124.3287523581908 0.40069190957308476 0.0
124.30566288830757 2.400268969436467 0.0
124.2829841397658 4.399919283921327 0.0
124.26070742203859 6.399637916329544 0.0
124.23882345839297 8.399419519523242 0.0
124.21732226789483 10.399258427071281 0.0
124.19619307159947 12.399148751016012 0.0
124.17542422387429 14.399084482910526 0.0
124.15500316887749 16.399059594794597 0.0
124.13491642133965 18.39906813699141 0.0
124.11514957002188 20.399104329929198 0.0
124.09568730157721 22.399162647628977 0.0
124.0765134420529 24.39923789100785 0.0
124.05761101294966 26.399325249689248 0.0
124.03896229858593 28.399420351553204 0.0
124.02054892150872 30.39951929977351 0.0
124.00235192280668 32.39961869754791 0.0
123.98435184440636 34.39971566111 0.0
123.96652881073435 36.39980782195714 0.0
123.94886260747924 38.399893319425274 0.0
123.93133275556899 40.39997078488437 0.0
123.9139185788581 42.400039318957994 0.0
123.8965992643875 44.40009846314636 0.0
123.87935391442197 46.400148167209124 0.0
123.86216158977037 48.40018875359231 0.0
123.84500134415417 50.40022088008232 0.0
123.82785224960956 52.40024550175243 0.0
123.8106934130785 54.40026383314342 0.0
123.79350398447816 56.40027731149519 0.0
123.77626315663927 58.40028756173062 0.0
123.75895015756888 60.400296363785785 0.0
123.74154423553753 62.40030562278968 0.0
123.72402463751979 64.40031734252007 0.0
123.70637058152589 66.4003336024934 0.0
123.68856122337188 68.40035653903216 0.0
123.67057561843538 70.40038833057788 0.0
123.65239267895278 72.40043118753742 0.0
123.63399112742015 74.40048734693077 0.0
123.61534944667837 76.40055907211314 0.0
123.59644582729362 78.4006486578549 0.0
123.57725811288257 80.40075844107722 0.0
123.5577637440853 82.40089081755464 0.0
123.53793970196178 84.4010482649125 0.0
123.51776245166717 86.4012333722542 0.0
123.49720788736485 88.4014488767588 0.0
123.47625127944649 90.40169770758162 0.0
123.45486722526265 92.40198303737222 0.0
123.43302960470383 94.40230834169229 0.0
123.4107115421317 96.40267746656166 0.0
126.3300552494664 0.42459614889100594 0.0
126.3067285819154 2.4242323279709446 0.0
126.28381942044012 4.423940413404274 0.0
126.26131978501567 6.423715217122357 0.0
126.23922099353399 8.423551087157183 0.0
126.21751353241392 10.423442013643186 0.0
126.19618695567726 12.42338174209007 0.0
126.17522981351208 14.423363889892167 0.0
126.15462961019922 16.423382062092816 0.0
126.13437279021908 18.423429962711197 0.0
126.11444475041667 20.423501498366374 0.0
126.09482987535009 22.42359087149484 0.0
126.0755115923903 24.423692661099828 0.0
126.05647244279095 26.423801889643638 0.0
126.03769416480563 28.423914075356404 0.0
126.01915778497 30.42402526985026 0.0
126.00084371385944 32.42413208146802 0.0
125.98273184295259 34.42423168523245 0.0
125.96480163963425 36.424321820641815 0.0
125.94703223782172 38.424400778761786 0.0
125.92940252217804 40.424467380200554 0.0
125.91189120433594 42.42452094565951 0.0
125.89447688999944 44.42456126069506 0.0
125.87713813618369 46.424588536264665 0.0
125.85985349820011 48.42460336651663 0.0
125.8426015662778 50.42460668513891 0.0
125.82536099194944 52.424599721426894 0.0
125.80811050450204 54.42458395706971 0.0
125.79082891792757 56.42456108450198 0.0
125.77349512889249 58.42453296752605 0.0
125.75608810630324 60.42450160478578 0.0
125.73858687306571 62.42446909656886 0.0
125.72097048065066 64.4244376153297 0.0
125.70321797706531 66.4244093802527 0.0
125.68530836882296 68.4243866361648 0.0
125.66722057748953 70.42437163702935 0.0
125.6489333913728 72.42436663428506 0.0
125.63042541292191 74.42437387027954 0.0
125.61167500241062 76.42439557706292 0.0
125.59266021850188 78.4244339808313 0.0
125.57335875632491 80.42449131233238 0.0
125.55374788375526 82.42456982357781 0.0
125.53380437665456 84.42467181123166 0.0
125.51350445392055 86.42479964706833 0.0
125.49282371330628 88.4249558159102 0.0
125.47173706909139 90.4251429614606 0.0
125.45021869283771 92.42536394044177 0.0
125.4282419586176 94.42562188542453 0.0
125.40577939428348 96.42592027669535 0.0
128.33117575180063 0.44874550642966105 0.0
128.30761515987905 2.4484417002567596 0.0
128.28447920649705 4.448208512318452 0.0
128.261760716937 6.448040451244356 0.0
128.2394516792333 8.447931503243304 0.0
128.21754310194805 10.447875255622868 0.0
128.19602490560064 12.44786502828255 0.0
128.17488584882585 14.447894008298924 0.0
128.15411348892468 16.44795538282561 0.0
128.1336941751679 18.448042465924136 0.0
128.1136130720939 20.448148815507402 0.0
128.09385420914884 22.44826833730267 0.0
128.0744005523961 24.448395373553183 0.0
128.05523409365543 26.448524775014906 0.0
128.03633595232944 28.448651955614316 0.0
128.01768648529406 30.448772929870806 0.0
127.99926540053082 32.44888433381768 0.0
127.98105187062237 34.44898343065342 0.0
127.96302464276484 36.44906810276315 0.0
127.94516214253284 38.449136831955705 0.0
127.9274425692216 40.44918866988155 0.0
127.90984398115725 42.44922320066251 0.0
127.89234436988711 44.449240497663155 0.0
127.8749217226186 46.44924107621688 0.0
127.8575540726637 48.449225843952185 0.0
127.84021953795853 50.44919605016893 0.0
127.82289634797066 52.44915323551085 0.0
127.80556285948332 54.44909918297921 0.0
127.78819756186549 56.44903587114664 0.0
127.77077907250685 58.44896543026044 0.0
127.75328612312998 60.448890101782716 0.0
127.73569753769426 62.44881220179715 0.0
127.71799220258937 64.44873408862031 0.0
127.70014902978654 66.4486581348818 0.0
127.68214691358173 68.44858670433108 0.0
127.6639646815311 70.44852213355429 0.0
127.6455810401532 72.4484667188291 0.0
127.62697451595476 74.44842270833982 0.0
127.60812339233507 76.44839230000696 0.0
127.58900564293812 78.44837764521907 0.0
127.56959886205428 80.44838085879846 0.0
127.54988019272636 82.44840403557421 0.0
127.52982625329028 84.44844927398057 0.0
127.50941306317401 86.44851870713616 0.0
127.48861596890134 88.44861454189288 0.0
127.46740957138196 90.44873910636286 0.0
127.44576765573198 92.44889490644033 0.0
127.4236631250541 94.44908469182577 0.0
127.40106793979918 96.44931153202977 0.0
130.33211119914733 0.4731372694864451 0.0
130.30831958592705 2.4728944148337706 0.0
130.28496016623785 4.472720956557639 0.0
130.2620266759637 6.472611039340452 0.0
130.2395118557334 8.472558221251054 0.0
130.21740729421353 10.4725556180169 0.0
130.1957033113726 12.47259605601427 0.0
130.17438888281558 14.47267222804095 0.0
130.15345160453657 16.472776846118542 0.0
130.13287769583636 18.47290278610497 0.0
130.11265203680685 20.47304321965117 0.0
130.09275823574 22.473191729972502 0.0
130.07317872112247 24.47334240893667 0.0
130.05389485251638 26.473489934013497 0.0
130.0348870445908 28.473629624621 0.0
130.01613489879563 30.473757478283318 0.0
129.99761733762992 32.473870187749554 0.0
129.97931273705223 34.47396514078069 0.0
129.96119905329272 36.47404040474283 0.0
129.94325394105576 38.47409469833927 0.0
129.9254548608387 40.474127352898705 0.0
129.9077791737721 42.474138265646886 0.0
129.8902042230005 44.474127847223 0.0
129.87270740114656 46.47409696551572 0.0
129.85526620383055 48.47404688765773 0.0
129.83785826955204 50.47397922175682 0.0
129.82046140649013 52.47389585968298 0.0
129.80305360693924 54.47379892198115 0.0
129.78561305020787 56.47369070575556 0.0
129.76811809484204 58.47357363617455 0.0
129.75054726104548 60.473450222081674 0.0
129.73287920413625 62.4733230160712 0.0
129.71509267983294 64.47319457928845 0.0
129.6971665021043 66.47306745114258 0.0
129.67907949425447 68.47294412412023 0.0
129.6608104338603 70.47282702382039 0.0
129.64233799212775 72.47271849438928 0.0
129.62364066820334 74.47262078954294 0.0
129.60469671895973 76.47253606941031 0.0
129.5854840847809 78.47246640348412 0.0
129.56598031189864 80.47241378002393 0.0
129.54616247188554 82.47238012231871 0.0
129.52600707898395 84.47236731227724 0.0
129.50549000605562 86.47237722187153 0.0
129.4845864000615 88.47241175300763 0.0
129.4632705981386 90.47247288643763 0.0
129.4415160455143 92.47256274034876 0.0
129.4192952167055 94.47268363927398 0.0
129.39657954167194 96.47283819395106 0.0
132.3328587977609 0.49776922122581024 0.0
132.30883864671296 2.4975883056916377 0.0
132.2852587543225 4.497475637187003 0.0
132.26211388442502 6.497424925473696 0.0
132.23939762040376 8.497429223149906 0.0
132.2171021921189 10.497481094627027 0.0
132.19521835054107 12.497572794590118 0.0
132.1737352911623 14.497696448690679 0.0
132.1526406250675 16.49784422951666 0.0
132.13192039458926 18.498008521612014 0.0
132.1115591288394 20.4981820703215 0.0
132.09153993320157 22.498358110450965 0.0
132.07184460610276 24.4985304720454 0.0
132.0524537760506 26.498693661888108 0.0
132.03334705199163 28.498842920532734 0.0
132.0145031804442 30.498974255728843 0.0
131.99590020351582 32.49908445394805 0.0
131.97751561273276 34.49917107233298 0.0
131.95932649452982 36.49923241383457 0.0
131.9413096641751 38.49926748846462 0.0
131.92344178581033 40.49927596361874 0.0
131.90569947710006 42.49925810635361 0.0
131.88805939770012 44.49921472024934 0.0
131.8704983213469 46.49914707921042 0.0
131.8529931918356 48.499056860236344 0.0
131.83552116350984 50.49894607685562 0.0
131.81805962711772 52.49881701459083 0.0
131.800586222044 54.49867216952068 0.0
131.78307883599373 56.49851419073861 0.0
131.76551559320916 58.498345827282364 0.0
131.7478748322686 60.49816987992723 0.0
131.73013507444247 62.497989158097695 0.0
131.71227498350189 64.49780644205383 0.0
131.69427331777135 66.49762445043942 0.0
131.67610887513376 68.49744581329001 0.0
131.65776043160312 70.49727305054273 0.0
131.63920667401413 72.49710855616318 0.0
131.62042612732412 74.49695458803264 0.0
131.60139707699253 76.49681326380255 0.0
131.58209748689973 78.49668656299524 0.0
131.56250491328646 80.4965763357108 0.0
131.54259641524473 82.49648431838077 0.0
131.52234846237494 84.49641215709178 0.0
131.50173684032285 86.49636143908081 0.0
131.48073655505993 88.49633373307161 0.0
131.4593217369274 90.49633063918124 0.0
131.43746554566897 92.49635384916824 0.0
131.4151400778968 94.49640521781812 0.0
131.39231627868938 96.4964868462642 0.0
134.33341559538985 0.5226397105192551 0.0
134.30916891500047 2.5225217837235823 0.0
134.28537117138634 4.522471033423752 0.0
134.2620182875882 6.5224806511829705 0.0
134.2391047884606 8.522543093728085 0.0
134.21662360910096 10.522650281485559 0.0
134.19456596050134 12.522793807352514 0.0
134.1729212533827 14.522965146801127 0.0
134.15167707843014 16.523155860875523 0.0
134.13081923872534 18.52335778463573 0.0
134.11033182821737 20.523563194942017 0.0
134.09019734866948 22.52376495305318 0.0
134.07039685670026 24.523956619183764 0.0
134.05091013227928 26.52413253778985 0.0
134.03171586027003 28.524287893825477 0.0
134.0127918172498 30.524418741455218 0.0
133.9941150567639 32.524522007673 0.0
133.9756620872751 34.52459547394258 0.0
133.95740903825453 36.52463773940687 0.0
133.93933181103296 38.524648169314816 0.0
133.9214062121306 40.5246268322537 0.0
133.9036080677518 42.5245744295901 0.0
133.8859133189585 44.52449222015331 0.0
133.8682980976887 46.52438194280158 0.0
133.85073878429066 48.524245739083064 0.0
133.8332120475908 50.52408607777469 0.0
133.81569486873437 52.523905682679334 0.0
133.79816455014895 54.5237074647016 0.0
133.78059871100422 56.52349445891343 0.0
133.76297527049837 58.523269767066445 0.0
133.74527242021347 60.52303650581091 0.0
133.72746858666264 62.522797760737504 0.0
133.70954238501878 64.52255654626276 0.0
133.69147256487744 66.52231577131649 0.0
133.67323794877663 68.52207821081969 0.0
133.65481736407904 70.52184648289519 0.0
133.6361895687254 72.52162303185224 0.0
133.61733317129494 74.52141011703252 0.0
133.59822654576126 76.52120980769072 0.0
133.57884774131915 78.52102398417998 0.0
133.5591743876658 80.52085434581332 0.0
133.53918359617768 82.52070242587905 0.0
133.51885185749313 84.52056961439291 0.0
133.49815493613707 86.5204571892704 0.0
133.47706776296423 88.52036635669518 0.0
133.4555643263849 90.52029830154001 0.0
133.43361756355046 92.52025424876086 0.0
133.4111992529252 94.52023553673014 0.0
133.38827990994776 96.52024370349692 0.0
136.33377844506748 0.5477477315699153 0.0
136.30930670645523 2.5476939182599896 0.0
136.28529331684274 4.5477062959472025 0.0
136.2617355058171 6.54777743997767 0.0
136.23862884789207 8.547899105221646 0.0
136.21596705002943 10.548062460165331 0.0
136.19374180816092 12.54825833191662 0.0
136.17194273342636 14.548477451142952 0.0
136.15055734538805 16.54871068665878 0.0
136.12957112648965 18.548949260747396 0.0
136.10896762967855 20.549184938091322 0.0
136.08872862950145 22.54941018324843 0.0
136.0688343061394 24.549618283743257 0.0
136.04926345172473 26.54980343787178 0.0
136.02999368877278 28.549960808107013 0.0
136.01100169152593 30.55008654245617 0.0
135.9922634023059 32.55017776720321 0.0
135.97375423643805 34.55023255516628 0.0
135.9554492708423 36.55024987398579 0.0
135.93732341284115 38.550229518960464 0.0
135.91935154706982 40.55017203475312 0.0
135.90150865951134 42.550078629950626 0.0
135.8837699386171 44.549951087938645 0.0
135.8661108541848 46.549791677013154 0.0
135.84850721518472 48.54960306209494 0.0
135.8309352080575 50.54938821987538 0.0
135.81337141718436 52.5491503587368 0.0
135.79579282928742 54.548892844365795 0.0
135.77817682347495 56.54861913162753 0.0
135.7605011485397 58.54833270298901 0.0
135.74274388895904 60.54803701357081 0.0
135.7248834208728 62.54773544276423 0.0
135.70689835911813 64.54743125226327 0.0
135.68876749621958 66.54712755031375 0.0
135.67046973405928 68.54682726203295 0.0
135.6519840087981 70.54653310562603 0.0
135.63328920949618 72.5462475744518 0.0
135.6143640907822 74.54597292495902 0.0
135.59518717985787 76.5457111706289 0.0
135.5757366780985 78.54546408217844 0.0
135.55599035751362 80.54523319441053 0.0
135.5359254523794 82.54501982022586 0.0
135.51551854643762 84.54482507244529 0.0
135.49474545617554 86.54464989421503 0.0
135.47358111086223 88.54449509888754 0.0
135.4519994302139 90.54436142037434 0.0
135.4299732007969 92.54424957505698 0.0
135.40747395254874 94.54416033640959 0.0
135.38447183710437 96.54409462353246 0.0
138.33394396248102 0.573093015184521 0.0
138.3092480288288 2.5731045306107987 0.0
138.28502073361582 4.57318134251395 0.0
138.26126077898692 6.5733152942434305 0.0
138.2379649077361 8.573497314151876 0.0
138.21512766723305 10.573717692693057 0.0
138.19274125701202 12.573966370946767 0.0
138.1707954602797 14.57423322695388 0.0
138.149277655236 16.57450834729132 0.0
138.128172898392 18.574782273198316 0.0
138.10746406925549 20.575046212966864 0.0
138.08713206393375 22.575292215006773 0.0
138.06715602439314 24.57551329872261 0.0
138.04751359022606 26.57570354286799 0.0
138.02818116063798 28.575858133210605 0.0
138.00913415580314 30.57597337304278 0.0
137.99034726852264 32.57604666126579 0.0
137.971794699064 34.57607644346401 0.0
137.95345036801038 36.57606214167587 0.0
137.9352881037567 38.57600406841059 0.0
137.91728180288192 40.57590333007255 0.0
137.89940556294982 42.57576172441065 0.0
137.8816337883333 44.57558163588818 0.0
137.86394127040683 46.57536593215222 0.0
137.84630324397082 48.57511786407133 0.0
137.82869542204722 50.57484097115229 0.0
137.81109401130746 52.574538993569696 0.0
137.79347571035981 54.57421579155364 0.0
137.77581769299832 56.57387527249108 0.0
137.75809757831914 58.573521325797934 0.0
137.74029338937538 60.57315776540689 0.0
137.7223835017867 62.57278827958156 0.0
137.70434658346832 64.57241638769814 0.0
137.6861615264002 66.57204540360937 0.0
137.66780737114078 68.57167840528594 0.0
137.6492632245975 70.57131821042759 0.0
137.63050817141072 72.57096735789419 0.0
137.61152117918735 74.57062809490436 0.0
137.59228099773873 76.57030237009182 0.0
137.57276605243666 78.56999183265934 0.0
137.55295433180177 80.56969783802845 0.0
137.53282326947945 82.56942146054202 0.0
137.51234962084484 84.56916351393805 0.0
137.49150933460575 86.56892458046582 0.0
137.47027741994145 88.56870504966349 0.0
137.44862780993373 90.56850516794717 0.0
137.42653322229725 92.56832510027917 0.0
137.40396501871749 94.56816500527675 0.0
137.38089306444041 96.5680251251919 0.0
140.33390847562464 0.5986761339935374 0.0
140.30898852199235 2.598754302001318 0.0
140.2845485432234 4.598896968318906 0.0
140.26058890175904 6.599095106989221 0.0
140.23710763869622 8.599338672690388 0.0
140.214100211174 10.599616930151127 0.0
140.1915593317724 12.599918795193625 0.0
140.1694749094048 14.600233170433565 0.0
140.14783408564278 16.60054926021714 0.0
140.12662135581348 18.60085685197461 0.0
140.105818760846 20.60114655440153 0.0
140.08540613383278 22.601409986416517 0.0
140.06536138458935 24.601639914332477 0.0
140.0456608059843 26.601830337825707 0.0
140.02627938723109 28.60197652789404 0.0
140.00719112140786 30.602075021949258 0.0
139.9883692969135 32.602123582459214 0.0
139.96978676511807 34.602121126177366 0.0
139.95141617893665 36.6020676311161 0.0
139.9332301992683 38.601964028020745 0.0
139.9152016681314 40.601812082447374 0.0
139.8973037488299 42.60161427272821 0.0
139.87951003461345 44.60137366813801 0.0
139.86179462806166 46.601093810639796 0.0
139.84413219389032 48.60077860270281 0.0
139.8264979880787 50.600432202893536 0.0
139.80886786622676 52.600058930267984 0.0
139.79121827390824 54.599663178046285 0.0
139.77352622154518 56.59924933663005 0.0
139.75576924602535 58.59882172571455 0.0
139.73792536095152 60.59838453504562 0.0
139.719972997072 62.59794177325538 0.0
139.70189093411605 64.59749722416932 0.0
139.68365822495343 66.59705440998205 0.0
139.66525411273054 68.59661656081555 0.0
139.64665794140572 70.59618659020155 0.0
139.6278490599122 72.59576707622467 0.0
139.60880672004308 74.59536024819256 0.0
139.58950996804128 76.5949679788746 0.0
139.56993752983354 78.59459178253198 0.0
139.55006768983384 80.59423281915097 0.0
139.52987816328434 82.59389190548293 0.0
139.5093459621863 84.59356953368341 0.0
139.4884472550096 86.59326589852998 0.0
139.46715722055134 88.59298093437417 0.0
139.44544989654372 90.59271436314626 0.0
139.42329802389 92.59246575487819 0.0
139.40067288773076 94.59223460233278 0.0
139.37754415691103 96.59202041142619 0.0
142.33366796510364 0.6244986244784096 0.0
142.30852338689678 2.6246448988670985 0.0
142.28387136927017 4.624854974134935 0.0
142.25971414803607 6.625118791443712 0.0
142.23605120493556 8.625425157398261 0.0
142.21287897532318 10.625762137487424 0.0
142.19019068097563 12.62611746081386 0.0
142.16797628623866 14.62647891485253 0.0
142.1462225686578 16.62683471126146 0.0
142.12491328953158 18.62717380737364 0.0
142.1040294458376 20.627486172361785 0.0
142.0835495828327 22.627762991717653 0.0
142.0634501462285 24.627996808151153 0.0
142.04370585393366 26.628181600918744 0.0
142.02429006957786 28.628312808698112 0.0
142.00517516298714 30.628387303322796 0.0
141.98633284608573 32.62840332297785 0.0
141.9677344760215 34.62836037391742 0.0
141.94935132040735 36.628259109601586 0.0
141.93115478225434 38.628101195399296 0.0
141.91311658436985 40.62788916598295 0.0
141.89520891466904 42.62762628136747 0.0
141.87740453502414 44.627316386265754 0.0
141.85967685701203 46.62696377624149 0.0
141.84199998828643 48.62657307305598 0.0
141.82434875337418 50.62614911067264 0.0
141.80669869255112 52.625696832619155 0.0
141.78902604215946 54.62522120081128 0.0
141.77130769934325 56.624727115502935 0.0
141.7535211737409 58.62421934572948 0.0
141.73564452823027 60.62370246942979 0.0
141.71765631038215 62.6231808223537 0.0
141.69953547587153 64.62265845485867 0.0
141.68126130473004 66.62213909574643 0.0
141.66281331100058 68.621626122452 0.0
141.64417114608412 70.62112253696176 0.0
141.62531449585052 72.62063094707587 0.0
141.60622297141433 74.62015355279372 0.0
141.58687599336199 76.61969213781394 0.0
141.5672526691485 78.61924806635443 0.0
141.5473316633689 80.61882228572063 0.0
141.5270910606446 82.6184153352741 0.0
141.5065082209541 84.61802736267636 0.0
141.4855596273766 86.61765814850277 0.0
141.46422072641437 88.61730714052939 0.0
141.44246576130246 90.6169734991951 0.0
141.42026759901844 92.6166561559183 0.0
141.39759755205327 94.6163538861053 0.0
141.37442519640763 96.61606539881492 0.0
144.3332179930543 0.6505631293802887 0.0
144.30784730105663 2.6507791192186683 0.0
144.28298324694035 4.6510583160212775 0.0
144.25863018256896 6.651389432242519 0.0
144.23478918573323 8.651759918845062 0.0
144.21145773487746 10.652156437581379 0.0
144.18862953823017 12.652565343337102 0.0
144.16629451354973 14.652973149761637 0.0
144.1444389056339 16.653366954766348 0.0
144.12304552166086 18.65373480749187 0.0
144.10209405975505 20.654066004255696 0.0
144.08156150399978 22.654351307115284 0.0
144.06142255925235 24.65458308438929 0.0
144.04165010113786 26.654755377298194 0.0
144.0222156199695 28.65486390054045 0.0
144.0030896415067 30.654905987016036 0.0
143.98424211189257 32.6548804881033 0.0
143.96564273839982 34.65478764104667 0.0
143.9472612814507 36.65462891441006 0.0
143.92906779658304 38.65440684130059 0.0
143.9110328275388 40.654124848555924 0.0
143.89312755345154 42.65378708846451 0.0
143.87532389427867 44.6533982779332 0.0
143.8575945792508 46.65296354853014 0.0
143.83991318330703 48.65248830953363 0.0
143.82225413635808 50.651978125045346 0.0
143.80459270987154 52.651438605383674 0.0
143.7869049847794 54.65087531234749 0.0
143.76916780414385 56.65029367750805 0.0
143.75135871342627 58.649698932417024 0.0
143.73345589062606 60.6490960494842 0.0
143.7154380680121 62.64848969225102 0.0
143.69728444667814 64.64788417383863 0.0
143.6789746047184 66.64728342245003 0.0
143.66048839944642 68.64669095302088 0.0
143.64180586377336 70.64610984422237 0.0
143.6229070966082 72.64554272030337 0.0
143.60377214695595 74.64499173746381 0.0
143.58438089125326 76.64445857469867 0.0
143.56471290340713 78.64394442930356 0.0
143.544747316976 80.64345001748869 0.0
143.52446267897022 82.64297558080642 0.0
143.50383679483505 84.64252089935576 0.0
143.48284656432705 86.64208531298064 0.0
143.46146780819961 88.64166775192555 0.0
143.43967508587804 90.6412667786459 0.0
143.41744150462605 92.64088064268628 0.0
143.39473852108858 94.64050735073202 0.0
143.37153573652918 96.64014475410225 0.0
146.33255361807733 0.6768735649881763 0.0
146.30695431750758 2.677161064749715 0.0
146.28187751549495 4.677511281367439 0.0
146.2573299572614 6.67791146288619 0.0
146.23331448552588 8.67834745644241 0.0
146.2098296791224 10.678804278254953 0.0
146.18686968336613 12.679266691026658 0.0
146.16442422524122 14.679719754858917 0.0
146.14247879483048 16.68014932270673 0.0
146.1210149656339 18.680542458428494 0.0
146.1000108210373 20.68088776351467 0.0
146.07944145222683 22.681175606657618 0.0
146.05927949390372 24.681398257609093 0.0
146.0394956675953 26.681549932671096 0.0
146.02005930735638 28.681626763382674 0.0
146.00093884845543 30.68162670245495 0.0
145.9821022655316 32.68154938192297 0.0
145.96351745217518 34.68139593810861 0.0
145.94515253858307 36.68116881672762 0.0
145.92697614769597 38.680871569532954 0.0
145.90895759299266 40.68050865172973 0.0
145.89106702297187 42.68008522721626 0.0
145.87327551840596 44.679606986608256 0.0
145.85555514886948 46.679079981192395 0.0
145.83787899497216 48.6785104744416 0.0
145.82022114232174 50.67790481152773 0.0
145.80255665261478 52.67726930637424 0.0
145.78486151651515 54.676610145167004 0.0
145.7671125921997 56.675933304848016 0.0
145.74928753267747 58.67524448490677 0.0
145.7313647042722 60.67454905072121 0.0
145.7133230979926 62.67385198674688 0.0
145.69514223494377 64.67315785797754 0.0
145.6768020664295 66.67247077826805 0.0
145.6582828689749 68.67179438438731 0.0
145.63956513415653 70.6711318148282 0.0
145.62062945284856 72.67048569273535 0.0
145.60145639328823 74.66985811255596 0.0
145.58202637221177 76.66925063030611 0.0
145.562319518232 78.6686642576307 0.0
145.54231552658987 80.66809946012648 0.0
145.521993504452 82.66755616069062 0.0
145.50133180600739 84.6670337489503 0.0
145.4803078567726 86.66653109812096 0.0
145.45889796672745 88.66604659092589 0.0
145.43707713218458 90.66557815648419 0.0
145.41481882664155 92.6651233203308 0.0
145.39209478127856 94.66467926996518 0.0
145.36887475623487 96.66424293852636 0.0
148.3316692928656 0.7034353190071674 0.0
148.30583774336583 2.7037963446166433 0.0
148.28054669000946 4.704219697307167 0.0
148.2558055892031 6.704690875355219 0.0
148.23161923072013 8.70519382387046 0.0
148.20798733755115 10.705711626689984 0.0
148.1849044054394 12.706227200786767 0.0
148.16235977032116 14.70672395004813 0.0
148.14033787684892 16.70718634252386 0.0
148.11881871034754 18.70760038512151 0.0
148.09777834852088 20.707953980675022 0.0
148.07718958786498 22.70823716297657 0.0
148.05702260236157 24.708442214621865 0.0
148.0372455975707 26.708563679658486 0.0
148.01782543056086 28.70859828775215 0.0
147.9987281740963 30.708544808961936 0.0
147.97991961125646 32.708403858562114 0.0
147.96136565355448 34.70817767012822 0.0
147.9430326812715 36.70786985288905 0.0
147.92488780900646 38.7074851464685 0.0
147.90689908238647 40.70702918316013 0.0
147.8890356136481 42.706508265021434 0.0
147.87126766459622 44.70592916047927 0.0
147.85356668550958 46.70529892298659 0.0
147.83590531809918 48.70462473255922 0.0
147.81825736983487 50.70391375973564 0.0
147.80059776598105 52.70317305060498 0.0
147.78290248464057 54.702409430973 0.0
147.76514847907285 56.70162942742509 0.0
147.74731359058882 58.70083920293425 0.0
147.729376454441 60.70004450470248 0.0
147.71131640036543 62.699250622068924 0.0
147.69311334876315 64.69846235253375 0.0
147.67474770295578 66.69768397419291 0.0
147.656200237485 68.69691922322582 0.0
147.63745198205729 70.6961712752921 0.0
147.61848410043652 72.6954427300784 0.0
147.59927776336693 74.69473559852162 0.0
147.57981401444908 76.69405129255932 0.0
147.5600736277971 78.69339061757782 0.0
147.5400369562694 80.69275376805297 0.0
147.51968376908712 82.6921403272063 0.0
147.49899307774567 84.69154927182801 0.0
147.47794294927547 86.69097898374933 0.0
147.45651030613135 88.69042726977472 0.0
147.43467071228653 90.68989139220245 0.0
147.41239814547515 92.68936811236574 0.0
147.38966475597493 94.68885374990433 0.0
147.3664406128335 96.68834426072235 0.0
150.33055874023674 0.7302554862871427 0.0
150.3044899930166 2.7306923184659184 0.0
150.27898230762045 4.731191179197221 0.0
150.25404821683998 6.731735469329964 0.0
150.22969465157166 8.732306871793638 0.0
150.2059225003758 10.732886196636407 0.0
150.1827264706768 12.733454220171222 0.0
150.16009523234555 14.73399246303074 0.0
150.13801180493604 16.734483862617456 0.0
150.1164541365761 18.734913309392404 0.0
150.09539581606703 20.735268031418233 0.0
150.0748068596908 22.735537825645643 0.0
150.05465451934867 24.735715146132254 0.0
150.03490406734608 26.735795067870693 0.0
150.0155195236758 28.73577514995878 0.0
149.99646430254515 30.73565522373972 0.0
149.9777017649769 32.73543713086342 0.0
149.9591956728567 34.73512443370025 0.0
149.9409105464479 36.73472211697488 0.0
149.92281193210022 38.73423629537124 0.0
149.9048665898203 40.7336739378518 0.0
149.88704261183088 42.73304261579486 0.0
149.86930948357673 44.73235027892097 0.0
149.85163809814085 46.731605060506496 0.0
149.8340007340369 48.73081511151887 0.0
149.8163710050447 50.72998846200281 0.0
149.79872378934974 52.729132907209916 0.0
149.78103514385256 54.728255915506224 0.0
149.7632822082011 56.72736455492037 0.0
149.7454431019214 58.726465435230445 0.0
149.72749681699347 60.72556466266661 0.0
149.70942310733784 62.724667804578125 0.0
149.69120237595058 64.72377986173592 0.0
149.6728155598145 66.72290524627846 0.0
149.6542440122302 68.72204776373202 0.0
149.63546938181435 70.72121059780596 0.0
149.61647348711614 72.7203962970993 0.0
149.5972381855614 74.7196067631788 0.0
149.57774523527843 76.7188432398466 0.0
149.55797614825173 78.718106303765 0.0
149.5379120332075 80.71739585696355 0.0
149.51753342665228 82.71671112210973 0.0
149.49682011056902 84.7160506417925 0.0
149.47575091542407 86.7154122834375 0.0
149.45430350736888 88.7147932518465 0.0
149.43245415882325 90.7141901117215 0.0
149.41017750202647 92.71359882289062 0.0
149.3874462656155 94.7130147912825 0.0
149.36423099485552 96.71243293899309 0.0
152.329214801986 0.7573431517876978 0.0
152.30290240950347 2.757858388472711 0.0
152.27717474228132 4.758435429047722 0.0
152.25204782995402 6.75905515049727 0.0
152.22753094744462 8.759696536227912 0.0
152.20362613493285 10.760337714881691 0.0
152.18032810010115 12.760956979389011 0.0
152.1576244718932 14.761533715284047 0.0
152.13549634976394 16.76204918313661 0.0
152.11391907634297 18.762487119776235 0.0
152.09286315512293 20.762834143514503 0.0
152.07229523720093 22.76307996710772 0.0
152.05217911022729 24.763217436840733 0.0
152.03247663599913 26.763242425932578 0.0
152.01314859815636 28.76315361545452 0.0
151.99415543611508 30.762952196747477 0.0
151.97545785430415 32.762641526943284 0.0
151.9570173061491 34.76222676474532 0.0
151.93879635981023 36.761714508206474 0.0
151.9207589575884 38.761112450533076 0.0
151.90287058353317 40.76042906470292 0.0
151.8850983546302 42.759673323177566 0.0
151.8674110505005 44.75885445532754 0.0
151.84977909527444 46.75798174245653 0.0
151.832174503565 48.75706434839233 0.0
151.8145708005432 50.75611118238702 0.0
151.7969429241939 52.75513079039637 0.0
151.7792671160383 54.754131270550594 0.0
151.76152080499904 56.75312020866874 0.0
151.74368248769508 58.752104629903506 0.0
151.7257316072863 60.75109096296079 0.0
151.7076484320161 62.75008501376155 0.0
151.6894139338182 64.7490919458593 0.0
151.67100966672206 66.74811626536237 0.0
151.65241764428845 68.74716180861033 0.0
151.63362021491923 70.74623173117782 0.0
151.61459993357266 72.74532849726216 0.0
151.5953394281928 74.74445386886595 0.0
151.57582125898855 76.74360889457112 0.0
151.5560277685931 78.74279389807775 0.0
151.53594092107863 80.74200846705935 0.0
151.51554212781454 82.74125144327539 0.0
151.49481205821849 84.74052091528128 0.0
151.47373043360344 86.7398142154882 0.0
151.4522758025415 88.73912792374671 0.0
151.4304252964835 90.73845788005346 0.0
151.40815436478812 92.73779920939553 0.0
151.38543648882788 94.73714636214284 0.0
151.36224287545238 96.73649317375302 0.0
154.32762925321913 0.7847097329635782 0.0
154.3010650457347 2.785306353086229 0.0
154.27511298039025 4.785964596712681 0.0
154.24979306826796 6.786662290092577 0.0
154.22511713400164 8.787375183027065 0.0
154.2010883008967 10.788078234698318 0.0
154.17770096402748 12.788746857372661 0.0
154.15494120281187 14.78935802628961 0.0
154.1327875517944 16.789891187627898 0.0
154.111212029347 18.79032892473996 0.0
154.0901813189349 20.79065737104652 0.0
154.0696580044539 22.79086638229967 0.0
154.0496017764914 24.790949498953868 0.0
154.02997054636774 26.79090374026388 0.0
154.01072142592724 28.79072927588209 0.0
153.99181155058446 30.790429019431887 0.0
153.97319873940327 32.79000818344649 0.0
153.9548419982297 34.7894738278362 0.0
153.93670188012058 36.78883442615254 0.0
153.91874072197092 38.788099466230854 0.0
153.90092277807122 40.78727909513957 0.0
153.8832142710809 42.786383812967955 0.0
153.86558337931856 44.78542421587352 0.0
153.8480001769143 46.7844107859549 0.0
153.83043654070136 48.78335372369857 0.0
153.812866035038 50.782262817753534 0.0
153.79526378324738 52.781147346411 0.0
153.77760633213998 54.78001600521706 0.0
153.75987151418178 56.778876855478096 0.0
153.74203831029374 58.77773728891246 0.0
153.72408671498087 60.7766040042748 0.0
153.70599760446893 62.77548299237791 0.0
153.68775260771457 64.77437952651734 0.0
153.66933397952786 66.77329815584012 0.0
153.65072447455353 68.77224269977481 0.0
153.63190722048347 70.77121624201062 0.0
153.61286558857807 72.77022112303433 0.0
153.59358305935427 74.76925893061097 0.0
153.57404308113246 76.7683304879985 0.0
153.55422891902234 78.76743584007627 0.0
153.5341234918627 80.76657423796664 0.0
153.51370919462016 82.76574412313931 0.0
153.49296770380687 84.76494311241811 0.0
153.47187976359882 86.76416798576436 0.0
153.4504249505542 88.76341467918581 0.0
153.42858141514145 90.76267828560668 0.0
153.4063255987225 92.7619530670246 0.0
153.38363192518253 94.76123248175021 0.0
153.3604724670735 96.76050923095487 0.0
156.32579257241284 0.8123693975621615 0.0
156.29896639448165 2.8130508391511975 0.0
156.2727843475249 4.81379372058152 0.0
156.247270982529 6.814572161345293 0.0
156.22244087148934 8.815358021608727 0.0
156.19829806948275 10.816122505354285 0.0
156.17483620427015 12.81683768578227 0.0
156.15203911749336 14.817477834055953 0.0
156.1298819391047 16.8180204678155 0.0
156.10833245494712 18.818447076496227 0.0
156.08735262573495 20.81874351924625 0.0
156.06690013016168 22.818900122900146 0.0
156.04692982985515 24.818911529139456 0.0
156.02739508353562 26.818776351135373 0.0
156.00824886706064 28.818496701916843 0.0
155.98944468159965 30.818077651765 0.0
155.9709372521443 32.817526662724525 0.0
155.95268303243387 34.81685303721882 0.0
155.93464054065382 36.816067406664025 0.0
155.9167705539578 38.81518127594116 0.0
155.89903619016644 40.81420663142926 0.0
155.88140290306356 42.81315561410847 0.0
155.86383841449413 44.8120402548804 0.0
155.8463126027059 46.810872266512675 0.0
155.82879736255822 48.8096628851294 0.0
155.81126644966858 50.808422753613144 0.0
155.79369531743865 52.807161839366536 0.0
155.77606095325376 54.8058893793663 0.0
155.75834171799096 56.804613846154744 0.0
155.74051719124196 58.80334292922125 0.0
155.72256802330995 60.80208352705018 0.0
155.704475794004 62.800841745897635 0.0
155.68622287746575 64.79962290207999 0.0
155.66779231166774 66.79843152518613 0.0
155.64916767077236 68.79727136026725 0.0
155.63033293820192 70.79614536746315 0.0
155.61127237800457 72.7950557180678 0.0
155.59197040189787 74.79400378642255 0.0
155.57241142921634 76.79299013743442 0.0
155.55257973686815 78.79201450990993 0.0
155.5324592963262 80.79107579630072 0.0
155.51203359464716 82.79017201988324 0.0
155.49128543653185 84.78930031085025 0.0
155.47019672453433 86.78845688328789 0.0
155.44874821471697 88.78763701554122 0.0
155.42691924534924 90.78683503703326 0.0
155.40468743668316 92.78604432517683 0.0
155.38202836042788 94.78525731658496 0.0
155.35891517828162 96.78446553730961 0.0
158.32369365411904 0.8403395780503538 0.0
158.296593052519 2.841109834526577 0.0
158.2701741737294 4.841941269860481 0.0
158.24446675092608 6.8428034731676 0.0
158.21948827459298 8.843663604363513 0.0
158.19524345542166 10.844488408153719 0.0
158.17172450031137 12.845246093916538 0.0
158.1489120828378 14.845907926795007 0.0
158.1267768350035 16.84644942865823 0.0
158.10528116389304 18.84685114614082 0.0
158.0843812025102 20.847098996171404 0.0
158.06402873136338 22.84718424010742 0.0
158.04417294707918 24.84710316262282 0.0
158.02476199763586 26.846856541270636 0.0
158.00574424391942 28.846448990056828 0.0
157.98706924001235 30.84588824942538 0.0
157.96868844825707 32.84518447977604 0.0
157.9505557198878 34.84434959930434 0.0
157.9326275792645 36.843396691909255 0.0
157.91486335131717 38.84233949827293 0.0
157.8972251695851 40.84119199363938 0.0
157.87967789782135 42.83996804911298 0.0
157.8621889927333 44.83868116904975 0.0
157.8447283299128 46.83734429485496 0.0
157.82726800985984 48.83596966467477 0.0
157.80978215652001 50.83456871860874 0.0
157.79224671700072 52.83315203980793 0.0
157.77463926812626 54.831729322875844 0.0
157.75693883312826 56.830309362164805 0.0
157.7391257099832 58.828900053731985 0.0
157.72118131155773 60.827508405810846 0.0
157.70308801674713 62.82614055363366 0.0
157.68482903107173 64.82480177528775 0.0
157.66638825467962 66.8234965059979 0.0
157.6477501553263 68.82222834891483 0.0
157.62889964361975 70.82100008090816 0.0
157.60982194760234 72.81981365241067 0.0
157.59050248356522 74.81867018073567 0.0
157.57092671984216 76.81756993668456 0.0
157.55108003020524 78.81651232464223 0.0
157.53094753338172 80.81549585675837 0.0
157.51051391514244 82.81451812224034 0.0
157.48976322938697 84.81357575325977 0.0
157.4686786746959 86.81266438950607 0.0
157.4472423429603 88.8117786440118 0.0
157.4254349369687 90.81091207351699 0.0
157.40323545425767 92.81005715732273 0.0
157.38062083514765 94.80920528926791 0.0
157.35756557369538 96.80834678811257 0.0
160.32131944652676 0.8686416111576567 0.0
160.2939292992679 2.8695053508996144 0.0
160.26726538117276 4.870429817886279 0.0
160.24136334278995 6.871379027664003 0.0
160.21624370683148 8.872314432297806 0.0
160.1919113762332 10.873197470621344 0.0
160.16835620376176 12.873991895292955 0.0
160.14555443764786 14.874665675198157 0.0
160.12347078847296 16.87519235286984 0.0
160.10206084115453 18.875551821332937 0.0
160.08127355590355 20.875730557497853 0.0
160.06105365045548 22.87572140047064 0.0
160.04134371780233 24.875522990072252 0.0
160.02208599602423 26.8751389860078 0.0
160.00322376060186 28.87457717720822 0.0
159.98470235017245 30.873848570509125 0.0
159.96646986319325 32.87296652394191 0.0
159.94847757700066 34.87194596682311 0.0
159.93068014511994 36.87080272919846 0.0
159.91303562645967 38.86955298796233 0.0
159.89550539393727 40.8682128263757 0.0
159.87805396223857 42.86679789705633 0.0
159.8606487662521 44.865323174971195 0.0
159.84325991413178 46.863802785706675 0.0
159.8258599323609 48.86224989454074 0.0
159.80842351477807 50.860676642986355 0.0
159.79092728325224 52.859094121073184 0.0
159.7733495644207 54.85751236538327 0.0
159.75567018448695 56.855940374564156 0.0
159.73787028231712 58.85438613560237 0.0
159.71993213984481 60.85285665550173 0.0
159.70183902793693 62.8513579941646 0.0
159.68357506529657 64.84989529522608 0.0
159.66512508758245 66.84847281235 0.0
159.64647452365725 68.84709392920068 0.0
159.627609275675 70.84576117170903 0.0
159.60851559956515 72.84447621177753 0.0
159.58917998232653 74.84323986191035 0.0
159.56958901241066 76.84205206061377 0.0
159.54972923934037 78.84091184876395 0.0
159.52958701857085 80.83981733751179 0.0
159.5091483374863 82.8387656687153 0.0
159.48839861832968 84.83775296937121 0.0
159.467322493835 86.8367743020815 0.0
159.4459035513959 88.83582361424382 0.0
159.42412404180806 90.83489368939138 0.0
159.40196454901513 92.83397610491943 0.0
159.37940361791652 94.83306120127315 0.0
159.35641733817803 96.83213806848978 0.0
162.31865448940994 0.8973015412842089 0.0
162.29095656330625 2.8982642571728032 0.0
162.26403797326424 4.89928688614283 0.0
162.23794112104457 6.900326536400719 0.0
162.2126895670451 8.90133769241835 0.0
162.18828766242444 10.902275470841008 0.0
162.16472157747694 12.90309851209561 0.0
162.14196143504805 14.903771245720705 0.0
162.1199641720696 16.904265391802834 0.0
162.09867674003246 18.904560683841183 0.0
162.07803930205216 20.904644896871524 0.0
162.05798816701028 22.904513326928342 0.0
162.03845829620093 24.904167892951428 0.0
162.0193853061419 26.903616026898355 0.0
162.00070696142657 28.90286949260438 0.0
161.98236419955836 30.901943239357617 0.0
161.96430175687473 32.90085436055675 0.0
161.9464684750046 34.89962119649611 0.0
161.92881736596703 36.898262595875195 0.0
161.91130550567468 38.89679733333777 0.0
161.89389381401628 40.89524366962691 0.0
161.87654676738654 42.89361903531697 0.0
161.85923207808509 44.891939817107016 0.0
161.8419203651602 46.89022122609714 0.0
161.8245848332932 48.888477229290196 0.0
161.80720097013375 50.886720528035866 0.0
161.78974626787937 52.884962569790126 0.0
161.7721999715711 54.88321358210282 0.0
161.75454285425977 56.88148262001805 0.0
161.7367570176452 58.8797776200123 0.0
161.71882571577495 60.87810545519387 0.0
161.70073319877116 62.876471987774416 0.0
161.68246457316744 64.87488211583413 0.0
161.6640056752295 66.87333981216747 0.0
161.64534295349569 68.87184815367927 0.0
161.62646335668643 70.87040934015599 0.0
161.6073542230465 72.86902470170972 0.0
161.58800316708357 74.86769469447229 0.0
161.56839795954926 76.86641888441766 0.0
161.5485263963515 78.86519591948614 0.0
161.52837615191555 80.86402349051698 0.0
161.50793461232192 82.86289828188148 0.0
161.4871886833683 84.86181591318675 0.0
161.46612456856263 86.86077087400355 0.0
161.44472751200578 88.85975645428356 0.0
161.42298150121525 90.85876467397574 0.0
161.40086892525653 92.85778621631543 0.0
161.37837018415885 94.85681037029781 0.0
161.35546324654405 96.85582498889418 0.0
164.31568031829798 0.926351141243213 0.0
164.2876527402338 2.927419339085884 0.0
164.26046839821115 4.928546013050777 0.0
164.23417737545483 6.929679641607978 0.0
164.2088060836785 8.93076615808434 0.0
164.1843571567322 10.931753142577213 0.0
164.1608111936931 12.932593424958604 0.0
164.13812989161886 14.933247760368396 0.0
164.11626000713923 16.933686430716918 0.0
164.09513759813166 18.93388980409655 0.0
164.07469209206454 20.933848015258885 0.0
164.0548498655961 22.933560001234515 0.0
164.03553716308363 24.933032141111447 0.0
164.01668230360136 26.93227672303769 0.0
163.99821721420358 28.931310412987813 0.0
163.9800783800468 30.93015284473358 0.0
163.96220732511773 32.928825399792366 0.0
163.94455073912195 34.92735020564909 0.0
163.9270603549011 36.92574935192851 0.0
163.90969266334673 38.92404430627707 0.0
163.89240853382125 40.92225550249287 0.0
163.87517279041336 42.92040207030476 0.0
163.85795377928383 44.91850167694889 0.0
163.84072295032928 46.916570453641306 0.0
163.82345446726387 48.914622983963056 0.0
163.80612485358114 50.91267233528186 0.0
163.78871267723324 52.91073011818344 0.0
163.7711982737734 54.90880656225201 0.0
163.75356350573838 56.90691059934917 0.0
163.7357915548713 58.905049947800975 0.0
163.7178667431388 60.90323119266923 0.0
163.6997743781985 62.90145985863258 0.0
163.68150061886507 64.89974047300407 0.0
163.6630323561333 66.89807661712938 0.0
163.64435710535193 68.89647096501668 0.0
163.6254629051779 70.89492530831659 0.0
163.60633821893904 72.89344056715169 0.0
163.58697183398053 74.89201678648561 0.0
163.56735275445737 76.89065311793522 0.0
163.54747008286213 78.88934778714805 0.0
163.5273128853491 80.88809804713004 0.0
163.5068700356389 82.886900118245 0.0
163.48613003198957 84.88574911605289 0.0
163.46508078143432 86.88463896874245 0.0
163.44370934526162 88.88356232667572 0.0
163.42200163964324 90.88251046751633 0.0
163.39994208548117 92.88147320156152 0.0
163.37751320207767 94.88043878319193 0.0
163.3546951402277 96.87939383570969 0.0
166.31237468642925 0.9558292252981591 0.0
166.28399131122794 2.9570106629756445 0.0
166.2565287522511 4.9582481221210974 0.0
166.23004578163525 6.959479203557966 0.0
166.20457114693465 8.960639289553995 0.0
166.18010396361285 10.961666986658734 0.0
166.15661657240648 12.962508619508949 0.0
166.13405913021262 14.963121344052801 0.0
166.11236509562673 16.963474747586865 0.0
166.09145683709335 18.96355106083625 0.0
166.0712507728378 20.963344277054407 0.0
166.05166167683478 22.962858543952294 0.0
166.03260599622845 24.962106182996607 0.0
166.01400418867053 26.961105627385944 0.0
165.99578219209363 28.959879485308647 0.0
165.97787219001117 30.9584528519044 0.0
165.9602128460909 32.95685192486572 0.0
165.94274916752525 34.955102929524394 0.0
165.92543213021673 36.95323132875122 0.0
165.9082181689081 38.95126127722961 0.0
165.89106860734842 40.94921527449484 0.0
165.87394907994386 42.947113972485695 0.0
165.85682897777588 44.94497609822352 0.0
165.83968093811927 46.942818458563934 0.0
165.82248038687288 48.94065600045242 0.0
165.80520513679298 50.93850190604723 0.0
165.78783504025046 52.936367707142054 0.0
165.77035169275257 54.93426340744607 0.0
165.7527381821316 56.93219760451498 0.0
165.73497887771595 58.9301776055852 0.0
165.71705925365828 60.928209533380944 0.0
165.69896574072013 62.926298419270324 0.0
165.68068560104234 64.92444828205451 0.0
165.66220682069826 66.92266219126786 0.0
165.64351801505794 68.92094231434554 0.0
165.62460834216046 70.91928994714422 0.0
165.60546741937608 72.91770552755861 0.0
165.58608523863145 74.9161886320441 0.0
165.56645207536562 76.91473795495668 0.0
165.5465583861804 78.91335127073727 0.0
165.52639468985353 80.9120253791369 0.0
165.50595142600534 82.91075603393608 0.0
165.4852187852598 84.90953785599957 0.0
165.46418650426392 86.90836423206994 0.0
165.442843618472 88.90722720149381 0.0
165.421178165266 90.90611733413591 0.0
165.39917682991054 92.90502360408965 0.0
165.37682452719173 94.90393326541015 0.0
165.3541039125621 96.9028317378779 0.0
168.3087105346058 0.9857833614439095 0.0
168.27994019111134 2.987087354527623 0.0
168.25218577831492 4.988443293676482 0.0
168.2255157885765 6.989774935417072 0.0
168.19996023401467 8.991004576874165 0.0
168.17551194709736 10.992060181359896 0.0
168.15213118126678 12.99288097227454 0.0
168.1297523381524 14.993420960807008 0.0
168.1082915614328 16.993650340758112 0.0
168.0876541184491 18.9935550526452 0.0
168.06774082123172 20.993135026889153 0.0
168.04845309818225 22.992401664362912 0.0
168.0296966307249 24.99137504528364 0.0
168.01138367649867 26.990081230770013 0.0
167.99343431083005 28.988549883481248 0.0
167.97577685182557 30.986812315016447 0.0
167.9583477186736 32.9848999810665 0.0
167.94109093197386 34.98284339115695 0.0
167.9239574165149 36.98067137228151 0.0
167.90690422124206 38.97841061670348 0.0
167.88989373298833 40.97608544667439 0.0
167.87289293117934 42.97371773711749 0.0
167.8558727095227 44.971326947777285 0.0
167.8388072762205 46.96893022679168 0.0
167.8216736349085 48.96654255696134 0.0
167.80445114289827 50.96417692373639 0.0
167.78712114020271 52.96184449007447 0.0
167.76966664140593 54.95955476799787 0.0
167.75207208203932 56.957315780123885 0.0
167.7343231113339 58.95513420690644 0.0
167.71640642371813 60.95301551702914 0.0
167.69830962205663 62.95096407952259 0.0
167.6800211062398 64.9489832568887 0.0
167.6615299812793 66.94707547890532 0.0
167.6428259795022 68.94524229707618 0.0
167.62389939173505 70.9434844196337 0.0
167.60474100254342 72.94180172710311 0.0
167.58534202461468 74.94019326834925 0.0
167.56569402726737 76.93865723699479 0.0
167.54578885383282 78.93719092808556 0.0
167.52561852228143 80.93579067493081 0.0
167.50517510296902 82.93445176619132 0.0
167.48445056676138 84.93316834358211 0.0
167.46343659607254 86.93193328104798 0.0
167.442124350589 88.93073804704854 0.0
167.42050417874307 90.92957255272593 0.0
167.39856526552407 92.92842499030073 0.0
167.37629520723078 94.92728166804744 0.0
167.35367950457115 96.92612685055887 0.0
170.30465460618328 1.016272138529003 0.0
170.27546020461938 3.0177099531598466 0.0
170.24739960510755 5.019193087594781 0.0
170.22055195509958 7.020627493035717 0.0
170.19494652667206 9.021919167777591 0.0
170.1705656342458 11.022983556866926 0.0
170.14735197749224 13.02375246749378 0.0
170.1252185089681 15.024177875746515 0.0
170.10405893071126 17.024232734820153 0.0
170.08375733351212 19.02390941076399 0.0
170.06419607817284 21.023216598339808 0.0
170.04526157863532 23.02217554656641 0.0
170.02684806420515 25.02081624802548 0.0
170.00885963984845 27.01917401752992 0.0
169.99121105496627 29.017286675107833 0.0
169.9738275811719 31.015192389964454 0.0
169.9566443365895 33.012928142459394 0.0
169.93960531367256 35.01052871067882 0.0
169.9226622906923 37.00802607218314 0.0
169.90577374352628 39.00544911590335 0.0
169.88890382659773 41.0028235737162 0.0
169.8720214583609 43.00017209901531 0.0
169.85509952476522 44.997514436830386 0.0
169.83811420065413 46.994867644968735 0.0
169.82104438146177 48.9922463376805 0.0
169.80387121384922 50.98966293256926 0.0
169.7865777126127 52.987127888269136 0.0
169.769148451301 54.98464992524926 0.0
169.75156931481885 56.98223622543677 0.0
169.73382730346813 58.979892608552596 0.0
169.71591037912404 60.97762368443794 0.0
169.69780734540825 62.975432981455235 0.0
169.6795077547441 64.97332305144727 0.0
169.6610018360009 66.97129555184787 0.0
169.64228043706453 68.96935130558066 0.0
169.62333497709915 70.96749033910402 0.0
169.60415740349922 72.96571189886845 0.0
169.58474014858533 74.96401444619458 0.0
169.56507608098445 76.96239563038988 0.0
169.54515844634636 78.96085223976284 0.0
169.5249807916067 80.95938013010513 0.0
169.50453686638002 82.95797413021415 0.0
169.4838204942653 84.95662792418025 0.0
169.46282540585213 86.95533391052595 0.0
169.4415450240586 88.95408303897375 0.0
169.41997219121168 90.952864626767 0.0
169.39809882619286 92.95166615822579 0.0
169.37591549938122 94.95047307367498 0.0
169.3534109135 96.94926855698627 0.0
172.3001655527957 1.0473682195739893 0.0
172.27050304477572 3.048953579538493 0.0
172.24212216155144 5.050573628377274 0.0
172.215113293012 7.052111159803051 0.0
172.18950139751996 9.05345181175253 0.0
172.16525177618095 11.054496542403928 0.0
172.14228175880615 13.055170046631146 0.0
172.1204751949804 15.055424476123013 0.0
172.09969690479912 17.055238976461283 0.0
172.0798050977891 19.05461624522364 0.0
172.06066077960577 21.053577495335688 0.0
172.04213401087603 23.05215701417639 0.0
172.02410741961114 25.05039713910638 0.0
172.00647760565835 27.048344089373757 0.0
171.98915509726748 29.046044794991115 0.0
171.9720634235949 31.043544671947416 0.0
171.95513772899383 33.04088619658226 0.0
171.93832322095088 35.03810810177118 0.0
171.92157363406236 37.03524502602585 0.0
171.90484981220285 39.032327472800645 0.0
171.88811845687295 41.02938196850322 0.0
171.87135105576655 43.02643133692343 0.0
171.85452298600106 45.023495032188386 0.0
171.8376127763688 47.020589491328174 0.0
171.82060150881588 49.017728481549845 0.0
171.80347233867428 51.014923427247076 0.0
171.7862101143561 53.01218370855216 0.0
171.7688010792581 55.00951692768482 0.0
171.75123264093756 57.00692914213856 0.0
171.7334931948709 59.00442506536978 0.0
171.71557199212202 61.00200823649679 0.0
171.69745904197106 62.99968116083802 0.0
171.67914504194377 64.99744542310336 0.0
171.66062132877056 66.99530177481147 0.0
171.6418798445898 68.99325019725642 0.0
171.62291311323975 70.99128994081487 0.0
171.6037142217615 72.98941954108447 0.0
171.58427680230412 74.98763681189716 0.0
171.56459500947932 76.98593881489434 0.0
171.54466348789006 78.98432180503393 0.0
171.52447732402834 80.9827811511497 0.0
171.50403197601082 82.98131123051944 0.0
171.48332317363443 84.97990529635308 0.0
171.4623467799626 86.97855531727087 0.0
171.441098604046 88.9772517883236 0.0
171.41957415248785 90.97598351413694 0.0
171.39776830558756 92.97473736660025 0.0
171.37567490217603 94.9734980224189 0.0
171.35328621673753 96.97224768990058 0.0
174.29519129318268 1.0791625338714803 0.0
174.26500850003444 3.0809122751131675 0.0
174.23629519805036 5.0826797589342645 0.0
174.20915275156247 7.084317303395908 0.0
174.18359557757407 9.085685111082597 0.0
174.15956197001498 11.086667882472845 0.0
174.13693271330922 13.087184735821072 0.0
174.11555236641917 15.087192020216273 0.0
174.09524898944667 17.086680391316726 0.0
174.07584978480224 19.085668358004426 0.0
174.0571918199041 21.08419447514979 0.0
174.03912820600328 23.08230980395095 0.0
174.02153071584286 25.080071567937797 0.0
174.00428995732315 27.07753834617482 0.0
173.9873140806012 29.07476676057525 0.0
173.97052675232607 31.07180941960117 0.0
173.95386488738373 33.06871382069919 0.0
173.9372764321415 35.065521930131546 0.0
173.920718353557 37.06227020830182 0.0
173.90415489828013 39.05898990512405 0.0
173.88755613247642 41.05570750100394 0.0
173.87089674457232 43.05244520985816 0.0
173.8541550802266 45.04922149102243 0.0
173.83731237503108 47.046051538389804 0.0
173.82035215155778 49.04294772963777 0.0
173.80325975078088 51.03992002779996 0.0
173.78602197214548 53.0369763332423 0.0
173.76862680080956 55.034122787462884 0.0
173.75106320444513 57.03136403188589 0.0
173.73332098532222 59.0287034255401 0.0
173.715390676142 61.02614322559492 0.0
173.69726347029183 63.023684734431264 0.0
173.67893117890637 65.0213284164134 0.0
173.66038620839947 67.0190739868886 0.0
173.64162155304126 69.01692047537333 0.0
173.62263079773277 71.01486626408901 0.0
173.60340812643713 73.01290910249169 0.0
173.58394833177152 75.01104609780367 0.0
173.56424682109494 77.00927368102865 0.0
173.5442996140471 79.00758754745395 0.0
173.52410332590796 81.00598257022999 0.0
173.50365513033182 83.00445268526197 0.0
173.48295269390368 85.00299074537351 0.0
173.46199407344298 87.00158834155043 0.0
173.44077756493058 89.00023558920103 0.0
173.4193014902365 90.99892087804477 0.0
173.3975639046159 92.99763058592363 0.0
173.37556220468585 94.99634876003914 0.0
173.3532926143692 96.99505677425446 0.0
176.28966524930584 1.1117701600322207 0.0
176.25890063522516 3.1137050695392103 0.0
176.22984786461737 5.1156307111276345 0.0
176.20261713396425 7.117358811481994 0.0
176.17720155820592 9.118717963112799 0.0
176.15349698413775 11.119575699974357 0.0
176.13133172420575 13.119849425225558 0.0
176.11049773515356 15.119506626177941 0.0
176.090777113324 17.11855747867834 0.0
176.07196104404687 19.117043744316888 0.0
176.0538610708586 21.115027224601402 0.0
176.03631411931158 23.11257979678688 0.0
176.01918321117114 25.109775868590916 0.0
176.00235563498023 27.106687275431423 0.0
175.98573989583318 29.103380226884507 0.0
175.96926230419652 31.099913782124588 0.0
175.95286369446984 33.0963393668746 0.0
175.93649651085963 35.09270094157474 0.0
175.92012234308947 37.08903553721142 0.0
175.9037099090444 39.085373967058885 0.0
175.88723344039977 41.0817415927754 0.0
175.87067141219222 43.07815907290841 0.0
175.85400555609272 45.074643055016786 0.0
175.83722010255798 47.07120679372237 0.0
175.82030120494792 49.067860689754994 0.0
175.80323650693705 51.06461275227929 0.0
175.78601482210465 53.06146899048827 0.0
175.76862590105895 55.05843374197453 0.0
175.7510602667841 57.05550994563537 0.0
175.73330910315448 59.0526993663968 0.0
175.71536418490564 61.05000277820224 0.0
175.69721783990755 63.04742011071445 0.0
175.67886293651048 65.04495056413238 0.0
175.66029289013 67.04259269547886 0.0
175.6415016841907 69.04034447883265 0.0
175.62248390115084 71.03820334092701 0.0
175.60323475960476 73.03616617281229 0.0
175.58375015347877 75.03422931746428 0.0
175.56402668911153 77.03238853252921 0.0
175.5440617155797 79.03063892676708 0.0
175.52385334299382 81.02897486818252 0.0
175.5034004426455 83.02738986129133 0.0
175.48270262173025 85.02587639043763 0.0
175.4617601637508 87.02442572554216 0.0
175.44057392330387 89.02302768623095 0.0
175.41914516045543 91.02167036027855 0.0
175.39747529511519 93.02033977335564 0.0
175.37556555611457 95.01901951017501 0.0
175.35341649440687 97.0176902933 0.0
178.28350084683495 1.1453387940338122 0.0
178.25208245821648 3.1474846584621234 0.0
178.222693875853 5.1495779517613895 0.0
178.1954480544407 7.1513757021839925 0.0
178.17029820705454 9.152667824881783 0.0
178.14707379847428 11.153306060532877 0.0
178.1255281862547 13.153214211039987 0.0
178.10538391510426 15.152382425779921 0.0
178.08636724519943 17.150852074620484 0.0
178.06822956067873 19.14869780231397 0.0
178.05075739089318 21.146011333252158 0.0
178.03377444219643 23.142889134041432 0.0
178.0171389781581 25.139424229524344 0.0
178.0007390639998 27.135701509150937 0.0
177.9844872611867 29.131795570961028 0.0
177.96831562531958 31.12777021824383 0.0
177.95217137901506 33.12367892574979 0.0
177.93601335587556 35.11956580306677 0.0
177.91980917330676 37.115466754623206 0.0
177.90353303494965 39.11141065927431 0.0
177.88716404994065 41.107420474545464 0.0
177.87068496330167 43.10351422181545 0.0
177.85408120688592 45.099705838854696 0.0
177.83734019707114 47.09600590268051 0.0
177.8204508208825 49.09242223386382 0.0
177.80340306537576 51.088960396660184 0.0
177.78618775576487 53.08562410982212 0.0
177.76879637614692 55.08241558199427 0.0
177.7512209531362 57.0793357839837 0.0
177.73345398762206 59.0763846683631 0.0
177.7154884235581 61.07356134504072 0.0
177.6973176454145 63.070864219724015 0.0
177.67893549792325 65.06829110064902 0.0
177.6603363231446 67.06583927753047 0.0
177.64151501082276 69.06350557553245 0.0
177.62246705855594 71.06128638578721 0.0
177.60318863853138 73.05917767309118 0.0
177.58367666753318 75.05717496042773 0.0
177.5639288766421 77.05527328913202 0.0
177.5439438765494 79.05346715274293 0.0
177.52372121374285 81.05175040187412 0.0
177.50326141198704 83.05011611674061 0.0
177.48256599245786 85.04855644320666 0.0
177.4616374643908 87.04706238727822 0.0
177.4404792756913 89.04562356179385 0.0
177.4190957088923 91.04422787790523 0.0
177.39749170134996 93.04286117358212 0.0
177.37567255941363 95.04150677342477 0.0
177.35364352588525 97.04014498069326 0.0
180.2765832439625 1.1800612950806828 0.0
180.24442837852555 3.1824501417092748 0.0
180.21472853428483 5.184716155837555 0.0
180.1875851929837 7.186541963136536 0.0
180.1628793303941 9.187671847515144 0.0
180.14033691070108 11.187948384603505 0.0
180.1196052728683 13.187317435041736 0.0
180.10031765564779 15.185810261759702 0.0
180.08213570875168 17.183515652042235 0.0
180.06477047036313 19.180552649850615 0.0
180.04798767191608 21.177049393764158 0.0
180.03160397781483 23.173129335698928 0.0
180.0154792570132 25.168903718124234 0.0
179.99950799496452 27.164468469604945 0.0
179.98361140358372 29.15990381979665 0.0
179.96773081647441 31.155275382607524 0.0
179.95182244901613 33.15063589496106 0.0
179.93585337828995 35.14602713308529 0.0
179.91979852632033 37.141481751712696 0.0
179.90363843077867 39.1370249285418 0.0
179.88735761648624 41.13267577458418 0.0
179.8709434173204 43.1284485123048 0.0
179.85438513213657 45.124353442902965 0.0
179.83767342684305 47.120397731298425 0.0
179.8207999173246 49.11658603816428 0.0
179.80375688517944 51.112921026043196 0.0
179.786537091174 53.10940376305056 0.0
179.76913366089872 55.106034043875965 0.0
179.7515400241346 57.10281064421476 0.0
179.73374989456943 59.0997315215795 0.0
179.71575728021983 61.096793972704326 0.0
179.69755651758928 63.09399475543802 0.0
179.67914232448834 65.09133018105533 0.0
179.66050986775096 67.08879618122056 0.0
179.64165484291834 69.08638835248742 0.0
179.622573563438 71.08410197979167 0.0
179.60326305707272 73.0819320393657 0.0
179.58372116709393 75.07987318039673 0.0
179.5639466554613 77.07791968378821 0.0
179.5439393046245 79.07606539548301 0.0
179.52370001386652 81.0743036309796 0.0
179.50323088531562 83.07262704686252 0.0
179.48253529390792 85.0710274742568 0.0
179.4616179345323 87.06949570785434 0.0
179.4404848377695 89.06802124221124 0.0
179.41914334180257 91.06659194424842 0.0
179.3976020003459 93.0651936479576 0.0
179.37587039309312 95.06380965645936 0.0
179.35395878663738 97.06242014185428 0.0
182.2687564664545 1.21619495629424 0.0
182.23577345808442 3.218866232767942 0.0
182.20582653730122 5.221298665611705 0.0
182.17897444719733 7.2230731056672335 0.0
182.15496921183234 9.22388464451976 0.0
182.1333761622298 11.223584511554789 0.0
182.1136955720729 13.222169330139904 0.0
182.09545088863365 15.219739625936164 0.0
182.07823524388866 17.2164524803761 0.0
182.0617252781041 19.21248314402868 0.0
182.0456758844194 21.208000406772594 0.0
182.02990700745121 23.20315389431678 0.0
182.01428905375707 25.198069527284655 0.0
181.99872993799156 27.192849645585717 0.0
181.9831646827726 29.18757538279662 0.0
181.96754752341212 31.18230984462651 0.0
181.95184611137913 33.1771013265804 0.0
181.9360373480175 35.17198621919312 0.0
181.92010443243493 37.166991477812644 0.0
181.90403479172323 39.16213664899583 0.0
181.88781864306358 41.157435496804574 0.0
181.87144800453754 43.152897289673085 0.0
181.85491602312868 45.1485278094219 0.0
181.83821652655132 47.14433013777235 0.0
181.8213437330783 49.14030526714586 0.0
181.80429207315584 51.13645257390338 0.0
181.787056090473 53.13277018445656 0.0
181.76963039992987 55.12925525815998 0.0
181.75200968683237 57.125904205565966 0.0
181.73418873647879 59.12271285634163 0.0
181.71616248670537 61.119676587734894 0.0
181.69792609833505 63.116790421752725 0.0
181.67947504011946 65.11404909701342 0.0
181.6608051858657 67.11144711940321 0.0
181.64191292213079 69.10897879423854 0.0
181.62279526522008 71.10663824114297 0.0
181.6034499862886 73.1044193917582 0.0
181.58387574313963 75.1023159692164 0.0
181.56407221686538 77.100321447227 0.0
181.54404025080717 79.09842898560451 0.0
181.52378198851744 81.09663133811402 0.0
181.5033010066084 83.09492072763054 0.0
181.48260243778435 85.0932886826943 0.0
181.46169307906638 87.09172582823375 0.0
181.44058147986001 89.09022162079712 0.0
181.4192780025196 91.08876401412388 0.0
181.39779484096513 93.08733903404446 0.0
181.37614596587508 95.08593023477816 0.0
181.35434693487383 97.0845180084026 0.0
184.25980257944948 1.2540921737135524 0.0
184.22589813078835 3.257093314247049 0.0
184.19584324831334 5.259658949036247 0.0
184.16958632715372 7.261232384288047 0.0
184.1466503174905 9.261467491583618 0.0
184.12635393466326 11.260265471609777 0.0
184.10800133029764 13.257723364598737 0.0
184.09099206231048 15.254050980574426 0.0
184.07485869178046 17.249496647667836 0.0
184.05926032308332 19.244299873207197 0.0
184.04395866358624 21.238668374403915 0.0
184.02879171287307 23.232771396672277 0.0
184.01365146798614 25.22674141857755 0.0
183.9984669653437 27.220679297284683 0.0
183.98319211038424 29.214660193944937 0.0
183.96779722215152 31.20873907389314 0.0
183.95226327385 33.20295535119768 0.0
183.9365780198487 35.19733661830179 0.0
183.9207334166195 37.191901554907275 0.0
183.90472392142595 39.18666215705229 0.0
183.88854538298818 41.181625426869175 0.0
183.87219433029676 43.17679464501448 0.0
183.85566752897316 45.17217032496519 0.0
183.8389617174698 47.16775092697572 0.0
183.82207346431767 49.163533391432885 0.0
183.8049991070792 51.15951353689963 0.0
183.78773474675157 53.155686356924775 0.0
183.77027628018539 55.152046241131224 0.0
183.75261945905416 57.148587139617106 0.0
183.73475996795702 59.14530268481072 0.0
183.71669351699322 61.14218628121888 0.0
183.69841594601803 63.13923117068158 0.0
183.67992333905482 65.13643047854345 0.0
183.661212148166 67.13377724436911 0.0
183.64227932658082 69.13126443946548 0.0
183.6231224711135 71.1288849720294 0.0
183.6037399738823 73.12663167967288 0.0
183.58413118308624 75.12449730785578 0.0
183.5642965720722 77.12247447159517 0.0
183.54423791517092 79.12055559664935 0.0
183.52395846783176 81.11873283525894 0.0
183.50346314766057 83.11699795054183 0.0
183.48275871245303 85.1153421628147 0.0
183.4618539318215 87.11375595017583 0.0
183.44075975095245 89.1122287936064 0.0
183.41948944735134 91.11074885143728 0.0
183.39805877938434 93.10930253658458 0.0
183.37648610890346 95.10787395258195 0.0
183.3547924369577 97.1064441297415 0.0
186.24940635877425 1.2942527058446505 0.0
186.2145072647501 3.29763513676075 0.0
186.18462660062914 5.300239788883018 0.0
186.15945574447085 7.301328339542575 0.0
186.13811128183966 9.30055788908149 0.0
186.1195442174405 11.2979649654115 0.0
186.10281701405532 13.293828523481622 0.0
186.087213661955 15.28851584107396 0.0
186.07223635693023 17.282383349920227 0.0
186.05755895456576 19.275730884175296 0.0
186.0429757258321 21.26879215200695 0.0
186.02836080346827 23.261741013412724 0.0
186.01363944810646 25.254702796615078 0.0
185.99876888874263 27.24776562006018 0.0
185.9837259190087 29.240989960601688 0.0
185.96849900840724 31.234416139951907 0.0
185.95308334175027 33.22806995141094 0.0
185.93747773126572 35.221966794915424 0.0
185.9216827178913 37.21611467714779 0.0
185.90569942535322 39.21051637209806 0.0
185.88952888998074 41.205170970231784 0.0
185.87317169070977 43.20007498617046 0.0
185.85662776805148 45.19522314896523 0.0
185.8398963615649 47.190608964634976 0.0
185.82297602124243 49.186225115440074 0.0
185.80586466471559 51.18206374215221 0.0
185.78855966274295 53.17811664251275 0.0
185.77105794223357 55.17437540971276 0.0
185.75335610045244 57.17083152802243 0.0
185.7354505269102 59.16747643787044 0.0
185.71733753130846 61.164301579176296 0.0
185.6990134771361 63.16129841916757 0.0
185.68047492132146 65.1584584689791 0.0
185.66171876085744 67.1557732917956 0.0
185.6427423876168 69.15323450415733 0.0
185.62354385269987 71.15083377077926 0.0
185.60412204159425 73.14856279229144 0.0
185.58447686115994 75.14641328413862 0.0
185.56460943892804 77.14437694366678 0.0
185.5445223343813 79.14244540110222 0.0
185.52421976076417 81.1406101487502 0.0
185.50370781471207 83.13886244148935 0.0
185.48299471011757 85.13719316076556 0.0
185.46209101331598 87.13559263397366 0.0
185.44100988084583 89.13405040070154 0.0
185.41976731016905 91.13255491360536 0.0
185.3983824244734 93.1310931478634 0.0
185.37687780911486 95.12965006157083 0.0
185.3552798682651 97.12820780503786 0.0
188.23709182656756 1.337412848301296 0.0
188.201204740558 3.3412216845379468 0.0
188.17205978556302 5.343623430034697 0.0
188.14876465765064 7.3436862483483365 0.0
188.12972649668885 9.341193352857868 0.0
188.11338099158812 11.336492751641648 0.0
188.09854598230373 13.330154893929532 0.0
188.0844472064919 15.322745237200081 0.0
188.07062115593465 17.31471826260758 0.0
188.05680413173894 19.306406515785824 0.0
188.04285370621187 21.298040229390136 0.0
188.02869801673688 23.289773041299583 0.0
188.01430517670073 25.281704212813576 0.0
187.99966522223926 27.273895494669336 0.0
187.9847796305828 29.266383183235664 0.0
187.9696553015033 31.25918648953132 0.0
187.95430115359287 33.25231326108168 0.0
187.93872624689598 35.24576386302053 0.0
187.92293879476892 37.23953379880688 0.0
187.90694569164063 39.23361547392661 0.0
187.89075233754687 41.227999378375 0.0
187.87436263064194 43.22267487508906 0.0
187.85777905208965 45.21763072110477 0.0
187.8410027992233 47.21285540738945 0.0
187.82403394160772 49.2083373757726 0.0
187.80687158583012 51.204065152815424 0.0
187.78951404155404 53.20002742788798 0.0
187.77195898539856 55.19621309417556 0.0
187.7542036216174 57.19261126550217 0.0
187.73624484000766 59.18921127784767 0.0
187.7180793723558 61.18600268165422 0.0
187.69970394926298 63.18297522906249 0.0
187.68111545952962 65.18011885880135 0.0
187.6623111144862 67.17742368035763 0.0
187.64328861978947 69.17487995828199 0.0
187.62404635724846 71.17247809651896 0.0
187.6045835791977 73.1702086219514 0.0
187.58490061773585 75.16806216533602 0.0
187.56499911071305 77.16602943664702 0.0
187.54488224558048 79.16410119040363 0.0
187.52455502097658 81.16226817485709 0.0
187.5040245242422 83.16052105711671 0.0
187.48330022124466 85.15885031486997 0.0
187.46239425433697 87.15724608515083 0.0
187.44132174837213 89.15569796246203 0.0
187.42010114022716 91.1541947410433 0.0
187.398754579458 93.15272408822489 0.0
187.3773084833559 95.15127209489525 0.0
187.35579430977714 97.14982255495067 0.0
190.22210092667703 1.3847403929389284 0.0
190.1854819176974 3.3889277993522082 0.0
190.1581836128745 5.3905559015510205 0.0
190.13801178683886 7.388526354310274 0.0
190.1221690403995 9.383147430838243 0.0
190.1084999366103 11.375341967769378 0.0
190.0956893148753 13.366093868741043 0.0
190.08305259083645 15.35613568379469 0.0
190.0702548881072 17.345955054604886 0.0
190.0571492097446 19.335855123696742 0.0
190.0436833366235 21.32601567456774 0.0
190.02985130240555 23.316537695704323 0.0
190.01566811580034 25.307473108867285 0.0
190.00115689182883 27.298843764680516 0.0
189.98634241836575 29.29065337441582 0.0
189.97124807933704 31.28289494385551 0.0
189.95589451710833 33.2755553837212 0.0
189.94029918741 35.26861835445234 0.0
189.9244763605165 37.262066006527505 0.0
189.90843733361595 39.25588002868995 0.0
189.8921907313636 41.25004226203152 0.0
189.87574283151608 43.244535041994446 0.0
189.8590978846547 45.239341370635294 0.0
189.84225841418268 47.234444984089805 0.0
189.82522549187095 49.22983035659549 0.0
189.8079989889323 51.22548266746801 0.0
189.79057780493036 53.22138774788342 0.0
189.77296007789428 55.217532018200785 0.0
189.7551433794101 57.21390242262882 0.0
189.7371248985411 59.21048636550695 0.0
189.71890161837237 61.20727165183821 0.0
189.70047048888003 63.20424643365315 0.0
189.68182859974948 65.20139916308115 0.0
189.66297335671956 67.19871855248515 0.0
189.64390266503287 69.19619354173345 0.0
189.62461512359442 71.19381327212618 0.0
189.60511023345902 73.19156706616108 0.0
189.58538862421898 75.18944441161234 0.0
189.565452301643 77.18743494745114 0.0
189.54530491936066 79.18552844775175 0.0
189.5249520762724 81.1837147977966 0.0
189.50440163939098 83.18198395411336 0.0
189.48366408886966 85.18032587750068 0.0
189.46275287865166 87.17873042642265 0.0
189.44168480587027 89.17718720024462 0.0
189.4204803950926 91.17568533158008 0.0
189.39916435587546 93.17421324258665 0.0
189.37776628234423 95.17275835723332 0.0
189.3563218688589 97.17130662031484 0.0
192.20315046147218 1.4381097188989982 0.0
192.16678502497155 3.442468317027382 0.0
192.14355864564604 5.4417686191277985 0.0
192.12829929433772 7.435660441419031 0.0
192.11653597647367 9.425568784699857 0.0
192.10570575102864 11.413477346730096 0.0
192.09477583871157 13.40065759578308 0.0
192.0833474468436 15.387838326929746 0.0
192.07131276336327 17.375398643833947 0.0
192.05867823870008 19.363520272548907 0.0
192.04549256984967 21.35227693545404 0.0
192.0318152204479 23.341684931088427 0.0
192.0177037676284 25.331730963230633 0.0
192.00320922728076 27.322387373003394 0.0
191.9883748599252 29.313620414726557 0.0
191.97323640867148 31.30539469120429 0.0
191.95782286960576 33.29767545904043 0.0
191.94215739839834 35.29042975087514 0.0
191.92625818776844 37.28362684316422 0.0
191.910139254582 39.27723836696235 0.0
191.89381112179043 41.27123823008536 0.0
191.87728140003267 43.265602446019194 0.0
191.8605552810079 45.26030892330865 0.0
191.84363595646565 47.255337245249976 0.0
191.8265249760563 49.25066845593723 0.0
191.80922255583565 51.246284860797935 0.0
191.7917278475864 53.242169845249705 0.0
191.77403917761887 55.23830771260602 0.0
191.75615426243215 57.23468354102841 0.0
191.7380704075882 59.2312830586782 0.0
191.7197846953639 61.22809253597736 0.0
191.70129416616857 63.22509869386894 0.0
191.68259599833516 65.22228862706572 0.0
191.66368769067364 67.21964974139549 0.0
191.64456725209854 69.21716970461068 0.0
191.62523340268706 71.21483640995763 0.0
191.60568579064758 73.21263795193369 0.0
191.58592522982983 75.21056261341172 0.0
191.56595396249952 77.20859886282143 0.0
191.54577595194965 79.20673535909081 0.0
191.52539720883175 81.20496096031829 0.0
191.50482615335847 83.20326472936667 0.0
191.48407401196798 85.20163592554034 0.0
191.46315524081984 87.20006396673097 0.0
191.44208795997918 89.19853834372735 0.0
191.42089437893097 91.19704847670482 0.0
191.39960122724932 93.19558354211408 0.0
191.37824039053305 95.19413237372072 0.0
191.3568503527271 97.19268343973187 0.0
194.1779165814375 1.5015193307461137 0.0
194.14514840401762 3.503934507220623 0.0
194.13002973465845 5.497615454690527 0.0
194.12181703690135 7.483431387769348 0.0
194.11421173666668 9.466483449874534 0.0
194.10579378352415 11.449140209226469 0.0
194.09620041592544 13.432451444628077 0.0
194.08549705167513 15.41679344939787 0.0
194.0738332171053 17.402255977877616 0.0
194.06136362034508 19.388809103733696 0.0
194.04822181043116 21.37637814497044 0.0
194.03451692585196 23.36487611328186 0.0
194.02033608137953 25.354217496531906 0.0
194.0057481456062 27.34432362332476 0.0
193.99080730431538 29.335124262200573 0.0
193.97555604628693 31.32655757394512 0.0
193.96002755062386 33.31856939689091 0.0
193.94424756403015 35.3111123164985 0.0
193.92823587126992 37.304144722061324 0.0
193.91200745031256 39.29762993536664 0.0
193.8955733858535 41.291535440566726 0.0
193.87894159832325 43.28583221890076 0.0
193.8621174319597 45.28049418091534 0.0
193.8451041350553 47.2754976848661 0.0
193.82790325759223 49.2708211293217 0.0
193.81051498560848 51.266444608789115 0.0
193.7929384272834 53.26234962253422 0.0
193.77517186252396 55.25851882825488 0.0
193.7572129654768 57.25493583368065 0.0
193.7390590076753 59.251585020453746 0.0
193.72070704830514 61.24845139576984 0.0
193.70215411721847 63.24552046823869 0.0
193.68339739578067 65.24277814527582 0.0
193.66443440032256 67.24021065005724 0.0
193.64526317287866 69.23780445684766 0.0
193.62588248396816 71.23554624392241 0.0
193.60629205241625 73.23342286395524 0.0
193.58649278755863 75.23142133207558 0.0
193.5664870595877 77.22952883201641 0.0
193.54627900412905 79.22773274063603 0.0
193.52587486712736 81.22602067033165 0.0
193.50528339520474 83.2243805269602 0.0
193.4845162737056 85.22280057702095 0.0
193.4635886074796 87.22126951098028 0.0
193.44251942439985 89.21977647939114 0.0
193.42133215447578 91.21831106992755 0.0
193.40005500976068 93.21686321341932 0.0
193.3787212514671 95.21542314920465 0.0
193.35737009516254 97.21398195555207 0.0
196.14270754798423 1.57979617123814 0.0
196.1230446508054 3.5774472207820813 0.0
196.12316529716585 5.553880933035936 0.0
196.12106036164147 7.527437610541306 0.0
196.11636702957566 9.502428661555324 0.0
196.10914288113085 11.479910570258948 0.0
196.1000014111284 13.459823780452258 0.0
196.08939264557168 15.441873760022638 0.0
196.07765607368106 17.425747962294327 0.0
196.06503586545483 19.4111739737503 0.0
196.05171033908866 21.397927041618786 0.0
196.03781111659657 23.38582476775696 0.0
196.02343664488887 25.374719355300993 0.0
196.0086613378929 27.364490475988013 0.0
195.99354188991077 29.355039419189886 0.0
195.97812169672878 31.346284485484038 0.0
195.96243401156985 33.33815741109267 0.0
195.94650423960158 35.33060059950809 0.0
195.9303516365658 37.32356497155344 0.0
195.91399058828122 39.317008285913055 0.0
195.8974315907391 41.31089381771337 0.0
195.88068201325385 43.30518931066657 0.0
195.86374670244533 45.29986613947536 0.0
195.8466284682162 47.29489863498152 0.0
195.82932848155738 49.29026353624343 0.0
195.81184660616395 51.28593954240881 0.0
195.79418168037265 53.281906943719356 0.0
195.7763317620527 55.27814731583976 0.0
195.75829434634923 57.27464326538515 0.0
195.74006656423157 59.2713782173417 0.0
195.7216453684473 61.268336237274795 0.0
195.70302771255595 63.2655018829688 0.0
195.68421072812973 65.26286008156474 0.0
195.66519190490015 67.26039602944161 0.0
195.64596927853708 69.25809511326713 0.0
195.6265416308713 71.25594285145645 0.0
195.60690870767687 73.25392485639445 0.0
195.58707145961105 75.25202681870978 0.0
195.5670323125313 77.25023451593624 0.0
195.54679547411294 79.24853384896214 0.0
195.52636728427854 81.24691091065077 0.0
195.50575661701325 83.2453520916038 0.0
195.4849753396315 85.24384422746307 0.0
195.46403883006323 87.24237478866353 0.0
195.44296653735722 89.24093210355784 0.0
195.42178253182806 91.23950558320826 0.0
195.4005158986254 93.23808587992313 0.0
195.37920065560849 95.23666491936423 0.0
195.3578748200144 97.23523628642833 0.0
198.0934349250559 1.7021708980498325 0.0
198.12027385921377 3.646725841808017 0.0
198.12684975312095 5.598566204453943 0.0
198.1273901728429 7.560133139614706 0.0
198.12284595416344 9.52908819070226 0.0
198.11529708663954 11.50326949887102 0.0
198.10567489808005 13.48126268394297 0.0
198.09458438886824 15.462139468908335 0.0
198.0824024450123 17.445270770620706 0.0
198.0693830662532 19.43021465167025 0.0
198.0557028168836 21.41665050435005 0.0
198.04148842572252 23.40433925490321 0.0
198.02683287237184 25.393098360382066 0.0
198.01180551750636 27.382785548681543 0.0
197.99645868593777 29.3732879062533 0.0
197.98083210726816 31.364514350732385 0.0
197.96495600070966 33.3563903108013 0.0
197.9488532760304 35.348853884389364 0.0
197.932541141381 37.341853010802446 0.0
197.9160323033425 39.335343353070314 0.0
197.8993358805729 41.32928668732825 0.0
197.8824581125875 43.32364966037474 0.0
197.86540291970596 45.31840281872212 0.0
197.84817235350877 47.31351984066631 0.0
197.83076696598943 49.308976922133944 0.0
197.81318611801373 51.30475228040645 0.0
197.7954282424601 53.300825749234555 0.0
197.77749107377343 55.29717844560066 0.0
197.75937185309573 57.29379249330142 0.0
197.74106751634986 59.29065079216552 0.0
197.72257487139413 61.287736824474074 0.0
197.7038907695367 63.28503449228803 0.0
197.68501227616707 65.2825279810935 0.0
197.66593684499864 67.28020164657777 0.0
197.64666250035418 69.2780399227396 0.0
197.62718803206945 71.27602725057457 0.0
197.6075132079094 73.27414802799336 0.0
197.58763900888297 75.2723865830029 0.0
197.56756789349964 77.27072717392717 0.0
197.54730409777704 79.26915402265969 0.0
197.5268539785751 81.26765138987622 0.0
197.50622640827683 83.26620370508097 0.0
197.48543322816792 85.26479576962348 0.0
197.46448976406305 87.2634130574625 0.0
197.44341539547423 89.2620421452955 0.0
197.4222341338221 91.26067130488771 0.0
197.4009750611681 93.25929126370424 0.0
197.3796721656766 95.25789602383486 0.0
197.35836212430556 97.25648332857727 0.0

CELLS 5000 25000
4 0 4 300 299
4 299 300 301 298
4 298 301 302 297
4 297 302 303 296
4 296 303 304 295
4 295 304 305 294
4 294 305 306 293
4 293 306 307 292
4 292 307 308 291
4 291 308 309 290
4 290 309 310 289
4 289 310 311 288
4 288 311 312 287
4 287 312 313 286
4 286 313 314 285
4 285 314 315 284
4 284 315 316 283
4 283 316 317 282
4 282 317 318 281
4 281 318 319 280
4 280 319 320 279
4 279 320 321 278
4 278 321 322 277
4 277 322 323 276
4 276 323 324 275
4 275 324 325 274
4 274 325 326 273
4 273 326 327 272
4 272 327 328 271
4 271 328 329 270
4 270 329 330 269
4 269 330 331 268
4 268 331 332 267
4 267 332 333 266
4 266 333 334 265
4 265 334 335 264
4 264 335 336 263
4 263 336 337 262
4 262 337 338 261
4 261 338 339 260
4 260 339 340 259
4 259 340 341 258
4 258 341 342 257
4 257 342 343 256
4 256 343 344 255
4 255 344 345 254
4 254 345 346 253
4 253 346 347 252
4 252 347 348 251
4 251 348 250 3
4 4 5 349 300
4 300 349 350 301
4 301 350 351 302
4 302 351 352 303
4 303 352 353 304
4 304 353 354 305
4 305 354 355 306
4 306 355 356 307
4 307 356 357 308
4 308 357 358 309
4 309 358 359 310
4 310 359 360 311
4 311 360 361 312
4 312 361 362 313
4 313 362 363 314
4 314 363 364 315
4 315 364 365 316
4 316 365 366 317
4 317 366 367 318
4 318 367 368 319
4 319 368 369 320
4 320 369 370 321
4 321 370 371 322
4 322 371 372 323
4 323 372 373 324
4 324 373 374 325
4 325 374 375 326
4 326 375 376 327
4 327 376 377 328
4 328 377 378 329
4 329 378 379 330
4 330 379 380 331
4 331 380 381 332
4 332 381 382 333
4 333 382 383 334
4 334 383 384 335
4 335 384 385 336
4 336 385 386 337
4 337 386 387 338
4 338 387 388 339
4 339 388 389 340
4 340 389 390 341
4 341 390 391 342
4 342 391 392 343
4 343 392 393 344
4 344 393 394 345
4 345 394 395 346
4 346 395 396 347
4 347 396 397 348
4 348 397 249 250
4 5 6 398 349
4 349 398 399 350
4 350 399 400 351
4 351 400 401 352
4 352 401 402 353
4 353 402 403 354
4 354 403 404 355
4 355 404 405 356
4 356 405 406 357
4 357 406 407 358
4 358 407 408 359
4 359 408 409 360
4 360 409 410 361
4 361 410 411 362
4 362 411 412 363
4 363 412 413 364
4 364 413 414 365
4 365 414 415 366
4 366 415 416 367
4 367 416 417 368
4 368 417 418 369
4 369 418 419 370
4 370 419 420 371
4 371 420 421 372
4 372 421 422 373
4 373 422 423 374
4 374 423 424 375
4 375 424 425 376
4 376 425 426 377
4 377 426 427 378
4 378 427 428 379
4 379 428 429 380
4 380 429 430 381
4 381 430 431 382
4 382 431 432 383
4 383 432 433 384
4 384 433 434 385
4 385 434 435 386
4 386 435 436 387
4 387 436 437 388
4 388 437 438 389
4 389 438 439 390
4 390 439 440 391
4 391 440 441 392
4 392 441 442 393
4 393 442 443 394
4 394 443 444 395
4 395 444 445 396
4 396 445 446 397
4 397 446 248 249
4 6 7 447 398
4 398 447 448 399
4 399 448 449 400
4 400 449 450 401
4 401 450 451 402
4 402 451 452 403
4 403 452 453 404
4 404 453 454 405
4 405 454 455 406
4 406 455 456 407
4 407 456 457 408
4 408 457 458 409
4 409 458 459 410
4 410 459 460 411
4 411 460 461 412
4 412 461 462 413
4 413 462 463 414
4 414 463 464 415
4 415 464 465 416
4 416 465 466 417
4 417 466 467 418
4 418 467 468 419
4 419 468 469 420
4 420 469 470 421
4 421 470 471 422
4 422 471 472 423
4 423 472 473 424
4 424 473 474 425
4 425 474 475 426
4 426 475 476 427
4 427 476 477 428
4 428 477 478 429
4 429 478 479 430
4 430 479 480 431
4 431 480 481 432
4 432 481 482 433
4 433 482 483 434
4 434 483 484 435
4 435 484 485 436
4 436 485 486 437
4 437 486 487 438
4 438 487 488 439
4 439 488 489 440
4 440 489 490 441
4 441 490 491 442
4 442 491 492 443
4 443 492 493 444
4 444 493 494 445
4 445 494 495 446
4 446 495 247 248
4 7 8 496 447
4 447 496 497 448
4 448 497 498 449
4 449 498 499 450
4 450 499 500 451
4 451 500 501 452
4 452 501 502 453
4 453 502 503 454
4 454 503 504 455
4 455 504 505 456
4 456 505 506 457
4 457 506 507 458
4 458 507 508 459
4 459 508 509 460
4 460 509 510 461
4 461 510 511 462
4 462 511 512 463
4 463 512 513 464
4 464 513 514 465
4 465 514 515 466
4 466 515 516 467
4 467 516 517 468
4 468 517 518 469
4 469 518 519 470
4 470 519 520 471
4 471 520 521 472
4 472 521 522 473
4 473 522 523 474
4 474 523 524 475
4 475 524 525 476
4 476 525 526 477
4 477 526 527 478
4 478 527 528 479
4 479 528 529 480
4 480 529 530 481
4 481 530 531 482
4 482 531 532 483
4 483 532 533 484
4 484 533 534 485
4 485 534 535 486
4 486 535 536 487
4 487 536 537 488
4 488 537 538 489
4 489 538 539 490
4 490 539 540 491
4 491 540 541 492
4 492 541 542 493
4 493 542 543 494
4 494 543 544 495
4 495 544 246 247
4 8 9 545 496
4 496 545 546 497
4 497 546 547 498
4 498 547 548 499
4 499 548 549 500
4 500 549 550 501
4 501 550 551 502
4 502 551 552 503
4 503 552 553 504
4 504 553 554 505
4 505 554 555 506
4 506 555 556 507
4 507 556 557 508
4 508 557 558 509
4 509 558 559 510
4 510 559 560 511
4 511 560 561 512
4 512 561 562 513
4 513 562 563 514
4 514 563 564 515
4 515 564 565 516
4 516 565 566 517
4 517 566 567 518
4 518 567 568 519
4 519 568 569 520
4 520 569 570 521
4 521 570 571 522
4 522 571 572 523
4 523 572 573 524
4 524 573 574 525
4 525 574 575 526
4 526 575 576 527
4 527 576 577 528
4 528 577 578 529
4 529 578 579 530
4 530 579 580 531
4 531 580 581 532
4 532 581 582 533
4 533 582 583 534
4 534 583 584 535
4 535 584 585 536
4 536 585 586 537
4 537 586 587 538
4 538 587 588 539
4 539 588 589 540
4 540 589 590 541
4 541 590 591 542
4 542 591 592 543
4 543 592 593 544
4 544 593 245 246
4 9 10 594 545
4 545 594 595 546
4 546 595 596 547
4 547 596 597 548
4 548 597 598 549
4 549 598 599 550
4 550 599 600 551
4 551 600 601 552
4 552 601 602 553
4 553 602 603 554
4 554 603 604 555
4 555 604 605 556
4 556 605 606 557
4 557 606 607 558
4 558 607 608 559
4 559 608 609 560
4 560 609 610 561
4 561 610 611 562
4 562 611 612 563
4 563 612 613 564
4 564 613 614 565
4 565 614 615 566
4 566 615 616 567
4 567 616 617 568
4 568 617 618 569
4 569 618 619 570
4 570 619 620 571
4 571 620 621 572
4 572 621 622 573
4 573 622 623 574
4 574 623 624 575
4 575 624 625 576
4 576 625 626 577
4 577 626 627 578
4 578 627 628 579
4 579 628 629 580
4 580 629 630 581
4 581 630 631 582
4 582 631 632 583
4 583 632 633 584
4 584 633 634 585
4 585 634 635 586
4 586 635 636 587
4 587 636 637 588
4 588 637 638 589
4 589 638 639 590
4 590 639 640 591
4 591 640 641 592
4 592 641 642 593
4 593 642 244 245
4 10 11 643 594
4 594 643 644 595
4 595 644 645 596
4 596 645 646 597
4 597 646 647 598
4 598 647 648 599
4 599 648 649 600
4 600 649 650 601
4 601 650 651 602
4 602 651 652 603
4 603 652 653 604
4 604 653 654 605
4 605 654 655 606
4 606 655 656 607
4 607 656 657 608
4 608 657 658 609
4 609 658 659 610
4 610 659 660 611
4 611 660 661 612
4 612 661 662 613
4 613 662 663 614
4 614 663 664 615
4 615 664 665 616
4 616 665 666 617
4 617 666 667 618
4 618 667 668 619
4 619 668 669 620
4 620 669 670 621
4 621 670 671 622
4 622 671 672 623
4 623 672 673 624
4 624 673 674 625
4 625 674 675 626
4 626 675 676 627
4 627 676 677 628
4 628 677 678 629
4 629 678 679 630
4 630 679 680 631
4 631 680 681 632
4 632 681 682 633
4 633 682 683 634
4 634 683 684 635
4 635 684 685 636
4 636 685 686 637
4 637 686 687 638
4 638 687 688 639
4 639 688 689 640
4 640 689 690 641
4 641 690 691 642
4 642 691 243 244
4 11 12 692 643
4 643 692 693 644
4 644 693 694 645
4 645 694 695 646
4 646 695 696 647
4 647 696 697 648
4 648 697 698 649
4 649 698 699 650
4 650 699 700 651
4 651 700 701 652
4 652 701 702 653
4 653 702 703 654
4 654 703 704 655
4 655 704 705 656
4 656 705 706 657
4 657 706 707 658
4 658 707 708 659
4 659 708 709 660
4 660 709 710 661
4 661 710 711 662
4 662 711 712 663
4 663 712 713 664
4 664 713 714 665
4 665 714 715 666
4 666 715 716 667
4 667 716 717 668
4 668 717 718 669
4 669 718 719 670
4 670 719 720 671
4 671 720 721 672
4 672 721 722 673
4 673 722 723 674
4 674 723 724 675
4 675 724 725 676
4 676 725 726 677
4 677 726 727 678
4 678 727 728 679
4 679 728 729 680
4 680 729 730 681
4 681 730 731 682
4 682 731 732 683
4 683 732 733 684
4 684 733 734 685
4 685 734 735 686
4 686 735 736 687
4 687 736 737 688
4 688 737 738 689
4 689 738 739 690
4 690 739 740 691
4 691 740 242 243
4 12 13 741 692
4 692 741 742 693
4 693 742 743 694
4 694 743 744 695
4 695 744 745 696
4 696 745 746 697
4 697 746 747 698
4 698 747 748 699
4 699 748 749 700
4 700 749 750 701
4 701 750 751 702
4 702 751 752 703
4 703 752 753 704
4 704 753 754 705
4 705 754 755 706
4 706 755 756 707
4 707 756 757 708
4 708 757 758 709
4 709 758 759 710
4 710 759 760 711
4 711 760 761 712
4 712 761 762 713
4 713 762 763 714
4 714 763 764 715
4 715 764 765 716
4 716 765 766 717
4 717 766 767 718
4 718 767 768 719
4 719 768 769 720
4 720 769 770 721
4 721 770 771 722
4 722 771 772 723
4 723 772 773 724
4 724 773 774 725
4 725 774 775 726
4 726 775 776 727
4 727 776 777 728
4 728 777 778 729
4 729 778 779 730
4 730 779 780 731
4 731 780 781 732
4 732 781 782 733
4 733 782 783 734
4 734 783 784 735
4 735 784 785 736
4 736 785 786 737
4 737 786 787 738
4 738 787 788 739
4 739 788 789 740
4 740 789 241 242
4 13 14 790 741
4 741 790 791 742
4 742 791 792 743
4 743 792 793 744
4 744 793 794 745
4 745 794 795 746
4 746 795 796 747
4 747 796 797 748
4 748 797 798 749
4 749 798 799 750
4 750 799 800 751
4 751 800 801 752
4 752 801 802 753
4 753 802 803 754
4 754 803 804 755
4 755 804 805 756
4 756 805 806 757
4 757 806 807 758
4 758 807 808 759
4 759 808 809 760
4 760 809 810 761
4 761 810 811 762
4 762 811 812 763
4 763 812 813 764
4 764 813 814 765
4 765 814 815 766
4 766 815 816 767
4 767 816 817 768
4 768 817 818 769
4 769 818 819 770
4 770 819 820 771
4 771 820 821 772
4 772 821 822 773
4 773 822 823 774
4 774 823 824 775
4 775 824 825 776
4 776 825 826 777
4 777 826 827 778
4 778 827 828 779
4 779 828 829 780
4 780 829 830 781
4 781 830 831 782
4 782 831 832 783
4 783 832 833 784
4 784 833 834 785
4 785 834 835 786
4 786 835 836 787
4 787 836 837 788
4 788 837 838 789
4 789 838 240 241
4 14 15 839 790
4 790 839 840 791
4 791 840 841 792
4 792 841 842 793
4 793 842 843 794
4 794 843 844 795
4 795 844 845 796
4 796 845 846 797
4 797 846 847 798
4 798 847 848 799
4 799 848 849 800
4 800 849 850 801
4 801 850 851 802
4 802 851 852 803
4 803 852 853 804
4 804 853 854 805
4 805 854 855 806
4 806 855 856 807
4 807 856 857 808
4 808 857 858 809
4 809 858 859 810
4 810 859 860 811
4 811 860 861 812
4 812 861 862 813
4 813 862 863 814
4 814 863 864 815
4 815 864 865 816
4 816 865 866 817
4 817 866 867 818
4 818 867 868 819
4 819 868 869 820
4 820 869 870 821
4 821 870 871 822
4 822 871 872 823
4 823 872 873 824
4 824 873 874 825
4 825 874 875 826
4 826 875 876 827
4 827 876 877 828
4 828 877 878 829
4 829 878 879 830
4 830 879 880 831
4 831 880 881 832
4 832 881 882 833
4 833 882 883 834
4 834 883 884 835
4 835 884 885 836
4 836 885 886 837
4 837 886 887 838
4 838 887 239 240
4 15 16 888 839
4 839 888 889 840
4 840 889 890 841
4 841 890 891 842
4 842 891 892 843
4 843 892 893 844
4 844 893 894 845
4 845 894 895 846
4 846 895 896 847
4 847 896 897 848
4 848 897 898 849
4 849 898 899 850
4 850 899 900 851
4 851 900 901 852
4 852 901 902 853
4 853 902 903 854
4 854 903 904 855
4 855 904 905 856
4 856 905 906 857
4 857 906 907 858
4 858 907 908 859
4 859 908 909 860
4 860 909 910 861
4 861 910 911 862
4 862 911 912 863
4 863 912 913 864
4 864 913 914 865
4 865 914 915 866
4 866 915 916 867
4 867 916 917 868
4 868 917 918 869
4 869 918 919 870
4 870 919 920 871
4 871 920 921 872
4 872 921 922 873
4 873 922 923 874
4 874 923 924 875
4 875 924 925 876
4 876 925 926 877
4 877 926 927 878
4 878 927 928 879
4 879 928 929 880
4 880 929 930 881
4 881 930 931 882
4 882 931 932 883
4 883 932 933 884
4 884 933 934 885
4 885 934 935 886
4 886 935 936 887
4 887 936 238 239
4 16 17 937 888
4 888 937 938 889
4 889 938 939 890
4 890 939 940 891
4 891 940 941 892
4 892 941 942 893
4 893 942 943 894
4 894 943 944 895
4 895 944 945 896
4 896 945 946 897
4 897 946 947 898
4 898 947 948 899
4 899 948 949 900
4 900 949 950 901
4 901 950 951 902
4 902 951 952 903
4 903 952 953 904
4 904 953 954 905
4 905 954 955 906
4 906 955 956 907
4 907 956 957 908
4 908 957 958 909
4 909 958 959 910
4 910 959 960 911
4 911 960 961 912
4 912 961 962 913
4 913 962 963 914
4 914 963 964 915
4 915 964 965 916
4 916 965 966 917
4 917 966 967 918
4 918 967 968 919
4 919 968 969 920
4 920 969 970 921
4 921 970 971 922
4 922 971 972 923
4 923 972 973 924
4 924 973 974 925
4 925 974 975 926
4 926 975 976 927
4 927 976 977 928
4 928 977 978 929
4 929 978 979 930
4 930 979 980 931
4 931 980 981 932
4 932 981 982 933
4 933 982 983 934
4 934 983 984 935
4 935 984 985 936
4 936 985 237 238
4 17 18 986 937
4 937 986 987 938
4 938 987 988 939
4 939 988 989 940
4 940 989 990 941
4 941 990 991 942
4 942 991 992 943
4 943 992 993 944
4 944 993 994 945
4 945 994 995 946
4 946 995 996 947
4 947 996 997 948
4 948 997 998 949
4 949 998 999 950
4 950 999 1000 951
4 951 1000 1001 952
4 952 1001 1002 953
4 953 1002 1003 954
4 954 1003 1004 955
4 955 1004 1005 956
4 956 1005 1006 957
4 957 1006 1007 958
4 958 1007 1008 959
4 959 1008 1009 960
4 960 1009 1010 961
4 961 1010 1011 962
4 962 1011 1012 963
4 963 1012 1013 964
4 964 1013 1014 965
4 965 1014 1015 966
4 966 1015 1016 967
4 967 1016 1017 968
4 968 1017 1018 969
4 969 1018 1019 970
4 970 1019 1020 971
4 971 1020 1021 972
4 972 1021 1022 973
4 973 1022 1023 974
4 974 1023 1024 975
4 975 1024 1025 976
4 976 1025 1026 977
4 977 1026 1027 978
4 978 1027 1028 979
4 979 1028 1029 980
4 980 1029 1030 981
4 981 1030 1031 982
4 982 1031 1032 983
4 983 1032 1033 984
4 984 1033 1034 985
4 985 1034 236 237
4 18 19 1035 986
4 986 1035 1036 987
4 987 1036 1037 988
4 988 1037 1038 989
4 989 1038 1039 990
4 990 1039 1040 991
4 991 1040 1041 992
4 992 1041 1042 993
4 993 1042 1043 994
4 994 1043 1044 995
4 995 1044 1045 996
4 996 1045 1046 997
4 997 1046 1047 998
4 998 1047 1048 999
4 999 1048 1049 1000
4 1000 1049 1050 1001
4 1001 1050 1051 1002
4 1002 1051 1052 1003
4 1003 1052 1053 1004
4 1004 1053 1054 1005
4 1005 1054 1055 1006
4 1006 1055 1056 1007
4 1007 1056 1057 1008
4 1008 1057 1058 1009
4 1009 1058 1059 1010
4 1010 1059 1060 1011
4 1011 1060 1061 1012
4 1012 1061 1062 1013
4 1013 1062 1063 1014
4 1014 1063 1064 1015
4 1015 1064 1065 1016
4 1016 1065 1066 1017
4 1017 1066 1067 1018
4 1018 1067 1068 1019
4 1019 1068 1069 1020
4 1020 1069 1070 1021
4 1021 1070 1071 1022
4 1022 1071 1072 1023
4 1023 1072 1073 1024
4 1024 1073 1074 1025
4 1025 1074 1075 1026
4 1026 1075 1076 1027
4 1027 1076 1077 1028
4 1028 1077 1078 1029
4 1029 1078 1079 1030
4 1030 1079 1080 1031
4 1031 1080 1081 1032
4 1032 1081 1082 1033
4 1033 1082 1083 1034
4 1034 1083 235 236
4 19 20 1084 1035
4 1035 1084 1085 1036
4 1036 1085 1086 1037
4 1037 1086 1087 1038
4 1038 1087 1088 1039
4 1039 1088 1089 1040
4 1040 1089 1090 1041
4 1041 1090 1091 1042
4 1042 1091 1092 1043
4 1043 1092 1093 1044
4 1044 1093 1094 1045
4 1045 1094 1095 1046
4 1046 1095 1096 1047
4 1047 1096 1097 1048
4 1048 1097 1098 1049
4 1049 1098 1099 1050
4 1050 1099 1100 1051
4 1051 1100 1101 1052
4 1052 1101 1102 1053
4 1053 1102 1103 1054
4 1054 1103 1104 1055
4 1055 1104 1105 1056
4 1056 1105 1106 1057
4 1057 1106 1107 1058
4 1058 1107 1108 1059
4 1059 1108 1109 1060
4 1060 1109 1110 1061
4 1061 1110 1111 1062
4 1062 1111 1112 1063
4 1063 1112 1113 1064
4 1064 1113 1114 1065
4 1065 1114 1115 1066
4 1066 1115 1116 1067
4 1067 1116 1117 1068
4 1068 1117 1118 1069
4 1069 1118 1119 1070
4 1070 1119 1120 1071
4 1071 1120 1121 1072
4 1072 1121 1122 1073
4 1073 1122 1123 1074
4 1074 1123 1124 1075
4 1075 1124 1125 1076
4 1076 1125 1126 1077
4 1077 1126 1127 1078
4 1078 1127 1128 1079
4 1079 1128 1129 1080
4 1080 1129 1130 1081
4 1081 1130 1131 1082
4 1082 1131 1132 1083
4 1083 1132 234 235
4 20 21 1133 1084
4 1084 1133 1134 1085
4 1085 1134 1135 1086
4 1086 1135 1136 1087
4 1087 1136 1137 1088
4 1088 1137 1138 1089
4 1089 1138 1139 1090
4 1090 1139 1140 1091
4 1091 1140 1141 1092
4 1092 1141 1142 1093
4 1093 1142 1143 1094
4 1094 1143 1144 1095
4 1095 1144 1145 1096
4 1096 1145 1146 1097
4 1097 1146 1147 1098
4 1098 1147 1148 1099
4 1099 1148 1149 1100
4 1100 1149 1150 1101
4 1101 1150 1151 1102
4 1102 1151 1152 1103
4 1103 1152 1153 1104
4 1104 1153 1154 1105
4 1105 1154 1155 1106
4 1106 1155 1156 1107
4 1107 1156 1157 1108
4 1108 1157 1158 1109
4 1109 1158 1159 1110
4 1110 1159 1160 1111
4 1111 1160 1161 1112
4 1112 1161 1162 1113
4 1113 1162 1163 1114
4 1114 1163 1164 1115
4 1115 1164 1165 1116
4 1116 1165 1166 1117
4 1117 1166 1167 1118
4 1118 1167 1168 1119
4 1119 1168 1169 1120
4 1120 1169 1170 1121
4 1121 1170 1171 1122
4 1122 1171 1172 1123
4 1123 1172 1173 1124
4 1124 1173 1174 1125
4 1125 1174 1175 1126
4 1126 1175 1176 1127
4 1127 1176 1177 1128
4 1128 1177 1178 1129
4 1129 1178 1179 1130
4 1130 1179 1180 1131
4 1131 1180 1181 1132
4 1132 1181 233 234
4 21 22 1182 1133
4 1133 1182 1183 1134
4 1134 1183 1184 1135
4 1135 1184 1185 1136
4 1136 1185 1186 1137
4 1137 1186 1187 1138
4 1138 1187 1188 1139
4 1139 1188 1189 1140
4 1140 1189 1190 1141
4 1141 1190 1191 1142
4 1142 1191 1192 1143
4 1143 1192 1193 1144
4 1144 1193 1194 1145
4 1145 1194 1195 1146
4 1146 1195 1196 1147
4 1147 1196 1197 1148
4 1148 1197 1198 1149
4 1149 1198 1199 1150
4 1150 1199 1200 1151
4 1151 1200 1201 1152
4 1152 1201 1202 1153
4 1153 1202 1203 1154
4 1154 1203 1204 1155
4 1155 1204 1205 1156
4 1156 1205 1206 1157
4 1157 1206 1207 1158
4 1158 1207 1208 1159
4 1159 1208 1209 1160
4 1160 1209 1210 1161
4 1161 1210 1211 1162
4 1162 1211 1212 1163
4 1163 1212 1213 1164
4 1164 1213 1214 1165
4 1165 1214 1215 1166
4 1166 1215 1216 1167
4 1167 1216 1217 1168
4 1168 1217 1218 1169
4 1169 1218 1219 1170
4 1170 1219 1220 1171
4 1171 1220 1221 1172
4 1172 1221 1222 1173
4 1173 1222 1223 1174
4 1174 1223 1224 1175
4 1175 1224 1225 1176
4 1176 1225 1226 1177
4 1177 1226 1227 1178
4 1178 1227 1228 1179
4 1179 1228 1229 1180
4 1180 1229 1230 1181
4 1181 1230 232 233
4 22 23 1231 1182
4 1182 1231 1232 1183
4 1183 1232 1233 1184
4 1184 1233 1234 1185
4 1185 1234 1235 1186
4 1186 1235 1236 1187
4 1187 1236 1237 1188
4 1188 1237 1238 1189
4 1189 1238 1239 1190
4 1190 1239 1240 1191
4 1191 1240 1241 1192
4 1192 1241 1242 1193
4 1193 1242 1243 1194
4 1194 1243 1244 1195
4 1195 1244 1245 1196
4 1196 1245 1246 1197
4 1197 1246 1247 1198
4 1198 1247 1248 1199
4 1199 1248 1249 1200
4 1200 1249 1250 1201
4 1201 1250 1251 1202
4 1202 1251 1252 1203
4 1203 1252 1253 1204
4 1204 1253 1254 1205
4 1205 1254 1255 1206
4 1206 1255 1256 1207
4 1207 1256 1257 1208
4 1208 1257 1258 1209
4 1209 1258 1259 1210
4 1210 1259 1260 1211
4 1211 1260 1261 1212
4 1212 1261 1262 1213
4 1213 1262 1263 1214
4 1214 1263 1264 1215
4 1215 1264 1265 1216
4 1216 1265 1266 1217
4 1217 1266 1267 1218
4 1218 1267 1268 1219
4 1219 1268 1269 1220
4 1220 1269 1270 1221
4 1221 1270 1271 1222
4 1222 1271 1272 1223
4 1223 1272 1273 1224
4 1224 1273 1274 1225
4 1225 1274 1275 1226
4 1226 1275 1276 1227
4 1227 1276 1277 1228
4 1228 1277 1278 1229
4 1229 1278 1279 1230
4 1230 1279 231 232
4 23 24 1280 1231
4 1231 1280 1281 1232
4 1232 1281 1282 1233
4 1233 1282 1283 1234
4 1234 1283 1284 1235
4 1235 1284 1285 1236
4 1236 1285 1286 1237
4 1237 1286 1287 1238
4 1238 1287 1288 1239
4 1239 1288 1289 1240
4 1240 1289 1290 1241
4 1241 1290 1291 1242
4 1242 1291 1292 1243
4 1243 1292 1293 1244
4 1244 1293 1294 1245
4 1245 1294 1295 1246
4 1246 1295 1296 1247
4 1247 1296 1297 1248
4 1248 1297 1298 1249
4 1249 1298 1299 1250
4 1250 1299 1300 1251
4 1251 1300 1301 1252
4 1252 1301 1302 1253
4 1253 1302 1303 1254
4 1254 1303 1304 1255
4 1255 1304 1305 1256
4 1256 1305 1306 1257
4 1257 1306 1307 1258
4 1258 1307 1308 1259
4 1259 1308 1309 1260
4 1260 1309 1310 1261
4 1261 1310 1311 1262
4 1262 1311 1312 1263
4 1263 1312 1313 1264
4 1264 1313 1314 1265
4 1265 1314 1315 1266
4 1266 1315 1316 1267
4 1267 1316 1317 1268
4 1268 1317 1318 1269
4 1269 1318 1319 1270
4 1270 1319 1320 1271
4 1271 1320 1321 1272
4 1272 1321 1322 1273
4 1273 1322 1323 1274
4 1274 1323 1324 1275
4 1275 1324 1325 1276
4 1276 1325 1326 1277
4 1277 1326 1327 1278
4 1278 1327 1328 1279
4 1279 1328 230 231
4 24 25 1329 1280
4 1280 1329 1330 1281
4 1281 1330 1331 1282
4 1282 1331 1332 1283
4 1283 1332 1333 1284
4 1284 1333 1334 1285
4 1285 1334 1335 1286
4 1286 1335 1336 1287
4 1287 1336 1337 1288
4 1288 1337 1338 1289
4 1289 1338 1339 1290
4 1290 1339 1340 1291
4 1291 1340 1341 1292
4 1292 1341 1342 1293
4 1293 1342 1343 1294
4 1294 1343 1344 1295
4 1295 1344 1345 1296
4 1296 1345 1346 1297
4 1297 1346 1347 1298
4 1298 1347 1348 1299
4 1299 1348 1349 1300
4 1300 1349 1350 1301
4 1301 1350 1351 1302
4 1302 1351 1352 1303
4 1303 1352 1353 1304
4 1304 1353 1354 1305
4 1305 1354 1355 1306
4 1306 1355 1356 1307
4 1307 1356 1357 1308
4 1308 1357 1358 1309
4 1309 1358 1359 1310
4 1310 1359 1360 1311
4 1311 1360 1361 1312
4 1312 1361 1362 1313
4 1313 1362 1363 1314
4 1314 1363 1364 1315
4 1315 1364 1365 1316
4 1316 1365 1366 1317
4 1317 1366 1367 1318
4 1318 1367 1368 1319
4 1319 1368 1369 1320
4 1320 1369 1370 1321
4 1321 1370 1371 1322
4 1322 1371 1372 1323
4 1323 1372 1373 1324
4 1324 1373 1374 1325
4 1325 1374 1375 1326
4 1326 1375 1376 1327
4 1327 1376 1377 1328
4 1328 1377 229 230
4 25 26 1378 1329
4 1329 1378 1379 1330
4 1330 1379 1380 1331
4 1331 1380 1381 1332
4 1332 1381 1382 1333
4 1333 1382 1383 1334
4 1334 1383 1384 1335
4 1335 1384 1385 1336
4 1336 1385 1386 1337
4 1337 1386 1387 1338
4 1338 1387 1388 1339
4 1339 1388 1389 1340
4 1340 1389 1390 1341
4 1341 1390 1391 1342
4 1342 1391 1392 1343
4 1343 1392 1393 1344
4 1344 1393 1394 1345
4 1345 1394 1395 1346
4 1346 1395 1396 1347
4 1347 1396 1397 1348
4 1348 1397 1398 1349
4 1349 1398 1399 1350
4 1350 1399 1400 1351
4 1351 1400 1401 1352
4 1352 1401 1402 1353
4 1353 1402 1403 1354
4 1354 1403 1404 1355
4 1355 1404 1405 1356
4 1356 1405 1406 1357
4 1357 1406 1407 1358
4 1358 1407 1408 1359
4 1359 1408 1409 1360
4 1360 1409 1410 1361
4 1361 1410 1411 1362
4 1362 1411 1412 1363
4 1363 1412 1413 1364
4 1364 1413 1414 1365
4 1365 1414 1415 1366
4 1366 1415 1416 1367
4 1367 1416 1417 1368
4 1368 1417 1418 1369
4 1369 1418 1419 1370
4 1370 1419 1420 1371
4 1371 1420 1421 1372
4 1372 1421 1422 1373
4 1373 1422 1423 1374
4 1374 1423 1424 1375
4 1375 1424 1425 1376
4 1376 1425 1426 1377
4 1377 1426 228 229
4 26 27 1427 1378
4 1378 1427 1428 1379
4 1379 1428 1429 1380
4 1380 1429 1430 1381
4 1381 1430 1431 1382
4 1382 1431 1432 1383
4 1383 1432 1433 1384
4 1384 1433 1434 1385
4 1385 1434 1435 1386
4 1386 1435 1436 1387
4 1387 1436 1437 1388
4 1388 1437 1438 1389
4 1389 1438 1439 1390
4 1390 1439 1440 1391
4 1391 1440 1441 1392
4 1392 1441 1442 1393
4 1393 1442 1443 1394
4 1394 1443 1444 1395
4 1395 1444 1445 1396
4 1396 1445 1446 1397
4 1397 1446 1447 1398
4 1398 1447 1448 1399
4 1399 1448 1449 1400
4 1400 1449 1450 1401
4 1401 1450 1451 1402
4 1402 1451 1452 1403
4 1403 1452 1453 1404
4 1404 1453 1454 1405
4 1405 1454 1455 1406
4 1406 1455 1456 1407
4 1407 1456 1457 1408
4 1408 1457 1458 1409
4 1409 1458 1459 1410
4 1410 1459 1460 1411
4 1411 1460 1461 1412
4 1412 1461 1462 1413
4 1413 1462 1463 1414
4 1414 1463 1464 1415
4 1415 1464 1465 1416
4 1416 1465 1466 1417
4 1417 1466 1467 1418
4 1418 1467 1468 1419
4 1419 1468 1469 1420
4 1420 1469 1470 1421
4 1421 1470 1471 1422
4 1422 1471 1472 1423
4 1423 1472 1473 1424
4 1424 1473 1474 1425
4 1425 1474 1475 1426
4 1426 1475 227 228
4 27 28 1476 1427
4 1427 1476 1477 1428
4 1428 1477 1478 1429
4 1429 1478 1479 1430
4 1430 1479 1480 1431
4 1431 1480 1481 1432
4 1432 1481 1482 1433
4 1433 1482 1483 1434
4 1434 1483 1484 1435
4 1435 1484 1485 1436
4 1436 1485 1486 1437
4 1437 1486 1487 1438
4 1438 1487 1488 1439
4 1439 1488 1489 1440
4 1440 1489 1490 1441
4 1441 1490 1491 1442
4 1442 1491 1492 1443
4 1443 1492 1493 1444
4 1444 1493 1494 1445
4 1445 1494 1495 1446
4 1446 1495 1496 1447
4 1447 1496 1497 1448
4 1448 1497 1498 1449
4 1449 1498 1499 1450
4 1450 1499 1500 1451
4 1451 1500 1501 1452
4 1452 1501 1502 1453
4 1453 1502 1503 1454
4 1454 1503 1504 1455
4 1455 1504 1505 1456
4 1456 1505 1506 1457
4 1457 1506 1507 1458
4 1458 1507 1508 1459
4 1459 1508 1509 1460
4 1460 1509 1510 1461
4 1461 1510 1511 1462
4 1462 1511 1512 1463
4 1463 1512 1513 1464
4 1464 1513 1514 1465
4 1465 1514 1515 1466
4 1466 1515 1516 1467
4 1467 1516 1517 1468
4 1468 1517 1518 1469
4 1469 1518 1519 1470
4 1470 1519 1520 1471
4 1471 1520 1521 1472
4 1472 1521 1522 1473
4 1473 1522 1523 1474
4 1474 1523 1524 1475
4 1475 1524 226 227
4 28 29 1525 1476
4 1476 1525 1526 1477
4 1477 1526 1527 1478
4 1478 1527 1528 1479
4 1479 1528 1529 1480
4 1480 1529 1530 1481
4 1481 1530 1531 1482
4 1482 1531 1532 1483
4 1483 1532 1533 1484
4 1484 1533 1534 1485
4 1485 1534 1535 1486
4 1486 1535 1536 1487
4 1487 1536 1537 1488
4 1488 1537 1538 1489
4 1489 1538 1539 1490
4 1490 1539 1540 1491
4 1491 1540 1541 1492
4 1492 1541 1542 1493
4 1493 1542 1543 1494
4 1494 1543 1544 1495
4 1495 1544 1545 1496
4 1496 1545 1546 1497
4 1497 1546 1547 1498
4 1498 1547 1548 1499
4 1499 1548 1549 1500
4 1500 1549 1550 1501
4 1501 1550 1551 1502
4 1502 1551 1552 1503
4 1503 1552 1553 1504
4 1504 1553 1554 1505
4 1505 1554 1555 1506
4 1506 1555 1556 1507
4 1507 1556 1557 1508
4 1508 1557 1558 1509
4 1509 1558 1559 1510
4 1510 1559 1560 1511
4 1511 1560 1561 1512
4 1512 1561 1562 1513
4 1513 1562 1563 1514
4 1514 1563 1564 1515
4 1515 1564 1565 1516
4 1516 1565 1566 1517
4 1517 1566 1567 1518
4 1518 1567 1568 1519
4 1519 1568 1569 1520
4 1520 1569 1570 1521
4 1521 1570 1571 1522
4 1522 1571 1572 1523
4 1523 1572 1573 1524
4 1524 1573 225 226
4 29 30 1574 1525
4 1525 1574 1575 1526
4 1526 1575 1576 1527
4 1527 1576 1577 1528
4 1528 1577 1578 1529
4 1529 1578 1579 1530
4 1530 1579 1580 1531
4 1531 1580 1581 1532
4 1532 1581 1582 1533
4 1533 1582 1583 1534
4 1534 1583 1584 1535
4 1535 1584 1585 1536
4 1536 1585 1586 1537
4 1537 1586 1587 1538
4 1538 1587 1588 1539
4 1539 1588 1589 1540
4 1540 1589 1590 1541
4 1541 1590 1591 1542
4 1542 1591 1592 1543
4 1543 1592 1593 1544
4 1544 1593 1594 1545
4 1545 1594 1595 1546
4 1546 1595 1596 1547
4 1547 1596 1597 1548
4 1548 1597 1598 1549
4 1549 1598 1599 1550
4 1550 1599 1600 1551
4 1551 1600 1601 1552
4 1552 1601 1602 1553
4 1553 1602 1603 1554
4 1554 1603 1604 1555
4 1555 1604 1605 1556
4 1556 1605 1606 1557
4 1557 1606 1607 1558
4 1558 1607 1608 1559
4 1559 1608 1609 1560
4 1560 1609 1610 1561
4 1561 1610 1611 1562
4 1562 1611 1612 1563
4 1563 1612 1613 1564
4 1564 1613 1614 1565
4 1565 1614 1615 1566
4 1566 1615 1616 1567
4 1567 1616 1617 1568
4 1568 1617 1618 1569
4 1569 1618 1619 1570
4 1570 1619 1620 1571
4 1571 1620 1621 1572
4 1572 1621 1622 1573
4 1573 1622 224 225
4 30 31 1623 1574
4 1574 1623 1624 1575
4 1575 1624 1625 1576
4 1576 1625 1626 1577
4 1577 1626 1627 1578
4 1578 1627 1628 1579
4 1579 1628 1629 1580
4 1580 1629 1630 1581
4 1581 1630 1631 1582
4 1582 1631 1632 1583
4 1583 1632 1633 1584
4 1584 1633 1634 1585
4 1585 1634 1635 1586
4 1586 1635 1636 1587
4 1587 1636 1637 1588
4 1588 1637 1638 1589
4 1589 1638 1639 1590
4 1590 1639 1640 1591
4 1591 1640 1641 1592
4 1592 1641 1642 1593
4 1593 1642 1643 1594
4 1594 1643 1644 1595
4 1595 1644 1645 1596
4 1596 1645 1646 1597
4 1597 1646 1647 1598
4 1598 1647 1648 1599
4 1599 1648 1649 1600
4 1600 1649 1650 1601
4 1601 1650 1651 1602
4 1602 1651 1652 1603
4 1603 1652 1653 1604
4 1604 1653 1654 1605
4 1605 1654 1655 1606
4 1606 1655 1656 1607
4 1607 1656 1657 1608
4 1608 1657 1658 1609
4 1609 1658 1659 1610
4 1610 1659 1660 1611
4 1611 1660 1661 1612
4 1612 1661 1662 1613
4 1613 1662 1663 1614
4 1614 1663 1664 1615
4 1615 1664 1665 1616
4 1616 1665 1666 1617
4 1617 1666 1667 1618
4 1618 1667 1668 1619
4 1619 1668 1669 1620
4 1620 1669 1670 1621
4 1621 1670 1671 1622
4 1622 1671 223 224
4 31 32 1672 1623
4 1623 1672 1673 1624
4 1624 1673 1674 1625
4 1625 1674 1675 1626
4 1626 1675 1676 1627
4 1627 1676 1677 1628
4 1628 1677 1678 1629
4 1629 1678 1679 1630
4 1630 1679 1680 1631
4 1631 1680 1681 1632
4 1632 1681 1682 1633
4 1633 1682 1683 1634
4 1634 1683 1684 1635
4 1635 1684 1685 1636
4 1636 1685 1686 1637
4 1637 1686 1687 1638
4 1638 1687 1688 1639
4 1639 1688 1689 1640
4 1640 1689 1690 1641
4 1641 1690 1691 1642
4 1642 1691 1692 1643
4 1643 1692 1693 1644
4 1644 1693 1694 1645
4 1645 1694 1695 1646
4 1646 1695 1696 1647
4 1647 1696 1697 1648
4 1648 1697 1698 1649
4 1649 1698 1699 1650
4 1650 1699 1700 1651
4 1651 1700 1701 1652
4 1652 1701 1702 1653
4 1653 1702 1703 1654
4 1654 1703 1704 1655
4 1655 1704 1705 1656
4 1656 1705 1706 1657
4 1657 1706 1707 1658
4 1658 1707 1708 1659
4 1659 1708 1709 1660
4 1660 1709 1710 1661
4 1661 1710 1711 1662
4 1662 1711 1712 1663
4 1663 1712 1713 1664
4 1664 1713 1714 1665
4 1665 1714 1715 1666
4 1666 1715 1716 1667
4 1667 1716 1717 1668
4 1668 1717 1718 1669
4 1669 1718 1719 1670
4 1670 1719 1720 1671
4 1671 1720 222 223
4 32 33 1721 1672
4 1672 1721 1722 1673
4 1673 1722 1723 1674
4 1674 1723 1724 1675
4 1675 1724 1725 1676
4 1676 1725 1726 1677
4 1677 1726 1727 1678
4 1678 1727 1728 1679
4 1679 1728 1729 1680
4 1680 1729 1730 1681
4 1681 1730 1731 1682
4 1682 1731 1732 1683
4 1683 1732 1733 1684
4 1684 1733 1734 1685
4 1685 1734 1735 1686
4 1686 1735 1736 1687
4 1687 1736 1737 1688
4 1688 1737 1738 1689
4 1689 1738 1739 1690
4 1690 1739 1740 1691
4 1691 1740 1741 1692
4 1692 1741 1742 1693
4 1693 1742 1743 1694
4 1694 1743 1744 1695
4 1695 1744 1745 1696
4 1696 1745 1746 1697
4 1697 1746 1747 1698
4 1698 1747 1748 1699
4 1699 1748 1749 1700
4 1700 1749 1750 1701
4 1701 1750 1751 1702
4 1702 1751 1752 1703
4 1703 1752 1753 1704
4 1704 1753 1754 1705
4 1705 1754 1755 1706
4 1706 1755 1756 1707
4 1707 1756 1757 1708
4 1708 1757 1758 1709
4 1709 1758 1759 1710
4 1710 1759 1760 1711
4 1711 1760 1761 1712
4 1712 1761 1762 1713
4 1713 1762 1763 1714
4 1714 1763 1764 1715
4 1715 1764 1765 1716
4 1716 1765 1766 1717
4 1717 1766 1767 1718
4 1718 1767 1768 1719
4 1719 1768 1769 1720
4 1720 1769 221 222
4 33 34 1770 1721
4 1721 1770 1771 1722
4 1722 1771 1772 1723
4 1723 1772 1773 1724
4 1724 1773 1774 1725
4 1725 1774 1775 1726
4 1726 1775 1776 1727
4 1727 1776 1777 1728
4 1728 1777 1778 1729
4 1729 1778 1779 1730
4 1730 1779 1780 1731
4 1731 1780 1781 1732
4 1732 1781 1782 1733
4 1733 1782 1783 1734
4 1734 1783 1784 1735
4 1735 1784 1785 1736
4 1736 1785 1786 1737
4 1737 1786 1787 1738
4 1738 1787 1788 1739
4 1739 1788 1789 1740
4 1740 1789 1790 1741
4 1741 1790 1791 1742
4 1742 1791 1792 1743
4 1743 1792 1793 1744
4 1744 1793 1794 1745
4 1745 1794 1795 1746
4 1746 1795 1796 1747
4 1747 1796 1797 1748
4 1748 1797 1798 1749
4 1749 1798 1799 1750
4 1750 1799 1800 1751
4 1751 1800 1801 1752
4 1752 1801 1802 1753
4 1753 1802 1803 1754
4 1754 1803 1804 1755
4 1755 1804 1805 1756
4 1756 1805 1806 1757
4 1757 1806 1807 1758
4 1758 1807 1808 1759
4 1759 1808 1809 1760
4 1760 1809 1810 1761
4 1761 1810 1811 1762
4 1762 1811 1812 1763
4 1763 1812 1813 1764
4 1764 1813 1814 1765
4 1765 1814 1815 1766
4 1766 1815 1816 1767
4 1767 1816 1817 1768
4 1768 1817 1818 1769
4 1769 1818 220 221
4 34 35 1819 1770
4 1770 1819 1820 1771
4 1771 1820 1821 1772
4 1772 1821 1822 1773
4 1773 1822 1823 1774
4 1774 1823 1824 1775
4 1775 1824 1825 1776
4 1776 1825 1826 1777
4 1777 1826 1827 1778
4 1778 1827 1828 1779
4 1779 1828 1829 1780
4 1780 1829 1830 1781
4 1781 1830 1831 1782
4 1782 1831 1832 1783
4 1783 1832 1833 1784
4 1784 1833 1834 1785
4 1785 1834 1835 1786
4 1786 1835 1836 1787
4 1787 1836 1837 1788
4 1788 1837 1838 1789
4 1789 1838 1839 1790
4 1790 1839 1840 1791
4 1791 1840 1841 1792
4 1792 1841 1842 1793
4 1793 1842 1843 1794
4 1794 1843 1844 1795
4 1795 1844 1845 1796
4 1796 1845 1846 1797
4 1797 1846 1847 1798
4 1798 1847 1848 1799
4 1799 1848 1849 1800
4 1800 1849 1850 1801
4 1801 1850 1851 1802
4 1802 1851 1852 1803
4 1803 1852 1853 1804
4 1804 1853 1854 1805
4 1805 1854 1855 1806
4 1806 1855 1856 1807
4 1807 1856 1857 1808
4 1808 1857 1858 1809
4 1809 1858 1859 1810
4 1810 1859 1860 1811
4 1811 1860 1861 1812
4 1812 1861 1862 1813
4 1813 1862 1863 1814
4 1814 1863 1864 1815
4 1815 1864 1865 1816
4 1816 1865 1866 1817
4 1817 1866 1867 1818
4 1818 1867 219 220
4 35 36 1868 1819
4 1819 1868 1869 1820
4 1820 1869 1870 1821
4 1821 1870 1871 1822
4 1822 1871 1872 1823
4 1823 1872 1873 1824
4 1824 1873 1874 1825
4 1825 1874 1875 1826
4 1826 1875 1876 1827
4 1827 1876 1877 1828
4 1828 1877 1878 1829
4 1829 1878 1879 1830
4 1830 1879 1880 1831
4 1831 1880 1881 1832
4 1832 1881 1882 1833
4 1833 1882 1883 1834
4 1834 1883 1884 1835
4 1835 1884 1885 1836
4 1836 1885 1886 1837
4 1837 1886 1887 1838
4 1838 1887 1888 1839
4 1839 1888 1889 1840
4 1840 1889 1890 1841
4 1841 1890 1891 1842
4 1842 1891 1892 1843
4 1843 1892 1893 1844
4 1844 1893 1894 1845
4 1845 1894 1895 1846
4 1846 1895 1896 1847
4 1847 1896 1897 1848
4 1848 1897 1898 1849
4 1849 1898 1899 1850
4 1850 1899 1900 1851
4 1851 1900 1901 1852
4 1852 1901 1902 1853
4 1853 1902 1903 1854
4 1854 1903 1904 1855
4 1855 1904 1905 1856
4 1856 1905 1906 1857
4 1857 1906 1907 1858
4 1858 1907 1908 1859
4 1859 1908 1909 1860
4 1860 1909 1910 1861
4 1861 1910 1911 1862
4 1862 1911 1912 1863
4 1863 1912 1913 1864
4 1864 1913 1914 1865
4 1865 1914 1915 1866
4 1866 1915 1916 1867
4 1867 1916 218 219
4 36 37 1917 1868
4 1868 1917 1918 1869
4 1869 1918 1919 1870
4 1870 1919 1920 1871
4 1871 1920 1921 1872
4 1872 1921 1922 1873
4 1873 1922 1923 1874
4 1874 1923 1924 1875
4 1875 1924 1925 1876
4 1876 1925 1926 1877
4 1877 1926 1927 1878
4 1878 1927 1928 1879
4 1879 1928 1929 1880
4 1880 1929 1930 1881
4 1881 1930 1931 1882
4 1882 1931 1932 1883
4 1883 1932 1933 1884
4 1884 1933 1934 1885
4 1885 1934 1935 1886
4 1886 1935 1936 1887
4 1887 1936 1937 1888
4 1888 1937 1938 1889
4 1889 1938 1939 1890
4 1890 1939 1940 1891
4 1891 1940 1941 1892
4 1892 1941 1942 1893
4 1893 1942 1943 1894
4 1894 1943 1944 1895
4 1895 1944 1945 1896
4 1896 1945 1946 1897
4 1897 1946 1947 1898
4 1898 1947 1948 1899
4 1899 1948 1949 1900
4 1900 1949 1950 1901
4 1901 1950 1951 1902
4 1902 1951 1952 1903
4 1903 1952 1953 1904
4 1904 1953 1954 1905
4 1905 1954 1955 1906
4 1906 1955 1956 1907
4 1907 1956 1957 1908
4 1908 1957 1958 1909
4 1909 1958 1959 1910
4 1910 1959 1960 1911
4 1911 1960 1961 1912
4 1912 1961 1962 1913
4 1913 1962 1963 1914
4 1914 1963 1964 1915
4 1915 1964 1965 1916
4 1916 1965 217 218
4 37 38 1966 1917
4 1917 1966 1967 1918
4 1918 1967 1968 1919
4 1919 1968 1969 1920
4 1920 1969 1970 1921
4 1921 1970 1971 1922
4 1922 1971 1972 1923
4 1923 1972 1973 1924
4 1924 1973 1974 1925
4 1925 1974 1975 1926
4 1926 1975 1976 1927
4 1927 1976 1977 1928
4 1928 1977 1978 1929
4 1929 1978 1979 1930
4 1930 1979 1980 1931
4 1931 1980 1981 1932
4 1932 1981 1982 1933
4 1933 1982 1983 1934
4 1934 1983 1984 1935
4 1935 1984 1985 1936
4 1936 1985 1986 1937
4 1937 1986 1987 1938
4 1938 1987 1988 1939
4 1939 1988 1989 1940
4 1940 1989 1990 1941
4 1941 1990 1991 1942
4 1942 1991 1992 1943
4 1943 1992 1993 1944
4 1944 1993 1994 1945
4 1945 1994 1995 1946
4 1946 1995 1996 1947
4 1947 1996 1997 1948
4 1948 1997 1998 1949
4 1949 1998 1999 1950
4 1950 1999 2000 1951
4 1951 2000 2001 1952
4 1952 2001 2002 1953
4 1953 2002 2003 1954
4 1954 2003 2004 1955
4 1955 2004 2005 1956
4 1956 2005 2006 1957
4 1957 2006 2007 1958
4 1958 2007 2008 1959
4 1959 2008 2009 1960
4 1960 2009 2010 1961
4 1961 2010 2011 1962
4 1962 2011 2012 1963
4 1963 2012 2013 1964
4 1964 2013 2014 1965
4 1965 2014 216 217
4 38 39 2015 1966
4 1966 2015 2016 1967
4 1967 2016 2017 1968
4 1968 2017 2018 1969
4 1969 2018 2019 1970
4 1970 2019 2020 1971
4 1971 2020 2021 1972
4 1972 2021 2022 1973
4 1973 2022 2023 1974
4 1974 2023 2024 1975
4 1975 2024 2025 1976
4 1976 2025 2026 1977
4 1977 2026 2027 1978
4 1978 2027 2028 1979
4 1979 2028 2029 1980
4 1980 2029 2030 1981
4 1981 2030 2031 1982
4 1982 2031 2032 1983
4 1983 2032 2033 1984
4 1984 2033 2034 1985
4 1985 2034 2035 1986
4 1986 2035 2036 1987
4 1987 2036 2037 1988
4 1988 2037 2038 1989
4 1989 2038 2039 1990
4 1990 2039 2040 1991
4 1991 2040 2041 1992
4 1992 2041 2042 1993
4 1993 2042 2043 1994
4 1994 2043 2044 1995
4 1995 2044 2045 1996
4 1996 2045 2046 1997
4 1997 2046 2047 1998
4 1998 2047 2048 1999
4 1999 2048 2049 2000
4 2000 2049 2050 2001
4 2001 2050 2051 2002
4 2002 2051 2052 2003
4 2003 2052 2053 2004
4 2004 2053 2054 2005
4 2005 2054 2055 2006
4 2006 2055 2056 2007
4 2007 2056 2057 2008
4 2008 2057 2058 2009
4 2009 2058 2059 2010
4 2010 2059 2060 2011
4 2011 2060 2061 2012
4 2012 2061 2062 2013
4 2013 2062 2063 2014
4 2014 2063 215 216
4 39 40 2064 2015
4 2015 2064 2065 2016
4 2016 2065 2066 2017
4 2017 2066 2067 2018
4 2018 2067 2068 2019
4 2019 2068 2069 2020
4 2020 2069 2070 2021
4 2021 2070 2071 2022
4 2022 2071 2072 2023
4 2023 2072 2073 2024
4 2024 2073 2074 2025
4 2025 2074 2075 2026
4 2026 2075 2076 2027
4 2027 2076 2077 2028
4 2028 2077 2078 2029
4 2029 2078 2079 2030
4 2030 2079 2080 2031
4 2031 2080 2081 2032
4 2032 2081 2082 2033
4 2033 2082 2083 2034
4 2034 2083 2084 2035
4 2035 2084 2085 2036
4 2036 2085 2086 2037
4 2037 2086 2087 2038
4 2038 2087 2088 2039
4 2039 2088 2089 2040
4 2040 2089 2090 2041
4 2041 2090 2091 2042
4 2042 2091 2092 2043
4 2043 2092 2093 2044
4 2044 2093 2094 2045
4 2045 2094 2095 2046
4 2046 2095 2096 2047
4 2047 2096 2097 2048
4 2048 2097 2098 2049
4 2049 2098 2099 2050
4 2050 2099 2100 2051
4 2051 2100 2101 2052
4 2052 2101 2102 2053
4 2053 2102 2103 2054
4 2054 2103 2104 2055
4 2055 2104 2105 2056
4 2056 2105 2106 2057
4 2057 2106 2107 2058
4 2058 2107 2108 2059
4 2059 2108 2109 2060
4 2060 2109 2110 2061
4 2061 2110 2111 2062
4 2062 2111 2112 2063
4 2063 2112 214 215
4 40 41 2113 2064
4 2064 2113 2114 2065
4 2065 2114 2115 2066
4 2066 2115 2116 2067
4 2067 2116 2117 2068
4 2068 2117 2118 2069
4 2069 2118 2119 2070
4 2070 2119 2120 2071
4 2071 2120 2121 2072
4 2072 2121 2122 2073
4 2073 2122 2123 2074
4 2074 2123 2124 2075
4 2075 2124 2125 2076
4 2076 2125 2126 2077
4 2077 2126 2127 2078
4 2078 2127 2128 2079
4 2079 2128 2129 2080
4 2080 2129 2130 2081
4 2081 2130 2131 2082
4 2082 2131 2132 2083
4 2083 2132 2133 2084
4 2084 2133 2134 2085
4 2085 2134 2135 2086
4 2086 2135 2136 2087
4 2087 2136 2137 2088
4 2088 2137 2138 2089
4 2089 2138 2139 2090
4 2090 2139 2140 2091
4 2091 2140 2141 2092
4 2092 2141 2142 2093
4 2093 2142 2143 2094
4 2094 2143 2144 2095
4 2095 2144 2145 2096
4 2096 2145 2146 2097
4 2097 2146 2147 2098
4 2098 2147 2148 2099
4 2099 2148 2149 2100
4 2100 2149 2150 2101
4 2101 2150 2151 2102
4 2102 2151 2152 2103
4 2103 2152 2153 2104
4 2104 2153 2154 2105
4 2105 2154 2155 2106
4 2106 2155 2156 2107
4 2107 2156 2157 2108
4 2108 2157 2158 2109
4 2109 2158 2159 2110
4 2110 2159 2160 2111
4 2111 2160 2161 2112
4 2112 2161 213 214
4 41 42 2162 2113
4 2113 2162 2163 2114
4 2114 2163 2164 2115
4 2115 2164 2165 2116
4 2116 2165 2166 2117
4 2117 2166 2167 2118
4 2118 2167 2168 2119
4 2119 2168 2169 2120
4 2120 2169 2170 2121
4 2121 2170 2171 2122
4 2122 2171 2172 2123
4 2123 2172 2173 2124
4 2124 2173 2174 2125
4 2125 2174 2175 2126
4 2126 2175 2176 2127
4 2127 2176 2177 2128
4 2128 2177 2178 2129
4 2129 2178 2179 2130
4 2130 2179 2180 2131
4 2131 2180 2181 2132
4 2132 2181 2182 2133
4 2133 2182 2183 2134
4 2134 2183 2184 2135
4 2135 2184 2185 2136
4 2136 2185 2186 2137
4 2137 2186 2187 2138
4 2138 2187 2188 2139
4 2139 2188 2189 2140
4 2140 2189 2190 2141
4 2141 2190 2191 2142
4 2142 2191 2192 2143
4 2143 2192 2193 2144
4 2144 2193 2194 2145
4 2145 2194 2195 2146
4 2146 2195 2196 2147
4 2147 2196 2197 2148
4 2148 2197 2198 2149
4 2149 2198 2199 2150
4 2150 2199 2200 2151
4 2151 2200 2201 2152
4 2152 2201 2202 2153
4 2153 2202 2203 2154
4 2154 2203 2204 2155
4 2155 2204 2205 2156
4 2156 2205 2206 2157
4 2157 2206 2207 2158
4 2158 2207 2208 2159
4 2159 2208 2209 2160
4 2160 2209 2210 2161
4 2161 2210 212 213
4 42 43 2211 2162
4 2162 2211 2212 2163
4 2163 2212 2213 2164
4 2164 2213 2214 2165
4 2165 2214 2215 2166
4 2166 2215 2216 2167
4 2167 2216 2217 2168
4 2168 2217 2218 2169
4 2169 2218 2219 2170
4 2170 2219 2220 2171
4 2171 2220 2221 2172
4 2172 2221 2222 2173
4 2173 2222 2223 2174
4 2174 2223 2224 2175
4 2175 2224 2225 2176
4 2176 2225 2226 2177
4 2177 2226 2227 2178
4 2178 2227 2228 2179
4 2179 2228 2229 2180
4 2180 2229 2230 2181
4 2181 2230 2231 2182
4 2182 2231 2232 2183
4 2183 2232 2233 2184
4 2184 2233 2234 2185
4 2185 2234 2235 2186
4 2186 2235 2236 2187
4 2187 2236 2237 2188
4 2188 2237 2238 2189
4 2189 2238 2239 2190
4 2190 2239 2240 2191
4 2191 2240 2241 2192
4 2192 2241 2242 2193
4 2193 2242 2243 2194
4 2194 2243 2244 2195
4 2195 2244 2245 2196
4 2196 2245 2246 2197
4 2197 2246 2247 2198
4 2198 2247 2248 2199
4 2199 2248 2249 2200
4 2200 2249 2250 2201
4 2201 2250 2251 2202
4 2202 2251 2252 2203
4 2203 2252 2253 2204
4 2204 2253 2254 2205
4 2205 2254 2255 2206
4 2206 2255 2256 2207
4 2207 2256 2257 2208
4 2208 2257 2258 2209
4 2209 2258 2259 2210
4 2210 2259 211 212
4 43 44 2260 2211
4 2211 2260 2261 2212
4 2212 2261 2262 2213
4 2213 2262 2263 2214
4 2214 2263 2264 2215
4 2215 2264 2265 2216
4 2216 2265 2266 2217
4 2217 2266 2267 2218
4 2218 2267 2268 2219
4 2219 2268 2269 2220
4 2220 2269 2270 2221
4 2221 2270 2271 2222
4 2222 2271 2272 2223
4 2223 2272 2273 2224
4 2224 2273 2274 2225
4 2225 2274 2275 2226
4 2226 2275 2276 2227
4 2227 2276 2277 2228
4 2228 2277 2278 2229
4 2229 2278 2279 2230
4 2230 2279 2280 2231
4 2231 2280 2281 2232
4 2232 2281 2282 2233
4 2233 2282 2283 2234
4 2234 2283 2284 2235
4 2235 2284 2285 2236
4 2236 2285 2286 2237
4 2237 2286 2287 2238
4 2238 2287 2288 2239
4 2239 2288 2289 2240
4 2240 2289 2290 2241
4 2241 2290 2291 2242
4 2242 2291 2292 2243
4 2243 2292 2293 2244
4 2244 2293 2294 2245
4 2245 2294 2295 2246
4 2246 2295 2296 2247
4 2247 2296 2297 2248
4 2248 2297 2298 2249
4 2249 2298 2299 2250
4 2250 2299 2300 2251
4 2251 2300 2301 2252
4 2252 2301 2302 2253
4 2253 2302 2303 2254
4 2254 2303 2304 2255
4 2255 2304 2305 2256
4 2256 2305 2306 2257
4 2257 2306 2307 2258
4 2258 2307 2308 2259
4 2259 2308 210 211
4 44 45 2309 2260
4 2260 2309 2310 2261
4 2261 2310 2311 2262
4 2262 2311 2312 2263
4 2263 2312 2313 2264
4 2264 2313 2314 2265
4 2265 2314 2315 2266
4 2266 2315 2316 2267
4 2267 2316 2317 2268
4 2268 2317 2318 2269
4 2269 2318 2319 2270
4 2270 2319 2320 2271
4 2271 2320 2321 2272
4 2272 2321 2322 2273
4 2273 2322 2323 2274
4 2274 2323 2324 2275
4 2275 2324 2325 2276
4 2276 2325 2326 2277
4 2277 2326 2327 2278
4 2278 2327 2328 2279
4 2279 2328 2329 2280
4 2280 2329 2330 2281
4 2281 2330 2331 2282
4 2282 2331 2332 2283
4 2283 2332 2333 2284
4 2284 2333 2334 2285
4 2285 2334 2335 2286
4 2286 2335 2336 2287
4 2287 2336 2337 2288
4 2288 2337 2338 2289
4 2289 2338 2339 2290
4 2290 2339 2340 2291
4 2291 2340 2341 2292
4 2292 2341 2342 2293
4 2293 2342 2343 2294
4 2294 2343 2344 2295
4 2295 2344 2345 2296
4 2296 2345 2346 2297
4 2297 2346 2347 2298
4 2298 2347 2348 2299
4 2299 2348 2349 2300
4 2300 2349 2350 2301
4 2301 2350 2351 2302
4 2302 2351 2352 2303
4 2303 2352 2353 2304
4 2304 2353 2354 2305
4 2305 2354 2355 2306
4 2306 2355 2356 2307
4 2307 2356 2357 2308
4 2308 2357 209 210
4 45 46 2358 2309
4 2309 2358 2359 2310
4 2310 2359 2360 2311
4 2311 2360 2361 2312
4 2312 2361 2362 2313
4 2313 2362 2363 2314
4 2314 2363 2364 2315
4 2315 2364 2365 2316
4 2316 2365 2366 2317
4 2317 2366 2367 2318
4 2318 2367 2368 2319
4 2319 2368 2369 2320
4 2320 2369 2370 2321
4 2321 2370 2371 2322
4 2322 2371 2372 2323
4 2323 2372 2373 2324
4 2324 2373 2374 2325
4 2325 2374 2375 2326
4 2326 2375 2376 2327
4 2327 2376 2377 2328
4 2328 2377 2378 2329
4 2329 2378 2379 2330
4 2330 2379 2380 2331
4 2331 2380 2381 2332
4 2332 2381 2382 2333
4 2333 2382 2383 2334
4 2334 2383 2384 2335
4 2335 2384 2385 2336
4 2336 2385 2386 2337
4 2337 2386 2387 2338
4 2338 2387 2388 2339
4 2339 2388 2389 2340
4 2340 2389 2390 2341
4 2341 2390 2391 2342
4 2342 2391 2392 2343
4 2343 2392 2393 2344
4 2344 2393 2394 2345
4 2345 2394 2395 2346
4 2346 2395 2396 2347
4 2347 2396 2397 2348
4 2348 2397 2398 2349
4 2349 2398 2399 2350
4 2350 2399 2400 2351
4 2351 2400 2401 2352
4 2352 2401 2402 2353
4 2353 2402 2403 2354
4 2354 2403 2404 2355
4 2355 2404 2405 2356
4 2356 2405 2406 2357
4 2357 2406 208 209
4 46 47 2407 2358
4 2358 2407 2408 2359
4 2359 2408 2409 2360
4 2360 2409 2410 2361
4 2361 2410 2411 2362
4 2362 2411 2412 2363
4 2363 2412 2413 2364
4 2364 2413 2414 2365
4 2365 2414 2415 2366
4 2366 2415 2416 2367
4 2367 2416 2417 2368
4 2368 2417 2418 2369
4 2369 2418 2419 2370
4 2370 2419 2420 2371
4 2371 2420 2421 2372
4 2372 2421 2422 2373
4 2373 2422 2423 2374
4 2374 2423 2424 2375
4 2375 2424 2425 2376
4 2376 2425 2426 2377
4 2377 2426 2427 2378
4 2378 2427 2428 2379
4 2379 2428 2429 2380
4 2380 2429 2430 2381
4 2381 2430 2431 2382
4 2382 2431 2432 2383
4 2383 2432 2433 2384
4 2384 2433 2434 2385
4 2385 2434 2435 2386
4 2386 2435 2436 2387
4 2387 2436 2437 2388
4 2388 2437 2438 2389
4 2389 2438 2439 2390
4 2390 2439 2440 2391
4 2391 2440 2441 2392
4 2392 2441 2442 2393
4 2393 2442 2443 2394
4 2394 2443 2444 2395
4 2395 2444 2445 2396
4 2396 2445 2446 2397
4 2397 2446 2447 2398
4 2398 2447 2448 2399
4 2399 2448 2449 2400
4 2400 2449 2450 2401
4 2401 2450 2451 2402
4 2402 2451 2452 2403
4 2403 2452 2453 2404
4 2404 2453 2454 2405
4 2405 2454 2455 2406
4 2406 2455 207 208
4 47 48 2456 2407
4 2407 2456 2457 2408
4 2408 2457 2458 2409
4 2409 2458 2459 2410
4 2410 2459 2460 2411
4 2411 2460 2461 2412
4 2412 2461 2462 2413
4 2413 2462 2463 2414
4 2414 2463 2464 2415
4 2415 2464 2465 2416
4 2416 2465 2466 2417
4 2417 2466 2467 2418
4 2418 2467 2468 2419
4 2419 2468 2469 2420
4 2420 2469 2470 2421
4 2421 2470 2471 2422
4 2422 2471 2472 2423
4 2423 2472 2473 2424
4 2424 2473 2474 2425
4 2425 2474 2475 2426
4 2426 2475 2476 2427
4 2427 2476 2477 2428
4 2428 2477 2478 2429
4 2429 2478 2479 2430
4 2430 2479 2480 2431
4 2431 2480 2481 2432
4 2432 2481 2482 2433
4 2433 2482 2483 2434
4 2434 2483 2484 2435
4 2435 2484 2485 2436
4 2436 2485 2486 2437
4 2437 2486 2487 2438
4 2438 2487 2488 2439
4 2439 2488 2489 2440
4 2440 2489 2490 2441
4 2441 2490 2491 2442
4 2442 2491 2492 2443
4 2443 2492 2493 2444
4 2444 2493 2494 2445
4 2445 2494 2495 2446
4 2446 2495 2496 2447
4 2447 2496 2497 2448
4 2448 2497 2498 2449
4 2449 2498 2499 2450
4 2450 2499 2500 2451
4 2451 2500 2501 2452
4 2452 2501 2502 2453
4 2453 2502 2503 2454
4 2454 2503 2504 2455
4 2455 2504 206 207
4 48 49 2505 2456
4 2456 2505 2506 2457
4 2457 2506 2507 2458
4 2458 2507 2508 2459
4 2459 2508 2509 2460
4 2460 2509 2510 2461
4 2461 2510 2511 2462
4 2462 2511 2512 2463
4 2463 2512 2513 2464
4 2464 2513 2514 2465
4 2465 2514 2515 2466
4 2466 2515 2516 2467
4 2467 2516 2517 2468
4 2468 2517 2518 2469
4 2469 2518 2519 2470
4 2470 2519 2520 2471
4 2471 2520 2521 2472
4 2472 2521 2522 2473
4 2473 2522 2523 2474
4 2474 2523 2524 2475
4 2475 2524 2525 2476
4 2476 2525 2526 2477
4 2477 2526 2527 2478
4 2478 2527 2528 2479
4 2479 2528 2529 2480
4 2480 2529 2530 2481
4 2481 2530 2531 2482
4 2482 2531 2532 2483
4 2483 2532 2533 2484
4 2484 2533 2534 2485
4 2485 2534 2535 2486
4 2486 2535 2536 2487
4 2487 2536 2537 2488
4 2488 2537 2538 2489
4 2489 2538 2539 2490
4 2490 2539 2540 2491
4 2491 2540 2541 2492
4 2492 2541 2542 2493
4 2493 2542 2543 2494
4 2494 2543 2544 2495
4 2495 2544 2545 2496
4 2496 2545 2546 2497
4 2497 2546 2547 2498
4 2498 2547 2548 2499
4 2499 2548 2549 2500
4 2500 2549 2550 2501
4 2501 2550 2551 2502
4 2502 2551 2552 2503
4 2503 2552 2553 2504
4 2504 2553 205 206
4 49 50 2554 2505
4 2505 2554 2555 2506
4 2506 2555 2556 2507
4 2507 2556 2557 2508
4 2508 2557 2558 2509
4 2509 2558 2559 2510
4 2510 2559 2560 2511
4 2511 2560 2561 2512
4 2512 2561 2562 2513
4 2513 2562 2563 2514
4 2514 2563 2564 2515
4 2515 2564 2565 2516
4 2516 2565 2566 2517
4 2517 2566 2567 2518
4 2518 2567 2568 2519
4 2519 2568 2569 2520
4 2520 2569 2570 2521
4 2521 2570 2571 2522
4 2522 2571 2572 2523
4 2523 2572 2573 2524
4 2524 2573 2574 2525
4 2525 2574 2575 2526
4 2526 2575 2576 2527
4 2527 2576 2577 2528
4 2528 2577 2578 2529
4 2529 2578 2579 2530
4 2530 2579 2580 2531
4 2531 2580 2581 2532
4 2532 2581 2582 2533
4 2533 2582 2583 2534
4 2534 2583 2584 2535
4 2535 2584 2585 2536
4 2536 2585 2586 2537
4 2537 2586 2587 2538
4 2538 2587 2588 2539
4 2539 2588 2589 2540
4 2540 2589 2590 2541
4 2541 2590 2591 2542
4 2542 2591 2592 2543
4 2543 2592 2593 2544
4 2544 2593 2594 2545
4 2545 2594 2595 2546
4 2546 2595 2596 2547
4 2547 2596 2597 2548
4 2548 2597 2598 2549
4 2549 2598 2599 2550
4 2550 2599 2600 2551
4 2551 2600 2601 2552
4 2552 2601 2602 2553
4 2553 2602 204 205
4 50 51 2603 2554
4 2554 2603 2604 2555
4 2555 2604 2605 2556
4 2556 2605 2606 2557
4 2557 2606 2607 2558
4 2558 2607 2608 2559
4 2559 2608 2609 2560
4 2560 2609 2610 2561
4 2561 2610 2611 2562
4 2562 2611 2612 2563
4 2563 2612 2613 2564
4 2564 2613 2614 2565
4 2565 2614 2615 2566
4 2566 2615 2616 2567
4 2567 2616 2617 2568
4 2568 2617 2618 2569
4 2569 2618 2619 2570
4 2570 2619 2620 2571
4 2571 2620 2621 2572
4 2572 2621 2622 2573
4 2573 2622 2623 2574
4 2574 2623 2624 2575
4 2575 2624 2625 2576
4 2576 2625 2626 2577
4 2577 2626 2627 2578
4 2578 2627 2628 2579
4 2579 2628 2629 2580
4 2580 2629 2630 2581
4 2581 2630 2631 2582
4 2582 2631 2632 2583
4 2583 2632 2633 2584
4 2584 2633 2634 2585
4 2585 2634 2635 2586
4 2586 2635 2636 2587
4 2587 2636 2637 2588
4 2588 2637 2638 2589
4 2589 2638 2639 2590
4 2590 2639 2640 2591
4 2591 2640 2641 2592
4 2592 2641 2642 2593
4 2593 2642 2643 2594
4 2594 2643 2644 2595
4 2595 2644 2645 2596
4 2596 2645 2646 2597
4 2597 2646 2647 2598
4 2598 2647 2648 2599
4 2599 2648 2649 2600
4 2600 2649 2650 2601
4 2601 2650 2651 2602
4 2602 2651 203 204
4 51 52 2652 2603
4 2603 2652 2653 2604
4 2604 2653 2654 2605
4 2605 2654 2655 2606
4 2606 2655 2656 2607
4 2607 2656 2657 2608
4 2608 2657 2658 2609
4 2609 2658 2659 2610
4 2610 2659 2660 2611
4 2611 2660 2661 2612
4 2612 2661 2662 2613
4 2613 2662 2663 2614
4 2614 2663 2664 2615
4 2615 2664 2665 2616
4 2616 2665 2666 2617
4 2617 2666 2667 2618
4 2618 2667 2668 2619
4 2619 2668 2669 2620
4 2620 2669 2670 2621
4 2621 2670 2671 2622
4 2622 2671 2672 2623
4 2623 2672 2673 2624
4 2624 2673 2674 2625
4 2625 2674 2675 2626
4 2626 2675 2676 2627
4 2627 2676 2677 2628
4 2628 2677 2678 2629
4 2629 2678 2679 2630
4 2630 2679 2680 2631
4 2631 2680 2681 2632
4 2632 2681 2682 2633
4 2633 2682 2683 2634
4 2634 2683 2684 2635
4 2635 2684 2685 2636
4 2636 2685 2686 2637
4 2637 2686 2687 2638
4 2638 2687 2688 2639
4 2639 2688 2689 2640
4 2640 2689 2690 2641
4 2641 2690 2691 2642
4 2642 2691 2692 2643
4 2643 2692 2693 2644
4 2644 2693 2694 2645
4 2645 2694 2695 2646
4 2646 2695 2696 2647
4 2647 2696 2697 2648
4 2648 2697 2698 2649
4 2649 2698 2699 2650
4 2650 2699 2700 2651
4 2651 2700 202 203
4 52 53 2701 2652
4 2652 2701 2702 2653
4 2653 2702 2703 2654
4 2654 2703 2704 2655
4 2655 2704 2705 2656
4 2656 2705 2706 2657
4 2657 2706 2707 2658
4 2658 2707 2708 2659
4 2659 2708 2709 2660
4 2660 2709 2710 2661
4 2661 2710 2711 2662
4 2662 2711 2712 2663
4 2663 2712 2713 2664
4 2664 2713 2714 2665
4 2665 2714 2715 2666
4 2666 2715 2716 2667
4 2667 2716 2717 2668
4 2668 2717 2718 2669
4 2669 2718 2719 2670
4 2670 2719 2720 2671
4 2671 2720 2721 2672
4 2672 2721 2722 2673
4 2673 2722 2723 2674
4 2674 2723 2724 2675
4 2675 2724 2725 2676
4 2676 2725 2726 2677
4 2677 2726 2727 2678
4 2678 2727 2728 2679
4 2679 2728 2729 2680
4 2680 2729 2730 2681
4 2681 2730 2731 2682
4 2682 2731 2732 2683
4 2683 2732 2733 2684
4 2684 2733 2734 2685
4 2685 2734 2735 2686
4 2686 2735 2736 2687
4 2687 2736 2737 2688
4 2688 2737 2738 2689
4 2689 2738 2739 2690
4 2690 2739 2740 2691
4 2691 2740 2741 2692
4 2692 2741 2742 2693
4 2693 2742 2743 2694
4 2694 2743 2744 2695
4 2695 2744 2745 2696
4 2696 2745 2746 2697
4 2697 2746 2747 2698
4 2698 2747 2748 2699
4 2699 2748 2749 2700
4 2700 2749 201 202
4 53 54 2750 2701
4 2701 2750 2751 2702
4 2702 2751 2752 2703
4 2703 2752 2753 2704
4 2704 2753 2754 2705
4 2705 2754 2755 2706
4 2706 2755 2756 2707
4 2707 2756 2757 2708
4 2708 2757 2758 2709
4 2709 2758 2759 2710
4 2710 2759 2760 2711
4 2711 2760 2761 2712
4 2712 2761 2762 2713
4 2713 2762 2763 2714
4 2714 2763 2764 2715
4 2715 2764 2765 2716
4 2716 2765 2766 2717
4 2717 2766 2767 2718
4 2718 2767 2768 2719
4 2719 2768 2769 2720
4 2720 2769 2770 2721
4 2721 2770 2771 2722
4 2722 2771 2772 2723
4 2723 2772 2773 2724
4 2724 2773 2774 2725
4 2725 2774 2775 2726
4 2726 2775 2776 2727
4 2727 2776 2777 2728
4 2728 2777 2778 2729
4 2729 2778 2779 2730
4 2730 2779 2780 2731
4 2731 2780 2781 2732
4 2732 2781 2782 2733
4 2733 2782 2783 2734
4 2734 2783 2784 2735
4 2735 2784 2785 2736
4 2736 2785 2786 2737
4 2737 2786 2787 2738
4 2738 2787 2788 2739
4 2739 2788 2789 2740
4 2740 2789 2790 2741
4 2741 2790 2791 2742
4 2742 2791 2792 2743
4 2743 2792 2793 2744
4 2744 2793 2794 2745
4 2745 2794 2795 2746
4 2746 2795 2796 2747
4 2747 2796 2797 2748
4 2748 2797 2798 2749
4 2749 2798 200 201
4 54 55 2799 2750
4 2750 2799 2800 2751
4 2751 2800 2801 2752
4 2752 2801 2802 2753
4 2753 2802 2803 2754
4 2754 2803 2804 2755
4 2755 2804 2805 2756
4 2756 2805 2806 2757
4 2757 2806 2807 2758
4 2758 2807 2808 2759
4 2759 2808 2809 2760
4 2760 2809 2810 2761
4 2761 2810 2811 2762
4 2762 2811 2812 2763
4 2763 2812 2813 2764
4 2764 2813 2814 2765
4 2765 2814 2815 2766
4 2766 2815 2816 2767
4 2767 2816 2817 2768
4 2768 2817 2818 2769
4 2769 2818 2819 2770
4 2770 2819 2820 2771
4 2771 2820 2821 2772
4 2772 2821 2822 2773
4 2773 2822 2823 2774
4 2774 2823 2824 2775
4 2775 2824 2825 2776
4 2776 2825 2826 2777
4 2777 2826 2827 2778
4 2778 2827 2828 2779
4 2779 2828 2829 2780
4 2780 2829 2830 2781
4 2781 2830 2831 2782
4 2782 2831 2832 2783
4 2783 2832 2833 2784
4 2784 2833 2834 2785
4 2785 2834 2835 2786
4 2786 2835 2836 2787
4 2787 2836 2837 2788
4 2788 2837 2838 2789
4 2789 2838 2839 2790
4 2790 2839 2840 2791
4 2791 2840 2841 2792
4 2792 2841 2842 2793
4 2793 2842 2843 2794
4 2794 2843 2844 2795
4 2795 2844 2845 2796
4 2796 2845 2846 2797
4 2797 2846 2847 2798
4 2798 2847 199 200
4 55 56 2848 2799
4 2799 2848 2849 2800
4 2800 2849 2850 2801
4 2801 2850 2851 2802
4 2802 2851 2852 2803
4 2803 2852 2853 2804
4 2804 2853 2854 2805
4 2805 2854 2855 2806
4 2806 2855 2856 2807
4 2807 2856 2857 2808
4 2808 2857 2858 2809
4 2809 2858 2859 2810
4 2810 2859 2860 2811
4 2811 2860 2861 2812
4 2812 2861 2862 2813
4 2813 2862 2863 2814
4 2814 2863 2864 2815
4 2815 2864 2865 2816
4 2816 2865 2866 2817
4 2817 2866 2867 2818
4 2818 2867 2868 2819
4 2819 2868 2869 2820
4 2820 2869 2870 2821
4 2821 2870 2871 2822
4 2822 2871 2872 2823
4 2823 2872 2873 2824
4 2824 2873 2874 2825
4 2825 2874 2875 2826
4 2826 2875 2876 2827
4 2827 2876 2877 2828
4 2828 2877 2878 2829
4 2829 2878 2879 2830
4 2830 2879 2880 2831
4 2831 2880 2881 2832
4 2832 2881 2882 2833
4 2833 2882 2883 2834
4 2834 2883 2884 2835
4 2835 2884 2885 2836
4 2836 2885 2886 2837
4 2837 2886 2887 2838
4 2838 2887 2888 2839
4 2839 2888 2889 2840
4 2840 2889 2890 2841
4 2841 2890 2891 2842
4 2842 2891 2892 2843
4 2843 2892 2893 2844
4 2844 2893 2894 2845
4 2845 2894 2895 2846
4 2846 2895 2896 2847
4 2847 2896 198 199
4 56 57 2897 2848
4 2848 2897 2898 2849
4 2849 2898 2899 2850
4 2850 2899 2900 2851
4 2851 2900 2901 2852
4 2852 2901 2902 2853
4 2853 2902 2903 2854
4 2854 2903 2904 2855
4 2855 2904 2905 2856
4 2856 2905 2906 2857
4 2857 2906 2907 2858
4 2858 2907 2908 2859
4 2859 2908 2909 2860
4 2860 2909 2910 2861
4 2861 2910 2911 2862
4 2862 2911 2912 2863
4 2863 2912 2913 2864
4 2864 2913 2914 2865
4 2865 2914 2915 2866
4 2866 2915 2916 2867
4 2867 2916 2917 2868
4 2868 2917 2918 2869
4 2869 2918 2919 2870
4 2870 2919 2920 2871
4 2871 2920 2921 2872
4 2872 2921 2922 2873
4 2873 2922 2923 2874
4 2874 2923 2924 2875
4 2875 2924 2925 2876
4 2876 2925 2926 2877
4 2877 2926 2927 2878
4 2878 2927 2928 2879
4 2879 2928 2929 2880
4 2880 2929 2930 2881
4 2881 2930 2931 2882
4 2882 2931 2932 2883
4 2883 2932 2933 2884
4 2884 2933 2934 2885
4 2885 2934 2935 2886
4 2886 2935 2936 2887
4 2887 2936 2937 2888
4 2888 2937 2938 2889
4 2889 2938 2939 2890
4 2890 2939 2940 2891
4 2891 2940 2941 2892
4 2892 2941 2942 2893
4 2893 2942 2943 2894
4 2894 2943 2944 2895
4 2895 2944 2945 2896
4 2896 2945 197 198
4 57 58 2946 2897
4 2897 2946 2947 2898
4 2898 2947 2948 2899
4 2899 2948 2949 2900
4 2900 2949 2950 2901
4 2901 2950 2951 2902
4 2902 2951 2952 2903
4 2903 2952 2953 2904
4 2904 2953 2954 2905
4 2905 2954 2955 2906
4 2906 2955 2956 2907
4 2907 2956 2957 2908
4 2908 2957 2958 2909
4 2909 2958 2959 2910
4 2910 2959 2960 2911
4 2911 2960 2961 2912
4 2912 2961 2962 2913
4 2913 2962 2963 2914
4 2914 2963 2964 2915
4 2915 2964 2965 2916
4 2916 2965 2966 2917
4 2917 2966 2967 2918
4 2918 2967 2968 2919
4 2919 2968 2969 2920
4 2920 2969 2970 2921
4 2921 2970 2971 2922
4 2922 2971 2972 2923
4 2923 2972 2973 2924
4 2924 2973 2974 2925
4 2925 2974 2975 2926
4 2926 2975 2976 2927
4 2927 2976 2977 2928
4 2928 2977 2978 2929
4 2929 2978 2979 2930
4 2930 2979 2980 2931
4 2931 2980 2981 2932
4 2932 2981 2982 2933
4 2933 2982 2983 2934
4 2934 2983 2984 2935
4 2935 2984 2985 2936
4 2936 2985 2986 2937
4 2937 2986 2987 2938
4 2938 2987 2988 2939
4 2939 2988 2989 2940
4 2940 2989 2990 2941
4 2941 2990 2991 2942
4 2942 2991 2992 2943
4 2943 2992 2993 2944
4 2944 2993 2994 2945
4 2945 2994 196 197
4 58 59 2995 2946
4 2946 2995 2996 2947
4 2947 2996 2997 2948
4 2948 2997 2998 2949
4 2949 2998 2999 2950
4 2950 2999 3000 2951
4 2951 3000 3001 2952
4 2952 3001 3002 2953
4 2953 3002 3003 2954
4 2954 3003 3004 2955
4 2955 3004 3005 2956
4 2956 3005 3006 2957
4 2957 3006 3007 2958
4 2958 3007 3008 2959
4 2959 3008 3009 2960
4 2960 3009 3010 2961
4 2961 3010 3011 2962
4 2962 3011 3012 2963
4 2963 3012 3013 2964
4 2964 3013 3014 2965
4 2965 3014 3015 2966
4 2966 3015 3016 2967
4 2967 3016 3017 2968
4 2968 3017 3018 2969
4 2969 3018 3019 2970
4 2970 3019 3020 2971
4 2971 3020 3021 2972
4 2972 3021 3022 2973
4 2973 3022 3023 2974
4 2974 3023 3024 2975
4 2975 3024 3025 2976
4 2976 3025 3026 2977
4 2977 3026 3027 2978
4 2978 3027 3028 2979
4 2979 3028 3029 2980
4 2980 3029 3030 2981
4 2981 3030 3031 2982
4 2982 3031 3032 2983
4 2983 3032 3033 2984
4 2984 3033 3034 2985
4 2985 3034 3035 2986
4 2986 3035 3036 2987
4 2987 3036 3037 2988
4 2988 3037 3038 2989
4 2989 3038 3039 2990
4 2990 3039 3040 2991
4 2991 3040 3041 2992
4 2992 3041 3042 2993
4 2993 3042 3043 2994
4 2994 3043 195 196
4 59 60 3044 2995
4 2995 3044 3045 2996
4 2996 3045 3046 2997
4 2997 3046 3047 2998
4 2998 3047 3048 2999
4 2999 3048 3049 3000
4 3000 3049 3050 3001
4 3001 3050 3051 3002
4 3002 3051 3052 3003
4 3003 3052 3053 3004
4 3004 3053 3054 3005
4 3005 3054 3055 3006
4 3006 3055 3056 3007
4 3007 3056 3057 3008
4 3008 3057 3058 3009
4 3009 3058 3059 3010
4 3010 3059 3060 3011
4 3011 3060 3061 3012
4 3012 3061 3062 3013
4 3013 3062 3063 3014
4 3014 3063 3064 3015
4 3015 3064 3065 3016
4 3016 3065 3066 3017
4 3017 3066 3067 3018
4 3018 3067 3068 3019
4 3019 3068 3069 3020
4 3020 3069 3070 3021
4 3021 3070 3071 3022
4 3022 3071 3072 3023
4 3023 3072 3073 3024
4 3024 3073 3074 3025
4 3025 3074 3075 3026
4 3026 3075 3076 3027
4 3027 3076 3077 3028
4 3028 3077 3078 3029
4 3029 3078 3079 3030
4 3030 3079 3080 3031
4 3031 3080 3081 3032
4 3032 3081 3082 3033
4 3033 3082 3083 3034
4 3034 3083 3084 3035
4 3035 3084 3085 3036
4 3036 3085 3086 3037
4 3037 3086 3087 3038
4 3038 3087 3088 3039
4 3039 3088 3089 3040
4 3040 3089 3090 3041
4 3041 3090 3091 3042
4 3042 3091 3092 3043
4 3043 3092 194 195
4 60 61 3093 3044
4 3044 3093 3094 3045
4 3045 3094 3095 3046
4 3046 3095 3096 3047
4 3047 3096 3097 3048
4 3048 3097 3098 3049
4 3049 3098 3099 3050
4 3050 3099 3100 3051
4 3051 3100 3101 3052
4 3052 3101 3102 3053
4 3053 3102 3103 3054
4 3054 3103 3104 3055
4 3055 3104 3105 3056
4 3056 3105 3106 3057
4 3057 3106 3107 3058
4 3058 3107 3108 3059
4 3059 3108 3109 3060
4 3060 3109 3110 3061
4 3061 3110 3111 3062
4 3062 3111 3112 3063
4 3063 3112 3113 3064
4 3064 3113 3114 3065
4 3065 3114 3115 3066
4 3066 3115 3116 3067
4 3067 3116 3117 3068
4 3068 3117 3118 3069
4 3069 3118 3119 3070
4 3070 3119 3120 3071
4 3071 3120 3121 3072
4 3072 3121 3122 3073
4 3073 3122 3123 3074
4 3074 3123 3124 3075
4 3075 3124 3125 3076
4 3076 3125 3126 3077
4 3077 3126 3127 3078
4 3078 3127 3128 3079
4 3079 3128 3129 3080
4 3080 3129 3130 3081
4 3081 3130 3131 3082
4 3082 3131 3132 3083
4 3083 3132 3133 3084
4 3084 3133 3134 3085
4 3085 3134 3135 3086
4 3086 3135 3136 3087
4 3087 3136 3137 3088
4 3088 3137 3138 3089
4 3089 3138 3139 3090
4 3090 3139 3140 3091
4 3091 3140 3141 3092
4 3092 3141 193 194
4 61 62 3142 3093
4 3093 3142 3143 3094
4 3094 3143 3144 3095
4 3095 3144 3145 3096
4 3096 3145 3146 3097
4 3097 3146 3147 3098
4 3098 3147 3148 3099
4 3099 3148 3149 3100
4 3100 3149 3150 3101
4 3101 3150 3151 3102
4 3102 3151 3152 3103
4 3103 3152 3153 3104
4 3104 3153 3154 3105
4 3105 3154 3155 3106
4 3106 3155 3156 3107
4 3107 3156 3157 3108
4 3108 3157 3158 3109
4 3109 3158 3159 3110
4 3110 3159 3160 3111
4 3111 3160 3161 3112
4 3112 3161 3162 3113
4 3113 3162 3163 3114
4 3114 3163 3164 3115
4 3115 3164 3165 3116
4 3116 3165 3166 3117
4 3117 3166 3167 3118
4 3118 3167 3168 3119
4 3119 3168 3169 3120
4 3120 3169 3170 3121
4 3121 3170 3171 3122
4 3122 3171 3172 3123
4 3123 3172 3173 3124
4 3124 3173 3174 3125
4 3125 3174 3175 3126
4 3126 3175 3176 3127
4 3127 3176 3177 3128
4 3128 3177 3178 3129
4 3129 3178 3179 3130
4 3130 3179 3180 3131
4 3131 3180 3181 3132
4 3132 3181 3182 3133
4 3133 3182 3183 3134
4 3134 3183 3184 3135
4 3135 3184 3185 3136
4 3136 3185 3186 3137
4 3137 3186 3187 3138
4 3138 3187 3188 3139
4 3139 3188 3189 3140
4 3140 3189 3190 3141
4 3141 3190 192 193
4 62 63 3191 3142
4 3142 3191 3192 3143
4 3143 3192 3193 3144
4 3144 3193 3194 3145
4 3145 3194 3195 3146
4 3146 3195 3196 3147
4 3147 3196 3197 3148
4 3148 3197 3198 3149
4 3149 3198 3199 3150
4 3150 3199 3200 3151
4 3151 3200 3201 3152
4 3152 3201 3202 3153
4 3153 3202 3203 3154
4 3154 3203 3204 3155
4 3155 3204 3205 3156
4 3156 3205 3206 3157
4 3157 3206 3207 3158
4 3158 3207 3208 3159
4 3159 3208 3209 3160
4 3160 3209 3210 3161
4 3161 3210 3211 3162
4 3162 3211 3212 3163
4 3163 3212 3213 3164
4 3164 3213 3214 3165
4 3165 3214 3215 3166
4 3166 3215 3216 3167
4 3167 3216 3217 3168
4 3168 3217 3218 3169
4 3169 3218 3219 3170
4 3170 3219 3220 3171
4 3171 3220 3221 3172
4 3172 3221 3222 3173
4 3173 3222 3223 3174
4 3174 3223 3224 3175
4 3175 3224 3225 3176
4 3176 3225 3226 3177
4 3177 3226 3227 3178
4 3178 3227 3228 3179
4 3179 3228 3229 3180
4 3180 3229 3230 3181
4 3181 3230 3231 3182
4 3182 3231 3232 3183
4 3183 3232 3233 3184
4 3184 3233 3234 3185
4 3185 3234 3235 3186
4 3186 3235 3236 3187
4 3187 3236 3237 3188
4 3188 3237 3238 3189
4 3189 3238 3239 3190
4 3190 3239 191 192
4 63 64 3240 3191
4 3191 3240 3241 3192
4 3192 3241 3242 3193
4 3193 3242 3243 3194
4 3194 3243 3244 3195
4 3195 3244 3245 3196
4 3196 3245 3246 3197
4 3197 3246 3247 3198
4 3198 3247 3248 3199
4 3199 3248 3249 3200
4 3200 3249 3250 3201
4 3201 3250 3251 3202
4 3202 3251 3252 3203
4 3203 3252 3253 3204
4 3204 3253 3254 3205
4 3205 3254 3255 3206
4 3206 3255 3256 3207
4 3207 3256 3257 3208
4 3208 3257 3258 3209
4 3209 3258 3259 3210
4 3210 3259 3260 3211
4 3211 3260 3261 3212
4 3212 3261 3262 3213
4 3213 3262 3263 3214
4 3214 3263 3264 3215
4 3215 3264 3265 3216
4 3216 3265 3266 3217
4 3217 3266 3267 3218
4 3218 3267 3268 3219
4 3219 3268 3269 3220
4 3220 3269 3270 3221
4 3221 3270 3271 3222
4 3222 3271 3272 3223
4 3223 3272 3273 3224
4 3224 3273 3274 3225
4 3225 3274 3275 3226
4 3226 3275 3276 3227
4 3227 3276 3277 3228
4 3228 3277 3278 3229
4 3229 3278 3279 3230
4 3230 3279 3280 3231
4 3231 3280 3281 3232
4 3232 3281 3282 3233
4 3233 3282 3283 3234
4 3234 3283 3284 3235
4 3235 3284 3285 3236
4 3236 3285 3286 3237
4 3237 3286 3287 3238
4 3238 3287 3288 3239
4 3239 3288 190 191
4 64 65 3289 3240
4 3240 3289 3290 3241
4 3241 3290 3291 3242
4 3242 3291 3292 3243
4 3243 3292 3293 3244
4 3244 3293 3294 3245
4 3245 3294 3295 3246
4 3246 3295 3296 3247
4 3247 3296 3297 3248
4 3248 3297 3298 3249
4 3249 3298 3299 3250
4 3250 3299 3300 3251
4 3251 3300 3301 3252
4 3252 3301 3302 3253
4 3253 3302 3303 3254
4 3254 3303 3304 3255
4 3255 3304 3305 3256
4 3256 3305 3306 3257
4 3257 3306 3307 3258
4 3258 3307 3308 3259
4 3259 3308 3309 3260
4 3260 3309 3310 3261
4 3261 3310 3311 3262
4 3262 3311 3312 3263
4 3263 3312 3313 3264
4 3264 3313 3314 3265
4 3265 3314 3315 3266
4 3266 3315 3316 3267
4 3267 3316 3317 3268
4 3268 3317 3318 3269
4 3269 3318 3319 3270
4 3270 3319 3320 3271
4 3271 3320 3321 3272
4 3272 3321 3322 3273
4 3273 3322 3323 3274
4 3274 3323 3324 3275
4 3275 3324 3325 3276
4 3276 3325 3326 3277
4 3277 3326 3327 3278
4 3278 3327 3328 3279
4 3279 3328 3329 3280
4 3280 3329 3330 3281
4 3281 3330 3331 3282
4 3282 3331 3332 3283
4 3283 3332 3333 3284
4 3284 3333 3334 3285
4 3285 3334 3335 3286
4 3286 3335 3336 3287
4 3287 3336 3337 3288
4 3288 3337 189 190
4 65 66 3338 3289
4 3289 3338 3339 3290
4 3290 3339 3340 3291
4 3291 3340 3341 3292
4 3292 3341 3342 3293
4 3293 3342 3343 3294
4 3294 3343 3344 3295
4 3295 3344 3345 3296
4 3296 3345 3346 3297
4 3297 3346 3347 3298
4 3298 3347 3348 3299
4 3299 3348 3349 3300
4 3300 3349 3350 3301
4 3301 3350 3351 3302
4 3302 3351 3352 3303
4 3303 3352 3353 3304
4 3304 3353 3354 3305
4 3305 3354 3355 3306
4 3306 3355 3356 3307
4 3307 3356 3357 3308
4 3308 3357 3358 3309
4 3309 3358 3359 3310
4 3310 3359 3360 3311
4 3311 3360 3361 3312
4 3312 3361 3362 3313
4 3313 3362 3363 3314
4 3314 3363 3364 3315
4 3315 3364 3365 3316
4 3316 3365 3366 3317
4 3317 3366 3367 3318
4 3318 3367 3368 3319
4 3319 3368 3369 3320
4 3320 3369 3370 3321
4 3321 3370 3371 3322
4 3322 3371 3372 3323
4 3323 3372 3373 3324
4 3324 3373 3374 3325
4 3325 3374 3375 3326
4 3326 3375 3376 3327
4 3327 3376 3377 3328
4 3328 3377 3378 3329
4 3329 3378 3379 3330
4 3330 3379 3380 3331
4 3331 3380 3381 3332
4 3332 3381 3382 3333
4 3333 3382 3383 3334
4 3334 3383 3384 3335
4 3335 3384 3385 3336
4 3336 3385 3386 3337
4 3337 3386 188 189
4 66 67 3387 3338
4 3338 3387 3388 3339
4 3339 3388 3389 3340
4 3340 3389 3390 3341
4 3341 3390 3391 3342
4 3342 3391 3392 3343
4 3343 3392 3393 3344
4 3344 3393 3394 3345
4 3345 3394 3395 3346
4 3346 3395 3396 3347
4 3347 3396 3397 3348
4 3348 3397 3398 3349
4 3349 3398 3399 3350
4 3350 3399 3400 3351
4 3351 3400 3401 3352
4 3352 3401 3402 3353
4 3353 3402 3403 3354
4 3354 3403 3404 3355
4 3355 3404 3405 3356
4 3356 3405 3406 3357
4 3357 3406 3407 3358
4 3358 3407 3408 3359
4 3359 3408 3409 3360
4 3360 3409 3410 3361
4 3361 3410 3411 3362
4 3362 3411 3412 3363
4 3363 3412 3413 3364
4 3364 3413 3414 3365
4 3365 3414 3415 3366
4 3366 3415 3416 3367
4 3367 3416 3417 3368
4 3368 3417 3418 3369
4 3369 3418 3419 3370
4 3370 3419 3420 3371
4 3371 3420 3421 3372
4 3372 3421 3422 3373
4 3373 3422 3423 3374
4 3374 3423 3424 3375
4 3375 3424 3425 3376
4 3376 3425 3426 3377
4 3377 3426 3427 3378
4 3378 3427 3428 3379
4 3379 3428 3429 3380
4 3380 3429 3430 3381
4 3381 3430 3431 3382
4 3382 3431 3432 3383
4 3383 3432 3433 3384
4 3384 3433 3434 3385
4 3385 3434 3435 3386
4 3386 3435 187 188
4 67 68 3436 3387
4 3387 3436 3437 3388
4 3388 3437 3438 3389
4 3389 3438 3439 3390
4 3390 3439 3440 3391
4 3391 3440 3441 3392
4 3392 3441 3442 3393
4 3393 3442 3443 3394
4 3394 3443 3444 3395
4 3395 3444 3445 3396
4 3396 3445 3446 3397
4 3397 3446 3447 3398
4 3398 3447 3448 3399
4 3399 3448 3449 3400
4 3400 3449 3450 3401
4 3401 3450 3451 3402
4 3402 3451 3452 3403
4 3403 3452 3453 3404
4 3404 3453 3454 3405
4 3405 3454 3455 3406
4 3406 3455 3456 3407
4 3407 3456 3457 3408
4 3408 3457 3458 3409
4 3409 3458 3459 3410
4 3410 3459 3460 3411
4 3411 3460 3461 3412
4 3412 3461 3462 3413
4 3413 3462 3463 3414
4 3414 3463 3464 3415
4 3415 3464 3465 3416
4 3416 3465 3466 3417
4 3417 3466 3467 3418
4 3418 3467 3468 3419
4 3419 3468 3469 3420
4 3420 3469 3470 3421
4 3421 3470 3471 3422
4 3422 3471 3472 3423
4 3423 3472 3473 3424
4 3424 3473 3474 3425
4 3425 3474 3475 3426
4 3426 3475 3476 3427
4 3427 3476 3477 3428
4 3428 3477 3478 3429
4 3429 3478 3479 3430
4 3430 3479 3480 3431
4 3431 3480 3481 3432
4 3432 3481 3482 3433
4 3433 3482 3483 3434
4 3434 3483 3484 3435
4 3435 3484 186 187
4 68 69 3485 3436
4 3436 3485 3486 3437
4 3437 3486 3487 3438
4 3438 3487 3488 3439
4 3439 3488 3489 3440
4 3440 3489 3490 3441
4 3441 3490 3491 3442
4 3442 3491 3492 3443
4 3443 3492 3493 3444
4 3444 3493 3494 3445
4 3445 3494 3495 3446
4 3446 3495 3496 3447
4 3447 3496 3497 3448
4 3448 3497 3498 3449
4 3449 3498 3499 3450
4 3450 3499 3500 3451
4 3451 3500 3501 3452
4 3452 3501 3502 3453
4 3453 3502 3503 3454
4 3454 3503 3504 3455
4 3455 3504 3505 3456
4 3456 3505 3506 3457
4 3457 3506 3507 3458
4 3458 3507 3508 3459
4 3459 3508 3509 3460
4 3460 3509 3510 3461
4 3461 3510 3511 3462
4 3462 3511 3512 3463
4 3463 3512 3513 3464
4 3464 3513 3514 3465
4 3465 3514 3515 3466
4 3466 3515 3516 3467
4 3467 3516 3517 3468
4 3468 3517 3518 3469
4 3469 3518 3519 3470
4 3470 3519 3520 3471
4 3471 3520 3521 3472
4 3472 3521 3522 3473
4 3473 3522 3523 3474
4 3474 3523 3524 3475
4 3475 3524 3525 3476
4 3476 3525 3526 3477
4 3477 3526 3527 3478
4 3478 3527 3528 3479
4 3479 3528 3529 3480
4 3480 3529 3530 3481
4 3481 3530 3531 3482
4 3482 3531 3532 3483
4 3483 3532 3533 3484
4 3484 3533 185 186
4 69 70 3534 3485
4 3485 3534 3535 3486
4 3486 3535 3536 3487
4 3487 3536 3537 3488
4 3488 3537 3538 3489
4 3489 3538 3539 3490
4 3490 3539 3540 3491
4 3491 3540 3541 3492
4 3492 3541 3542 3493
4 3493 3542 3543 3494
4 3494 3543 3544 3495
4 3495 3544 3545 3496
4 3496 3545 3546 3497
4 3497 3546 3547 3498
4 3498 3547 3548 3499
4 3499 3548 3549 3500
4 3500 3549 3550 3501
4 3501 3550 3551 3502
4 3502 3551 3552 3503
4 3503 3552 3553 3504
4 3504 3553 3554 3505
4 3505 3554 3555 3506
4 3506 3555 3556 3507
4 3507 3556 3557 3508
4 3508 3557 3558 3509
4 3509 3558 3559 3510
4 3510 3559 3560 3511
4 3511 3560 3561 3512
4 3512 3561 3562 3513
4 3513 3562 3563 3514
4 3514 3563 3564 3515
4 3515 3564 3565 3516
4 3516 3565 3566 3517
4 3517 3566 3567 3518
4 3518 3567 3568 3519
4 3519 3568 3569 3520
4 3520 3569 3570 3521
4 3521 3570 3571 3522
4 3522 3571 3572 3523
4 3523 3572 3573 3524
4 3524 3573 3574 3525
4 3525 3574 3575 3526
4 3526 3575 3576 3527
4 3527 3576 3577 3528
4 3528 3577 3578 3529
4 3529 3578 3579 3530
4 3530 3579 3580 3531
4 3531 3580 3581 3532
4 3532 3581 3582 3533
4 3533 3582 184 185
4 70 71 3583 3534
4 3534 3583 3584 3535
4 3535 3584 3585 3536
4 3536 3585 3586 3537
4 3537 3586 3587 3538
4 3538 3587 3588 3539
4 3539 3588 3589 3540
4 3540 3589 3590 3541
4 3541 3590 3591 3542
4 3542 3591 3592 3543
4 3543 3592 3593 3544
4 3544 3593 3594 3545
4 3545 3594 3595 3546
4 3546 3595 3596 3547
4 3547 3596 3597 3548
4 3548 3597 3598 3549
4 3549 3598 3599 3550
4 3550 3599 3600 3551
4 3551 3600 3601 3552
4 3552 3601 3602 3553
4 3553 3602 3603 3554
4 3554 3603 3604 3555
4 3555 3604 3605 3556
4 3556 3605 3606 3557
4 3557 3606 3607 3558
4 3558 3607 3608 3559
4 3559 3608 3609 3560
4 3560 3609 3610 3561
4 3561 3610 3611 3562
4 3562 3611 3612 3563
4 3563 3612 3613 3564
4 3564 3613 3614 3565
4 3565 3614 3615 3566
4 3566 3615 3616 3567
4 3567 3616 3617 3568
4 3568 3617 3618 3569
4 3569 3618 3619 3570
4 3570 3619 3620 3571
4 3571 3620 3621 3572
4 3572 3621 3622 3573
4 3573 3622 3623 3574
4 3574 3623 3624 3575
4 3575 3624 3625 3576
4 3576 3625 3626 3577
4 3577 3626 3627 3578
4 3578 3627 3628 3579
4 3579 3628 3629 3580
4 3580 3629 3630 3581
4 3581 3630 3631 3582
4 3582 3631 183 184
4 71 72 3632 3583
4 3583 3632 3633 3584
4 3584 3633 3634 3585
4 3585 3634 3635 3586
4 3586 3635 3636 3587
4 3587 3636 3637 3588
4 3588 3637 3638 3589
4 3589 3638 3639 3590
4 3590 3639 3640 3591
4 3591 3640 3641 3592
4 3592 3641 3642 3593
4 3593 3642 3643 3594
4 3594 3643 3644 3595
4 3595 3644 3645 3596
4 3596 3645 3646 3597
4 3597 3646 3647 3598
4 3598 3647 3648 3599
4 3599 3648 3649 3600
4 3600 3649 3650 3601
4 3601 3650 3651 3602
4 3602 3651 3652 3603
4 3603 3652 3653 3604
4 3604 3653 3654 3605
4 3605 3654 3655 3606
4 3606 3655 3656 3607
4 3607 3656 3657 3608
4 3608 3657 3658 3609
4 3609 3658 3659 3610
4 3610 3659 3660 3611
4 3611 3660 3661 3612
4 3612 3661 3662 3613
4 3613 3662 3663 3614
4 3614 3663 3664 3615
4 3615 3664 3665 3616
4 3616 3665 3666 3617
4 3617 3666 3667 3618
4 3618 3667 3668 3619
4 3619 3668 3669 3620
4 3620 3669 3670 3621
4 3621 3670 3671 3622
4 3622 3671 3672 3623
4 3623 3672 3673 3624
4 3624 3673 3674 3625
4 3625 3674 3675 3626
4 3626 3675 3676 3627
4 3627 3676 3677 3628
4 3628 3677 3678 3629
4 3629 3678 3679 3630
4 3630 3679 3680 3631
4 3631 3680 182 183
4 72 73 3681 3632
4 3632 3681 3682 3633
4 3633 3682 3683 3634
4 3634 3683 3684 3635
4 3635 3684 3685 3636
4 3636 3685 3686 3637
4 3637 3686 3687 3638
4 3638 3687 3688 3639
4 3639 3688 3689 3640
4 3640 3689 3690 3641
4 3641 3690 3691 3642
4 3642 3691 3692 3643
4 3643 3692 3693 3644
4 3644 3693 3694 3645
4 3645 3694 3695 3646
4 3646 3695 3696 3647
4 3647 3696 3697 3648
4 3648 3697 3698 3649
4 3649 3698 3699 3650
4 3650 3699 3700 3651
4 3651 3700 3701 3652
4 3652 3701 3702 3653
4 3653 3702 3703 3654
4 3654 3703 3704 3655
4 3655 3704 3705 3656
4 3656 3705 3706 3657
4 3657 3706 3707 3658
4 3658 3707 3708 3659
4 3659 3708 3709 3660
4 3660 3709 3710 3661
4 3661 3710 3711 3662
4 3662 3711 3712 3663
4 3663 3712 3713 3664
4 3664 3713 3714 3665
4 3665 3714 3715 3666
4 3666 3715 3716 3667
4 3667 3716 3717 3668
4 3668 3717 3718 3669
4 3669 3718 3719 3670
4 3670 3719 3720 3671
4 3671 3720 3721 3672
4 3672 3721 3722 3673
4 3673 3722 3723 3674
4 3674 3723 3724 3675
4 3675 3724 3725 3676
4 3676 3725 3726 3677
4 3677 3726 3727 3678
4 3678 3727 3728 3679
4 3679 3728 3729 3680
4 3680 3729 181 182
4 73 74 3730 3681
4 3681 3730 3731 3682
4 3682 3731 3732 3683
4 3683 3732 3733 3684
4 3684 3733 3734 3685
4 3685 3734 3735 3686
4 3686 3735 3736 3687
4 3687 3736 3737 3688
4 3688 3737 3738 3689
4 3689 3738 3739 3690
4 3690 3739 3740 3691
4 3691 3740 3741 3692
4 3692 3741 3742 3693
4 3693 3742 3743 3694
4 3694 3743 3744 3695
4 3695 3744 3745 3696
4 3696 3745 3746 3697
4 3697 3746 3747 3698
4 3698 3747 3748 3699
4 3699 3748 3749 3700
4 3700 3749 3750 3701
4 3701 3750 3751 3702
4 3702 3751 3752 3703
4 3703 3752 3753 3704
4 3704 3753 3754 3705
4 3705 3754 3755 3706
4 3706 3755 3756 3707
4 3707 3756 3757 3708
4 3708 3757 3758 3709
4 3709 3758 3759 3710
4 3710 3759 3760 3711
4 3711 3760 3761 3712
4 3712 3761 3762 3713
4 3713 3762 3763 3714
4 3714 3763 3764 3715
4 3715 3764 3765 3716
4 3716 3765 3766 3717
4 3717 3766 3767 3718
4 3718 3767 3768 3719
4 3719 3768 3769 3720
4 3720 3769 3770 3721
4 3721 3770 3771 3722
4 3722 3771 3772 3723
4 3723 3772 3773 3724
4 3724 3773 3774 3725
4 3725 3774 3775 3726
4 3726 3775 3776 3727
4 3727 3776 3777 3728
4 3728 3777 3778 3729
4 3729 3778 180 181
4 74 75 3779 3730
4 3730 3779 3780 3731
4 3731 3780 3781 3732
4 3732 3781 3782 3733
4 3733 3782 3783 3734
4 3734 3783 3784 3735
4 3735 3784 3785 3736
4 3736 3785 3786 3737
4 3737 3786 3787 3738
4 3738 3787 3788 3739
4 3739 3788 3789 3740
4 3740 3789 3790 3741
4 3741 3790 3791 3742
4 3742 3791 3792 3743
4 3743 3792 3793 3744
4 3744 3793 3794 3745
4 3745 3794 3795 3746
4 3746 3795 3796 3747
4 3747 3796 3797 3748
4 3748 3797 3798 3749
4 3749 3798 3799 3750
4 3750 3799 3800 3751
4 3751 3800 3801 3752
4 3752 3801 3802 3753
4 3753 3802 3803 3754
4 3754 3803 3804 3755
4 3755 3804 3805 3756
4 3756 3805 3806 3757
4 3757 3806 3807 3758
4 3758 3807 3808 3759
4 3759 3808 3809 3760
4 3760 3809 3810 3761
4 3761 3810 3811 3762
4 3762 3811 3812 3763
4 3763 3812 3813 3764
4 3764 3813 3814 3765
4 3765 3814 3815 3766
4 3766 3815 3816 3767
4 3767 3816 3817 3768
4 3768 3817 3818 3769
4 3769 3818 3819 3770
4 3770 3819 3820 3771
4 3771 3820 3821 3772
4 3772 3821 3822 3773
4 3773 3822 3823 3774
4 3774 3823 3824 3775
4 3775 3824 3825 3776
4 3776 3825 3826 3777
4 3777 3826 3827 3778
4 3778 3827 179 180
4 75 76 3828 3779
4 3779 3828 3829 3780
4 3780 3829 3830 3781
4 3781 3830 3831 3782
4 3782 3831 3832 3783
4 3783 3832 3833 3784
4 3784 3833 3834 3785
4 3785 3834 3835 3786
4 3786 3835 3836 3787
4 3787 3836 3837 3788
4 3788 3837 3838 3789
4 3789 3838 3839 3790
4 3790 3839 3840 3791
4 3791 3840 3841 3792
4 3792 3841 3842 3793
4 3793 3842 3843 3794
4 3794 3843 3844 3795
4 3795 3844 3845 3796
4 3796 3845 3846 3797
4 3797 3846 3847 3798
4 3798 3847 3848 3799
4 3799 3848 3849 3800
4 3800 3849 3850 3801
4 3801 3850 3851 3802
4 3802 3851 3852 3803
4 3803 3852 3853 3804
4 3804 3853 3854 3805
4 3805 3854 3855 3806
4 3806 3855 3856 3807
4 3807 3856 3857 3808
4 3808 3857 3858 3809
4 3809 3858 3859 3810
4 3810 3859 3860 3811
4 3811 3860 3861 3812
4 3812 3861 3862 3813
4 3813 3862 3863 3814
4 3814 3863 3864 3815
4 3815 3864 3865 3816
4 3816 3865 3866 3817
4 3817 3866 3867 3818
4 3818 3867 3868 3819
4 3819 3868 3869 3820
4 3820 3869 3870 3821
4 3821 3870 3871 3822
4 3822 3871 3872 3823
4 3823 3872 3873 3824
4 3824 3873 3874 3825
4 3825 3874 3875 3826
4 3826 3875 3876 3827
4 3827 3876 178 179
4 76 77 3877 3828
4 3828 3877 3878 3829
4 3829 3878 3879 3830
4 3830 3879 3880 3831
4 3831 3880 3881 3832
4 3832 3881 3882 3833
4 3833 3882 3883 3834
4 3834 3883 3884 3835
4 3835 3884 3885 3836
4 3836 3885 3886 3837
4 3837 3886 3887 3838
4 3838 3887 3888 3839
4 3839 3888 3889 3840
4 3840 3889 3890 3841
4 3841 3890 3891 3842
4 3842 3891 3892 3843
4 3843 3892 3893 3844
4 3844 3893 3894 3845
4 3845 3894 3895 3846
4 3846 3895 3896 3847
4 3847 3896 3897 3848
4 3848 3897 3898 3849
4 3849 3898 3899 3850
4 3850 3899 3900 3851
4 3851 3900 3901 3852
4 3852 3901 3902 3853
4 3853 3902 3903 3854
4 3854 3903 3904 3855
4 3855 3904 3905 3856
4 3856 3905 3906 3857
4 3857 3906 3907 3858
4 3858 3907 3908 3859
4 3859 3908 3909 3860
4 3860 3909 3910 3861
4 3861 3910 3911 3862
4 3862 3911 3912 3863
4 3863 3912 3913 3864
4 3864 3913 3914 3865
4 3865 3914 3915 3866
4 3866 3915 3916 3867
4 3867 3916 3917 3868
4 3868 3917 3918 3869
4 3869 3918 3919 3870
4 3870 3919 3920 3871
4 3871 3920 3921 3872
4 3872 3921 3922 3873
4 3873 3922 3923 3874
4 3874 3923 3924 3875
4 3875 3924 3925 3876
4 3876 3925 177 178
4 77 78 3926 3877
4 3877 3926 3927 3878
4 3878 3927 3928 3879
4 3879 3928 3929 3880
4 3880 3929 3930 3881
4 3881 3930 3931 3882
4 3882 3931 3932 3883
4 3883 3932 3933 3884
4 3884 3933 3934 3885
4 3885 3934 3935 3886
4 3886 3935 3936 3887
4 3887 3936 3937 3888
4 3888 3937 3938 3889
4 3889 3938 3939 3890
4 3890 3939 3940 3891
4 3891 3940 3941 3892
4 3892 3941 3942 3893
4 3893 3942 3943 3894
4 3894 3943 3944 3895
4 3895 3944 3945 3896
4 3896 3945 3946 3897
4 3897 3946 3947 3898
4 3898 3947 3948 3899
4 3899 3948 3949 3900
4 3900 3949 3950 3901
4 3901 3950 3951 3902
4 3902 3951 3952 3903
4 3903 3952 3953 3904
4 3904 3953 3954 3905
4 3905 3954 3955 3906
4 3906 3955 3956 3907
4 3907 3956 3957 3908
4 3908 3957 3958 3909
4 3909 3958 3959 3910
4 3910 3959 3960 3911
4 3911 3960 3961 3912
4 3912 3961 3962 3913
4 3913 3962 3963 3914
4 3914 3963 3964 3915
4 3915 3964 3965 3916
4 3916 3965 3966 3917
4 3917 3966 3967 3918
4 3918 3967 3968 3919
4 3919 3968 3969 3920
4 3920 3969 3970 3921
4 3921 3970 3971 3922
4 3922 3971 3972 3923
4 3923 3972 3973 3924
4 3924 3973 3974 3925
4 3925 3974 176 177
4 78 79 3975 3926
4 3926 3975 3976 3927
4 3927 3976 3977 3928
4 3928 3977 3978 3929
4 3929 3978 3979 3930
4 3930 3979 3980 3931
4 3931 3980 3981 3932
4 3932 3981 3982 3933
4 3933 3982 3983 3934
4 3934 3983 3984 3935
4 3935 3984 3985 3936
4 3936 3985 3986 3937
4 3937 3986 3987 3938
4 3938 3987 3988 3939
4 3939 3988 3989 3940
4 3940 3989 3990 3941
4 3941 3990 3991 3942
4 3942 3991 3992 3943
4 3943 3992 3993 3944
4 3944 3993 3994 3945
4 3945 3994 3995 3946
4 3946 3995 3996 3947
4 3947 3996 3997 3948
4 3948 3997 3998 3949
4 3949 3998 3999 3950
4 3950 3999 4000 3951
4 3951 4000 4001 3952
4 3952 4001 4002 3953
4 3953 4002 4003 3954
4 3954 4003 4004 3955
4 3955 4004 4005 3956
4 3956 4005 4006 3957
4 3957 4006 4007 3958
4 3958 4007 4008 3959
4 3959 4008 4009 3960
4 3960 4009 4010 3961
4 3961 4010 4011 3962
4 3962 4011 4012 3963
4 3963 4012 4013 3964
4 3964 4013 4014 3965
4 3965 4014 4015 3966
4 3966 4015 4016 3967
4 3967 4016 4017 3968
4 3968 4017 4018 3969
4 3969 4018 4019 3970
4 3970 4019 4020 3971
4 3971 4020 4021 3972
4 3972 4021 4022 3973
4 3973 4022 4023 3974
4 3974 4023 175 176
4 79 80 4024 3975
4 3975 4024 4025 3976
4 3976 4025 4026 3977
4 3977 4026 4027 3978
4 3978 4027 4028 3979
4 3979 4028 4029 3980
4 3980 4029 4030 3981
4 3981 4030 4031 3982
4 3982 4031 4032 3983
4 3983 4032 4033 3984
4 3984 4033 4034 3985
4 3985 4034 4035 3986
4 3986 4035 4036 3987
4 3987 4036 4037 3988
4 3988 4037 4038 3989
4 3989 4038 4039 3990
4 3990 4039 4040 3991
4 3991 4040 4041 3992
4 3992 4041 4042 3993
4 3993 4042 4043 3994
4 3994 4043 4044 3995
4 3995 4044 4045 3996
4 3996 4045 4046 3997
4 3997 4046 4047 3998
4 3998 4047 4048 3999
4 3999 4048 4049 4000
4 4000 4049 4050 4001
4 4001 4050 4051 4002
4 4002 4051 4052 4003
4 4003 4052 4053 4004
4 4004 4053 4054 4005
4 4005 4054 4055 4006
4 4006 4055 4056 4007
4 4007 4056 4057 4008
4 4008 4057 4058 4009
4 4009 4058 4059 4010
4 4010 4059 4060 4011
4 4011 4060 4061 4012
4 4012 4061 4062 4013
4 4013 4062 4063 4014
4 4014 4063 4064 4015
4 4015 4064 4065 4016
4 4016 4065 4066 4017
4 4017 4066 4067 4018
4 4018 4067 4068 4019
4 4019 4068 4069 4020
4 4020 4069 4070 4021
4 4021 4070 4071 4022
4 4022 4071 4072 4023
4 4023 4072 174 175
4 80 81 4073 4024
4 4024 4073 4074 4025
4 4025 4074 4075 4026
4 4026 4075 4076 4027
4 4027 4076 4077 4028
4 4028 4077 4078 4029
4 4029 4078 4079 4030
4 4030 4079 4080 4031
4 4031 4080 4081 4032
4 4032 4081 4082 4033
4 4033 4082 4083 4034
4 4034 4083 4084 4035
4 4035 4084 4085 4036
4 4036 4085 4086 4037
4 4037 4086 4087 4038
4 4038 4087 4088 4039
4 4039 4088 4089 4040
4 4040 4089 4090 4041
4 4041 4090 4091 4042
4 4042 4091 4092 4043
4 4043 4092 4093 4044
4 4044 4093 4094 4045
4 4045 4094 4095 4046
4 4046 4095 4096 4047
4 4047 4096 4097 4048
4 4048 4097 4098 4049
4 4049 4098 4099 4050
4 4050 4099 4100 4051
4 4051 4100 4101 4052
4 4052 4101 4102 4053
4 4053 4102 4103 4054
4 4054 4103 4104 4055
4 4055 4104 4105 4056
4 4056 4105 4106 4057
4 4057 4106 4107 4058
4 4058 4107 4108 4059
4 4059 4108 4109 4060
4 4060 4109 4110 4061
4 4061 4110 4111 4062
4 4062 4111 4112 4063
4 4063 4112 4113 4064
4 4064 4113 4114 4065
4 4065 4114 4115 4066
4 4066 4115 4116 4067
4 4067 4116 4117 4068
4 4068 4117 4118 4069
4 4069 4118 4119 4070
4 4070 4119 4120 4071
4 4071 4120 4121 4072
4 4072 4121 173 174
4 81 82 4122 4073
4 4073 4122 4123 4074
4 4074 4123 4124 4075
4 4075 4124 4125 4076
4 4076 4125 4126 4077
4 4077 4126 4127 4078
4 4078 4127 4128 4079
4 4079 4128 4129 4080
4 4080 4129 4130 4081
4 4081 4130 4131 4082
4 4082 4131 4132 4083
4 4083 4132 4133 4084
4 4084 4133 4134 4085
4 4085 4134 4135 4086
4 4086 4135 4136 4087
4 4087 4136 4137 4088
4 4088 4137 4138 4089
4 4089 4138 4139 4090
4 4090 4139 4140 4091
4 4091 4140 4141 4092
4 4092 4141 4142 4093
4 4093 4142 4143 4094
4 4094 4143 4144 4095
4 4095 4144 4145 4096
4 4096 4145 4146 4097
4 4097 4146 4147 4098
4 4098 4147 4148 4099
4 4099 4148 4149 4100
4 4100 4149 4150 4101
4 4101 4150 4151 4102
4 4102 4151 4152 4103
4 4103 4152 4153 4104
4 4104 4153 4154 4105
4 4105 4154 4155 4106
4 4106 4155 4156 4107
4 4107 4156 4157 4108
4 4108 4157 4158 4109
4 4109 4158 4159 4110
4 4110 4159 4160 4111
4 4111 4160 4161 4112
4 4112 4161 4162 4113
4 4113 4162 4163 4114
4 4114 4163 4164 4115
4 4115 4164 4165 4116
4 4116 4165 4166 4117
4 4117 4166 4167 4118
4 4118 4167 4168 4119
4 4119 4168 4169 4120
4 4120 4169 4170 4121
4 4121 4170 172 173
4 82 83 4171 4122
4 4122 4171 4172 4123
4 4123 4172 4173 4124
4 4124 4173 4174 4125
4 4125 4174 4175 4126
4 4126 4175 4176 4127
4 4127 4176 4177 4128
4 4128 4177 4178 4129
4 4129 4178 4179 4130
4 4130 4179 4180 4131
4 4131 4180 4181 4132
4 4132 4181 4182 4133
4 4133 4182 4183 4134
4 4134 4183 4184 4135
4 4135 4184 4185 4136
4 4136 4185 4186 4137
4 4137 4186 4187 4138
4 4138 4187 4188 4139
4 4139 4188 4189 4140
4 4140 4189 4190 4141
4 4141 4190 4191 4142
4 4142 4191 4192 4143
4 4143 4192 4193 4144
4 4144 4193 4194 4145
4 4145 4194 4195 4146
4 4146 4195 4196 4147
4 4147 4196 4197 4148
4 4148 4197 4198 4149
4 4149 4198 4199 4150
4 4150 4199 4200 4151
4 4151 4200 4201 4152
4 4152 4201 4202 4153
4 4153 4202 4203 4154
4 4154 4203 4204 4155
4 4155 4204 4205 4156
4 4156 4205 4206 4157
4 4157 4206 4207 4158
4 4158 4207 4208 4159
4 4159 4208 4209 4160
4 4160 4209 4210 4161
4 4161 4210 4211 4162
4 4162 4211 4212 4163
4 4163 4212 4213 4164
4 4164 4213 4214 4165
4 4165 4214 4215 4166
4 4166 4215 4216 4167
4 4167 4216 4217 4168
4 4168 4217 4218 4169
4 4169 4218 4219 4170
4 4170 4219 171 172
4 83 84 4220 4171
4 4171 4220 4221 4172
4 4172 4221 4222 4173
4 4173 4222 4223 4174
4 4174 4223 4224 4175
4 4175 4224 4225 4176
4 4176 4225 4226 4177
4 4177 4226 4227 4178
4 4178 4227 4228 4179
4 4179 4228 4229 4180
4 4180 4229 4230 4181
4 4181 4230 4231 4182
4 4182 4231 4232 4183
4 4183 4232 4233 4184
4 4184 4233 4234 4185
4 4185 4234 4235 4186
4 4186 4235 4236 4187
4 4187 4236 4237 4188
4 4188 4237 4238 4189
4 4189 4238 4239 4190
4 4190 4239 4240 4191
4 4191 4240 4241 4192
4 4192 4241 4242 4193
4 4193 4242 4243 4194
4 4194 4243 4244 4195
4 4195 4244 4245 4196
4 4196 4245 4246 4197
4 4197 4246 4247 4198
4 4198 4247 4248 4199
4 4199 4248 4249 4200
4 4200 4249 4250 4201
4 4201 4250 4251 4202
4 4202 4251 4252 4203
4 4203 4252 4253 4204
4 4204 4253 4254 4205
4 4205 4254 4255 4206
4 4206 4255 4256 4207
4 4207 4256 4257 4208
4 4208 4257 4258 4209
4 4209 4258 4259 4210
4 4210 4259 4260 4211
4 4211 4260 4261 4212
4 4212 4261 4262 4213
4 4213 4262 4263 4214
4 4214 4263 4264 4215
4 4215 4264 4265 4216
4 4216 4265 4266 4217
4 4217 4266 4267 4218
4 4218 4267 4268 4219
4 4219 4268 170 171
4 84 85 4269 4220
4 4220 4269 4270 4221
4 4221 4270 4271 4222
4 4222 4271 4272 4223
4 4223 4272 4273 4224
4 4224 4273 4274 4225
4 4225 4274 4275 4226
4 4226 4275 4276 4227
4 4227 4276 4277 4228
4 4228 4277 4278 4229
4 4229 4278 4279 4230
4 4230 4279 4280 4231
4 4231 4280 4281 4232
4 4232 4281 4282 4233
4 4233 4282 4283 4234
4 4234 4283 4284 4235
4 4235 4284 4285 4236
4 4236 4285 4286 4237
4 4237 4286 4287 4238
4 4238 4287 4288 4239
4 4239 4288 4289 4240
4 4240 4289 4290 4241
4 4241 4290 4291 4242
4 4242 4291 4292 4243
4 4243 4292 4293 4244
4 4244 4293 4294 4245
4 4245 4294 4295 4246
4 4246 4295 4296 4247
4 4247 4296 4297 4248
4 4248 4297 4298 4249
4 4249 4298 4299 4250
4 4250 4299 4300 4251
4 4251 4300 4301 4252
4 4252 4301 4302 4253
4 4253 4302 4303 4254
4 4254 4303 4304 4255
4 4255 4304 4305 4256
4 4256 4305 4306 4257
4 4257 4306 4307 4258
4 4258 4307 4308 4259
4 4259 4308 4309 4260
4 4260 4309 4310 4261
4 4261 4310 4311 4262
4 4262 4311 4312 4263
4 4263 4312 4313 4264
4 4264 4313 4314 4265
4 4265 4314 4315 4266
4 4266 4315 4316 4267
4 4267 4316 4317 4268
4 4268 4317 169 170
4 85 86 4318 4269
4 4269 4318 4319 4270
4 4270 4319 4320 4271
4 4271 4320 4321 4272
4 4272 4321 4322 4273
4 4273 4322 4323 4274
4 4274 4323 4324 4275
4 4275 4324 4325 4276
4 4276 4325 4326 4277
4 4277 4326 4327 4278
4 4278 4327 4328 4279
4 4279 4328 4329 4280
4 4280 4329 4330 4281
4 4281 4330 4331 4282
4 4282 4331 4332 4283
4 4283 4332 4333 4284
4 4284 4333 4334 4285
4 4285 4334 4335 4286
4 4286 4335 4336 4287
4 4287 4336 4337 4288
4 4288 4337 4338 4289
4 4289 4338 4339 4290
4 4290 4339 4340 4291
4 4291 4340 4341 4292
4 4292 4341 4342 4293
4 4293 4342 4343 4294
4 4294 4343 4344 4295
4 4295 4344 4345 4296
4 4296 4345 4346 4297
4 4297 4346 4347 4298
4 4298 4347 4348 4299
4 4299 4348 4349 4300
4 4300 4349 4350 4301
4 4301 4350 4351 4302
4 4302 4351 4352 4303
4 4303 4352 4353 4304
4 4304 4353 4354 4305
4 4305 4354 4355 4306
4 4306 4355 4356 4307
4 4307 4356 4357 4308
4 4308 4357 4358 4309
4 4309 4358 4359 4310
4 4310 4359 4360 4311
4 4311 4360 4361 4312
4 4312 4361 4362 4313
4 4313 4362 4363 4314
4 4314 4363 4364 4315
4 4315 4364 4365 4316
4 4316 4365 4366 4317
4 4317 4366 168 169
4 86 87 4367 4318
4 4318 4367 4368 4319
4 4319 4368 4369 4320
4 4320 4369 4370 4321
4 4321 4370 4371 4322
4 4322 4371 4372 4323
4 4323 4372 4373 4324
4 4324 4373 4374 4325
4 4325 4374 4375 4326
4 4326 4375 4376 4327
4 4327 4376 4377 4328
4 4328 4377 4378 4329
4 4329 4378 4379 4330
4 4330 4379 4380 4331
4 4331 4380 4381 4332
4 4332 4381 4382 4333
4 4333 4382 4383 4334
4 4334 4383 4384 4335
4 4335 4384 4385 4336
4 4336 4385 4386 4337
4 4337 4386 4387 4338
4 4338 4387 4388 4339
4 4339 4388 4389 4340
4 4340 4389 4390 4341
4 4341 4390 4391 4342
4 4342 4391 4392 4343
4 4343 4392 4393 4344
4 4344 4393 4394 4345
4 4345 4394 4395 4346
4 4346 4395 4396 4347
4 4347 4396 4397 4348
4 4348 4397 4398 4349
4 4349 4398 4399 4350
4 4350 4399 4400 4351
4 4351 4400 4401 4352
4 4352 4401 4402 4353
4 4353 4402 4403 4354
4 4354 4403 4404 4355
4 4355 4404 4405 4356
4 4356 4405 4406 4357
4 4357 4406 4407 4358
4 4358 4407 4408 4359
4 4359 4408 4409 4360
4 4360 4409 4410 4361
4 4361 4410 4411 4362
4 4362 4411 4412 4363
4 4363 4412 4413 4364
4 4364 4413 4414 4365
4 4365 4414 4415 4366
4 4366 4415 167 168
4 87 88 4416 4367
4 4367 4416 4417 4368
4 4368 4417 4418 4369
4 4369 4418 4419 4370
4 4370 4419 4420 4371
4 4371 4420 4421 4372
4 4372 4421 4422 4373
4 4373 4422 4423 4374
4 4374 4423 4424 4375
4 4375 4424 4425 4376
4 4376 4425 4426 4377
4 4377 4426 4427 4378
4 4378 4427 4428 4379
4 4379 4428 4429 4380
4 4380 4429 4430 4381
4 4381 4430 4431 4382
4 4382 4431 4432 4383
4 4383 4432 4433 4384
4 4384 4433 4434 4385
4 4385 4434 4435 4386
4 4386 4435 4436 4387
4 4387 4436 4437 4388
4 4388 4437 4438 4389
4 4389 4438 4439 4390
4 4390 4439 4440 4391
4 4391 4440 4441 4392
4 4392 4441 4442 4393
4 4393 4442 4443 4394
4 4394 4443 4444 4395
4 4395 4444 4445 4396
4 4396 4445 4446 4397
4 4397 4446 4447 4398
4 4398 4447 4448 4399
4 4399 4448 4449 4400
4 4400 4449 4450 4401
4 4401 4450 4451 4402
4 4402 4451 4452 4403
4 4403 4452 4453 4404
4 4404 4453 4454 4405
4 4405 4454 4455 4406
4 4406 4455 4456 4407
4 4407 4456 4457 4408
4 4408 4457 4458 4409
4 4409 4458 4459 4410
4 4410 4459 4460 4411
4 4411 4460 4461 4412
4 4412 4461 4462 4413
4 4413 4462 4463 4414
4 4414 4463 4464 4415
4 4415 4464 166 167
4 88 89 4465 4416
4 4416 4465 4466 4417
4 4417 4466 4467 4418
4 4418 4467 4468 4419
4 4419 4468 4469 4420
4 4420 4469 4470 4421
4 4421 4470 4471 4422
4 4422 4471 4472 4423
4 4423 4472 4473 4424
4 4424 4473 4474 4425
4 4425 4474 4475 4426
4 4426 4475 4476 4427
4 4427 4476 4477 4428
4 4428 4477 4478 4429
4 4429 4478 4479 4430
4 4430 4479 4480 4431
4 4431 4480 4481 4432
4 4432 4481 4482 4433
4 4433 4482 4483 4434
4 4434 4483 4484 4435
4 4435 4484 4485 4436
4 4436 4485 4486 4437
4 4437 4486 4487 4438
4 4438 4487 4488 4439
4 4439 4488 4489 4440
4 4440 4489 4490 4441
4 4441 4490 4491 4442
4 4442 4491 4492 4443
4 4443 4492 4493 4444
4 4444 4493 4494 4445
4 4445 4494 4495 4446
4 4446 4495 4496 4447
4 4447 4496 4497 4448
4 4448 4497 4498 4449
4 4449 4498 4499 4450
4 4450 4499 4500 4451
4 4451 4500 4501 4452
4 4452 4501 4502 4453
4 4453 4502 4503 4454
4 4454 4503 4504 4455
4 4455 4504 4505 4456
4 4456 4505 4506 4457
4 4457 4506 4507 4458
4 4458 4507 4508 4459
4 4459 4508 4509 4460
4 4460 4509 4510 4461
4 4461 4510 4511 4462
4 4462 4511 4512 4463
4 4463 4512 4513 4464
4 4464 4513 165 166
4 89 90 4514 4465
4 4465 4514 4515 4466
4 4466 4515 4516 4467
4 4467 4516 4517 4468
4 4468 4517 4518 4469
4 4469 4518 4519 4470
4 4470 4519 4520 4471
4 4471 4520 4521 4472
4 4472 4521 4522 4473
4 4473 4522 4523 4474
4 4474 4523 4524 4475
4 4475 4524 4525 4476
4 4476 4525 4526 4477
4 4477 4526 4527 4478
4 4478 4527 4528 4479
4 4479 4528 4529 4480
4 4480 4529 4530 4481
4 4481 4530 4531 4482
4 4482 4531 4532 4483
4 4483 4532 4533 4484
4 4484 4533 4534 4485
4 4485 4534 4535 4486
4 4486 4535 4536 4487
4 4487 4536 4537 4488
4 4488 4537 4538 4489
4 4489 4538 4539 4490
4 4490 4539 4540 4491
4 4491 4540 4541 4492
4 4492 4541 4542 4493
4 4493 4542 4543 4494
4 4494 4543 4544 4495
4 4495 4544 4545 4496
4 4496 4545 4546 4497
4 4497 4546 4547 4498
4 4498 4547 4548 4499
4 4499 4548 4549 4500
4 4500 4549 4550 4501
4 4501 4550 4551 4502
4 4502 4551 4552 4503
4 4503 4552 4553 4504
4 4504 4553 4554 4505
4 4505 4554 4555 4506
4 4506 4555 4556 4507
4 4507 4556 4557 4508
4 4508 4557 4558 4509
4 4509 4558 4559 4510
4 4510 4559 4560 4511
4 4511 4560 4561 4512
4 4512 4561 4562 4513
4 4513 4562 164 165
4 90 91 4563 4514
4 4514 4563 4564 4515
4 4515 4564 4565 4516
4 4516 4565 4566 4517
4 4517 4566 4567 4518
4 4518 4567 4568 4519
4 4519 4568 4569 4520
4 4520 4569 4570 4521
4 4521 4570 4571 4522
4 4522 4571 4572 4523
4 4523 4572 4573 4524
4 4524 4573 4574 4525
4 4525 4574 4575 4526
4 4526 4575 4576 4527
4 4527 4576 4577 4528
4 4528 4577 4578 4529
4 4529 4578 4579 4530
4 4530 4579 4580 4531
4 4531 4580 4581 4532
4 4532 4581 4582 4533
4 4533 4582 4583 4534
4 4534 4583 4584 4535
4 4535 4584 4585 4536
4 4536 4585 4586 4537
4 4537 4586 4587 4538
4 4538 4587 4588 4539
4 4539 4588 4589 4540
4 4540 4589 4590 4541
4 4541 4590 4591 4542
4 4542 4591 4592 4543
4 4543 4592 4593 4544
4 4544 4593 4594 4545
4 4545 4594 4595 4546
4 4546 4595 4596 4547
4 4547 4596 4597 4548
4 4548 4597 4598 4549
4 4549 4598 4599 4550
4 4550 4599 4600 4551
4 4551 4600 4601 4552
4 4552 4601 4602 4553
4 4553 4602 4603 4554
4 4554 4603 4604 4555
4 4555 4604 4605 4556
4 4556 4605 4606 4557
4 4557 4606 4607 4558
4 4558 4607 4608 4559
4 4559 4608 4609 4560
4 4560 4609 4610 4561
4 4561 4610 4611 4562
4 4562 4611 163 164
4 91 92 4612 4563
4 4563 4612 4613 4564
4 4564 4613 4614 4565
4 4565 4614 4615 4566
4 4566 4615 4616 4567
4 4567 4616 4617 4568
4 4568 4617 4618 4569
4 4569 4618 4619 4570
4 4570 4619 4620 4571
4 4571 4620 4621 4572
4 4572 4621 4622 4573
4 4573 4622 4623 4574
4 4574 4623 4624 4575
4 4575 4624 4625 4576
4 4576 4625 4626 4577
4 4577 4626 4627 4578
4 4578 4627 4628 4579
4 4579 4628 4629 4580
4 4580 4629 4630 4581
4 4581 4630 4631 4582
4 4582 4631 4632 4583
4 4583 4632 4633 4584
4 4584 4633 4634 4585
4 4585 4634 4635 4586
4 4586 4635 4636 4587
4 4587 4636 4637 4588
4 4588 4637 4638 4589
4 4589 4638 4639 4590
4 4590 4639 4640 4591
4 4591 4640 4641 4592
4 4592 4641 4642 4593
4 4593 4642 4643 4594
4 4594 4643 4644 4595
4 4595 4644 4645 4596
4 4596 4645 4646 4597
4 4597 4646 4647 4598
4 4598 4647 4648 4599
4 4599 4648 4649 4600
4 4600 4649 4650 4601
4 4601 4650 4651 4602
4 4602 4651 4652 4603
4 4603 4652 4653 4604
4 4604 4653 4654 4605
4 4605 4654 4655 4606
4 4606 4655 4656 4607
4 4607 4656 4657 4608
4 4608 4657 4658 4609
4 4609 4658 4659 4610
4 4610 4659 4660 4611
4 4611 4660 162 163
4 92 93 4661 4612
4 4612 4661 4662 4613
4 4613 4662 4663 4614
4 4614 4663 4664 4615
4 4615 4664 4665 4616
4 4616 4665 4666 4617
4 4617 4666 4667 4618
4 4618 4667 4668 4619
4 4619 4668 4669 4620
4 4620 4669 4670 4621
4 4621 4670 4671 4622
4 4622 4671 4672 4623
4 4623 4672 4673 4624
4 4624 4673 4674 4625
4 4625 4674 4675 4626
4 4626 4675 4676 4627
4 4627 4676 4677 4628
4 4628 4677 4678 4629
4 4629 4678 4679 4630
4 4630 4679 4680 4631
4 4631 4680 4681 4632
4 4632 4681 4682 4633
4 4633 4682 4683 4634
4 4634 4683 4684 4635
4 4635 4684 4685 4636
4 4636 4685 4686 4637
4 4637 4686 4687 4638
4 4638 4687 4688 4639
4 4639 4688 4689 4640
4 4640 4689 4690 4641
4 4641 4690 4691 4642
4 4642 4691 4692 4643
4 4643 4692 4693 4644
4 4644 4693 4694 4645
4 4645 4694 4695 4646
4 4646 4695 4696 4647
4 4647 4696 4697 4648
4 4648 4697 4698 4649
4 4649 4698 4699 4650
4 4650 4699 4700 4651
4 4651 4700 4701 4652
4 4652 4701 4702 4653
4 4653 4702 4703 4654
4 4654 4703 4704 4655
4 4655 4704 4705 4656
4 4656 4705 4706 4657
4 4657 4706 4707 4658
4 4658 4707 4708 4659
4 4659 4708 4709 4660
4 4660 4709 161 162
4 93 94 4710 4661
4 4661 4710 4711 4662
4 4662 4711 4712 4663
4 4663 4712 4713 4664
4 4664 4713 4714 4665
4 4665 4714 4715 4666
4 4666 4715 4716 4667
4 4667 4716 4717 4668
4 4668 4717 4718 4669
4 4669 4718 4719 4670
4 4670 4719 4720 4671
4 4671 4720 4721 4672
4 4672 4721 4722 4673
4 4673 4722 4723 4674
4 4674 4723 4724 4675
4 4675 4724 4725 4676
4 4676 4725 4726 4677
4 4677 4726 4727 4678
4 4678 4727 4728 4679
4 4679 4728 4729 4680
4 4680 4729 4730 4681
4 4681 4730 4731 4682
4 4682 4731 4732 4683
4 4683 4732 4733 4684
4 4684 4733 4734 4685
4 4685 4734 4735 4686
4 4686 4735 4736 4687
4 4687 4736 4737 4688
4 4688 4737 4738 4689
4 4689 4738 4739 4690
4 4690 4739 4740 4691
4 4691 4740 4741 4692
4 4692 4741 4742 4693
4 4693 4742 4743 4694
4 4694 4743 4744 4695
4 4695 4744 4745 4696
4 4696 4745 4746 4697
4 4697 4746 4747 4698
4 4698 4747 4748 4699
4 4699 4748 4749 4700
4 4700 4749 4750 4701
4 4701 4750 4751 4702
4 4702 4751 4752 4703
4 4703 4752 4753 4704
4 4704 4753 4754 4705
4 4705 4754 4755 4706
4 4706 4755 4756 4707
4 4707 4756 4757 4708
4 4708 4757 4758 4709
4 4709 4758 160 161
4 94 95 4759 4710
4 4710 4759 4760 4711
4 4711 4760 4761 4712
4 4712 4761 4762 4713
4 4713 4762 4763 4714
4 4714 4763 4764 4715
4 4715 4764 4765 4716
4 4716 4765 4766 4717
4 4717 4766 4767 4718
4 4718 4767 4768 4719
4 4719 4768 4769 4720
4 4720 4769 4770 4721
4 4721 4770 4771 4722
4 4722 4771 4772 4723
4 4723 4772 4773 4724
4 4724 4773 4774 4725
4 4725 4774 4775 4726
4 4726 4775 4776 4727
4 4727 4776 4777 4728
4 4728 4777 4778 4729
4 4729 4778 4779 4730
4 4730 4779 4780 4731
4 4731 4780 4781 4732
4 4732 4781 4782 4733
4 4733 4782 4783 4734
4 4734 4783 4784 4735
4 4735 4784 4785 4736
4 4736 4785 4786 4737
4 4737 4786 4787 4738
4 4738 4787 4788 4739
4 4739 4788 4789 4740
4 4740 4789 4790 4741
4 4741 4790 4791 4742
4 4742 4791 4792 4743
4 4743 4792 4793 4744
4 4744 4793 4794 4745
4 4745 4794 4795 4746
4 4746 4795 4796 4747
4 4747 4796 4797 4748
4 4748 4797 4798 4749
4 4749 4798 4799 4750
4 4750 4799 4800 4751
4 4751 4800 4801 4752
4 4752 4801 4802 4753
4 4753 4802 4803 4754
4 4754 4803 4804 4755
4 4755 4804 4805 4756
4 4756 4805 4806 4757
4 4757 4806 4807 4758
4 4758 4807 159 160
4 95 96 4808 4759
4 4759 4808 4809 4760
4 4760 4809 4810 4761
4 4761 4810 4811 4762
4 4762 4811 4812 4763
4 4763 4812 4813 4764
4 4764 4813 4814 4765
4 4765 4814 4815 4766
4 4766 4815 4816 4767
4 4767 4816 4817 4768
4 4768 4817 4818 4769
4 4769 4818 4819 4770
4 4770 4819 4820 4771
4 4771 4820 4821 4772
4 4772 4821 4822 4773
4 4773 4822 4823 4774
4 4774 4823 4824 4775
4 4775 4824 4825 4776
4 4776 4825 4826 4777
4 4777 4826 4827 4778
4 4778 4827 4828 4779
4 4779 4828 4829 4780
4 4780 4829 4830 4781
4 4781 4830 4831 4782
4 4782 4831 4832 4783
4 4783 4832 4833 4784
4 4784 4833 4834 4785
4 4785 4834 4835 4786
4 4786 4835 4836 4787
4 4787 4836 4837 4788
4 4788 4837 4838 4789
4 4789 4838 4839 4790
4 4790 4839 4840 4791
4 4791 4840 4841 4792
4 4792 4841 4842 4793
4 4793 4842 4843 4794
4 4794 4843 4844 4795
4 4795 4844 4845 4796
4 4796 4845 4846 4797
4 4797 4846 4847 4798
4 4798 4847 4848 4799
4 4799 4848 4849 4800
4 4800 4849 4850 4801
4 4801 4850 4851 4802
4 4802 4851 4852 4803
4 4803 4852 4853 4804
4 4804 4853 4854 4805
4 4805 4854 4855 4806
4 4806 4855 4856 4807
4 4807 4856 158 159
4 96 97 4857 4808
4 4808 4857 4858 4809
4 4809 4858 4859 4810
4 4810 4859 4860 4811
4 4811 4860 4861 4812
4 4812 4861 4862 4813
4 4813 4862 4863 4814
4 4814 4863 4864 4815
4 4815 4864 4865 4816
4 4816 4865 4866 4817
4 4817 4866 4867 4818
4 4818 4867 4868 4819
4 4819 4868 4869 4820
4 4820 4869 4870 4821
4 4821 4870 4871 4822
4 4822 4871 4872 4823
4 4823 4872 4873 4824
4 4824 4873 4874 4825
4 4825 4874 4875 4826
4 4826 4875 4876 4827
4 4827 4876 4877 4828
4 4828 4877 4878 4829
4 4829 4878 4879 4830
4 4830 4879 4880 4831
4 4831 4880 4881 4832
4 4832 4881 4882 4833
4 4833 4882 4883 4834
4 4834 4883 4884 4835
4 4835 4884 4885 4836
4 4836 4885 4886 4837
4 4837 4886 4887 4838
4 4838 4887 4888 4839
4 4839 4888 4889 4840
4 4840 4889 4890 4841
4 4841 4890 4891 4842
4 4842 4891 4892 4843
4 4843 4892 4893 4844
4 4844 4893 4894 4845
4 4845 4894 4895 4846
4 4846 4895 4896 4847
4 4847 4896 4897 4848
4 4848 4897 4898 4849
4 4849 4898 4899 4850
4 4850 4899 4900 4851
4 4851 4900 4901 4852
4 4852 4901 4902 4853
4 4853 4902 4903 4854
4 4854 4903 4904 4855
4 4855 4904 4905 4856
4 4856 4905 157 158
4 97 98 4906 4857
4 4857 4906 4907 4858
4 4858 4907 4908 4859
4 4859 4908 4909 4860
4 4860 4909 4910 4861
4 4861 4910 4911 4862
4 4862 4911 4912 4863
4 4863 4912 4913 4864
4 4864 4913 4914 4865
4 4865 4914 4915 4866
4 4866 4915 4916 4867
4 4867 4916 4917 4868
4 4868 4917 4918 4869
4 4869 4918 4919 4870
4 4870 4919 4920 4871
4 4871 4920 4921 4872
4 4872 4921 4922 4873
4 4873 4922 4923 4874
4 4874 4923 4924 4875
4 4875 4924 4925 4876
4 4876 4925 4926 4877
4 4877 4926 4927 4878
4 4878 4927 4928 4879
4 4879 4928 4929 4880
4 4880 4929 4930 4881
4 4881 4930 4931 4882
4 4882 4931 4932 4883
4 4883 4932 4933 4884
4 4884 4933 4934 4885
4 4885 4934 4935 4886
4 4886 4935 4936 4887
4 4887 4936 4937 4888
4 4888 4937 4938 4889
4 4889 4938 4939 4890
4 4890 4939 4940 4891
4 4891 4940 4941 4892
4 4892 4941 4942 4893
4 4893 4942 4943 4894
4 4894 4943 4944 4895
4 4895 4944 4945 4896
4 4896 4945 4946 4897
4 4897 4946 4947 4898
4 4898 4947 4948 4899
4 4899 4948 4949 4900
4 4900 4949 4950 4901
4 4901 4950 4951 4902
4 4902 4951 4952 4903
4 4903 4952 4953 4904
4 4904 4953 4954 4905
4 4905 4954 156 157
4 98 99 4955 4906
4 4906 4955 4956 4907
4 4907 4956 4957 4908
4 4908 4957 4958 4909
4 4909 4958 4959 4910
4 4910 4959 4960 4911
4 4911 4960 4961 4912
4 4912 4961 4962 4913
4 4913 4962 4963 4914
4 4914 4963 4964 4915
4 4915 4964 4965 4916
4 4916 4965 4966 4917
4 4917 4966 4967 4918
4 4918 4967 4968 4919
4 4919 4968 4969 4920
4 4920 4969 4970 4921
4 4921 4970 4971 4922
4 4922 4971 4972 4923
4 4923 4972 4973 4924
4 4924 4973 4974 4925
4 4925 4974 4975 4926
4 4926 4975 4976 4927
4 4927 4976 4977 4928
4 4928 4977 4978 4929
4 4929 4978 4979 4930
4 4930 4979 4980 4931
4 4931 4980 4981 4932
4 4932 4981 4982 4933
4 4933 4982 4983 4934
4 4934 4983 4984 4935
4 4935 4984 4985 4936
4 4936 4985 4986 4937
4 4937 4986 4987 4938
4 4938 4987 4988 4939
4 4939 4988 4989 4940
4 4940 4989 4990 4941
4 4941 4990 4991 4942
4 4942 4991 4992 4943
4 4943 4992 4993 4944
4 4944 4993 4994 4945
4 4945 4994 4995 4946
4 4946 4995 4996 4947
4 4947 4996 4997 4948
4 4948 4997 4998 4949
4 4949 4998 4999 4950
4 4950 4999 5000 4951
4 4951 5000 5001 4952
4 4952 5001 5002 4953
4 4953 5002 5003 4954
4 4954 5003 155 156
4 99 100 5004 4955
4 4955 5004 5005 4956
4 4956 5005 5006 4957
4 4957 5006 5007 4958
4 4958 5007 5008 4959
4 4959 5008 5009 4960
4 4960 5009 5010 4961
4 4961 5010 5011 4962
4 4962 5011 5012 4963
4 4963 5012 5013 4964
4 4964 5013 5014 4965
4 4965 5014 5015 4966
4 4966 5015 5016 4967
4 4967 5016 5017 4968
4 4968 5017 5018 4969
4 4969 5018 5019 4970
4 4970 5019 5020 4971
4 4971 5020 5021 4972
4 4972 5021 5022 4973
4 4973 5022 5023 4974
4 4974 5023 5024 4975
4 4975 5024 5025 4976
4 4976 5025 5026 4977
4 4977 5026 5027 4978
4 4978 5027 5028 4979
4 4979 5028 5029 4980
4 4980 5029 5030 4981
4 4981 5030 5031 4982
4 4982 5031 5032 4983
4 4983 5032 5033 4984
4 4984 5033 5034 4985
4 4985 5034 5035 4986
4 4986 5035 5036 4987
4 4987 5036 5037 4988
4 4988 5037 5038 4989
4 4989 5038 5039 4990
4 4990 5039 5040 4991
4 4991 5040 5041 4992
4 4992 5041 5042 4993
4 4993 5042 5043 4994
4 4994 5043 5044 4995
4 4995 5044 5045 4996
4 4996 5045 5046 4997
4 4997 5046 5047 4998
4 4998 5047 5048 4999
4 4999 5048 5049 5000
4 5000 5049 5050 5001
4 5001 5050 5051 5002
4 5002 5051 5052 5003
4 5003 5052 154 155
4 100 101 5053 5004
4 5004 5053 5054 5005
4 5005 5054 5055 5006
4 5006 5055 5056 5007
4 5007 5056 5057 5008
4 5008 5057 5058 5009
4 5009 5058 5059 5010
4 5010 5059 5060 5011
4 5011 5060 5061 5012
4 5012 5061 5062 5013
4 5013 5062 5063 5014
4 5014 5063 5064 5015
4 5015 5064 5065 5016
4 5016 5065 5066 5017
4 5017 5066 5067 5018
4 5018 5067 5068 5019
4 5019 5068 5069 5020
4 5020 5069 5070 5021
4 5021 5070 5071 5022
4 5022 5071 5072 5023
4 5023 5072 5073 5024
4 5024 5073 5074 5025
4 5025 5074 5075 5026
4 5026 5075 5076 5027
4 5027 5076 5077 5028
4 5028 5077 5078 5029
4 5029 5078 5079 5030
4 5030 5079 5080 5031
4 5031 5080 5081 5032
4 5032 5081 5082 5033
4 5033 5082 5083 5034
4 5034 5083 5084 5035
4 5035 5084 5085 5036
4 5036 5085 5086 5037
4 5037 5086 5087 5038
4 5038 5087 5088 5039
4 5039 5088 5089 5040
4 5040 5089 5090 5041
4 5041 5090 5091 5042
4 5042 5091 5092 5043
4 5043 5092 5093 5044
4 5044 5093 5094 5045
4 5045 5094 5095 5046
4 5046 5095 5096 5047
4 5047 5096 5097 5048
4 5048 5097 5098 5049
4 5049 5098 5099 5050
4 5050 5099 5100 5051
4 5051 5100 5101 5052
4 5052 5101 153 154
4 101 102 5102 5053
4 5053 5102 5103 5054
4 5054 5103 5104 5055
4 5055 5104 5105 5056
4 5056 5105 5106 5057
4 5057 5106 5107 5058
4 5058 5107 5108 5059
4 5059 5108 5109 5060
4 5060 5109 5110 5061
4 5061 5110 5111 5062
4 5062 5111 5112 5063
4 5063 5112 5113 5064
4 5064 5113 5114 5065
4 5065 5114 5115 5066
4 5066 5115 5116 5067
4 5067 5116 5117 5068
4 5068 5117 5118 5069
4 5069 5118 5119 5070
4 5070 5119 5120 5071
4 5071 5120 5121 5072
4 5072 5121 5122 5073
4 5073 5122 5123 5074
4 5074 5123 5124 5075
4 5075 5124 5125 5076
4 5076 5125 5126 5077
4 5077 5126 5127 5078
4 5078 5127 5128 5079
4 5079 5128 5129 5080
4 5080 5129 5130 5081
4 5081 5130 5131 5082
4 5082 5131 5132 5083
4 5083 5132 5133 5084
4 5084 5133 5134 5085
4 5085 5134 5135 5086
4 5086 5135 5136 5087
4 5087 5136 5137 5088
4 5088 5137 5138 5089
4 5089 5138 5139 5090
4 5090 5139 5140 5091
4 5091 5140 5141 5092
4 5092 5141 5142 5093
4 5093 5142 5143 5094
4 5094 5143 5144 5095
4 5095 5144 5145 5096
4 5096 5145 5146 5097
4 5097 5146 5147 5098
4 5098 5147 5148 5099
4 5099 5148 5149 5100
4 5100 5149 5150 5101
4 5101 5150 152 153
4 102 1 103 5102
4 5102 103 104 5103
4 5103 104 105 5104
4 5104 105 106 5105
4 5105 106 107 5106
4 5106 107 108 5107
4 5107 108 109 5108
4 5108 109 110 5109
4 5109 110 111 5110
4 5110 111 112 5111
4 5111 112 113 5112
4 5112 113 114 5113
4 5113 114 115 5114
4 5114 115 116 5115
4 5115 116 117 5116
4 5116 117 118 5117
4 5117 118 119 5118
4 5118 119 120 5119
4 5119 120 121 5120
4 5120 121 122 5121
4 5121 122 123 5122
4 5122 123 124 5123
4 5123 124 125 5124
4 5124 125 126 5125
4 5125 126 127 5126
4 5126 127 128 5127
4 5127 128 129 5128
4 5128 129 130 5129
4 5129 130 131 5130
4 5130 131 132 5131
4 5131 132 133 5132
4 5132 133 134 5133
4 5133 134 135 5134
4 5134 135 136 5135
4 5135 136 137 5136
4 5136 137 138 5137
4 5137 138 139 5138
4 5138 139 140 5139
4 5139 140 141 5140
4 5140 141 142 5141
4 5141 142 143 5142
4 5142 143 144 5143
4 5143 144 145 5144
4 5144 145 146 5145
4 5145 146 147 5146
4 5146 147 148 5147
4 5147 148 149 5148
4 5148 149 150 5149
4 5149 150 151 5150
4 5150 151 2 152

CELL_TYPES 5000
9
9
9
9
9
9
9
9
9
9
9
9
9
9
9
9
9
9
9
9
9
9
9
9
9
9
9
9
9
9
9
9
9
9
9
9
9
9
9
9
9
9
9
9
9
9
9
9
9
9
9
9
9
9
9
9
9
9
9
9
9
9
9
9
9
9
9
9
9
9
9
9
9
9
9
9
9
9
9
9
9
9
9
9
9
9
9
9
9
9
9
9
9
9
9
9
9
9
9
9
9
9
9
9
9
9
9
9
9
9
9
9
9
9
9
9
9
9
9
9
9
9
9
9
9
9
9
9
9
9
9
9
9
9
9
9
9
9
9
9
9
9
9
9
9
9
9
9
9
9
9
9
9
9
9
9
9
9
9
9
9
9
9
9
9
9
9
9
9
9
9
9
9
9
9
9
9
9
9
9
9
9
9
9
9
9
9
9
9
9
9
9
9
9
9
9
9
9
9
9
9
9
9
9
9
9
9
9
9
9
9
9
9
9
9
9
9
9
9
9
9
9
9
9
9
9
9
9
9
9
9
9
9
9
9
9
9
9
9
9
9
9
9
9
9
9
9
9
9
9
9
9
9
9
9
9
9
9
9
9
9
9
9
9
9
9
9
9
9
9
9
9
9
9
9
9
9
9
9
9
9
9
9
9
9
9
9
9
9
9
9
9
9
9
9
9
9
9
9
9
9
9
9
9
9
9
9
9
9
9
9
9
9
9
9
9
9
9
9
9
9
9
9
9
9
9
9
9
9
9
9
9
9
9
9
9
9
9
9
9
9
9
9
9
9
9
9
9
9
9
9
9
9
9
9
9
9
9
9
9
9
9
9
9
9
9
9
9
9
9
9
9
9
9
9
9
9
9
9
9
9
9
9
9
9
9
9
9
9
9
9
9
9
9
9
9
9
9
9
9
9
9
9
9
9
9
9
9
9
9
9
9
9
9
9
9
9
9
9
9
9
9
9
9
9
9
9
9
9
9
9
9
9
9
9
9
9
9
9
9
9
9
9
9
9
9
9
9
9
9
9
9
9
9
9
9
9
9
9
9
9
9
9
9
9
9
9
9
9
9
9
9
9
9
9
9
9
9
9
9
9
9
9
9
9
9
9
9
9
9
9
9
9
9
9
9
9
9
9
9
9
9
9
9
9
9
9
9
9
9
9
9
9
9
9
9
9
9
9
9
9
9
9
9
9
9
9
9
9
9
9
9
9
9
9
9
9
9
9
9
9
9
9
9
9
9
9
9
9
9
9
9
9
9
9
9
9
9
9
9
9
9
9
9
9
9
9
9
9
9
9
9
9
9
9
9
9
9
9
9
9
9
9
9
9
9
9
9
9
9
9
9
9
9
9
9
9
9
9
9
9
9
9
9
9
9
9
9
9
9
9
9
9
9
9
9
9
9
9
9
9
9
9
9
9
9
9
9
9
9
9
9
9
9
9
9
9
9
9
9
9
9
9
9
9
9
9
9
9
9
9
9
9
9
9
9
9
9
9
9
9
9
9
9
9
9
9
9
9
9
9
9
9
9
9
9
9
9
9
9
9
9
9
9
9
9
9
9
9
9
9
9
9
9
9
9
9
9
9
9
9
9
9
9
9
9
9
9
9
9
9
9
9
9
9
9
9
9
9
9
9
9
9
9
9
9
9
9
9
9
9
9
9
9
9
9
9
9
9
9
9
9
9
9
9
9
9
9
9
9
9
9
9
9
9
9
9
9
9
9
9
9
9
9
9
9
9
9
9
9
9
9
9
9
9
9
9
9
9
9
9
9
9
9
9
9
9
9
9
9
9
9
9
9
9
9
9
9
9
9
9
9
9
9
9
9
9
9
9
9
9
9
9
9
9
9
9
9
9
9
9
9
9
9
9
9
9
9
9
9
9
9
9
9
9
9
9
9
9
9
9
9
9
9
9
9
9
9
9
9
9
9
9
9
9
9
9
9
9
9
9
9
9
9
9
9
9
9
9
9
9
9
9
9
9
9
9
9
9
9
9
9
9
9
9
9
9
9
9
9
9
9
9
9
9
9
9
9
9
9
9
9
9
9
9
9
9
9
9
9
9
9
9
9
9
9
9
9
9
9
9
9
9
9
9
9
9
9
9
9
9
9
9
9
9
9
9
9
9
9
9
9
9
9
9
9
9
9
9
9
9
9
9
9
9
9
9
9
9
9
9
9
9
9
9
9
9
9
9
9
9
9
9
9
9
9
9
9
9
9
9
9
9
9
9
9
9
9
9
9
9
9
9
9
9
9
9
9
9
9
9
9
9
9
9
9
9
9
9
9
9
9
9
9
9
9
9
9
9
9
9
9
9
9
9
9
9
9
9
9
9
9
9
9
9
9
9
9
9
9
9
9
9
9
9
9
9
9
9
9
9
9
9
9
9
9
9
9
9
9
9
9
9
9
9
9
9
9
9
9
9
9
9
9
9
9
9
9
9
9
9
9
9
9
9
9
9
9
9
9
9
9
9
9
9
9
9
9
9
9
9
9
9
9
9
9
9
9
9
9
9
9
9
9
9
9
9
9
9
9
9
9
9
9
9
9
9
9
9
9
9
9
9
9
9
9
9
9
9
9
9
9
9
9
9
9
9
9
9
9
9
9
9
9
9
9
9
9
9
9
9
9
9
9
9
9
9
9
9
9
9
9
9
9
9
9
9
9
9
9
9
9
9
9
9
9
9
9
9
9
9
9
9
9
9
9
9
9
9
9
9
9
9
9
9
9
9
9
9
9
9
9
9
9
9
9
9
9
9
9
9
9
9
9
9
9
9
9
9
9
9
9
9
9
9
9
9
9
9
9
9
9
9
9
9
9
9
9
9
9
9
9
9
9
9
9
9
9
9
9
9
9
9
9
9
9
9
9
9
9
9
9
9
9
9
9
9
9
9
9
9
9
9
9
9
9
9
9
9
9
9
9
9
9
9
9
9
9
9
9
9
9
9
9
9
9
9
9
9
9
9
9
9
9
9
9
9
9
9
9
9
9
9
9
9
9
9
9
9
9
9
9
9
9
9
9
9
9
9
9
9
9
9
9
9
9
9
9
9
9
9
9
9
9
9
9
9
9
9
9
9
9
9
9
9
9
9
9
9
9
9
9
9
9
9
9
9
9
9
9
9
9
9
9
9
9
9
9
9
9
9
9
9
9
9
9
9
9
9
9
9
9
9
9
9
9
9
9
9
9
9
9
9
9
9
9
9
9
9
9
9
9
9
9
9
9
9
9
9
9
9
9
9
9
9
9
9
9
9
9
9
9
9
9
9
9
9
9
9
9
9
9
9
9
9
9
9
9
9
9
9
9
9
9
9
9
9
9
9
9
9
9
9
9
9
9
9
9
9
9
9
9
9
9
9
9
9
9
9
9
9
9
9
9
9
9
9
9
9
9
9
9
9
9
9
9
9
9
9
9
9
9
9
9
9
9
9
9
9
9
9
9
9
9
9
9
9
9
9
9
9
9
9
9
9
9
9
9
9
9
9
9
9
9
9
9
9
9
9
9
9
9
9
9
9
9
9
9
9
9
9
9
9
9
9
9
9
9
9
9
9
9
9
9
9
9
9
9
9
9
9
9
9
9
9
9
9
9
9
9
9
9
9
9
9
9
9
9
9
9
9
9
9
9
9
9
9
9
9
9
9
9
9
9
9
9
9
9
9
9
9
9
9
9
9
9
9
9
9
9
9
9
9
9
9
9
9
9
9
9
9
9
9
9
9
9
9
9
9
9
9
9
9
9
9
9
9
9
9
9
9
9
9
9
9
9
9
9
9
9
9
9
9
9
9
9
9
9
9
9
9
9
9
9
9
9
9
9
9
9
9
9
9
9
9
9
9
9
9
9
9
9
9
9
9
9
9
9
9
9
9
9
9
9
9
9
9
9
9
9
9
9
9
9
9
9
9
9
9
9
9
9
9
9
9
9
9
9
9
9
9
9
9
9
9
9
9
9
9
9
9
9
9
9
9
9
9
9
9
9
9
9
9
9
9
9
9
9
9
9
9
9
9
9
9
9
9
9
9
9
9
9
9
9
9
9
9
9
9
9
9
9
9
9
9
9
9
9
9
9
9
9
9
9
9
9
9
9
9
9
9
9
9
9
9
9
9
9
9
9
9
9
9
9
9
9
9
9
9
9
9
9
9
9
9
9
9
9
9
9
9
9
9
9
9
9
9
9
9
9
9
9
9
9
9
9
9
9
9
9
9
9
9
9
9
9
9
9
9
9
9
9
9
9
9
9
9
9
9
9
9
9
9
9
9
9
9
9
9
9
9
9
9
9
9
9
9
9
9
9
9
9
9
9
9
9
9
9
9
9
9
9
9
9
9
9
9
9
9
9
9
9
9
9
9
9
9
9
9
9
9
9
9
9
9
9
9
9
9
9
9
9
9
9
9
9
9
9
9
9
9
9
9
9
9
9
9
9
9
9
9
9
9
9
9
9
9
9
9
9
9
9
9
9
9
9
9
9
9
9
9
9
9
9
9
9
9
9
9
9
9
9
9
9
9
9
9
9
9
9
9
9
9
9
9
9
9
9
9
9
9
9
9
9
9
9
9
9
9
9
9
9
9
9
9
9
9
9
9
9
9
9
9
9
9
9
9
9
9
9
9
9
9
9
9
9
9
9
9
9
9
9
9
9
9
9
9
9
9
9
9
9
9
9
9
9
9
9
9
9
9
9
9
9
9
9
9
9
9
9
9
9
9
9
9
9
9
9
9
9
9
9
9
9
9
9
9
9
9
9
9
9
9
9
9
9
9
9
9
9
9
9
9
9
9
9
9
9
9
9
9
9
9
9
9
9
9
9
9
9
9
9
9
9
9
9
9
9
9
9
9
9
9
9
9
9
9
9
9
9
9
9
9
9
9
9
9
9
9
9
9
9
9
9
9
9
9
9
9
9
9
9
9
9
9
9
9
9
9
9
9
9
9
9
9
9
9
9
9
9
9
9
9
9
9
9
9
9
9
9
9
9
9
9
9
9
9
9
9
9
9
9
9
9
9
9
9
9
9
9
9
9
9
9
9
9
9
9
9
9
9
9
9
9
9
9
9
9
9
9
9
9
9
9
9
9
9
9
9
9
9
9
9
9
9
9
9
9
9
9
9
9
9
9
9
9
9
9
9
9
9
9
9
9
9
9
9
9
9
9
9
9
9
9
9
9
9
9
9
9
9
9
9
9
9
9
9
9
9
9
9
9
9
9
9
9
9
9
9
9
9
9
9
9
9
9
9
9
9
9
9
9
9
9
9
9
9
9
9
9
9
9
9
9
9
9
9
9
9
9
9
9
9
9
9
9
9
9
9
9
9
9
9
9
9
9
9
9
9
9
9
9
9
9
9
9
9
9
9
9
9
9
9
9
9
9
9
9
9
9
9
9
9
9
9
9
9
9
9
9
9
9
9
9
9
9
9
9
9
9
9
9
9
9
9
9
9
9
9
9
9
9
9
9
9
9
9
9
9
9
9
9
9
9
9
9
9
9
9
9
9
9
9
9
9
9
9
9
9
9
9
9
9
9
9
9
9
9
9
9
9
9
9
9
9
9
9
9
9
9
9
9
9
9
9
9
9
9
9
9
9
9
9
9
9
9
9
9
9
9
9
9
9
9
9
9
9
9
9
9
9
9
9
9
9
9
9
9
9
9
9
9
9
9
9
9
9
9
9
9
9
9
9
9
9
9
9
9
9
9
9
9
9
9
9
9
9
9
9
9
9
9
9
9
9
9
9
9
9
9
9
9
9
9
9
9
9
9
9
9
9
9
9
9
9
9
9
9
9
9
9
9
9
9
9
9
9
9
9
9
9
9
9
9
9
9
9
9
9
9
9
9
9
9
9
9
9
9
9
9
9
9
9
9
9
9
9
9
9
9
9
9
9
9
9
9
9
9
9
9
9
9
9
9
9
9
9
9
9
9
9
9
9
9
9
9
9
9
9
9
9
9
9
9
9
9
9
9
9
9
9
9
9
9
9
9
9
9
9
9
9
9
9
9
9
9
9
9
9
9
9
9
9
9
9
9
9
9
9
9
9
9
9
9
9
9
9
9
9
9
9
9
9
9
9
9
9
9
9
9
9
9
9
9
9
9
9
9
9
9
9
9
9
9
9
9
9
9
9
9
9
9
9
9
9
9
9
9
9
9
9
9
9
9
9
9
9
9
9
9
9
9
9
9
9
9
9
9
9
9
9
9
9
9
9
9
9
9
9
9
9
9
9
9
9
9
9
9
9
9
9
9
9
9
9
9
9
9
9
9
9
9
9
9
9
9
9
9
9
9
9
9
9
9
9
9
9
9
9
9
9
9
9
9
9
9
9
9
9
9
9
9
9
9
9
9
9
9
9
9
9
9
9
9
9
9
9
9
9
9
9
9
9
9
9
9
9
9
9
9
9
9
9
9
9
9
9
9
9
9
9
9
9
9
9
9
9
9
9
9
9
9
9
9
9
9
9
9
9
9
9
9
9
9
9
9
9
9
9
9
9
9
9
9
9
9
9
9
9
9
9
9
9
9
9
9
9
9
9
9
9
9
9
9
9
9
9
9
9
9
9
9
9
9
9
9
9
9
9
9
9
9
9
9
9
9
9
9
9
9
9
9
9
9
9
9
9
9
9
9
9
9
9
9
9
9
9
9
9
9
9
9
9
9
9
9
9
9
9
9
9
9
9
9
9
9
9
9
9
9
9
9
9
9
9
9
9
9
9
9
9
9
9
9
9
9
9
9
9
9
9
9
9
9
9
9
9
9
9
9
9
9
9
9
9
9
9
9
9
9
9
9
9
9
9
9
9
9
9
9
9
9
9
9
9
9
9
9
9
9
9
9
9
9
9
9
9
9
9
9
9
9
9
9
9
9
9
9
9
9
9
9
9
9
9
9
9
9
9
9
9
9
9
9
9
9
9
9
9
9
9
9
9
9
9
9
9
9
9
9
9
9
9
9
9
9
9
9
9
9
9
9
9
9
9
9
9
9
9
9
9
9
9
9
9
9
9
9
9
9
9
9
9
9
9
9
9
9
9
9
9
9
9
9
9
9
9
9
9
9
9
9
9
9
9
9
9
9
9
9
9
9
9
9
9
9
9
9
9
9
9
9
9
9
9
9
9
9
9
9
9
9
9
9
9
9
9
9
9
9
9
9
9
9
9
9
9
9
9
9
9
9
9
9
9
9
9
9
9
9
9
9
9
9
9
9
9
9
9
9
9
9
9
9
9
9
9
9
9
9
9
9
9
9
9
9
9
9
9
9
9
9
9
9
9
9
9
9
9
9
9
9
9
9
9
9
9
9
9
9
9
9
9
9
9
9
9
9
9
9
9
9
9
9
9
9
9
9
9
9
9
9
9
9
9
9
9
9
9
9
9
9
9
9
9
9
9
9
9
9
9
9
9
9
9
9
9
9
9
9
9
9
9
9
9
9
9
9
9
9
9
9
9
9
9
9
9
9
9
9
9
9
9
9
9
9
9
9
9
9
9
9
9
9
9
9
9
9
9
9
9
9
9
9
9
9
9
9
9
9
9
9
9
9
9
9
9
9
9
9
9
9
9
9
9
9
9
9
9
9
9
9
9
9
9
9
9
9
9
9
9
9
9
9
9
9
9
9
9
9
9
9
9
9
9
9
9
9
9
9
9
9
9
9
9
9
9
9
9
9
9
9
9
9
9
9
9
9
9
9
9
9
9
9
9
9
9
9
9
9
9
9
9
9
9
9
9
9
9
9
9
9
9
9
9
9
9
9
9
9
9
9
9
9
9
9
9
9
9
9
9
9
9
9
9
9
9
9
9
9
9
9
9
9
9
9
9
9
9
9
9
9
9
9
9
9
9
9
9
9
9
9
9
9
9
9
9
9
9
9
9
9
9
9
9
9
9
9
9
9
9
9
9
9
9
9
9
9
9
9
9
9
9
9
9
9
9
9
9
9
9
9
9
9
9
9
9
9
9
9
9
9
9
9
9
9
9
9
9
9
9
9
9
9
9
9
9
9
9
9
9
9
9
9
9
9
9
9
9
9
9
9
9
9
9
9
9
9
9
9
9
9
9
9
9
9
9
9
9
9
9
9
9
9
9
9
9
9
9
9
9
9
9
9
9
9
9
9
9
9
9
9
9
9
9
9
9
9
9
9
9
9
9
9
9
9
9
9
9
9
9
9
9
9
9
9
9
9
9
9
9
9
9
9
9
9
9
9
9
9
9
9
9
9
9
9
9
9
9
9
9
9
9
9
9
9
9
9
9
9
9
9
9
9
9
9
9
9
9
9
9
9
9
9
9
9
9
9
9
9
9
9
9
9
9
9
9
9
9
9
9
9
9
9
9
9
9
9
9
9
9
9
9
9
9
9
9
9
9
9
9
9
9
9
9
9
9
9
9
9
9
9
9
9
9
9
9
9
9
9
9
9
9
9
9
9
9
9
9
9
9
9
9
9
9
9
9
9
9
9
9
9
9
9
9
9
9
9
9
9
9
9
9
9
9
9
9
9
9
9
9
9
9
9
9
9
9
9
9
9
9
9
9
9
9
9
9
9
9
9
9
9
9
9
9
9
9
9
9
9
9
9
9
9
9
9
9
9
9
9
9
9
9
9
9
9
9
9
9
9
9
9
9
9
9
9
9
9
9
9
9
9
9
9
9
9
9
9
9
9
9
9
9
9
9
9
9
9
9
9
9
9
9
9
9
9
9
9
9
9
9
9
9
9
9
9
9
9
9
9
9
9
9
9
9
9
9
9
9
9
9
9
9
9
9
9
9
9
9
9
9
9
9
9
9
9
9
9
9
9
9
9
9
9
9
9
9
9
9
9
9
9
9
9
9
9
9
9
9
9
9
9
9
9
9
9
9
9
9
9
9
9
9
9
9
9
9
9
9
9
9
9
9
9
9
9
9
9
9
9
9
9
9
9
9
9
9
9
9
9
9
9
9
9
9
9
9
9
9
9
9
9
9
9
9
9
9
9
9
9
9
9
9
9
9
9
9
9
9
9
9
9
9
9
9
9
9
9
9
9
9
9
9
9
9
9
9
9
9
9
9
9
9
9
9
9
9
9
9
9
9
9
9
9
9
9
9
9
9
9
9
9
9
9
9
9
9
9
9
9
9
9
9
9
9
9
9
9
9
9
9
9
9
9
9
9
9
9
9
9
9
9
9
9
9
9
9
9
9
9
9
9
9
9
9
9
9
9
9
9
9
9
9
9
9
9
9
9
9
9
9
9
9
9
9
9
9
9
9
9
9
9
9
9
9
9
9
9
9
9
9
9
9
9
9
9
9
9
9
9
9
9
9
9
9
9
9
9
9
9
9
9
9
9
9
9
9
9
9
9
9
9
9
9
9
9
9
9
9
9
9
9
9
9
9
9
9
9
9
9
9
9
9
9
9
9
9
9
9
9
9
9
9
9
9
9
9
9
9
9
9
9
9
9
9
9
9
9
9
9
9
9
9
9
9
9
9
9
9
9
9
9
9
9
9
9
9
9
9
9
9
9
9
9
9
9
9
9
9
9
9
9
9
9
9
9
9
9
9
9
9
9
9
9
9
9
9
9
9
9
9
9
9
9
9
9
9
9
9
9
9
9
9
9
9
9
9
9
9
9
9
9
9
9
9
9
9
9
9
9
9
9
9
9
9
9
9
9
9
9
9
9
9
9
9
9
9
9
9
9
9
9
9
9
9
9
9
9
9
9
9
9
9
9
9
9
9
9
9
9
9
9
9
9
9
9
9
9
9
9
9
9
9
9
9
9
9
9
9
9
9
9
9
9
9
9
9
9
9
9
9
9
9
9
9
9
9
9
9
9
9
9
9
9
9
9
9
9
9
9
9
9
9
9
9
9
9
9
9
9
9
9
9
9
9
9
9
9
9
9
9
9
9
9
9
9
9
9
9
9
9
9
9
9
9
9
9
9
9
9
9
9
9
9
9
9
9
9
9
9
9
9
9
9
9
9
9
9
9
9
9
9
9
9
9
9
9
9
9
9
9
9
9
9
9
9
9
9
9
9
9
9
9
9
9
9
9
9
9
9
9
9
9
9
9
9
9
9
9
9
9
9
9
9
9
9
9
9
9
9
9
9
9
9
9
9
9
9
9
9
9
9
9
9
9
9
9
9
9
9
9
9
9
9
9
9
9
9
9
9
9
9
9
9
9
9
9
9
9
9
9
9
9
9
9
9
9
9
9
9
9
9
9
9
9
9
9
9
9
9
9
9
9
9
9
9
9
9
9
9
9
9
9
9
9
9
9
9
9
9
9
9
9
9
9
9
9
9
9
9
9
9
9
9
9
9
9
9
9
9
9
9
9
9
9
9
9
9
9
9
9
9
9
9
9
9
9
9
9
9
9
9
9
9
9
9
9
9
9
9
9
9
9
9
9
9
9
9
9
9
9
9
9
9
9
9
9
9
9
9
9
9
9
9
9
9
9
9
9
9
9
9
9
9
9
9
9
9
9
9
9
9
9
9
9
9
9
9
9
9
9
9
9
9
9
9
9
9
9
9
9
9
9
9
9
9
9
9
9
9
9
9
9
9
9
9
9
9
9
9
9
9
9
9
9
9
9
9
9
9
9
9
9
9
9
9
9
9
9
9
9
9
9
9
9
9
9
9
9
9
9
9
9
9
9
9
9
9
9
9
9
9
9
9
9
9
9
9
9
9
9
9
9
9
9
9
9
9
9
9
9
9
9
9
9
9
9
9
9
9
9
9
9
9
9
9
9
9
9
9
9
9
9
9
9
9
9
9
9
9
9
9
9
9
9
9
9
9
9
9
9
9
9
9
9
9
9
9
9
9
9
9
9
9
9
9
9
9
9
9
9
9
9
9
9
9
9
9
9
9
9
9
9
9
9
9
9
9
9
9
9
9
9
9
9
9
9
9
9
9
9
9
9
9
9
9
9
9
9
9
9
9
9
9
9
9
9
9
9
9
9
9
9
9
9
9
9
9
9
9
9
9
9
9
9
9
9
9
9
9
9
9
9
9
9
9
9
9
9
9
9
9
9
9
9
9
9
9
9
9
9
9
9
9
9
9
9
9
9
9
9
9
9
9
9
9
9
9
9
9
9
9
9
9
9
9
9
9
9
9
9
9
9
9
9
9
9
9
9
9
9
9
9
9
9
9
9
9
9
9
9
9
9
9
9
9
9
9
9
9
9
9
9
9
9
9
9
9
9
9
9
9
9
9
9
9
9
9
9
9
9
9
9
9
9
9
9
9
9
9
9
9
9
9
9
9
9
9
9
9
9
9
9
9
9
9
9
9
9
9
9
9
9
9
9
9
9
9
9
9

POINT_DATA 5151
SCALARS STRESS_EQV float 1
LOOKUP_TABLE default
794.3383533680599
20326.852289064773
149.79524771991902
1232.1978317771457
794.1627217359121
793.635846389255
792.7577861198074
791.5286393884103
789.9485450368034
788.0176832833606
785.7362770021491
783.1045932842417
780.122945279966
776.7916943199352
773.1112523121787
769.08208441223
764.7047119612168
759.9797156866819
754.9077391589738
749.4894924947512
743.7257562967893
737.6173858165955
731.1653153256545
724.3705626762662
717.234234030218
709.7575287305501
701.9417442869278
693.7882814405507
685.2986492694737
676.4744702902826
667.3174855049944
657.8295593361356
648.0126843853104
637.8689859428011
627.4007261672284
616.6103078448018
605.5002776286628
594.0733286472813
582.3323023601488
570.2801895272452
557.9201301457781
545.2554121949325
532.2894690154656
519.0258751366739
505.46834034928577
491.6207018089525
477.48691394098677
463.0710359050288
448.3772163698525
433.4096753427885
418.1726828020009
402.67053389518003
386.9075205032225
370.88789903585405
354.6158544456414
338.0954606521641
321.3306379140373
304.32510826935265
287.08235115457546
269.6055630128559
251.8976276886351
233.96110978841693
215.79829320877354
197.41130645373255
178.8024158769436
159.97465327033
140.93314217420533
121.68799027219535
102.26104958056013
82.70360612923628
63.15150026238082
44.05061315645181
27.483267322551068
21.491810837105398
31.17397828075768
49.95509320282398
71.2927023719829
93.77543575051125
117.12080115656747
141.2930289514072
166.34429542877956
192.37638820977858
219.53194793520746
247.99622714210767
278.00459042286093
309.85492939672463
343.92579964254384
380.7022851183016
420.8130380695882
465.0841423900456
514.6191320993032
570.9210287147109
636.0842215761681
713.1078842019904
806.4279734347148
922.884433377454
1073.5098678613028
1277.6203766843976
1570.1075862062453
2033.3810400137372
2827.632907828631
4771.646029117908
13268.793939228979
14779.502402208673
7484.937584121117
4984.34395529625
3773.718798379211
3021.8162259085834
2519.108638132664
2156.662868818854
1882.7941783967
1667.8750732106664
1494.1660058087787
1350.3236584126896
1228.7856388411983
1124.3227410232964
1033.2123154140218
952.7388049574668
880.8805454435343
816.1064427323779
757.2401183198294
703.3668066093803
653.7681224865473
607.8754524541448
565.236067284997
525.4880965849278
488.3417859324137
453.5652785385179
420.9737012818823
390.42069390289623
361.7917636159841
334.9990148914494
309.976920621762
286.6788822701303
265.07438307109464
245.14657616842294
226.89017209592876
210.30949820789002
195.41659536683318
182.2291913382027
170.76834169915452
161.0554536223545
153.10830323676606
146.93552133678287
142.52884435110082
139.85216860416722
138.8260163677807
139.30530208914973
141.04730668742982
143.6663764021362
146.57655608675918
148.9059858464239
150.2946126335786
151.6515290737728
153.34735889926486
154.82286061017675
155.76942182635895
155.97813667896366
155.32720994580077
153.77803293718287
151.37281619123684
148.23404535645642
144.56625610967245
140.6594137781292
136.89116960303124
133.7223410629042
131.67694318611842
131.29805414267133
133.0785977518202
137.3827615527452
144.38849740348724
154.07714052306474
166.2710280694647
180.69567986744727
197.0390364638136
214.99273813972
234.27415201171442
254.63453972330512
275.85941218575476
297.76536998319415
320.1958600104279
343.01700181527167
366.1139257576941
389.3877212847587
412.7529502521011
436.13563425955414
459.47162143779144
482.70525031122804
505.7882443239849
528.6787855723517
551.3407287129421
573.7429257525242
595.8586398120449
617.6650314560308
639.1427052262352
660.275306976894
681.0491647655513
701.4529676231155
721.4774776716024
741.1152718959436
760.3605104940644
779.2087291903719
797.6566532446041
815.7020311569232
833.3434862813318
850.5803847304253
867.4127180968355
883.8409996387329
899.8661726845955
915.4895301075995
930.712643808639
945.5373032284554
959.9654619843514
973.9991917991994
987.6406429575372
1000.8920105859345
1013.7555061148963
1026.2333333354363
1038.3276685155797
1050.0406440909815
1061.374335489997
1072.3307506953147
1082.9118221838485
1093.119400923208
1102.9552521356634
1112.421052571874
1121.5183890644607
1130.2487581569294
1138.6135666268347
1146.6141327429027
1154.251688115522
1161.527380016394
1168.4422740588989
1174.9973571448395
1181.1935405950217
1187.0316633925722
1192.5124954775129
1197.636741039494
1202.4050417637645
1206.8179799916907
1210.876081762838
1214.5798197115932
1217.9296157946628
1220.9258438303693
1223.5688318337936
1225.8588641341844
1227.796183264288
1229.3809916127684
1230.6134528325874
1231.4936930001131
1232.0218015206249
1208.3031115582276
1160.9295218400007
1114.3694886788994
1068.5867497440277
1023.5451062535657
979.2084410868624
935.5407385107693
892.5061058527606
850.0687976722986
808.1932432869978
766.8440789449651
725.9861865666494
685.5847419197718
645.6052765220974
606.0137597989533
566.7767115956453
527.8613610280469
489.2358776459617
450.86971844820494
412.7341663975898
374.8031974747702
337.05493695392045
299.47423034628883
262.0574645531406
224.82231211189668
187.8294014959638
151.23696947815912
115.4642827658628
81.80395300665573
55.09524132051911
47.57910733664286
64.61342602553519
95.84852646552653
131.73631028409417
169.44499157892648
208.1687335317491
247.62616448203926
287.708592729188
328.3767080432937
369.6233840300165
411.4581094483488
453.899699786386
496.9725793250102
540.7047521044774
585.1266329645543
630.2703436768247
676.1692733397058
722.8577952155892
770.3710793689411
770.1993379474287
722.6940712024216
676.0140637090045
630.1241979426953
584.9901685732518
540.5786755423023
496.8577157623082
453.79703581467396
411.3688565372164
369.5490759978096
328.3193568433462
287.67094953759164
247.6121831958318
208.18445398991526
169.50037613249853
131.84947449102984
96.05626347283724
64.98820926719742
48.12628952489713
55.62633718450006
82.18810729021924
115.74357463198606
151.45152508800703
187.99978005140966
224.95959040948748
262.1681555179647
299.5624558862746
337.12346419409846
374.8539759549542
412.7686272458955
450.88895118239924
489.2407399208232
527.8525496112914
566.7548098782792
605.9792705351201
645.5586449481777
685.526372414507
725.9164548554934
766.7633411536061
808.1018427151143
849.9670698818339
892.3943824842706
935.4193501209087
979.0777192182568
1023.4053848915385
1068.4383662751425
1114.212784438192
1160.7648423133296
1208.130806291687
769.6841332380163
722.2029192028918
675.5484564069402
629.6857851982797
584.5808043367695
540.2004812239733
496.5131692114213
453.4890995657629
411.10116816600686
369.32624037021344
328.1474128954536
287.5581517880547
247.5703870158909
208.23174880248035
169.66653724857423
132.18841477887412
96.67636938690538
66.09702817950199
49.73157327336463
57.18744712001712
83.32869258987702
116.57713805556222
152.09329322464143
188.50996872696928
225.37092322880724
262.4999600290997
299.82699685710907
337.32898956076974
375.00630374880683
412.8720322353107
450.94669002504116
489.25537768013965
527.8261711835778
566.6891616560367
605.8758581037968
645.4188021168974
685.3513109859636
725.7073010997279
766.5211628739908
807.8276695037058
849.6619083371227
892.0592276258119
935.055193875966
978.6855566111767
1022.986218397811
1067.993208683745
1113.7426604814968
1160.2707892636745
1207.6138736800103
768.8255240416045
721.3843994621946
674.7725163264607
628.9551789478783
583.8986272173746
539.5702754375909
495.9390723161288
452.97605833334393
410.6552557886296
368.9551429898633
327.8612056235464
287.37059535661075
247.50121910246764
208.311017899072
169.94349767456532
132.75149415429672
97.69980053401349
67.89674778960092
52.2973000471328
59.691600611407296
85.19199552802763
117.95238543731382
153.15666553604228
189.35715413836743
226.05481416387835
263.0520765987628
300.267447645958
337.6713444211786
375.26015801004957
413.04444869536394
451.0430568916299
489.2799437579875
527.7823932847988
566.5799378289042
605.7036887248581
645.1859038571143
685.0596990609635
725.3588495958584
766.1176495431034
807.3708093024846
849.153378633228
891.5006871074634
934.4482966098692
978.0319622910133
1022.2875995472178
1067.2512553820015
1112.9590830411291
1159.4473191898187
1206.7522631690113
767.6236088114374
720.2386128064034
673.6863520319605
627.9325021336276
582.9437826529845
538.6882359432004
495.13564692531565
452.2581919265421
410.0314730562299
368.43622838296625
327.46128563016305
287.10894137118447
247.40541846704156
208.42292654772157
170.33129657568074
133.53604930450166
99.11233361806333
70.32528474916387
55.690711282724486
63.01963839984851
87.72751486042921
119.84943406153067
154.63257759796264
190.53673737338238
227.0088014689365
263.8231815054913
300.8831366500302
338.1502491426941
375.61550097210943
413.2859888273771
451.1782549574215
489.31469297583624
527.7214953875791
566.4274235968633
605.4630398946139
644.8602104077638
684.6517729012526
724.8713080497853
765.5529774017825
806.7314053183679
848.4415904794726
890.7188376099837
933.5987032465143
977.1169513983175
1021.3095162911161
1066.212470279109
1111.8619956256266
1158.294359283005
1205.5458901088077
766.0785263302591
718.7657012680424
672.2901163735637
626.6179277890371
581.7164753111153
537.5546128976426
494.1032052645431
451.33589415997926
409.23031767220914
367.7701219556727
326.9484270504387
286.7741182137418
247.28402057758717
208.5684034335115
170.82999135050082
134.53848249672222
100.89566414584621
73.3117029480157
59.771212504302056
67.04374555379223
90.8744528357955
122.24254077703824
156.5089014686224
192.04246267606496
228.22950491596146
264.8114465319315
301.6731328002986
338.76531519912845
376.07228040525496
413.5968096762996
451.35256862479105
489.3599822827202
527.6438692501727
566.2320190044614
605.1543010763096
644.4420872012395
684.1278644276217
724.2449683942176
764.8273942643946
805.909659003345
847.526698278177
889.7137871135784
932.5064771039797
975.9405453393665
1020.0519517502692
1064.8768026173925
1110.4513187042212
1156.8118069688576
1203.9946351661101
764.1904566575904
716.9658489613132
670.5840073473714
625.0116799562354
580.2169701499074
536.169730159239
492.8421515917734
450.20967496147466
408.25243401586454
366.9576330968558
326.32363086853144
286.3673243247007
247.13835818367784
208.7486379702409
171.43966005029063
135.75437985363172
103.02865445258135
76.78455472497471
64.40900001501606
71.64379064108716
94.56792212439989
125.10175927286465
158.7709381102248
193.86658559479346
229.7126884474822
266.01456302159045
302.6362544899216
339.5160480665356
376.63043023928225
413.9771130789523
451.5663634639612
489.41627093685014
527.5500193964975
565.9942396912883
604.7779746577567
643.9320059539997
683.4884023703223
723.4802079323541
763.941220597998
804.9058310208115
846.4089019395211
888.4856755319205
931.1717003266226
974.5027720031048
1018.5148842109214
1063.244186748421
1108.7269492700666
1154.9995292704405
1202.0983435048697
761.9596223461831
714.8392832061741
668.5682692021217
623.1140348693743
578.4455937918915
534.5339869825953
491.3529843531183
448.8801631192781
407.0986165615569
365.99975921485037
325.5881292164296
285.89003181003955
246.97006233932086
208.96507684836925
172.16040428956822
137.17864739903143
105.48855394007883
80.6771897454287
69.49360510273394
76.71524241900119
98.74378843518998
128.39459630330177
161.40196517960152
196.00007030952816
231.45333596414494
267.4297715309455
303.77108071199933
340.4018508566583
377.28987133453126
414.4271455763714
451.82008611338335
489.48412071410587
527.4405637093777
565.7147178361464
604.3346771665088
643.330546058085
682.7339137427238
722.5774908073786
762.8948509126338
803.7202424939065
845.0884479374756
887.0346755369216
929.5944744510193
972.8036660509457
1016.6982871304929
1061.3145418552294
1106.6887602876577
1152.8573619968868
1199.8568237387817
759.3862899264794
712.3862759001569
666.2431937923338
620.9253224071964
576.402736218109
532.6478601172358
489.63629885987797
447.3481096981045
405.7698141288844
364.8976907450283
324.7433906819528
285.3439908514933
246.78106359456774
209.21941982335858
172.99235251622937
138.80565591596914
108.25206395889244
84.930310762694
74.93539749608041
82.17113365521519
103.34183923246658
132.08749700652407
164.3837970431761
198.43280502029035
233.44573719557098
269.0538962160726
305.0759641684318
341.4220286236141
378.0505123789892
414.94719827410603
452.1142641222563
489.5641961246256
527.3162341189641
565.3942032795618
603.8251407306823
642.6383962650921
681.8650256333347
721.5373697964967
761.6887554645941
802.3532765401994
843.5656306129464
885.3609935817393
927.7749211139928
970.8432692876263
1014.602129160711
1059.0877716279724
1104.3366000310102
1150.3851087631895
1197.2698466603338
756.4707716575629
709.6071451366508
663.6091221783188
618.4459278185572
574.0888527919891
530.5119063273999
487.69279051362787
445.61439216051616
404.26713500836877
363.6528171734653
323.7911266580819
284.7312349201021
246.5735933214578
209.513614751796
173.93566350015973
140.62938627237617
111.29618142522972
89.49266052553659
80.66354799104019
87.94090361736033
108.30748220714251
136.14706121340186
167.69732046240236
201.15382449538393
235.6835804245149
270.88338299910413
306.5490460772641
342.575793268573
378.91225088542865
415.53760663114434
452.4495057134925
489.6572646140663
527.1778773635849
565.0335648044954
603.2502147693474
641.8563566515093
680.8824673098578
720.3604884275386
760.3234822746272
800.8053800975886
841.8407937312153
883.4648711308657
925.7131829125314
968.6216311233014
1012.2263741983002
1056.5637639025051
1101.670291321348
1147.5825398490624
1194.3371437527207
753.2134275421455
706.5022570677579
660.666446473668
615.6762937259862
571.5044666249065
528.1267653542459
485.5232586120656
443.68001923857184
402.5918530171115
362.26673413173734
322.7332987715247
284.05408679099844
246.35018513277316
209.84985188601217
174.99052989646998
142.64356819467204
114.59880840708803
94.32067679299712
86.62279775263342
93.96803725481669
113.59237435481663
140.54095860101972
171.3229789753159
204.15152996086277
238.16004886075112
272.91434051208114
308.1882723807207
343.86226895721006
379.874974257669
416.19875015382945
452.8264994405417
489.76419672088105
527.0264557951771
564.6337915507303
602.6108678930544
640.9853408517916
679.7870726275695
719.0475834156257
758.7996594628365
799.0770660471044
839.9143323024355
881.3465861078945
923.4094244274692
966.1388091394351
1009.5709814757203
1053.7423902737626
1098.689630674942
1144.4493909058895
1191.0584054922717
749.6146676028242
703.072028009382
657.4156119405293
612.6169224132032
568.6501712976983
525.4931633459969
483.1286107752776
441.54613661021176
400.74541454953584
360.74125162781763
321.572127434775
283.3151653564858
246.11367634641599
210.23055744284315
176.1571817481764
144.8418072066908
118.13915005985173
99.3776873991498
92.77022221719966
100.20751132735502
119.15437447437776
145.23855797717653
175.24118933616688
207.4138981937104
240.86791766352428
275.14258281156276
309.9914110405385
345.2804979562786
380.9385608906265
416.93105196805664
453.24601370815407
489.88596615663545
526.8630481967872
564.1959945342677
601.9081899914681
640.0263785425026
678.5797827319967
717.5994874163632
757.1179979023927
797.1689156390107
837.7866946748857
879.0064545733055
920.8638334247871
963.3948697728624
1006.6359057062696
1050.6235056978235
1095.3943873740104
1140.9853615232014
1187.4332794511324
745.6749544161023
699.31692678578
653.8571193332116
609.2683784034559
565.526633955383
522.6119167874344
480.50986804021113
439.2140334446067
398.72944669975504
359.07840348854495
320.3101015709469
282.51739323186666
245.8672094427494
210.65838646790468
177.43588980868674
147.21769629608747
121.8979403037305
104.63297087552917
99.07245020376509
106.62348243966646
124.95712125768952
150.21131261921295
179.43268275310135
210.92867366827383
243.79964894951314
277.5636728919609
311.9560701012266
346.8294467906295
382.10288126580684
417.73497823933866
453.70889612235226
490.02364977111466
526.6888505741387
563.7214082374268
601.1433944799769
638.9806181569173
677.2616490428037
716.017132089625
755.2792941928517
795.0815812285889
835.458384911724
876.4448326460911
918.07662225026
960.3898891349538
1003.4210973008392
1047.206948099212
1091.7843024761673
1137.190113668759
1183.461368211948
741.3948058994159
695.2374773101412
649.991527490763
605.6312913373101
562.1345987959236
519.4839369660461
477.66817068021055
436.68514989279765
396.5457665451355
357.2804581003992
318.94998956610505
281.66400514433604
245.61423345612377
211.13621502369432
178.82696858641242
149.76491058556502
125.85753824392944
110.06084357309327
105.50343741204946
113.18735342378312
130.96943960363288
155.43295338306297
183.87877110271614
214.68353964049962
246.9474825542101
280.1729660949676
314.079716204861
348.5080126168469
383.36779899911977
418.61103740561146
454.21607262935686
490.1784273577907
526.505176876914
563.2113922293745
600.3178206720675
637.8493298055156
675.8338365035823
714.30155146707
753.2844339533457
792.8157893285294
832.9299654633814
873.662118684887
915.0480294357242
957.1239539853806
999.9265026759163
1043.4925380026323
1087.8590877802778
1133.0632700182705
1179.1422271089214
736.7747983454096
690.834261396511
645.8194561791423
601.7063591600743
558.4748909773116
516.1102350179734
474.6047848157549
433.9610856131378
394.1963916958156
355.3499305478437
317.49485150881924
280.75855709097755
245.3585052366402
211.6671317384084
180.33077904355918
152.47728472433135
130.0019342048903
115.63984084826295
112.04274595168543
119.87622016404964
137.1646983022113
160.87954014595633
188.56154347786617
218.66626593517168
250.30352079055402
282.9656526059721
316.3596932514475
350.3150297071642
384.733171794719
419.5597791847041
454.76854639986703
490.3515812506905
526.3134595999002
562.6674327712262
599.4329362390254
636.6339083731089
674.2976270779527
712.4538856137636
751.1343954352516
790.3723439845685
830.2020601480197
870.65875574592
911.778321537317
953.5971628824673
996.1520646755214
1039.480078211439
1083.6184247699553
1128.6044121943671
1174.4753618125408
731.8155696964296
686.1079217980745
641.341589183939
597.4943516310216
554.5484209725375
512.4919276062435
471.3211098950202
431.04360943520277
391.683552229939
353.28959626145473
315.9480527813843
279.8049362464814
245.1040905136726
212.25442876057963
181.94773091109874
155.34887379666384
134.31669687494227
121.35201221236194
118.6742378387402
126.67165032896719
143.5201874050775
166.529415321619
193.46400148512586
222.86483279642644
253.85980593044596
285.93679833942707
318.7932409161606
352.2492759369653
386.1988522560507
420.5817933146318
455.3673964092556
490.54449565646
526.1152502067391
562.0911443525907
598.4903397115197
635.3358767574656
672.6544234683507
710.4753845712298
748.8302534516515
787.7521304805858
827.2753574533934
867.4352343362151
908.2677952279657
949.8096275352385
992.0977231332778
1035.1693535588079
1079.061963559663
1123.8130789376771
1169.4602257782535
726.5178230507619
681.0591654653347
636.5586776543694
592.996114168815
550.3561894072338
508.6302432929717
467.818687137125
427.9346702842185
389.00970415264203
351.1025063012071
314.31327907068396
278.80737159417237
244.8553646892281
212.9015921764098
183.67828461737463
158.37399927594527
138.7888852503568
127.18232818933056
125.38509003893822
133.5587333789607
150.0165489634786
172.36309438707158
198.57014305934013
227.26753141420357
257.6083895921591
289.08138363681087
321.3775127572751
354.3094791687513
387.7646885011278
421.67770797992387
456.0137756588499
490.75865565954234
525.912219311827
561.4842710986032
597.4917629708438
633.9568892086406
670.9057530291045
708.3674125657873
746.373183618739
784.9561193786528
824.1506141742916
863.9920954830031
904.516779669727
945.7614743849508
987.7634156034197
1030.5601307606746
1074.1893218715452
1118.6887642367476
1164.0962175839493
720.8823303899183
675.6887670167423
631.4715437005284
588.212572050792
545.8992924208237
504.52652967721303
464.0992090453312
424.63640950687886
386.1775445373663
348.79200441522715
312.5945528688263
277.7704452450005
244.61701328628692
213.61229195872625
185.52295286383074
161.54728197149876
143.40694221962872
133.11818759766595
132.16505292181733
140.52534495477826
156.63727432904827
178.3631197392121
203.86500468144106
231.86304263902764
261.5413936232724
292.3943393231805
324.10959367493325
356.49432342788253
389.43052452669747
422.84818787407175
456.7089089793012
490.99564583202164
525.7061565484763
560.8486879790207
596.439073669851
632.4987347206801
669.053271838907
706.1314524617028
743.7644669024617
781.985370898766
820.8286593996781
860.3299341408817
900.5256391928283
941.4528464469261
983.1490782941786
1025.6521584045545
1069.000084076387
1113.230915448569
1158.3826781851058
714.9099365143674
669.9975724134831
626.081084245933
583.1447349873041
541.178927601089
500.1822613848964
460.16453011736957
421.15117476207627
383.19002853005696
346.36174602982203
310.79625153523057
276.699104398362
244.39403197453905
214.39037152785306
187.48230191334133
164.86366407839367
148.16058119836694
139.14901129622248
139.0058907837605
147.56157770319007
163.36826982650507
184.51389676501734
209.33467121411297
236.64049597409118
265.6510624141528
295.8705797889176
326.98651650995953
358.8024547678286
391.1962002632958
424.0939318439397
457.454090350744
491.25714837215287
525.4989700430052
560.1864017414571
595.3342775139654
630.9633404192763
667.0987688918383
703.7691104336479
741.0054944594405
778.8410396407477
817.310398863352
856.4494029595155
896.2947763113996
936.8839054479625
978.2546472412866
1020.4451671125546
1063.493800336461
1107.438931445544
1152.3188881214005
708.6015631737636
663.9865028283125
620.3882751374786
577.793702095978
536.1964005504902
495.59904901209137
456.01667890185547
417.481535666661
380.0503884216471
343.8157193418234
308.923126991328
275.5986738868953
244.191726095779
215.23983701790348
189.55695268767744
168.31842242383377
153.04067319946975
145.26590864192846
145.90095800763805
154.65930019694787
170.19748676614282
190.80152507043582
214.96626147382673
241.58951124326737
269.92980685443723
299.50503287378035
330.00527760071185
361.2324867259571
393.0615512605229
425.4156700577598
458.25067966923774
491.54494068866063
525.2926854053417
559.4995514810416
594.1795203236568
629.3527748802475
665.0441703578448
701.2821208266394
738.0977727570863
775.5243796486454
813.5968196721547
852.3512164372078
891.8246351092813
932.0548342973899
973.0800597625523
1014.9388699212923
1057.6699858933098
1101.31216083107
1145.9040647148126
701.9582133736203
657.6565586971537
614.3941755181029
572.1606673073551
530.9531321535302
490.77864914067493
451.6578715743821
413.6303014156315
376.76215502254774
341.15826870038967
306.98032711527145
274.47486923310714
244.0157096137582
216.16484635883177
191.74758180121097
171.9071748677251
158.03913887470844
151.46140429169634
152.84487634729817
161.81181412601208
177.11460917308338
197.2136333223876
220.74789639277748
246.700225429665
274.3702403533246
303.2926664298456
333.16285114618694
363.78300527525676
395.0264079392476
426.81416063428685
459.1000988835133
491.8608923402193
525.0894441376354
558.7904087486388
592.9770897885436
627.6692513028531
662.8915438543918
698.6723511647479
735.0429289536094
772.0367498157837
809.6889954244914
848.0361554851168
887.1157050303855
926.9658399336764
967.6252562405587
1009.1329629282368
1051.528120550076
1094.849900272297
1139.1373593056637
694.9809758379753
651.0088239403415
608.099932467192
566.2469252397294
525.450666630261
485.72297556919636
447.0905272378423
409.60054063111477
373.32918160376994
338.3941204817703
304.9734188983746
273.3338101284621
243.87190341493687
217.1696982980106
194.05492268136712
175.62588160984123
163.14884811904005
157.7292147220601
159.83328789546533
169.01358690540872
184.11079182217384
203.73922288588673
226.6686553571364
251.9633071213388
278.9652074910775
307.22851152666067
336.45620225247495
366.4525731820609
397.09059434571816
428.29018566686534
460.00382742047213
492.20696123228623
524.8915013527733
558.0613770880954
591.7294168111641
625.9151304509313
660.643102661474
695.9418072614606
731.8427165116335
768.3796196239776
805.5880917305502
843.5050724283228
882.1685251112144
921.6171565927693
961.8901822851913
1003.0271262591633
1045.0676484045407
1088.0513930058762
1132.0178545806812
687.6710296051795
644.0444703395783
601.506785916544
560.0538775886198
519.6906804757656
480.4341119273025
442.3172851872815
405.3956037343029
369.7556707028276
335.52841167504096
302.908413414051
272.182034226118
243.76653289137943
218.25882149938704
196.47976694434186
179.4708429197645
168.36352854272792
164.0640655685866
166.8626650250649
176.26004231723783
191.17844133642728
210.3685231419802
232.71852514503806
257.3699608423359
283.70780596103714
311.3076823323091
339.8822985648843
369.2397336833608
399.25392633933825
429.8445465714432
460.96339681163875
492.58518896474834
524.701222684042
557.3149908810839
590.4390763258742
624.0929232617431
658.3012097997795
693.0926383745534
728.4990210120897
764.5545752064917
801.2953721440907
838.7588964705502
876.9836886960296
916.0090495488918
955.8747913336983
996.6210254187984
1038.2879778968027
1080.915827580377
1124.544562055398
680.0296487295709
636.7647620550633
594.6160738536328
553.5830400873417
513.6749924057899
474.91432587359935
437.3410244213532
401.01914818116524
366.04620413149917
332.56672141190313
300.7917926361761
271.02651111831545
243.7061247466783
219.43676387628284
199.02296621098523
183.43869456866722
173.67768329059845
170.46154244603298
173.93016352732133
183.54739600694649
198.3110337364701
217.09285981249167
238.88834487144217
262.911923325876
288.59140250630685
315.52539276068006
343.4381204128717
372.1430134023256
401.51620914414184
431.4780586841192
461.98038442820535
492.9976952168123
524.5210802567043
556.5539133651212
589.1087874640831
622.2052930084951
655.868381879323
690.1271423379935
725.0138661271394
760.5633257183706
796.8122045121545
833.7986396490202
871.5618486775517
910.1418193828827
949.5790477520767
989.9143130938814
1031.188482243408
1073.4423369080985
1116.7164197828824
672.0582070580937
629.1710602658226
587.4292378269939
546.8360501078866
507.40557445488696
469.1660851156863
432.1648857309228
396.4751669535744
362.20577656143496
329.51510568356184
298.63053812147564
269.8746563440767
243.69750297444233
220.70818232843092
201.68543455733825
187.52640201970388
179.0865181802154
176.91796925570307
181.03350876853702
190.87252583706044
205.50296262586141
223.90453659021614
245.16974949357882
268.5814535360651
293.6096435643002
319.8769700179958
347.1206694157209
375.1609244249973
403.8772341921599
433.1915450295845
463.05640622577704
493.4466710466994
524.353647581044
555.7809336766097
587.7414129214478
620.2550568864542
653.3472926105886
687.047770589791
721.3894196999191
756.407709990685
792.1400677459582
828.6254033055673
865.9037233078151
904.0158068371643
943.0029305075266
982.9066314856126
1023.7685003393271
1065.6299977094454
1108.5322903717688
663.758183046684
621.2648279154605
579.9478287750046
539.8146749877433
500.884564402775
463.1920755374132
426.7922967567341
391.76802076059636
358.2398331083783
326.38013549586424
296.43216154264917
268.73434524748154
243.74778397355232
222.07783306969938
204.4681517994178
191.73125423356197
184.58587783027377
183.43030911264117
188.17090731200315
198.23286950571256
212.74941302636088
230.7967297314654
251.55511373492197
274.37131798714586
298.75646131342046
324.357865210918
350.92697551361726
378.2919654633518
406.3367751831046
434.98582917689043
464.193108394196
493.93437097608506
524.2015932159519
554.9989627568992
586.3399573667497
618.2451868759306
650.740775854181
683.8571330007182
717.627999868074
752.0897034377692
787.2805590115513
823.240385098615
860.0101026260377
897.6313983220467
936.1464374896168
975.5976152577316
1016.0273382191301
1057.4778304436404
1099.9909594079631
655.1311645769722
613.047634544629
572.1735132061733
532.5208211880517
494.114279741575
456.99522177299514
421.22700047555617
386.9024744738283
354.1543113837794
323.1689387174221
294.2047370230031
267.61392647854194
243.86437078068968
223.55056274783627
207.37216781174234
196.05085777371056
190.17219028979417
189.99608395493033
195.3409783699124
205.62634364514662
220.0462566514227
237.76339488943663
258.03749773513925
280.2747726620514
304.0260757764976
328.96366119635775
354.85410240382697
381.5346220341097
408.8945832834205
436.86172709598276
465.3921578038229
494.46310372189953
524.0676730402753
554.2110279445965
584.9075647147884
616.1788097165766
648.0518280668931
680.5580023924888
713.732081154009
747.6114251757435
782.2354013327074
817.6448865790985
853.8818555521317
890.9890321423635
929.0095905646564
967.9868951957362
1007.9642711800046
1048.984799832484
1091.0911343883022
646.1788537287385
604.5211611917842
564.1080797686743
524.9565444134143
487.09723344263693
450.5787106356421
415.47308765614923
381.8837383975191
349.95568852781685
319.889245867798
291.9569351752964
266.5222348987938
244.05494642124518
225.13130057238592
210.39860807710204
200.483131752663
195.84241960519998
196.61330965325578
202.5427008524063
213.05127997152297
227.38996509482052
244.79918526585203
264.61059530220746
286.2855426020219
309.41299358416745
333.69007786240024
358.899151372184
384.88736558430145
411.5503813849723
438.82003792407687
466.6552311335115
495.0352214301318
523.9547209584489
553.4202660619219
583.4475140667649
614.059205807218
645.2836099811293
677.153318614538
709.7043004291014
742.9751452992823
777.0064515911231
811.840321350186
847.519937695753
884.0892055183413
921.5924414555777
960.0741026830194
999.5785466813373
1040.1498160971366
1081.8314442891713
636.9030714588604
595.6872053445991
555.7534462597764
517.1240608553704
479.83615183715483
443.9460178896422
409.53503392626726
376.71751506753156
345.65103378807214
316.5494400770609
289.6980586887074
265.4686036230506
244.3274664039492
226.82505167939235
213.54868065690988
205.02630404142607
201.59402574434512
203.2804440560348
209.77537282223904
220.50637508775444
234.7775380114407
251.89938007758565
271.26868531545915
292.3978000329739
314.9120039401028
338.53297502879616
363.0592635170746
388.3486514954516
414.30385734014686
440.8615335466885
467.98400256091315
495.6531072592246
523.8656378557959
552.6299147880743
581.9632141034961
611.8898068244254
642.4394473334339
673.6461920290337
705.5474626420896
738.1832922502251
771.5957089005925
805.8282238270048
840.9253999309561
876.9324824790542
913.8950785480222
951.8588751106997
990.8693881486759
1030.9717370431465
1072.2104399094374
627.3057621317433
586.5476859259677
547.1116671424821
509.02575976161984
472.3339949945827
437.1009389531309
403.4177422046569
371.4100523728276
341.2480672551168
313.15861141744364
287.43807923589793
264.46287489899726
244.69015041287878
228.63689197374936
216.82368476225247
209.67890906992272
207.4249313123799
209.99634590051699
217.03858092944023
227.99065131272576
242.2064438681235
259.05982232475674
278.00658658158386
298.60614171260755
320.5181722646297
343.48835314814596
367.331620367899
391.9169159000645
417.1546560883661
442.9869468945647
469.380129891015
496.31916115372815
523.8033786082838
551.8433020973055
580.4581956963272
609.6741918292477
639.5228304331057
670.0399062298578
701.2645461810201
733.2384601955116
766.0053233206213
799.6102586065733
834.0993977866561
869.5195027120296
905.9176347319391
943.3408623498813
981.8359998248886
1021.4493711457351
1062.2265951456004
617.388997840772
577.1046483018508
538.1849416578634
500.66421758223277
464.59398006833555
430.04762424013416
397.126591390074
365.968203906539
336.75522540730094
309.72661575853346
285.1876753847246
263.5154094973072
245.15147328365563
230.57196469993877
220.22502109428376
214.43978747239274
213.33349452928908
216.7602429194199
224.33217797337062
235.50342650144924
249.67457126829112
266.27686488629877
284.81961626481285
304.90556602696216
326.22683192968117
348.5523519778505
371.71344290006584
395.590571240513
420.10237058294945
445.1969588527447
470.84523899526516
497.03578364463766
523.7709369432737
551.0638335247438
578.9361024809068
607.4160816086837
636.5374123368503
666.3379197962223
696.8587077153898
728.1434163131801
760.2376048616419
793.1882304513185
827.043201702015
861.8509914561965
897.6602963966495
934.5197344277688
972.4775728264846
1011.5814818047497
1051.87830937678
607.1549824552819
567.3602693042842
528.975622649448
492.04221400669655
456.6196081836314
422.7906199946299
390.6674923588821
360.3994975790365
332.1817341494695
306.26413822339316
282.9582710955273
262.6370942584561
245.72015538496888
232.63547899714547
223.75420410641618
219.3080877702134
219.31848798185723
223.57170779525785
231.65626716932115
243.0442912667524
257.1801892001696
273.54732402920445
291.70355188117003
311.2914502312394
332.0335744317635
353.7212473754272
376.2019889483992
399.3680005016509
423.14653142663036
447.49218367618124
472.3809064304792
497.8053575065924
523.7713279377672
550.294977009125
577.4006791197207
605.1193309734881
633.4870053673905
662.5438668534864
692.3332863394967
722.9011078642939
754.2950327196116
786.5640948813693
819.7582081932095
853.9277705290397
889.123313706414
925.3951905621205
962.7932925800055
1001.3667929592186
1041.1639111598838
596.6060553216471
557.3168622708963
519.4862262524784
483.1627502855951
448.41469557587016
415.3349156491376
384.0469525121763
354.71221366058535
327.53769004699944
302.78276121832295
280.76207426458706
261.8393474251186
246.40515257096263
234.8327107020341
227.41287632850492
224.2832702419097
225.3790827105737
230.4306408699478
239.01119201855948
250.61309235507187
264.72191484472694
280.8684394902695
298.6545967524453
317.7595281179605
337.9342382886511
358.9914463494689
380.79454901565896
403.2475500445636
426.2865951188172
449.8731528010504
473.9886401021827
498.63022709822604
523.8075679339915
549.5402450484246
575.8557569589835
602.7879187078266
630.3755756843412
658.6615561836954
687.6918068101339
717.5146689045554
748.1802646585035
779.7399693585976
812.2459519745447
845.750770582285
880.3070122923227
915.9669697226906
952.782347831914
990.8039962725836
1030.081663459132
585.7446945420604
546.9768821141602
509.7194426481187
474.02907033088997
439.9834098510727
407.68599895643405
377.27215033544945
348.9154735663558
322.8341504510747
299.29503686838547
278.6121146354784
261.13412137448705
247.2156459122592
237.16900566098738
231.202824875835
229.3651130945969
231.51483724086722
237.33725872666074
246.39753092678217
258.20992119334363
272.2986878158578
288.23784036787345
305.6693487529718
324.30586830239525
343.92489688782973
364.35948047713237
385.488440465993
407.227520963058
429.52193081109783
452.3402969367433
475.66985783640894
499.5126752109915
523.8826516472159
548.8031738934053
574.3052367675781
600.4259348419514
627.2072355861441
654.6949685956695
682.937981639263
711.9874264613967
741.8961464388126
772.7181450326608
804.5081190711721
837.3210446823649
871.211806506089
906.2348629038265
942.4439414447638
979.8917601227341
1018.6297706604296
574.5735197499231
536.3429304510755
499.67814814350135
464.6446852167047
431.33031244588943
399.8499204068125
370.35102169016193
343.0193408427195
318.08323316737506
295.8145635022101
276.522280247768
260.53390236622454
248.16103146279747
239.649785811862
235.1260002498056
234.55372102396944
237.72569121263825
244.29208792590094
253.81609589956128
265.83510682111785
279.9097498913204
295.65351613159237
312.74477213532896
330.9268532350342
350.0018454584776
369.8219977740161
390.28100008541946
411.3061588823882
432.85180546602237
454.8939263211628
477.4258637212029
500.45489724939193
523.9995262370927
548.0872994957506
572.7530682293235
598.0375648940081
623.9862331904175
650.648252229978
678.0757117684263
706.3229059717531
735.4457211652149
765.501099002518
796.5465609530584
828.6397833130218
861.8382143895055
896.1987273067625
931.7773032130906
968.6287406566779
1006.8063876506885
563.095294297302
525.4177608481895
489.3654189181176
455.0134018654373
422.46040862324594
391.8333687674504
363.2923598562936
337.0349359592693
313.29822622973006
292.35606558622965
274.50735142443756
260.05170693788745
249.25091037248185
242.28055828869952
239.18453752216658
239.84953622888807
244.0119633006779
251.2959633064909
261.2679347822883
273.4892125768297
287.554629446772
303.11379212650036
319.87817219247364
337.6191589861848
356.1615872887551
375.3757530763588
395.16957497918315
415.4816421103818
436.27536730598166
457.53420901798404
479.25782207957724
501.4589725675933
524.1610621131304
547.3961299206096
571.2032258453947
595.6270707040102
620.7169391086009
646.525715437665
673.1090855143542
700.5248357413509
728.8322383982313
758.0915070269801
788.3633097097114
819.7083308965441
852.1868745214751
885.8585026463945
920.7817049544784
957.0135951965419
994.6096312731336
551.3129267673572
514.2042842694282
478.78454688135116
445.13935691333376
413.3792066625834
383.6437599721522
356.10593168514544
330.9745666390388
308.4937081808302
288.9354762035507
272.5830311242658
259.70107461316866
250.4950797091422
245.06692779207089
243.38077998001697
245.25335193213408
250.37435315851886
258.3500303714028
268.7543366197071
281.173036024114
295.233129927836
310.61730900918565
327.0671724938433
344.3797357917481
362.4008192623026
381.0175969693979
400.15151176377674
419.7520680448447
439.79162743414963
460.261147130466
481.1667289345347
502.5268327892363
524.3700202470197
546.7331139311556
569.6596808923027
593.198767460941
617.4038297002064
642.3318168347812
668.0423754351398
694.5971501479594
722.0591628429268
750.4922565949375
779.9605942724377
810.5282039286408
842.2585649130187
875.214229813988
909.4564781548942
945.0449983123725
982.0375945033313
539.2294717243869
502.7055748596129
467.9390582218364
435.02705701802125
404.092788312176
375.28934206878375
348.80261260640333
324.8518755544029
303.68567901014274
285.57002079424757
270.7659703101641
259.4960566491054
251.9035244096346
248.0146124533128
247.71730529413063
250.7663284448749
256.8139471475137
265.45575135688284
276.27683978650634
288.88761169036553
302.94532178909895
318.1630056018551
334.30969441801255
351.20578930133854
368.71641674245865
386.744463266809
405.22414399646925
424.1154377323416
443.39943950333674
463.0745508036722
483.15338082848746
503.6602269431165
524.6290157708602
546.1016054546451
568.1263690749524
590.7569965077134
614.051466463636
638.0711520964282
662.8800327236457
688.5439912689926
715.1301823902817
742.7064602376922
771.3408576740069
801.1011108164762
832.0542241264492
864.2660721432025
897.8010344716065
932.7216609085023
969.088363727856
526.84812961743
490.92487625867204
456.8327354077622
424.6814272165804
394.60789308548254
366.77931951156654
341.3945436588137
318.68200725244566
298.891701527548
282.2783004187336
269.07378681847524
259.451200636049
253.4864108351446
251.1294634014439
252.196954260238
256.39001180084244
263.3322276380345
272.6149146467667
283.83724259705195
296.6342162543927
310.6915374038192
325.75010469317857
341.6039386930854
358.0947624272446
375.1054177911128
392.5533550189343
410.3847777693514
428.5696384631767
447.0974773017985
465.9740098852219
485.21834086342926
504.8606832553022
524.9404776496783
545.5048236464338
566.6071535130202
588.3060934947665
610.6644710935266
633.7484370167132
657.6266786910306
682.369708569043
708.0492152466871
734.7374689340537
762.5067753155577
791.4289735025142
821.5749748005201
853.014339543056
885.8148894222937
920.0423527033287
955.7600395466349
514.1722457603341
478.86560872510523
445.4696436329094
414.107869392441
384.9320196349955
358.1240007857313
333.89531416820364
312.4817961115858
294.13105242469624
279.0803722727145
267.5250760771062
259.5815308871474
255.25408246101983
254.41748822158348
256.82286215178834
262.12635497735727
269.9310856923538
279.829647244518
291.4376161448464
304.4143758664127
318.47236850342875
333.37810134616535
348.9483686454521
365.0443176547876
381.5650066677755
398.44132899732006
415.6306753769527
433.1124242766192
450.8842101173242
468.9588631096892
487.3619018295225
506.1294674481395
525.3066042319748
544.945808282094
565.1057827039201
585.8503514452736
607.247495712935
629.3684863263123
652.2870928588221
676.0788562343108
700.8204158411081
726.5888854219301
753.4612741861336
781.5139509463578
810.8221497666041
841.4595157774767
873.4976896156917
907.0059285171462
942.0507615622287
501.20530832428364
466.5313774616829
433.8541630158272
403.3123334938741
375.0735482622914
349.33497419417074
326.32017416296856
306.2699769215754
289.42488155770525
275.99782457466017
266.1394119270095
259.90252471290796
257.21705827981305
257.88487846667687
261.5984927109372
267.97774170976743
276.61283695164195
287.102430046074
299.0803191452327
312.229875312559
326.2886657447841
341.04675329673023
356.34169484783934
372.05231964052507
388.09249651561913
404.4054785721902
420.9590369459915
437.74139423759266
454.7578757346324
472.02816467278194
489.5840462980012
507.4675374112396
525.7293145004447
544.4273702261003
563.6258431194265
583.3939782978287
603.8051877745772
624.9361877275862
646.8661971330655
669.676187689832
693.4481791494316
718.2645771875862
744.2075529502606
771.3584645220735
799.7973209422205
829.6022891867111
860.849243906305
893.6113588195501
927.9587376645309
487.9509453017351
453.9259826928755
421.9910282750926
392.30140491087667
365.0418896682242
340.4253176341267
318.68628105537664
300.06741924752976
284.7963770314426
273.05384228227047
264.93733578090433
260.43008487618204
259.3860345426813
261.53804136057124
266.52767479654364
273.94701289623634
283.38024056024057
294.43611568111567
306.76801456859005
320.0827687516761
334.14154002757874
348.7560730392951
363.7828608416661
379.11681788740316
394.6853111019967
410.44291487011094
426.36697989705823
442.4539683346834
458.7164509140073
475.1806480589956
491.8844035600016
508.87549412574424
526.210194871012
543.9520367556662
562.1707061169863
580.9410485018999
600.3421491168533
620.4564705803903
641.3690354919668
663.1666467839368
685.9371430220178
709.7686888560879
734.7491027837805
760.9652253697304
788.5023311866375
817.4435871598544
847.8695588833655
879.8577650267569
913.4822783672188
474.412920435439
441.0534322566404
409.8853781613344
381.08241242238415
354.84766637400764
331.40984936295087
311.0129854674361
293.89738599431496
280.27093243977896
270.27325940142345
263.94033243284446
261.18050876250254
261.77189049986964
265.3836358025559
271.6146416983481
280.03749557784465
290.23652096281694
301.8339487006436
314.50368785413855
327.9753917576269
342.03236519675136
356.50632120021913
371.27102959329216
386.2360292533607
401.3409654420803
416.5507460657652
431.8515160852534
447.2473608351594
462.75761919177006
478.4146869873314
494.26220330457625
510.3535287466277
526.7504414213483
543.5219915549926
560.7434688800865
578.4954482636339
596.8628886641477
615.9342686536069
635.8007485796594
656.5553550706674
678.2921880420295
701.105653653026
725.0897287968712
750.3372637155478
776.9393292975637
804.9846146800232
834.5588791319442
865.7444600795365
898.6198368032733
460.5951281583545
427.91795776678276
397.54281767892064
369.6635624509358
344.50293492264285
322.3054280959698
303.3221612467865
287.78581541156234
275.87631108922125
267.68259298049315
263.1707910419666
262.1704550753124
264.3856988246991
269.42861275479913
276.8640731187944
286.2530344678327
297.18539241045534
309.2995878930307
322.2906664880192
335.9103743937958
349.962781765209
364.29800079573624
378.80557032282775
393.40832001445034
408.0570450956556
422.7260546286742
437.40952644286773
452.11855091866045
466.8787358380199
481.72825334235444
496.71622594141206
511.9013657726039
527.3507974673028
543.1390092412847
559.3468891493608
576.0608140770937
593.3717682791338
611.3744763508014
630.1665425672375
649.8475945709413
670.5184343823413
692.2802035485369
715.2335718354029
739.4779601449978
765.1108083186691
792.2268972747828
820.9177327323832
851.270994874423
883.3700550409629
446.50158766926654
414.5240358092646
384.96949715184746
358.0541071189523
334.02145909017395
313.1313122720661
295.6385845468126
281.7616240198163
271.64280019175055
265.31005330837485
262.6519501920263
263.41690917544764
267.23874142151715
273.6802600719984
282.28113981806825
292.5980259879683
304.23108600236355
316.83713050166625
330.13264071057125
343.89065502830334
357.934701280501
372.13185195702533
386.3860453170043
400.6321871636684
414.8311838855433
428.9658723127007
443.03773292573453
457.06425039896936
471.0767898022591
485.1188719623138
499.24474949054934
513.5182022645155
528.0114864528158
542.8043843435504
557.9833135683859
573.6404642293694
589.8729413081172
606.7818978241532
624.471651619658
643.0487853464375
662.6212350673143
683.2973776310172
705.1851303971357
728.3910787764046
753.0196473131984
779.1723287122405
806.9469824918501
836.4372111648768
867.7318174385168
432.13643638397946
400.8764162010301
372.1722135858868
346.2645559388617
323.419046996796
303.9095898967824
287.99036611794287
275.8570254294423
267.6033458847716
263.18552445468526
262.4078264978175
264.93714851022315
270.3425313155259
278.1462518070432
287.8715509093013
299.0774547530458
311.3783790762253
324.4511381015229
338.0336850934525
351.9194945731973
365.95031093741295
380.0088466811494
394.0121963067134
407.9062385892196
421.66103974574384
435.2671526401273
448.7326675391321
462.0808683293644
475.34836247445526
488.5835721635268
501.84549298206844
515.2026431115348
528.7321401759757
542.5188547263941
556.6545995459551
571.237323040798
586.3702834149427
602.1611884165658
618.7212932985315
636.1644571800937
654.6061649844856
674.1625281888054
694.9492823367277
717.0808022383293
740.6691567385795
765.8232237876828
792.6478834287234
821.2433015940785
851.7043118157015
417.50392317080184
386.980160135437
359.1585417064113
334.3069440917237
312.71396831686104
294.66569188382596
280.4094393518611
270.1078565833491
263.79365760843507
261.34050923586227
262.463127013984
266.7487099097575
273.70884130743974
282.83470200833267
293.64160378521495
305.6969324252167
318.63262674108546
332.1466638676937
345.9982806913893
360.00049079260157
374.0120780054139
387.93018313486914
401.68392995036123
415.22917172876606
428.54426836202856
441.6267405961189
454.4906381951707
467.1644722753898
479.6895830891749
492.1188358923215
504.51555633518046
516.9526323885395
529.5117224381921
542.2825195347932
555.3620306322415
568.8538376956636
582.8673153764408
597.5167879187679
612.9206162395801
629.2002146288273
646.4790049340037
664.8813239068593
684.5313059646721
705.5517683009841
728.0631275293745
752.1823765461371
778.0221470559625
805.689877567285
835.2870992844485
402.6084020279857
372.84069216644866
345.9370047312092
322.1951744293216
301.92747184233974
285.4290029978072
272.9321036980823
264.55389841537897
260.25226801144913
259.8080331177395
262.84314670967103
268.86936084806814
277.34974004720766
287.75422300943933
299.5982366488452
312.46273883460077
325.9997953171831
339.92928093157855
354.0313374265455
368.137592277351
382.12275359715534
395.8972789972362
409.40130192116226
422.59975025114204
435.4784942241713
448.04133921358294
460.3076911306872
472.3107460303793
484.0960806053365
495.720542414352
507.2513567206212
518.7653809015
530.3484482793276
542.0947518348368
554.1062255217012
566.4918876376507
579.3671176175361
592.8528452028925
607.0746394760553
622.1616947008833
638.2457199529827
655.4597495132836
673.9369000704208
693.8091079515864
715.2058839609386
738.2531242817338
763.0720130345081
789.7780457201966
818.4801936475334
387.45432722603806
358.46387159759837
332.51729869361793
309.9454559369045
291.0844285035819
276.2335848792485
265.59961825106944
259.23917218683056
257.02053245083306
258.62250263362915
263.5736534809063
271.3170770485933
281.2776361396135
292.91398820261946
305.74908361227256
319.38186523408524
333.48649741204997
347.80511147686485
362.1382163094029
376.33511162514833
390.28537524673686
403.91176327099924
417.16449904108845
430.0167782629345
442.46127865998585
454.5074726903847
466.17956959186677
477.5149435417294
488.56293190139456
499.3839094729475
510.04856144904915
520.6372900798184
531.2396990509318
541.9541062407195
552.8870409326593
564.1526866513225
575.8722364017051
588.1731339011976
601.1881828403588
615.0545164190024
629.9124311127482
645.9041011381325
663.1722023165522
681.8584846319941
702.1023403226525
724.0394176449606
747.800328789861
773.5094937887652
801.2841513455061
372.04625148142014
343.8560911814266
318.9105894411235
297.5768688950974
280.21413053246533
267.11902443603765
258.4588328606771
254.21218589601804
254.14255072810332
257.81951576701204
264.68076453648894
274.11002903406916
285.5053308402451
298.3237992811912
312.1025323150916
326.4620595215298
341.1000283165984
355.78085616921715
370.32475102961286
384.59773729260695
398.50326769957735
411.9754659315222
424.9738188445626
437.4790714795148
449.49008437114884
461.02144564436145
472.1016684718861
482.77183881440817
493.08460614297815
503.10343088319496
512.9020174815403
522.5638724484913
532.181933680741
541.8582219516845
551.7034687742969
561.8366779256665
572.3845817629729
583.4809589424943
595.2657879720039
607.8842215659511
621.4853799635813
636.2209765805999
652.2438053653369
669.706134276959
688.7580613752386
709.5458971712085
732.2106377049502
756.8865867381202
783.7001730096549
356.38882954374117
329.02441446658327
305.129909004719
285.11209698029876
269.35128344849437
258.13141689216786
251.56283323680265
249.52609747328944
251.6649935376569
257.43562453734694
266.19081944060815
277.2665803638622
290.04607984228556
303.9941579368407
318.66778399907156
333.71187322021973
348.84840334861394
363.86382344306946
378.59726836886614
392.9305435013892
406.78004123539915
420.09040470753985
432.829645886651
444.9854247392457
456.562235940225
467.5792980751693
478.06898457068576
488.07567156222916
497.6549052033432
506.87281057025257
515.8056777209208
524.5396690012849
533.1705965996912
541.8037217728663
550.5535281941977
559.5434226024395
568.9053174764389
578.7790539469936
589.311629599423
600.6562059812348
612.9708848035891
626.4172596253276
641.1587700117034
657.358905702385
675.1793265023771
694.7779765205179
716.3072765219463
739.9124740627965
765.730217761012
340.48683081494426
313.97676822900115
291.19068891245
272.5783797549139
258.5372331571227
249.32448414851785
244.97156142389053
245.23875374076397
249.63681790431883
257.5080537553758
268.1302565029095
280.80530034362204
294.91366459288474
309.9363420026305
325.45491595624713
341.14070995659034
356.74039570049877
372.06195808329244
386.96260679039204
401.3389974790797
415.11958674683086
428.2587681959716
440.732424028058
452.5345751688472
463.6748757230315
474.17675556735026
484.07606213429386
493.4200883882668
502.26690005080127
510.68489311674887
518.752524321065
526.5581638997363
534.2000229369992
541.786107864876
549.4341533093617
557.2714825524947
565.4347436165332
574.069469715867
583.3294169510247
593.3756408937394
604.375287981201
616.5000975070805
629.9246345083974
644.8243007951629
661.3731973921199
679.7419326855659
700.0954826000042
722.5912092283245
747.3771314882923
324.34516652375567
298.7222141138216
277.11148376209536
260.00875615479254
247.82147400031022
240.7608132308349
238.75235326472495
241.412557676924
248.10886039936696
258.0743844684291
270.5255004360288
284.74499391858194
300.1224735137126
316.1624860367656
332.4749462389583
348.7588751118881
364.78557426451516
380.38386843669804
395.4281324431387
409.8289631966608
423.5260666854619
436.48289441390034
448.6826238422227
460.125160234935
470.82491448511666
480.80917423588335
490.1169333246066
498.7980792986019
506.9128630673679
514.5315909582342
521.7344893484811
528.6116970443215
535.2633417427755
541.7996551624987
548.3410776623194
555.0182983990765
561.9721725486204
569.3534543405696
577.3222853960815
586.0473839431343
595.7048935138872
606.4768706057772
618.5494191876289
632.1105138499278
647.3475889940335
664.4450033817945
683.5815116894601
704.9278822886761
728.6447904421111
307.96893996007714
283.2713353898215
262.91496127617404
247.443691183692
237.26348188525483
232.51317302766395
232.9803104422167
238.11411350636047
247.13330481183016
259.17221571335915
273.40287011475255
289.104751285547
305.68759344561096
322.68566634977464
339.73990048258247
356.57762624436634
372.9943408024361
388.8388514614769
404.00175167980075
418.4067006244459
432.00390085474396
444.7652437719541
456.6807041878536
467.75566983577755
478.00897608592135
487.47147988874514
496.1850532740807
504.20190938713745
511.58419632499385
518.4038084544063
524.7423732456867
530.6913752097963
536.35237817681
541.8373036194512
547.2687167058987
552.7800641162964
558.5157995423979
564.631325803941
571.2926787267093
578.6758797758439
586.9658944327645
596.3551534710891
607.0416254148215
619.2264692887418
633.1113433984272
648.8954917826259
666.772766896869
686.9287667872661
709.538261603686
291.3635330302384
267.63679303986555
248.62926848845575
234.93320373571694
226.9349039701628
224.66582625669332
227.73839837925732
235.413602392948
246.76303251980673
260.8388233320169
276.788515711817
293.9040194757909
311.6249115876291
329.5199904783218
347.2628806391722
364.60922378096075
381.3779656981718
397.43691467326676
412.69191902668666
427.07885936551406
440.5577458747
453.10836531634425
464.727066877712
475.42439150146595
485.22333545672393
494.158100856307
502.27322939050197
509.62304557621337
516.2713559285817
522.2913631798621
527.7657616905848
532.7869826070716
537.4575558035408
541.8905506806946
546.2100499164646
550.5515998790532
555.062569585463
559.9023383506448
565.2422228711816
571.2650504056876
578.1642894522183
586.1426663354123
595.4102278595908
606.1818568884835
618.6743061722749
633.1028786997788
649.6779395260241
668.6014821340326
690.0639814314202
274.53475014678764
251.834134406138
234.28993240343436
222.53964080067203
216.92210340255573
217.31569401789875
223.11713734221007
233.38385436990197
247.05087870822746
263.11083911679407
280.70839435604626
299.1626977946946
317.9512281609711
336.6806911042832
355.05813534908657
372.8669813541828
389.94862137482244
406.1887938637827
421.5076393472651
435.85246533313335
449.1924669681523
461.5148549351712
472.82200324928317
483.1293476773211
492.46384906241593
500.8628939219428
508.37354460468424
515.0520783679543
520.9637726427699
526.1829049179453
530.7929416151767
534.8868919332531
538.5678003664297
541.9493456571249
545.1565044591529
548.3262252240584
551.608042413981
555.1645443741246
559.1715922860923
563.8181759177271
569.3057888306877
575.8472163917872
583.6646590487774
592.9871635321931
604.0474045622174
617.077942235208
632.307162493966
649.955172754925
670.2299547670877
257.48905341053324
235.88298428178354
219.9425237264073
210.34126498443024
207.32898984832462
210.57315132055484
219.21374089171394
232.09910764559515
248.04883457203155
266.0239766869687
285.18829271934754
304.9012585895271
324.6843799964682
344.1842243954564
363.1411315801397
381.36531500349173
398.7194122608628
415.1059652468644
430.4584627111701
444.734898913438
457.91310051054427
469.9873040460575
480.9656313021588
490.86822396725427
499.7258769847268
507.5790627831493
514.4772742963175
520.4786386497267
525.6497691516123
530.065833012719
533.8108173520965
536.9779772067104
539.6704466808546
542.0019879817086
544.0978426838756
546.0956349986043
548.1462582586403
550.4146540969402
553.0803708108022
556.3377665733632
560.3957096465069
565.4766283047301
571.814785189719
579.653700404848
589.2427268426604
600.8328848466547
614.6721770383635
631.0007054401158
650.0459759096891
240.23394524797388
219.80882472465572
205.64641130354278
198.4368213254824
198.27994417774516
204.56213921114212
216.13056583686995
231.63348594441806
249.8072524025306
269.61283154189346
290.25390361772367
311.1408943819429
331.8433752187435
352.04837269885707
371.5286270290155
390.1197902625627
407.70439995076487
424.2006504209382
439.5544702058961
453.73386279013096
466.7248055469998
478.52823708185986
489.1578219126692
498.6382871098823
507.00419571377677
514.2990684769645
520.5747966928473
525.8913097106198
530.3164744638083
533.9262129409635
536.804828119662
539.0455299550171
540.7511505849777
542.0350316642672
543.0220561199077
543.8497810281672
544.669607331648
545.6478959114427
546.9669093836362
548.8254279524743
551.4388611732877
555.0386637005349
559.8708723299037
566.1936244756288
574.273601947119
584.3814676739877
596.7865134574354
611.7508864834247
629.5238741562086
222.77859393349678
203.6456967518464
191.4800678106257
186.95119086436134
189.9224461537771
199.41919120282864
213.9727863339018
232.05927602240328
252.37412378834614
273.9107812143159
295.9309619283224
317.90369198245753
339.44853917028576
360.292351437241
380.2387425984103
399.1471658987191
416.91862190292966
433.48581220955293
448.80624859780966
462.85733729599025
475.6328022047138
487.14003586361906
497.39811246435903
506.4362913497673
514.2929006891206
521.0145312234836
526.6554966212962
531.2775347712962
534.949736174862
537.7486932096646
539.7588683370645
541.0731806374878
541.7938082316439
542.033198637141
541.9152690561727
541.576762918096
541.1687066461316
540.8578808944244
540.8281837166371
541.2817214504415
542.4394216156768
544.5409297695873
547.8435420737756
552.6199530634844
559.1546783789184
567.7391518681422
578.6656866599417
592.2207004231692
608.6777864935256
205.13486924580465
187.44037013352434
177.54854741389937
176.04205750759755
182.4287223488615
195.29092776780183
212.84530499880537
233.445143831365
255.7945076177183
278.95000726634066
302.2454430610305
325.2128338302008
347.5216716768666
368.93691993121945
389.2910340216719
408.4654327501181
426.37810164637284
442.97513904645615
458.2248513573009
472.11352079029064
484.6422946080552
495.82484869002883
505.68560604416575
514.2583717529914
521.5852975951909
527.7161231804118
532.7076626041288
536.6235205079895
539.534031536026
541.5164239746698
542.6552125926404
543.042827543967
542.7804853874661
541.9793040957844
540.7616552480752
539.2627319195487
537.6322883573717
536.0364757016677
534.6596557937332
533.706023232266
533.400808169304
533.990777625278
535.7437163274398
538.9465702844163
543.9020012590904
550.9232465498578
560.3274073559495
572.427572482176
587.5244606394081
187.31909188513094
171.25888611440473
163.99390101600227
165.90710466775673
175.9953651563398
192.32963623934518
212.84906814294305
235.85447655524666
260.11018138812443
284.761654427532
309.223825114837
333.09282649446595
356.08621568237555
378.00449566842445
398.70656137665026
418.09384569060705
436.0998480031432
452.68301508895183
467.821743091086
481.51075212872917
493.7583755338324
504.58448167987495
514.0188541465309
522.0999228982478
528.8737813879939
534.3934516606358
538.7183774302009
541.9141372651684
544.0523785589799
545.2109791083191
545.4744474600681
544.9345758143583
543.6913598334881
541.8541973901332
539.5433717765474
536.8918123306598
534.0471044411119
531.1736887810947
528.4551438929225
526.0963856332166
524.325543203993
523.3951917170662
523.5825509084416
525.1882242444035
528.5330862421378
533.9530629023295
541.7918097953402
552.3916571868891
566.0835923227679
169.3550700615222
155.19697259064372
151.0092916405074
156.79047169772326
170.8395285708577
190.68680173531436
214.0771403000296
239.34406343767768
265.3595755369999
291.37613430820454
316.893413923814
341.5697560406562
365.16743715528185
387.5192712484065
408.5079547948695
428.0529462225846
446.10184025227227
462.6244726513976
477.60872385930907
491.0574117844329
502.98590961637206
513.4202695720314
522.3957206007402
529.9554612543708
536.1497020132548
541.0349324466739
544.6734025058048
547.1328169069444
548.4862487092407
548.8122838237871
548.1954127814327
546.726689677972
544.5046804338383
541.6367225093985
538.2405145965605
534.4460454631655
530.3978531656767
526.2575756008241
522.2067067180158
518.4494059718709
515.2151203383042
512.7606724073402
511.3713583681477
511.3605139949663
513.0669889238798
516.8500737697849
523.0816970655171
532.1361561518517
544.378201630717
151.2795540125861
139.39676813978446
138.85709809183248
148.98590047798288
167.19021962935057
190.50493783222
216.61106549786697
243.96331762029268
271.5780276222067
298.82357297718295
325.2827286503559
350.6715697887038
374.79261596055477
397.5073328139222
418.7194740940373
438.3645725226442
456.4029954406071
472.8151228315735
487.5978291801115
500.7617975826273
512.3293914199828
522.3329228153789
530.8132241910706
537.818469436194
543.4032157788554
547.627652949604
550.55705650239
552.261449553465
552.815483109082
552.2985503896925
550.7951555035485
548.3955615047889
545.1967469475003
541.3037027226715
536.8311008484061
531.9053617786535
526.6671334632229
521.2741693562098
515.9045481435298
510.76010879574466
506.0698752747516
502.09311480406507
499.1215210513807
497.47986553489557
497.52436829473083
499.6380779935882
504.22280509802056
511.68766868549193
522.4350545227367
133.15244075250916
124.07357517608811
127.88969127845232
142.83224432502595
165.2737823614865
191.90873267802928
220.51812858664562
249.7541894005342
278.7983651451917
307.1343944758471
334.42194455376875
360.428383852647
384.99124705647336
407.9967781890074
429.3670592965468
449.051852897891
467.0231131428087
483.2710593225056
497.8012007150602
510.6319703106187
521.7927741307284
531.3223473646494
539.2673571759193
545.6812204148249
550.6231213644747
554.1572251020564
556.3520890654902
557.2802807865594
557.0182145823078
555.6462249348883
553.2488996579045
549.9157017891323
545.7419151985334
540.8299544811257
535.291083554697
529.2475873736666
522.8354339451225
516.2074443787101
509.5369500049021
503.0218486876379
496.88886748139953
491.3976880983749
486.84439628712005
483.56349654972814
481.9275427698876
482.34336856350586
485.2440867036418
491.0765797475357
500.285137338613
115.07673797194877
109.55748200644179
118.56771294056064
138.69549668887413
165.29433671513618
194.99715660170534
225.85006733911734
256.7518366860223
287.05179803678675
316.3400270424243
344.3433890878343
370.8728156927622
395.7952508678842
419.01783213401427
440.4783679949217
460.1391775122262
477.98279185523853
494.0087293327339
508.2309216643607
520.6755636483612
531.3792639767433
540.3874331394873
547.7528766343578
553.5345796500122
557.7966794956747
560.6076280518643
562.0395506379107
562.1678112863876
561.0707983184294
558.8299488397859
555.5300366078015
551.2597547383843
546.1126327752312
540.1883362382383
533.5944048730745
526.4484915531355
518.8811639196892
511.03932019652586
503.09024127464176
495.2262418915673
487.6697801193866
480.67872098899
474.55121668791026
469.62937016444266
466.30053737373316
464.99490348663085
466.17801714972745
470.33749091512163
477.96419445975005
97.23923865087669
96.35373304763239
111.46303511241743
136.9323368007138
167.4126229870182
199.83841406782463
232.64356204565513
264.9860212043442
296.3690796484097
326.4737160364143
355.0820875152474
382.0403406631389
407.2391909310195
430.60295502100035
452.08279421405985
471.65214184218655
489.30330981949214
505.0447642425005
518.8988097613943
530.8995519225718
541.0910747620424
549.525806602526
556.263065281642
561.3677830207904
564.9094153864555
566.961040937571
567.598659773576
566.9007012676819
564.9477544025926
561.8225387212843
557.6101402200968
552.3985446834035
546.2795109731159
539.3498383788314
531.7130945971121
523.4818827570102
514.7807343357315
505.7497148673369
496.54881282542624
487.36313613811706
478.4088469944578
469.9396002693894
462.2529898485427
455.6961387768721
450.66912079029885
447.6244780633748
447.060922981865
449.5097014325087
455.5133424156555
79.99444587345323
85.21890531664869
107.22154617423168
137.83688464728982
171.72920955155496
206.4691775218304
240.92250294124688
274.4831143520733
306.78188225491954
337.5714273948655
366.67635464555235
393.96967110581966
419.3604958154506
442.7869397441731
464.21146171946447
483.6174535539128
501.0064613554523
516.3957610561639
529.816159407859
541.3099681010901
550.9291360919694
558.733542379033
564.7894581123678
569.1681883645393
571.9449031671435
573.1976662808153
573.0066696767594
571.4536825151566
568.6217259348409
564.594989521193
559.4590121326768
553.3011590394357
546.2114391958683
538.2837209291614
529.617421063032
520.3197605645281
510.5086970629645
500.31665678426407
489.89518775169813
479.42062911126726
469.1008167079441
459.18269128222585
449.9604032844712
441.7830800732969
435.0608312347952
430.2668969780094
427.9333359148618
428.63774814599384
432.9797778866044
64.02403006814725
77.23047804580052
106.45386816207878
141.58580327503006
178.27821033270584
214.8984673441631
250.7017181754656
285.2685447702539
318.32433086698654
349.67282757707005
379.168429900473
406.70315579346345
432.1996807800157
455.6069896850399
476.89718251722064
496.0627922657064
513.1143376788812
528.0780038384921
540.9934229233374
551.9115632191596
560.8927479917808
568.0048282920123
573.3215309694169
576.920998411842
578.884531675839
579.2955448240124
578.2387360809485
575.7994812453569
572.0634569103481
567.1165056584059
561.0447627299875
553.9350739711871
545.8757484341346
536.9577061038052
527.2761019796529
516.9325318475906
506.03795128551076
494.716464603991
483.110157856186
471.3851469499855
459.7389655452061
448.4092906689282
437.6837422316745
427.91002863475967
419.5049904750654
412.9601442069511
408.8403735537058
407.77201511619035
410.4176024816696
50.5574404470259
73.74854595065585
109.55641338602447
148.20785311998617
187.03431286267184
225.1153051154601
261.9916434225332
297.36950922641597
331.034646432543
362.8223297117813
392.6051534392223
420.2871962949203
445.8005624574607
469.1027679049047
490.1743684575035
509.01660886737
525.6490386054069
540.107112096093
552.439819078018
562.7073970712593
570.9791736924664
577.3315776459084
581.8463469217952
584.6089529440768
585.7072512123573
585.230362975819
583.267788972779
579.908755427874
575.2417944219852
569.3545655603111
562.3339337525633
554.2663291891683
545.2384306793466
535.338232952006
524.656582884361
513.2892993214384
501.34002598062045
488.92400521917955
476.17299736344154
463.2415949648639
450.3151719014768
437.6196236003317
425.43282991621294
414.09730813925825
404.03270584910763
395.74554813376284
389.8321482356656
386.9694257793045
387.88879406016605
41.73613646923904
75.96489215948465
116.5608046834378
157.59670491073555
197.9306692499639
237.09845382576623
274.8033782710802
310.81779455110427
344.95686347174825
377.0702002334989
407.0386812366092
434.7726749139775
460.210456878729
483.3164042435737
504.0788802268257
522.50784759493
538.6322984331235
552.4976004552765
564.1628550344319
573.6983485332335
581.1831614226595
586.7029821137533
590.3481562153537
592.2119881379263
592.3893011508236
590.9752544005761
588.0644110486147
583.7500505397559
578.1237200169107
571.2750250772382
563.2916685739498
554.2597583410513
544.2644211120991
533.39078131356
521.7253908572786
509.35823066832614
496.38544740663104
482.9130397265159
469.06176512922997
454.97359329664494
440.82006612387585
426.812899386431
413.21700204639427
400.3656710599884
388.6768607941619
378.66793829540677
370.96420402412105
366.29423225967145
365.4643627012566
41.941942278812725
84.04949213491923
127.14754466468519
169.5605151713518
210.88155745571612
250.82646892052946
289.15368177933976
325.65260800340394
360.14260443650153
392.4737248398369
422.5272364391674
450.2153859345546
475.4803470588248
498.2924424115329
518.6477933936632
536.5655697628729
552.0850055698415
565.2623309749963
576.1677455731906
584.8825323601047
591.496385170705
596.1049982304148
598.8079455932005
599.7068613411478
598.9039187077499
596.5005977022305
592.5967261388619
587.2897779548086
580.6744151196034
572.8422652119971
563.8819359685087
553.8792811418868
542.9179495088192
531.0802718549087
518.4485706723304
505.107015970332
491.14420012696735
476.6566670339481
461.75370649073585
446.5638104681861
431.24327044893806
415.98744092719437
401.0451295026475
386.73625492844815
373.47209520925435
361.77578865352854
352.2979791825549
345.81891687548716
343.2257386441901
53.0458526356027
96.98045594758973
140.81978879086438
183.88209888166955
225.8037135006025
266.2867833775316
305.0696429129708
341.9233712563943
376.6529105143564
409.0984363366698
439.1358926057915
466.67645761066416
491.6650008128309
514.0777031695604
533.9190553318193
551.2184527984767
566.0265910745097
578.4118360314551
588.4567110812935
596.2546078308412
601.9067936790195
605.5197603798244
607.2029330603975
607.0667400091274
605.2210296951195
601.7738126065186
596.8303011177118
590.4922202259617
582.857365241976
574.0193891638252
564.0678125491081
553.0882625750335
541.1629663846215
528.3715479742411
514.7922095791502
500.50342024217764
485.586289228846
470.12787400448883
454.2257653570868
437.99440759066397
421.57374412781854
405.1409047525748
388.9257053809622
373.2305666127203
358.45477787175776
345.1213398639531
333.9012862445712
325.6252181596477
321.2664477684157
70.75524919541886
113.4067516093439
157.09080398302837
200.36637457093394
242.63285729164846
283.4832652759533
322.5929511365164
359.6924871094576
394.5601439156163
427.01940911236164
456.9373810118029
484.22274613237414
508.82301196616476
530.7210318987388
549.9309995134311
566.4941318625843
580.4742561884952
591.9534859862413
601.0281333711097
607.8049633450387
612.3978565724341
614.9249134409376
615.5060048153041
614.2607543112164
611.3069228007174
606.7591575410361
600.7280649947921
593.3195673272185
584.6345071269791
574.768472751118
563.8118278085542
551.8499430115738
538.9636477495824
525.2299436508453
510.7230551999599
495.51593621381545
479.6824098739818
463.3001996790392
446.4552160209603
429.2476052411281
411.8002487145239
394.2706092438608
376.86701451294357
359.870508535086
343.6629740287882
328.7606892456274
315.8487923707661
305.80528431529063
299.6941328403103
91.07996561777334
132.34184120733306
175.58357471472812
218.8674935484193
261.33485369282596
302.4422948545839
341.7838436440999
379.0381313400953
413.9499884803316
446.3226248303581
476.01290831077534
502.9271739485757
527.0167280349193
548.2728888027946
566.7216745459488
582.4183437588345
595.4420031769138
605.8904719532334
613.8755461942532
619.5187602697765
622.9476967495355
624.2928591412599
623.6850922593557
621.2535141088018
617.1239098955557
611.4175320637519
604.250248923037
595.7319873987134
585.9664218920942
575.0508706868947
563.0763736747481
550.1279407369934
536.2849797735743
521.6219386244564
506.20922834008655
490.11453992838506
473.40472791036836
456.148518944856
438.42042229049713
420.3063835555309
401.9119476630943
383.3739888184953
364.877405100319
346.6784631114059
329.1364120169712
312.7538313994584
298.2224664583318
286.46293459419724
278.6329655459353
112.92667624384275
153.22243221249735
196.0515060597135
239.29989947918727
281.91272595885755
323.2177756628813
362.72490464881173
400.0571530098966
434.92358291409005
467.10641051205994
496.452961467603
522.8689723430393
546.3120139601118
566.7847270772319
584.3279341211335
599.0138239796511
610.9394275324115
620.2205701955977
626.9864356763811
631.3748193656397
633.5280993372196
633.5899119645208
631.7024889652286
628.0045927740998
622.6299761570752
615.7062882153102
607.3543507152416
597.6877345992748
586.8125755293088
574.8275787710588
561.8241774860378
547.8868249092968
533.093420876449
517.515898352239
501.22102856162115
484.2715478929864
466.7277716765213
448.64994773027036
430.10172862880324
411.15532363354475
391.89915259465
372.449191117302
352.9656828299874
333.6774536099896
314.9164530641976
297.16462391068615
281.11193272013406
267.7149627432995
258.22644407303767
135.97075077485715
175.76771350423664
218.36484432474168
261.6407119362102
304.41128223741276
345.8956433618691
385.5249460965927
422.8681863291961
457.5998234600391
489.4829421709228
518.3580625075037
544.133770682298
566.7777835346552
586.3080879699556
602.7842204867765
616.2988976879268
626.9702231424411
634.9346514979836
640.3408253756108
643.3443345308485
644.1033901067256
642.7753635642539
639.5141105271107
634.4679828627013
627.7784255333014
619.5790556112585
609.9951271193894
599.143295237968
587.1316056497525
574.0596486634106
560.0188331012272
545.0927521539276
529.3576334979389
512.882890677738
495.7318247976247
477.9625690683024
459.62942995041476
440.78486701277774
421.48248365899934
401.78159455991545
381.75422549182935
361.4958321616749
341.1416473066023
320.8914005908714
301.0460678798965
282.06064043217197
264.6146283337991
249.69232895433873
238.6404429116559
160.12370185129944
199.87066012887365
242.49141996999853
285.92922206392154
328.9209604764893
370.5984521639479
410.3232240565452
447.61508818537067
482.1178693080315
513.579792554325
541.8394141361775
566.8134504434151
588.4852064480099
606.8933210319634
622.1209579924063
634.285694489536
643.530345997729
650.0148970475648
653.9096220780627
655.3894021603702
654.6291809373503
651.8004595804778
647.0687047322183
640.5915322434311
632.5175294191835
622.9855860194994
612.1246165591198
600.0535713708307
586.8816500307547
572.7086473675172
557.62537929292
541.7141535979596
525.0492707755897
507.69756372281665
489.7190156960339
471.1675374583208
452.0920437396958
432.5380561062033
412.55019011723914
392.1760846872186
371.4726411328344
350.5159204857638
329.41678818454983
308.34549234315296
287.56982164867287
267.5128570204383
248.83560008676818
232.54093259554207
220.0661037463441
185.40723130573915
225.53876820430924
268.48226389362367
312.26691156804407
355.582139718716
397.49058519246285
437.2942564502751
474.4708193259648
508.6398724829011
539.5414772592094
567.0193456172167
591.0056485277563
611.5064677969231
628.5878123273837
642.3624548081318
652.9779057113965
660.6057774711333
665.4326831053669
667.6527029505489
667.4613611571265
665.0509875431082
660.607300196592
654.30702595295
646.316374246022
636.7901895715713
625.8716243975188
613.6921943506006
600.3720985173522
586.020708295046
570.7371478035503
554.610907495806
537.7224509623304
520.1437943019529
501.939059834686
483.1650343476506
463.8718009410281
444.1035696673637
423.8999161580561
403.2977663761072
382.3346675324321
361.0542065069419
339.51495455828615
317.805153031413
296.06668418320163
274.53386478797364
253.59509697844635
233.88668880324008
216.42140871453677
202.72161982242184
211.9127113375516
252.86555069175074
296.4642908671259
340.8197812855211
384.59086900309086
426.78460525394576
466.65351671186704
503.64188368184364
537.3539304795295
567.5309147312126
594.0314220762205
616.8127482338448
635.9129166409841
651.4335724636649
663.5241906731932
672.3679928832414
678.1698268091332
681.1461018115466
681.5167338864085
679.498949914465
675.3027363181869
669.1276865023535
661.1609966253422
651.5763720944668
640.5336305129977
628.1788150710199
614.6446616867257
600.0512911610327
584.5070229842785
568.1092299115758
550.9451723858963
533.0927702915988
514.6212878802818
495.5919282060918
476.05835915404737
456.06722870337705
435.6587793654874
414.86775168128247
393.7248920305468
372.2595806263951
350.5044225936289
328.50318714288954
306.32438930393806
284.0843335245773
261.98591923978915
240.383136513157
219.88474624613082
201.5070332174692
186.85105482455478
239.7883503567963
282.0197080769508
326.6398135654312
371.82399849534204
416.2068142608157
458.74926414304537
498.6642896259974
535.3734259510973
568.4772177390938
597.7306551321293
623.0200134874062
644.3401334686921
661.7723888136461
675.4640000644781
685.6093479757262
692.4337495308841
696.179916839799
697.097097328403
695.4327249588779
691.4263041358058
685.3051940995826
677.281949666768
667.5528907872297
656.2976067893687
643.679142284185
629.8446541758861
614.9263691654176
599.0427064805635
582.2994606146732
564.7909638193096
546.6011688271872
527.8046101157433
508.46721875515175
488.64698389725726
468.39447650470635
447.7532826574554
426.7604417478036
405.4470602113511
383.83939244316696
361.96087842009064
339.8359570674308
317.4970337757891
294.99694683353505
272.43096307401703
249.9752378553947
227.95335341328914
206.94843239140585
187.97840558386082
172.71706940945387
269.2387520115245
313.24546700057044
359.292502001828
405.59567548713517
450.76422405715596
493.7197321611171
533.6459890254182
569.9550539333325
602.2591797653133
630.3436397108874
654.1390234661174
673.6933972939239
689.1454251544303
700.699595914807
708.6044255442534
713.1341189848936
714.5738108348726
713.2082185840965
709.3133545788098
703.1508452129465
694.9643783204594
684.9778200265678
673.394590530805
660.3979491318355
646.1519017646069
630.802503014385
614.4793757213141
597.2973137513518
579.357867499709
560.7508382296223
541.5556279226257
521.8424077277384
501.6730824644187
481.1020435464792
460.1767215379108
438.93797709975837
417.4204125127608
395.6527566408681
373.6585929891455
351.45789590040073
329.0701718688711
306.52057763728266
283.85140203185233
261.1431203885653
238.55249621795926
216.3807938423284
195.19311168560978
176.01331079861063
160.58331634431826
300.53211181282285
346.8714518916491
394.7999692233233
442.54575669016265
488.6868536853469
532.1106963451447
571.9842438281507
607.7273829348339
638.9845525339672
665.5931096194885
687.5493411391972
704.9740841034898
718.0800291916427
727.1423617551361
732.4737645499431
734.4041845546529
733.265267388114
729.3790265777607
723.0501325493184
714.561145323848
704.1700368955632
692.1094193616988
678.5869864494765
663.7867711696952
647.8709103024263
630.9816820746544
613.2436450856951
594.7657547641475
575.6433700037936
555.9600892209413
535.7893741644231
515.1959337099461
494.23685102286737
472.9624486553707
451.41690086056167
429.6386255400288
407.6605271463655
385.51022827687314
363.2105412237743
340.780625444466
318.23861409000074
295.6070861982481
272.9238267762415
250.2622646369161
227.76955083919347
205.7365539775838
184.72350898125265
165.77049892897924
150.682815925428
334.01400132839626
383.3277475409203
433.65398090788614
483.2014170851833
530.5080585060299
574.4331007887719
614.1430391911683
649.0891655017332
678.9757696325137
703.7210668345035
723.4143869707543
738.2734003906254
748.6045204407234
754.7685826226698
757.1528227909587
756.1492838262604
752.1391613895703
745.4822509901104
736.5105273811092
725.5249046544161
712.7943284542104
698.5564924741846
683.0196180739941
666.3648703038887
648.7490974987337
630.3076727381153
611.1572851786274
591.3985804784359
571.1185856926588
550.3928784961511
529.2874764783734
507.8604323654726
486.1631280615418
464.2412672671848
442.1355767048079
419.88224463897166
397.5131600125118
375.05607838219396
352.5349525957203
329.97086293305256
307.3843285842302
284.8004016848874
262.2590688532971
239.83555662779412
217.67896460419308
196.08444216067184
175.62422254534022
157.3676802455624
143.17316462914604
370.1285707577036
423.17250052935213
476.4903215584784
528.2360576752994
576.8976805537277
621.3154501550024
660.679113207567
694.5046192685645
722.5939921947293
744.9843653351023
761.8928578421945
773.6631497669252
780.7179489846216
783.5196760241447
782.5400715103121
778.2382683064728
771.046191930589
761.3598738237856
749.5352584896043
735.8872398632594
720.690884769744
704.184033741783
686.5706798257828
668.0247007059282
648.6936560642453
628.7024638990891
608.1568422385672
587.1464524089271
565.7477123157962
544.0262677621033
522.0391204969329
499.8364166405653
477.46290119588105
454.9590464465352
432.3618677168093
409.7054542726615
387.02127392775105
364.3383701029662
341.6836817056211
319.08291797708085
296.56278248923377
274.15599291130746
251.91173197699317
229.91635254792345
208.33316073530233
187.47701559412783
167.94897464721583
150.85705158793664
138.08865890862256
409.44952279856864
467.1311211705043
524.1317527176026
578.5109989373628
628.697927876507
673.5307300449329
712.2585784614691
744.5101095464609
770.2374669147339
789.6470305874598
803.1274202407956
811.1829391159745
814.3774626854372
813.2908182026345
808.4874790163261
800.4960494214204
789.7974229324789
776.8194328210916
761.9360516122089
745.4695613583333
727.6944976903299
708.8425096143766
689.1075514320785
668.6510313064836
647.6066910134084
626.0850947129509
604.1776724115076
581.9603057998197
559.4964679822372
536.8399400378265
514.0371306766458
491.129023752516
468.15277480749586
445.14297489839237
422.1326011083993
399.15368340690446
376.2377449871087
353.4161315290579
330.7204575702532
308.18360689214535
285.8421034441287
263.7413571672722
241.94653866761988
220.56410499340035
199.78302423249545
179.95126306004292
161.71044123474442
146.20506159093208
135.30826708420125
452.725059334501
516.153409516935
577.6495555136884
635.1334704364637
686.9712035839542
732.0300250819502
769.6752116879213
799.7185282018623
822.3350705044419
837.9667100305909
847.2276434003792
850.8224877965674
849.4819978026351
843.9171648840284
834.789717457073
822.6957615283313
808.1590798352405
791.6309881676824
773.4942755836264
754.0694078079623
733.6217397211874
712.3689265867563
690.488047360378
668.1221766573063
645.3862882217993
622.3724634275136
599.1544306129547
575.7914877416556
552.3318710812248
528.815632586367
505.2770827046518
481.7468463770673
458.2535704256612
434.8253126640418
411.49064004302693
388.2794698395156
365.22371256203246
342.3578321539777
319.7195531736888
297.35115993656996
275.30222753885016
253.63533968123178
232.43763174839992
211.84326374800452
192.07573251440746
173.52438286860124
156.87316882224118
143.28428675339248
134.55701386826325
500.9437958191028
571.497394361133
638.4523414555852
699.5377142808327
753.0637667848279
797.9836308429905
833.8687471218125
860.8182773471436
879.3315678341108
890.172183960995
894.2449237661672
892.4977097263456
885.8517648694525
875.1577277974382
861.1725209764979
844.5511519809503
825.84826232815
805.5253808638117
783.9610149766022
761.4617030489023
738.2728947701365
714.589041544652
690.5626147701697
666.3119750851082
641.9281324853911
617.4804967367817
593.0217416024268
568.5919096070614
544.2218756663968
519.9362736694246
495.7559734921556
471.7001791083733
447.78820304855606
424.0409601610486
400.4822170584862
377.1396373489326
354.0456849330706
331.23850286225706
308.7629992034915
286.6725891573379
265.03244307717233
243.92580868554134
223.4662364966789
203.8206640227092
185.2515774260159
168.19019701317913
153.35186916834766
141.88205388821947
135.44323569683957
555.4332966145669
634.8544103004037
708.4159611559119
773.5993134822238
828.6900633469794
872.8293984929926
905.9392768547837
928.5612883270238
941.6590733234048
946.4275812581632
944.1366120932289
936.0192532733242
923.2033367990076
906.6774262937091
887.2810760166715
865.7101905226459
842.530525116362
818.1946184781352
793.0592724001476
767.401990771057
741.435633675419
715.3210506977671
689.1777395680547
663.0927157603883
637.1278334031783
611.3258053317454
585.7151533499411
560.3142922705804
535.1349205806187
510.1848605151704
485.4704627596722
460.9986667374109
436.77878699025837
412.8240803657116
389.1531394824573
365.7911592463523
342.7711427529524
320.1351649443772
297.9359221265534
276.2390066620766
255.1267327962608
234.70502149477215
215.11600558604715
196.5608324830408
179.33955577598965
163.9166586167709
151.01604897856433
141.723928626548
137.51629425652595
618.0111086460843
708.5399039694643
790.0768808484236
859.7976771651929
916.0430629861155
958.3252089675107
987.1494895282904
1003.7303141947104
1009.6862205509913
1006.7774291510802
996.7162405305107
981.0526083715564
961.1208824854458
938.0285956886838
912.6699673432893
885.7513685322268
857.8206025343458
829.2954262215699
800.4891115154946
771.6322663623329
742.8909038773187
714.3811153609671
686.180840033396
658.339240119114
630.8841482360723
603.8279903251392
577.1725199498119
550.9126372982773
525.0395119236027
499.54318274648597
474.41477147579934
449.6484153563266
425.243001181635
401.2037645917594
377.5438077973092
354.28558812182
331.46244582671545
309.1202853818316
287.3196225776047
266.1383996775005
245.67631514826334
226.06200633961225
207.46537423485736
190.11869428594926
174.3515730201973
160.6446171662294
149.69997102388433
142.50464269159988
140.32322605790202
691.2233349926017
795.7925101875246
886.9258841973034
961.4483876314699
1017.9345337827913
1056.5956547996814
1078.8981198736885
1087.0688758728934
1083.632524527833
1071.0653059204674
1051.5871571886114
1027.0701055969116
999.0254393620567
968.6343730917251
936.7970261553739
904.1846857670288
871.2878532472873
838.4571492074422
805.9366087853897
773.8900358150337
742.4214959355728
711.5910765892173
681.4269311164933
651.934460877537
623.1033240199879
594.9128131190511
567.3360226307208
540.3431303609285
513.9040417333139
487.99058763000244
462.5784222985535
437.6487341811858
413.1898572177182
389.1988518321384
365.6831133324274
342.66206263547326
320.1689849669533
298.2531164807911
276.98215479492205
256.4455177826869
236.7589421538289
218.07145959350402
200.57646128798024
184.52940001370123
170.27523648900822
158.28757278945642
149.21531928569382
143.91784819596518
143.45016543862545
778.7353312442175
901.2578936077773
1003.8640847232323
1083.0354425559717
1137.9619853615347
1170.1475095650035
1182.6324278675995
1179.146732501045
1163.4308740918723
1138.8187633130337
1108.0589276104906
1073.2976771500353
1036.1462704131607
997.7778863821711
959.0243332116207
920.4597862069254
882.4681811095359
845.2952119913462
809.0874277714781
773.9211556252958
739.8236813472835
706.7886646133006
674.787324069925
643.7765514588888
613.7048167018266
584.5164995645322
556.1551151929233
528.5657774170027
501.6971541009004
475.50310411599946
449.94413896581347
424.98881866266174
400.6151675052828
376.8121784663547
353.581463656309
330.9391028845315
308.91774489255295
287.56903198544626
266.9664595412296
247.20886612493393
228.42490575482046
210.77911367079344
194.48055389788942
179.79545693498278
167.0654070090091
156.7317284417513
149.3633726362613
145.67884901777364
146.54561836001284
885.99852648701
1031.801196774584
1147.9265205445033
1230.6800615119123
1280.67545129545
1301.794556116734
1299.6400866936883
1280.1194168752481
1248.5185204784138
1209.0966479941483
1165.0510455256676
1118.6636298662959
1071.5013060905178
1024.602835688201
978.6303847058465
933.9839095147172
890.8841066816865
849.4311412111156
809.6456069216558
771.4968112511839
734.9221672744959
699.8404132235044
666.1605810729568
633.788058842059
602.6286838508698
572.5915202304693
543.5907776805886
515.5471934780994
488.3891073148329
462.0533955314992
436.4863885430468
411.6448662874031
387.49720679165694
364.0247490736915
341.2234210212199
319.10567365176433
297.7027539483888
277.0673390964837
257.2765474258464
238.4353418699938
220.6803634478663
204.18429797315122
189.16102086723038
175.87201386506982
164.6349072735577
155.8353976234967
149.94397687818696
147.5383097595111
149.32971330812856
1021.4520802332036
1197.9280459126585
1329.455616574194
1412.769727700465
1451.6508784784462
1454.3612125346267
1430.6155907080906
1389.3279344910966
1337.5421956549417
1280.306615386262
1220.9981845186098
1161.7629518002968
1103.8969391645783
1048.1323549214092
994.8376224782753
944.1519970963842
896.0741541219382
850.5196411288514
807.3577086197954
766.43464814918
727.5883710280109
690.6573375277555
655.4858706799021
621.9271838053401
589.8449915587995
559.114275817888
529.6215842249901
501.2651140714341
473.9547537456868
447.61220267925796
422.1712584399288
397.5783394741991
373.7932990775105
350.7905765399692
328.5607213405956
307.1123115301998
286.47426279659726
266.6984836198381
247.86276743166002
230.07372084074538
213.46941607144373
198.2213660662538
184.53545864224873
172.65186738104615
162.8450237158274
155.42685138554458
150.7596171560527
149.28759516015631
151.59522171684958
1198.8002440975165
1416.4091087156803
1564.010626348468
1640.6887948031251
1657.1994594115733
1629.8883722162195
1574.8457065433379
1504.687572521868
1427.9932162063542
1350.024046811494
1273.7856737465409
1200.8574993054908
1131.959763028322
1067.313073614343
1006.8586203584466
950.3901361569892
897.6316333737172
848.2823137019177
802.0417868036268
758.6235689076893
717.7616771414636
679.2132245306601
642.7587667156273
608.201454765991
575.3656277553716
544.0952249899201
514.25224543205
485.7153913893571
458.3789809568643
432.1521842967742
406.95862339558363
382.7363673708927
359.43835119905356
337.03324080027943
315.50675702934944
294.86344891388563
275.1288635013805
256.35198399662426
238.6076863666086
221.99879031043886
206.65707202926734
192.7424469092915
180.4396272530539
169.95229367774553
161.49669989567724
155.30006620765104
151.61392938270006
150.75732032326334
153.2048261691896
1441.8298634675186
1715.2886328282332
1875.4896968902506
1929.1981034465152
1902.9713144203433
1827.8653178243703
1728.8144479790542
1621.9111201568971
1515.8500852951754
1414.879869115256
1320.7587637921338
1233.9365161062926
1154.2121141687307
1081.0889615048904
1013.9616938873717
952.2113447304528
895.2511858762607
842.5463387487724
793.6197111818706
748.0510682644797
705.4729108169186
665.5651211625764
628.0493981038132
592.6839916689568
559.2589724169213
527.5921249371057
497.525482551463
468.9224877020127
441.6657518804295
415.65538984736986
390.80790914794284
367.05564348685704
344.34672396980835
322.6455816742488
301.9339630665993
282.21240836967456
263.502080513737
245.84672404202502
229.3143656198581
213.99814128379177
200.01539521001516
187.50408073326003
176.61579566219967
167.5059245383541
160.3237136545219
155.20872884070937
152.30499112014348
151.81051979860086
154.0870668003028
1794.5154220181716
2144.693218770531
2300.295952586561
2294.6577905092236
2189.914193962363
2041.5636884468145
1884.4306414676178
1733.784676962187
1595.4057299852589
1470.6172861380066
1358.8554229723732
1258.858065678603
1169.1972185254856
1088.5040036888863
1015.5523932058644
949.2795684386386
888.779253354022
833.2848906997475
782.1503171233353
734.8312383760135
690.8687588080902
649.8752799827471
611.5226757729563
575.5324974312923
541.6679262730979
509.72720780595824
479.53833758321707
450.9548108049468
423.85228800726185
398.1260651807531
373.68926700318
350.47170545555895
328.4193611132393
307.49444753880556
287.67600469496705
268.96092610539887
251.3652440810756
234.92536369801843
219.69874174437325
205.76326987775852
193.21442313387644
182.15926941965284
172.70702707164332
164.9573408107839
158.9897988608483
154.86069019355187
152.61535092652636
152.33164354316202
154.23169929793735
2352.414775802392
2796.1579664195824
2890.8968768896584
2745.9428917167493
2502.4569107724337
2253.7364876801807
2027.5616688142218
1830.0132914352334
1659.5203842061517
1512.4198199404373
1384.8961283386652
1273.575587594819
1175.6473018271136
1088.824260888306
1011.2617878302528
941.4741770379308
878.2622962806231
820.6545102059753
767.8597717073823
719.2308031192226
674.2353025361537
632.4334139221332
593.4600502820181
557.0109737953993
522.8317946435985
490.70925321836444
460.4643073291186
431.94666658093035
405.0305086182994
379.61118282939196
355.60276076194054
332.93633122893056
311.5589619453268
291.4332559861361
272.53741469463273
254.86566973828505
238.42885403279024
223.25473396134015
209.38752630373995
196.88581177160276
185.81794681926078
176.2542918225124
168.2564333237201
161.86529772267957
157.09226757140675
153.9184847003233
152.3048668745776
152.21429111329786
153.68450653624217
3312.3957057830776
3863.4694934831437
3700.932679851353
3235.434354066568
2798.0038331884484
2433.9720088158792
2138.525583726947
1898.2198213117606
1700.496335537735
1535.5491074983318
1396.0181122560018
1276.4251019166556
1172.6713043943826
1081.6604007845488
1001.0271155657387
928.9441825385777
863.9847336011575
805.0234229281913
751.1646403428159
701.6897993391949
656.0181854381102
613.6775495934065
574.2817846769757
537.513810168623
503.1123320473742
470.8615219486034
440.5829252230309
412.1290970015274
385.3786022611404
360.23211572363033
336.60943009463034
314.44723229799536
293.6975389646002
274.32669297874185
256.3148072508877
239.65549163201615
224.3556040803663
210.43462205424223
197.92304591034474
186.85907445995684
177.2827570153384
169.22714172934607
162.70687903262854
157.70647046549666
154.1725723483654
152.01587645903402
151.1231668779351
151.35985727724085
152.54470436727544
5527.1834093432535
5668.3588682388945
4529.942714270234
3638.450812145031
3005.454951716323
2543.1994234590975
2195.8214579182113
1926.3488786214718
1711.531034823687
1536.199992774311
1390.1755883564113
1266.41666226075
1159.9239284532687
1067.0650308987092
985.147403542831
912.1400958103235
846.4879105528805
786.9842990347302
732.6825999444352
682.8328730275387
636.8361720110504
594.2109244838371
554.5678618443058
517.5910832060626
483.0235848769697
450.65608635099693
420.318323153439
391.87221151525864
365.2064546479394
340.23227763452735
316.88006171147117
295.0967073317447
274.8435927865812
256.0950113569858
238.8369613529738
223.06612327757188
208.78877897904113
196.0193056389732
184.7777247345074
175.0856472614183
166.95992723093826
160.40356737640423
155.3940919016943
151.87084883508888
149.72455228292205
148.79446398594183
148.87813983473006
149.7377005724994
150.99044792390941
10954.226251020335
7143.44489054159
4938.827935319165
3786.4893304654106
3049.1562640285847
2547.0385027557168
2182.5405432675384
1905.8995121593675
1688.348183633033
1512.341662979064
1366.57398279847
1243.4552969812999
1137.7128649112933
1045.5792058576023
964.2981446851462
891.8128918541425
826.5625407721006
767.3455312268607
713.2257696320179
663.4666715500291
617.4839255734255
574.8110808206274
535.0740879902028
497.97220045493424
463.2634639458235
430.75356376714683
400.2871604264423
371.74109115230704
345.01898534317206
320.0469614298579
296.77015675538524
275.14990070764316
255.16138005177024
236.79166637763834
220.03797801480627
204.9060293205407
191.40827406860888
179.56177311738358
169.38531237496426
160.8952816237311
154.09973282791373
148.99001558371938
145.52947531784028
143.6389057708858
143.17880426209175
143.9292392742073
145.56959568795537
147.65757150700205
149.5222405019023

SCALARS STRESS_XX float 1
LOOKUP_TABLE default
794.3011944901682
-11365.255948650532
0.4145476360128342
-1300.3006252703494
794.1255053790242
793.5984574790356
792.7201092322605
791.4905585148865
789.9099433462843
787.9784428807866
785.6962786815701
783.0637162754608
780.081066987414
776.748690052166
773.0669950004828
769.0364443165448
764.6575563612985
759.9309085564419
754.8571408215882
749.4369592556932
743.6711400516285
737.5605336303515
731.1060689794078
724.3087581764391
717.1697010754727
709.6900901301854
701.8712153235521
693.7144691692819
685.2213517442141
676.3934757058064
667.2325712424424
657.7404908965426
647.9192141936695
637.7708520018498
627.2976505359577
616.5019949125383
605.3864121493161
593.953573491807
582.2062959365303
570.1475428064241
557.780423219061
545.1081902716924
532.1342377489129
518.8620951394091
505.29542072625617
491.43799249171406
477.2936965511833
462.8665128006811
448.1604974299569
433.17976191572495
417.9284480664367
402.4106986410044
386.6306230068684
370.59225723627964
354.2995179607782
337.75614921033
320.96566135177716
303.93126110566027
286.65577145657903
269.14154007172186
251.39033459523156
233.40322288220898
215.1804358578292
196.72121021547122
178.02360757773937
159.08430600065606
139.8983587623677
120.45891418497393
100.75688871590572
80.78058354498908
60.51523251770672
39.94246584524225
19.039669859850772
-2.220782519742939
-23.872463330292305
-45.95602566995255
-68.52060014866339
-91.6255253982837
-115.34251092673844
-139.75836462265323
-164.978464884424
-191.1312249914569
-218.37389466964473
-246.9001859996555
-276.950422020031
-308.8252258305413
-342.90426094448753
-379.67231127186324
-419.7562464106819
-463.9785069219599
-513.4363258010787
-569.622251581359
-634.6133091387261
-711.3786960051009
-804.3032126919122
-920.1202998450676
-1069.7124674622394
-1271.7206948967996
-1561.4326907133043
-2010.1321973296704
-2802.766713795636
-4368.146360758272
-8391.104370421255
-5916.399061748837
-482.89086916992846
-306.9740317019688
-92.03072330704094
-51.63717226579956
-28.360669277147394
-17.97719684482007
-11.956476054452025
-8.371045308605801
-6.0731073753913165
-4.540166379315707
-3.4789886166499286
-2.722894020176483
-2.17093005292665
-1.7597623324538176
-1.4482310273298253
-1.2088109530580766
-1.0226231059741622
-0.8764302373749757
-0.760768229186553
-0.6687524913999141
-0.595296802789008
-0.536590879316563
-0.4897440142448488
-0.45253754353950626
-0.4232499415174402
-0.40053116914046427
-0.38331086308477325
-0.3707299919454812
-0.3620888335576993
-0.3568062057449666
-0.35438620547166977
-0.35438951004849883
-0.3564066936150496
-0.36003106064379153
-0.36482817007081536
-0.3702984025289311
-0.37582735721722926
-0.3806160573162991
-0.3835779315838188
-0.38318040497801675
-0.37719182713759736
-0.36226100251052173
-0.33319101962283426
-0.28163947666429934
-0.19381935563813002
-0.04750620637365088
0.18276799235312424
0.36820444807663577
1.2897790343715307
3.539057780860052
6.32232006498181
8.814031233758747
10.407121500783266
10.699482536845746
9.43920601662343
6.479653789807223
1.7482454745057154
-4.7747277812448665
-13.070673799478492
-23.092969008574958
-34.77440030343999
-48.03270989990892
-62.7748363680049
-78.90023501760844
-96.30352878157474
-114.87665670317311
-134.51063304018987
-155.09699488068628
-176.52899324614754
-198.7025676613685
-221.5171343588562
-244.87621187099643
-268.6879035627619
-292.8652538830971
-317.3264932383692
-341.9951850640191
-366.8002876581449
-391.67614249449656
-416.56239995985334
-441.40389270773557
-466.15046606144404
-490.7567741238247
-515.1820494602457
-539.389853424923
-563.3478134070386
-587.0273524965444
-610.4034163197027
-633.4542010821372
-656.1608861903617
-678.507374206463
-700.480040330251
-722.0674930986443
-743.2603475459814
-764.0510116778073
-784.4334867735352
-804.4031817476595
-823.956741559176
-843.0918894630864
-861.8072827389506
-880.10238140873
-897.9773293626458
-915.4328472439879
-932.4701363990246
-949.0907931719075
-965.2967328146137
-981.0901222833813
-996.4733212060983
-1011.4488303263529
-1026.0192467559054
-1040.1872253993574
-1053.9554459493957
-1067.3265848873052
-1080.3032919612338
-1092.8881706523139
-1105.083762176458
-1116.8925326057247
-1128.316862729016
-1139.3590403050557
-1150.0212543928683
-1160.3055914754327
-1170.214033119426
-1179.7484549410124
-1188.910626672226
-1197.7022131440244
-1206.1247760227147
-1214.179776155534
-1221.8685763985682
-1229.192444814767
-1236.1525581440665
-1242.750005460627
-1248.9857919424874
-1254.8608426901924
-1260.376006538659
-1265.532059814635
-1270.3297100004668
-1274.7695992689883
-1278.8523078604894
-1282.5783572781897
-1285.9482132814308
-1288.9622886600855
-1291.6209457763375
-1293.9244988622322
-1295.873216064242
-1297.4673212276805
-1298.7069954147369
-1299.5923781520132
-1300.123568404074
-1276.195255520722
-1228.3244476264604
-1181.1192734428994
-1134.5512216485545
-1088.5916801382227
-1043.2119440728575
-998.3832245093633
-954.0766574690176
-910.2633133093293
-866.9142062729655
-824.0003040936932
-781.492537547495
-739.3618098454518
-697.5790057718834
-656.1150004799908
-614.9406678639409
-574.0268884341772
-533.3445566305409
-492.86458751366
-452.55792278297696
-412.3955360751644
-372.34843750410226
-332.38767740995434
-292.48434928978935
-252.60959188896229
-212.7345904386143
-172.83057703025452
-132.86883012374247
-92.82067319260858
-52.65747251476933
-12.35063412339877
28.12840005931049
68.80815687807532
109.71713735611041
150.88382282050384
192.33668169286327
234.10417688950315
276.21477376840284
318.6969485522924
361.57919714984905
404.8900442899663
448.6580528755204
492.9118334563668
537.6800537141393
582.9914478437688
628.874825710494
675.3590816551805
722.4732028141241
770.2462768152086
770.0742390220864
722.3084492033412
675.2015764538367
628.7245355717614
582.8483421340947
537.5441047470815
492.78301667472374
448.53634698387987
404.77543133981965
361.47166257974976
318.59648118572386
276.12136577202847
234.01782369457638
192.25738188281653
150.81157798740793
109.65195192905608
68.7500379262045
28.07735707235514
-12.394589474302261
-52.69432663342969
-92.85041082855439
-132.89143465511475
-172.84603075636568
-212.74287487967456
-252.6106880908904
-292.4782381320383
-332.3743399139952
-372.3278551406096
-412.3676910678778
-452.5227984070678
-492.8221683866727
-533.2948289938183
-573.9698404225065
-614.87628976137
-656.0432849594265
-697.4999481161653
-739.2754081474843
-781.3987928867396
-823.8992206864161
-866.8057915934996
-910.1475781793727
-953.9536161121152
-998.2528945674976
-1043.0743465820883
-1088.4468394604144
-1134.3991653560995
-1180.960032153623
-1228.1580547858994
-1276.021747129259
769.5581445632156
721.8142061424837
674.7290772443906
628.2736799817766
582.419038106827
537.1362691011713
492.3965756492065
448.1712366341188
404.4315977910709
361.14906214579577
318.29508036045434
275.8411411021682
233.758761541978
192.0194780851017
150.59483742550236
109.45638801028295
68.57567199154349
27.924217736274098
-12.526467043193708
-52.80490148302931
-92.93963703717807
-132.95926218162134
-172.8924063191861
-212.76774285738014
-252.61399143796626
-292.45991930341927
-332.3343417917154
-372.26612195656116
-412.28416931647763
-452.41743774156873
-492.694922493157
-533.1456564366399
-573.7987054546027
-614.6831630929235
-655.8281444782464
-697.2627795524523
-739.0162056757154
-781.1175596569741
-823.5959692769015
-866.4805443763355
-909.8003675904961
-953.5844848168331
-997.8618955123461
-1042.6615429239741
-1088.0123043639553
-1133.942981649901
-1180.482291837005
-1227.6588583776227
-1275.5012028505982
768.6980503325473
720.9905270600069
673.9416333066223
627.5223034978412
581.7035751292879
536.4565805887358
491.7525383701048
447.56274382041033
403.85855955531827
360.61140567247446
317.79274988531733
275.374097693407
233.3269826974232
191.6229571597933
150.23358290428263
109.13042263984732
68.2850317862626
27.66895087189744
-12.746301434251318
-52.98923460149179
-93.08839177876537
-133.0723545587926
-172.96974693068296
-212.80923839369123
-252.61954621187002
-292.42943679476133
-332.2677261957674
-372.1632797257828
-412.14501068531916
-452.24187822430014
-492.4828843444268
-532.8970700644763
-573.5135107752551
-614.3613108165109
-655.4695973141421
-696.8675133223508
-738.5842103222477
-780.6488401349663
-823.0905463139118
-865.9384550885003
-909.221665939337
-952.9692418920979
-997.2101996256139
-1041.97349949789
-1087.2880356015908
-1133.182625969059
-1179.6860030548319
-1226.8268046314547
-1274.6335652421037
767.4940515949108
719.8375013831321
672.8393270931089
626.4704806438709
580.7020190203853
535.5050957184725
490.850951594299
446.7109052614742
403.05634317292197
359.85870951815235
317.08949605975465
274.7202320259284
232.7224741678579
191.0677970829193
149.72778389741893
108.67401739414203
67.87807166166115
27.311504335647385
-13.054150506320209
-53.2473887421509
-93.29674184701614
-133.23078174057252
-173.0781248057429
-212.86743505257346
-252.62742640748547
-292.38686411340973
-332.17456523298165
-372.0193982526842
-411.95028179128366
-451.9961824219047
-492.18611162244696
-532.5491218745344
-573.1143019374427
-613.9107713288704
-654.9676740500785
-696.3141715996337
-737.9794353266002
-779.992638179931
-822.3829459185295
-865.1795078531269
-908.4114471993586
-952.1078511286513
-996.2977606118505
-1041.0101601591969
-1086.273967567955
-1132.1180237981368
-1178.571083104713
-1225.6618035632484
-1273.418738133797
765.9462826478971
718.3552551065854
671.4222747074878
625.1183163016605
579.4144623590784
534.2818939259713
489.69188100323373
445.6157724916055
402.0249858429582
358.8909965500044
316.1853275997061
273.87953900824675
231.94521754681668
190.35396675982338
149.0773973692988
108.087118150412
67.35472735503939
26.851804752714003
-13.450095649931935
-53.57945215787264
-93.56478115758637
-133.43464206987443
-173.21764145277479
-212.94243622903647
-252.6377360190158
-292.3323045651208
-332.0549602408219
-371.8345756422282
-411.7000762660392
-451.6804382831717
-491.80468542278373
-532.1018849864815
-572.6011430187858
-613.3315986650846
-654.3224177538473
-695.6027856464933
-737.201899404668
-779.1489593306978
-821.4731599445564
-864.2036804675033
-907.369674890661
-951.0002617144044
-995.1245134527346
-1039.7714460057769
-1084.9700080116463
-1130.7490702981813
-1177.13741556382
-1224.1637284257038
-1271.8565859814296
764.0549177473868
716.5439515871501
669.6906265718159
623.4659462559839
577.8410249133085
532.7870778934523
488.27541142097425
444.277411985106
400.76453546237633
357.7082961063703
315.08025553172246
272.8520118112908
230.995188796524
189.4814257631723
148.28236747605737
107.36965475752805
66.71491563632686
26.289757145112688
-13.934242172935388
-53.98553899599949
-93.89263114856237
-133.6840626814849
-173.38842807638645
-213.03437554935465
-252.6506094357965
-292.265891643874
-331.9090421697065
-371.60893867323614
-411.3945151187171
-451.29475948936556
-491.3387105906711
-531.5554539618905
-571.974116921324
-612.6238627753789
-653.5338842278011
-694.7333960311778
-736.2516269288359
-778.1178109420414
-820.3611780640515
-863.0109444301173
-906.0963020401402
-949.6464081187958
-993.6903742063892
-1038.2572550828418
-1083.3760376358869
-1129.0756297939326
-1175.3848496538233
-1222.3324149428504
-1269.9469329633625
761.8201722956162
714.4037925621501
667.6445682805011
621.5135378907363
575.9818541863781
531.0207739554075
486.6016470890559
442.6959053109321
399.2750506713794
356.31064394393763
313.77429305290036
271.63764165202093
229.8723579656782
188.4501239947557
147.34262518085194
106.5215406134163
65.95853385562809
25.625244456412144
-14.506719792215142
-54.46578980110901
-94.2804412896068
-133.97920001374
-173.59064608818866
-213.1434173780546
-252.66621194328008
-292.1877895248354
-331.7369720662443
-371.3426432701627
-411.0337471944658
-450.8392858974143
-490.7883161463319
-530.9099452088685
-571.2333257518842
-611.7876498768273
-652.6021423267752
-693.7060529061253
-735.1286481591437
-776.8992023607177
-819.0469878791687
-861.6012649783995
-904.5912711343378
-948.0462099491933
-991.9952397552445
-1036.467462009807
-1081.4919095919738
-1127.0975351215136
-1173.3131994309724
-1220.1676603316505
-1267.6895618241904
759.2423042901248
711.9350193893994
665.2843216378072
619.261291032506
573.8371260766489
528.9831325859097
484.67071199396423
440.87134931350056
397.5566009011651
354.69808216620925
312.26745535372913
270.23641752412664
228.57668884100545
187.26000127020092
146.25808778329568
105.5426721498368
65.08545939300454
24.858126975197912
-15.16768322892008
-55.02037212226391
-94.72838969566237
-134.32024042390867
-173.82448772006865
-213.26975742599762
-252.6847403231701
-292.09819365436323
-331.53894165111694
-371.0358750670805
-410.6179497226183
-450.3141840701085
-490.1536557944473
-530.1654974672775
-570.3788912790517
-610.8230628769707
-651.5272743420753
-692.5208163450052
-733.8329995247499
-775.4931451415964
-817.5305750618732
-859.9746011396429
-902.8545140682708
-946.1995717833424
-990.0389875070342
-1034.4019175342985
-1079.3174488706047
-1124.8145868415982
-1170.9222428061953
-1217.669222115261
-1265.0842124690262
756.3216160316645
709.1379145055192
662.6101458748378
616.7094389367667
571.4070456455668
526.6743289625667
482.4827502420751
438.8038563145719
395.6092664192356
352.8706591288767
310.55975940024837
268.6483258730233
227.10813853055419
185.91098682541508
145.0286583627856
104.43292822522606
64.09554901230865
23.988241660165563
-15.917312903302381
-55.64948122003207
-95.2366838396137
-134.70740090110968
-174.0901767330201
-213.4136234517748
-252.70642354463826
-291.99733142884503
-331.3151739836323
-370.6888500561101
-410.1473289470384
-449.7196478860899
-489.434908510983
-529.3222723687263
-569.4109554616336
-609.7302218650285
-650.3093764483363
-691.1777567366287
-732.364723955005
-773.8996533043148
-815.8119235229956
-858.1309057978766
-900.8859520940197
-944.1063829825127
-987.8214750544261
-1032.06044801944
-1076.8524515977006
-1122.2265523248104
-1168.2117204018753
-1214.8368167340864
-1262.1305803133191
753.0584560879836
706.0128030983865
659.6223390409266
613.8582494111849
568.6918479879141
524.0945636004154
480.03792647540246
436.49355432991274
393.4331383665066
350.82842931710354
308.65122367092056
266.8733502114146
225.46665697624078
184.40299874325228
143.65422513533977
103.1921694265304
62.98863812126555
23.01540137014659
-16.75581572437902
-56.3533408672852
-95.80556135705206
-135.14092986916918
-174.38796921339662
-213.57527604772437
-252.73152353748202
-291.885462952842
-331.0659242031851
-370.30181531059634
-409.6221208292448
-449.05589922069964
-488.63227919905887
-528.3804550639227
-568.3296810424382
-608.5092646657256
-648.9485592095701
-689.676955233672
-730.7238712593607
-772.1187436309413
-813.8910156125585
-856.0701257799446
-898.6854957738763
-941.7665174914162
-985.3425398002138
-1029.4428548720887
-1074.0966842429223
-1119.3331647178065
-1165.1813342533635
-1211.6701179617876
-1258.8283143946846
749.4532215100454
702.5600549888538
656.3212395634639
610.7080260689422
565.6917991965563
521.244063048074
477.33642632050635
433.9405872933394
391.0283187793309
348.57145318842703
306.5418678430781
264.9114706713436
223.65218639258214
182.73594329886083
142.13466072401772
101.82023728143074
61.76453994059271
21.93939400339704
-17.68342596910974
-57.13220423720796
-96.43529093523965
-135.62110807031567
-174.7181544465104
-213.75500949984698
-252.76033603583735
-291.7628818649152
-330.79148033582896
-369.8750497712771
-409.04259181304053
-448.32318868739475
-487.74599940446876
-527.3402549085499
-567.1352521996286
-607.1603474495048
-647.4449481397381
-688.0185042530633
-728.9104985547299
-770.1504360054595
-811.7678323540765
-853.7922019649461
-896.2530449434751
-939.1798336317459
-982.6019985562941
-1026.5489139211136
-1071.0498827505335
-1116.134121799868
-1161.8307463649112
-1208.1687551356747
-1255.177015254969
745.5063602963726
698.7800867156365
652.7072279685232
607.2591097036784
562.4071974129196
518.1230806371017
474.3784568615812
431.1451152794167
388.39492058826215
346.0997969741142
304.231712422915
262.762663487935
221.66466062830472
180.9097142217966
140.46982134246537
100.31695338231364
60.423044585300936
20.75998155093985
-18.700406244476945
-57.98635487027176
-97.12617327648307
-136.14824951858952
-175.0810558554296
-213.95315270865467
-252.7931914789926
-291.62991621721255
-330.4921641521486
-369.4088650820818
-408.4090396375401
-447.52179642697104
-486.7763280790736
-526.2019061975044
-565.8278752469474
-605.6836453919353
-645.7986843123547
-686.2025080242793
-726.9246707386469
-767.9947537951538
-809.442353714765
-851.2970694214093
-893.5884886913516
-936.3461738973759
-979.5996471259772
-1023.3783747566083
-1067.7117516043436
-1112.6290847420837
-1158.1595771321286
-1204.332311212707
-1251.1762326021126
741.2183740994654
694.6733638158935
648.780728753697
603.5118797764667
558.838373952946
514.7318972739254
471.1642471271409
428.1073147147088
385.53306758419416
343.4135324304526
301.7207783116623
260.42690040920974
219.50400444706455
178.92419187310958
138.65954589165113
98.68211842389289
58.963918061928524
19.476899069701638
-19.807048524656132
-58.91610771066158
-97.87854212514893
-136.72270251076372
-175.47703199128455
-214.17007015627405
-252.8304559538741
-291.4869293930511
-330.1683320603174
-368.90360645933504
-407.7217941829619
-446.6520329296868
-485.7235523781926
-524.9656689349747
-564.407779371978
-604.0793533734272
-644.0099250123093
-684.2290831813048
-724.7664610062709
-765.6517242742848
-806.9145589145811
-848.5846575772812
-890.6917053623661
-933.2653647608431
-976.3352598808042
-1019.9309600424841
-1064.0819628401234
-1108.817676783134
-1154.167403644897
-1200.1603206642985
-1246.8254627640124
736.5898211675562
690.2404032924551
644.5422124026003
599.4667560030973
554.9856944959325
511.07082226164493
467.6940485778798
424.8273785658317
382.44289434114546
340.51273653054227
299.0090863000072
257.9041480255744
217.17013272260132
176.77924233467468
136.70365496964908
96.91551115678823
57.38690118653538
18.08985358258402
-21.003675254265197
-59.92181020103449
-98.69276534499639
-137.34485067993486
-175.90647755909467
-214.40616290244293
-252.87253216100035
-291.3343210437381
-329.8203760153787
-368.35965357554653
-406.9812183309767
-445.7142398733426
-484.5879884763764
-523.631829626238
-562.8752174000471
-602.3476867088928
-642.0788444220555
-682.0983593928183
-722.4359514084189
-763.1213790903894
-804.1844267773681
-845.6548904285355
-887.5625625931407
-929.9372165016566
-972.8085893445809
-1016.2063648169278
-1060.1601550214293
-1104.6994818383155
-1149.8537578873575
-1195.6522672261572
-1242.1241459492956
731.621319513345
685.4817762572579
639.9921975286684
595.1242000282748
550.8495603224392
507.1401941376072
463.96813558172596
421.3055164908345
379.12454608313277
337.3974910855994
296.09665648162877
255.1943670118136
214.6629495434746
174.47471640846322
134.60194979443187
95.01688725967324
55.69170842865997
16.598522913216023
-22.29064050727293
-61.00384342288595
-99.56924603198415
-138.01511407485788
-176.36982446042975
-214.66186958956095
-252.91986038290992
-291.1725280230054
-329.44872442327346
-367.77742143680075
-406.18770881896097
-444.70879095741964
-483.3699823829867
-522.200702074346
-561.2304665692905
-600.4888818954286
-640.0056343328832
-679.810480024153
-719.9332334474583
-760.4037547729811
-801.2519361268124
-842.5076867926472
-884.200917388863
-926.3615230684168
-969.0193657994756
-1012.204255797822
-1055.9459321973877
-1100.2740430612719
-1145.2181248547643
-1190.8075815223117
-1237.0716633324578
726.3135502992726
680.3981107382158
635.1312531338715
590.4847171709689
546.4304095848604
502.9403815102968
459.9868058599304
417.541954938593
375.5781784811474
334.0678822831746
292.98350757522644
252.29751127351227
211.98234722199882
172.01044852327777
132.3542110400785
92.98597813315402
53.878026687289875
15.002554464407812
-23.66833118966396
-62.16262326780524
-100.5084236454043
-138.73395024568538
-176.86754283149858
-214.93766743392158
-252.9729194314043
-291.0020252946979
-329.0538430145667
-367.1573612286887
-405.3416970641523
-443.6360927104386
-482.0699107363226
-520.6726281624344
-559.4738292998821
-598.5031973638559
-637.7905048701577
-677.3656028234763
-717.2584087069105
-757.4988932841586
-798.1170662305618
-839.1429606137466
-880.6066162520896
-922.5380619889622
-964.9672969308757
-1007.9242707119737
-1051.4388628631118
-1095.5408613804243
-1140.2599406098434
-1185.6256385856218
-1231.6673339847705
720.667261426854
674.9900946345756
629.9600009655954
585.5488582230528
541.7287185918043
498.47178387640463
455.7503808857755
413.5369371788243
371.80395736430876
330.5240001285109
289.669656143491
249.21352698885198
209.12820520118427
169.38625554555318
129.96019758646491
90.82248961912906
51.9455140060851
13.301563950945512
-25.13716827184703
-63.398601622539154
-101.51077513733767
-139.5018553136015
-177.40014205250185
-215.23407317707967
-253.03222754604116
-290.823326785371
-328.63623565949547
-366.4999611027386
-404.44364993014915
-442.4965852443695
-480.6881815520205
-519.0479785997749
-557.6056339382308
-596.3909142178975
-635.4336852198759
-674.7639006231532
-714.411589509748
-754.4068426103191
-794.7797972960926
-835.5606213272556
-876.7794953749979
-918.4665943435775
-960.6520675295995
-1003.3660176700735
-1046.6384789472263
-1090.4993940363227
-1134.9785903057234
-1180.105755301583
-1225.910411675914
714.6832713152891
669.2584788034954
624.4791179522867
580.3172212803447
536.7450030849016
493.7348323967707
451.2592062148821
409.2907232428516
367.80205832700995
326.76593777297035
286.1551156956718
245.9423515354898
206.1003888527107
166.60193549118256
127.41964518320827
88.52610065017629
49.893798236393714
11.495134099165945
-26.697608034979158
-64.71226754887748
-102.57681605851523
-140.31936499964013
-177.96817170057898
-215.55164396779006
-253.09834321282534
-290.6369861499562
-328.19644509218216
-365.8057468713097
-403.4940704045322
-441.29074292609283
-479.22523489760636
-517.3271536059597
-555.6262354538035
-594.1523369421634
-632.9354243415546
-672.0055620456562
-711.3928995993799
-751.1276573937529
-791.2401110216512
-831.7605742921387
-872.7193809079159
-914.1468648184218
-956.0733392729649
-998.5290746123287
-1041.5442748544197
-1085.149053149783
-1129.373406205972
-1174.2471878061958
-1219.8000815762293
708.3624728520879
663.2040802573008
618.6893386953004
574.7904535822852
531.4798194837311
488.72999060695906
446.5136517235858
404.8035897529165
363.572666211815
322.79379071167625
282.43989565893764
242.48391229126727
202.89874815852406
163.65726613497014
124.73226502861715
86.09646183403564
47.72247565743503
9.58281332684247
-28.350143313423615
-66.10414843619387
-103.70710161456023
-141.18705558350962
-178.57222241468065
-215.8909781407878
-253.17186586803513
-290.4435974142194
-327.7350535070601
-365.07528257431795
-402.4934981521287
-440.01907493215924
-477.6815434617257
-515.5105835044936
-553.5360160629552
-591.7877940573705
-630.2959916503137
-669.090792201692
-708.2024748359831
-747.6613996019867
-787.4979912056231
-827.7427212995004
-868.4260893186561
-909.5786018591452
-951.2307506088097
-993.4129888526346
-1036.1557065940392
-1079.4892043543946
-1123.443665737278
-1168.0491288737287
-1213.3354568949724
701.7058374949444
656.8277854481348
612.5914579913219
568.9692533328996
525.9337660705985
483.45775503424323
441.5141117284379
400.0758296147809
359.11597444515826
318.60765583049664
278.524000202027
238.8381252960835
199.52311626773331
160.55200351394376
121.89774226476604
83.53319397927729
45.431109564631285
7.564114419357234
-30.095304712474977
-67.57481110167356
-104.90222764376583
-142.10554475999123
-179.21292663711478
-216.25271585442266
-253.25343644695133
-290.2437954526294
-327.25268298602964
-364.30917087676977
-401.4425099037298
-438.68212564837813
-476.0576129819697
-513.5987291927939
-551.3353857507312
-589.2976386981992
-627.5156776484682
-666.019813366095
-704.8404638994936
-744.008139232172
-783.5534244178978
-823.5069611673298
-863.8994278578435
-904.7615179453119
-946.1239167689507
-988.0172767531773
-1030.4721910307323
-1073.5191655324938
-1117.1885896160222
-1161.5107053362935
-1206.5155754951209
694.7144195008044
650.1305536124576
606.1863333555749
562.8543714721593
520.1074840839741
477.91865569016943
436.2610049566293
395.1077515451019
354.4321841999466
314.2076302799352
274.40742689276453
235.00489376094123
195.97330791970677
157.28588032066347
118.91573439026315
80.83588656927657
43.019228838782716
5.4385132202288835
-31.93366177829016
-69.12486281032092
-106.16283148398568
-143.07549235633357
-179.89095919135937
-216.6375395442023
-253.34373773274774
-290.0382562557521
-326.7499957097906
-363.5080532504834
-400.34171963476115
-437.2804748706896
-474.35398249054407
-511.5920824515482
-549.0247826577881
-586.6822490854777
-624.5947944837983
-662.7928656148317
-701.307028989015
-740.1679550470561
-779.4064007364505
-819.0531904314375
-859.1391951475591
-899.6953100096238
-940.7524299420444
-982.3414235645785
-1024.493105297105
-1067.2382056987074
-1110.607340095395
-1154.6309755835334
-1199.3393965330024
687.3893602542229
643.1134201441296
599.474887512341
556.4466133626954
514.0016586848242
472.1132564032026
430.754774333307
389.8996794020801
349.52150335659405
309.59381015082397
270.0901651687042
230.98410640850636
192.24911772318976
153.8586041821489
115.78586959238186
78.00409619253226
40.48632651052396
3.205447356543581
-33.865824093556625
-70.75495218251245
-107.48959269134141
-144.0976008690875
-180.6070376509432
-217.0461741438094
-253.44349445486006
-289.8276969349647
-326.2276939005148
-362.6726098877525
-399.19177848290246
-435.81473775832404
-472.5712243317446
-509.4911660512031
-546.604673294911
-583.9420288609087
-621.5336764086817
-659.4102074037152
-697.6023465063237
-736.1409353376974
-775.0569145523085
-814.3813041437411
-854.1451819121118
-894.3796600283945
-935.1158596393165
-976.3848834715982
-1018.2177864143259
-1060.6455440814389
-1103.6990193865597
-1147.4089271975574
-1191.8057971784033
679.7318926626576
635.7774999604648
592.4581108142318
549.7468403514911
507.61701975508197
466.04215495146605
424.99588654763267
384.4519512835926
344.38414523010397
304.7662889239073
265.5721945980944
226.77563562806694
188.35031828044214
150.26985582023156
112.50774500138033
75.03734493891561
37.83185833645701
0.8643150225572622
-35.892442269066116
-72.4657699532635
-108.88323356929607
-145.1726157739118
-181.36192244870978
-217.47938701951085
-253.5534730799771
-289.61287540590996
-325.686519436699
-361.80355928813435
-397.99337434732934
-434.2855644844234
-470.70994389987555
-507.2965336082565
-544.0755525428224
-581.0774072479849
-618.3326801105977
-655.8721160669647
-693.7266077096258
-731.927178707414
-770.5049654457146
-809.4911967894053
-848.9171718710729
-888.8142358118156
-929.2137532901179
-970.1470798890722
-1011.6455311716829
-1053.7403494586647
-1096.4626683147376
-1139.8434747865958
-1183.9135694789734
671.7433455816904
628.1239908200434
585.137063546563
542.7559711617963
500.954342483154
459.7059829510987
418.98483135460094
378.76491835257093
339.02032702702815
299.72515566229225
260.85348290579185
222.3793354258164
184.27665814441042
146.51928708858603
109.0809248698735
71.93511877266961
35.055241405615604
-1.5855261521818127
-38.014208797459446
-74.25804954270511
-110.34451946128665
-146.30132555579635
-182.1564166692083
-217.9379875570182
-253.67448123206435
-289.3945896854275
-325.1272530742731
-360.90165745276266
-396.7472311053498
-432.69363952249665
-468.77077903956797
-505.00876913833605
-541.4379433900318
-578.0888389982836
-614.9921848807581
-652.1788882103708
-689.6800193210219
-727.5267948696337
-765.7505591358846
-804.3827633350431
-843.4549428168431
-882.9986920260437
-923.045637108165
-963.6274060572371
-1004.7755963218805
-1046.5217398117888
-1088.8972652793086
-1131.933458090115
-1175.6614174433626
663.4251482273145
620.1541765458858
577.5128780677971
535.4749830644727
494.01444768516126
453.1054054498727
412.72212056461825
372.8389433453068
333.4302679923375
294.47049291179087
255.9339837355127
217.79503914921798
180.02785959564153
142.60651888153674
105.50493868099308
68.69686589486811
32.15585279781786
-4.144760120207663
-40.23185873103993
-76.13256739194567
-111.87425875425572
-147.48456140120373
-182.9913654604522
-218.4228263326474
-253.80736667014787
-289.17367672882995
-324.55071320005294
-359.9676966127402
-395.4541073747138
-431.03968049977163
-466.7543990435851
-502.6284862463534
-538.6923963555413
-574.9768040774989
-611.5125925830752
-648.3308399703443
-685.4628040687676
-722.9399054511181
-760.7937085068166
-799.0559004213064
-837.758267900653
-876.9326714816319
-916.6110172736907
-956.8252259916401
-997.6071991565659
-1038.988782369508
-1081.0017255955656
-1123.677640437437
-1167.0479544275095
654.7788345269489
611.8694301012046
569.5867607300921
527.9049127713356
486.798201804602
446.2411201699813
406.2082866672718
366.6743987127747
327.6141872013337
289.002374270859
250.81363411755956
213.02255696265615
175.60361622477046
138.53113890981774
101.7792791902497
65.32199510969944
29.133028317909428
-6.814113285468854
-42.546170141113585
-78.0901430131787
-113.47330253421163
-148.72319648636343
-183.86765499352958
-218.93479379277443
-253.9530157443823
-288.9510107257872
-323.9577540350789
-359.00250340985235
-394.11479474182863
-429.3244365411488
-464.6615031765607
-500.1563268876933
-535.8394885370094
-571.7418070396737
-607.8943273811723
-644.3283071067118
-681.0752011429283
-718.1666447905428
-755.6344347105078
-793.5105077133105
-831.8269171530658
-870.6158067265977
-909.9093814815039
-949.7398758487732
-990.1395185331781
-1031.140494121917
-1072.7749013062466
-1115.0747076535376
-1158.0717009210261
645.8060473541359
603.2712164582344
561.3599935175504
520.0468569863808
479.3065165259626
439.11385633674587
399.4438810289081
360.2716643391243
321.57230094671456
283.3208615873324
245.49235160726738
208.06167304863183
171.00359030483338
134.29269933806188
97.903400406713
61.809874211376034
25.98606133369463
-9.594355186144684
-44.95796431026006
-80.13163869641028
-115.14254382776987
-150.01814478811815
-184.7862108902322
-219.47481835684346
-254.11235124217671
-288.7275007644117
-323.34926319652305
-358.0069364388595
-392.7301153671731
-427.54868601842696
-462.49281864415497
-497.59295962658024
-532.8798222182913
-568.3843760324183
-604.1378351765076
-640.1716448929162
-676.5174665396673
-713.2071607200393
-750.272768348451
-787.7464894233897
-825.6606592669558
-864.0477219857726
-902.9402009097817
-942.3706657748885
-982.3716964323343
-1022.9758428944922
-1064.215581561426
-1106.1232675175668
-1148.7310828439577
636.5085425844425
594.3610951930904
552.8339353318017
511.90197254269555
471.5403479300485
431.72437302302546
392.4294715972797
353.631124775423
315.3048196652993
277.42600173420175
239.9700310556389
202.912142506512
166.227409936642
129.89071427896857
93.87671552047536
58.15982841100323
22.714201748966897
-12.486298947993747
-47.46810560343974
-82.25795880812917
-116.88291635552838
-151.37035933522753
-185.74799602973917
-220.04386384939315
-254.28632952580253
-288.5040877626586
-322.72615851653285
-356.98188305052764
-391.3009188696832
-425.71323361063577
-460.2490979191357
-494.939077310032
-529.814022963147
-564.9050613697013
-600.2435827045141
-635.8612277627528
-671.789873266555
-708.0616153158662
-744.7087507319989
-781.7637560215405
-819.2592636732455
-857.2280354914897
-895.7029326694562
-934.7168823119488
-974.302840133286
-1014.4937490817761
-1055.3224936769718
-1096.8218498930069
-1139.0244304787636
626.8881929026003
585.1407227311975
544.0100228458375
503.47147604456546
463.50069511087224
424.07345693099546
385.16564003861134
346.7531659197459
308.8119443429897
271.3178229121653
234.24654097031666
197.57368791829472
161.2746659490549
125.32465713914968
89.69859478512602
54.3711388255442
19.31665514722256
-15.490801459367074
-50.07750095677077
-84.47004860948122
-118.6953927146892
-152.7808298084498
-186.75400763526756
-220.642926156157
-254.4759368522466
-288.2817405552706
-322.08938400581883
-355.9282553044018
-389.82807838166065
-423.8189065715906
-457.9311153264886
-492.1953940670828
-526.642737114036
-561.3044336018463
-596.212056230631
-631.397448668436
-666.8927113776101
-702.7301856021253
-738.9424352212225
-775.5622261492836
-812.6225029418983
-850.1563622549952
-888.1970228001902
-926.777791443039
-965.9320251047122
-1005.6930881519646
-1046.0943049953416
-1087.1689076632372
-1128.949978178716
616.9469912818269
575.6118541588112
534.8897708380471
494.75664292476534
455.18859816407013
416.16191952338295
377.6529782236986
339.638171066753
302.0938623293542
264.9963304203918
228.3217194200842
192.04599554778008
156.14490853469925
120.59395781211686
85.36836336580214
50.44304105478249
15.792582146981829
-18.60876321274383
-52.7870989152528
-86.768892512617
-120.58098189840328
-154.25057938727355
-187.8052735304109
-221.27302898764492
-254.682184754548
-288.0614510130772
-321.43990483775707
-354.8469849482517
-388.3124856543934
-421.8665500898851
-455.53966277980453
-489.36264153432217
-523.3666286072379
-557.5830810052104
-592.0437597817088
-626.7807181000203
-661.8262878035599
-697.2130641890976
-732.9738886410271
-769.1418287536917
-805.7501555430703
-842.8323173319635
-880.421909884636
-918.5526423667241
-957.2582987176911
-996.5726940452195
-1036.5296256855172
-1077.1628186214696
-1118.5058650115773
606.687054046843
565.7763445061364
525.4747719076787
485.75880581607544
446.6051354462249
407.9905934063736
369.89208397031183
332.28651624133386
295.150742486059
258.4615018312543
222.19536943183954
186.3287111367633
150.8376436004329
115.69799971406366
80.8852991653889
46.3747238759151
12.14109801495299
-21.841127750465887
-55.59788814193767
-89.15551168406479
-122.54072604844451
-155.78066072929
-188.9028474425163
-221.93521862096014
-254.9061043506092
-287.8442280579618
-320.77870121604644
-353.7390172891083
-386.7550450835566
-419.8570216160822
-453.0755445510783
-486.4415641990712
-519.9863750065888
-553.7416064068682
-587.7392128421727
-622.0114627108297
-656.5909259386758
-691.5104598255264
-726.8031927725484
-762.5025054591256
-798.6420090060864
-835.255519639911
-872.3770293589055
-910.0406720981221
-948.2806848979766
-987.1313636010216
-1026.6270126343102
-1066.8018884822613
-1107.690136517562
596.110623421967
555.6361493965017
515.7666954615995
476.47935212497066
437.75141999357726
399.5603278558773
361.88355593914633
324.6985647216244
287.98272958510887
251.71328149803
215.86725382388926
180.42143525851634
145.35232881073222
110.63611665917546
76.2486306445591
42.16532809036902
8.361272590268017
-25.18888064365778
-58.510895311225156
-91.63096089277217
-124.57569632553685
-157.37215095521503
-190.0478032169544
-222.63055747684956
-255.14873943164787
-287.63109042331547
-320.1067609760022
-352.60530380798076
-385.15666651026044
-417.79118401942213
-450.53957094489147
-483.43291374154796
-516.5026626492934
-549.7806232515812
-583.2989474377518
-617.0901234884652
-651.1869649419164
-685.6225978420401
-720.4304459173959
-755.6442131951219
-791.2978635162476
-827.425596389869
-864.061818604239
-901.241111003977
-938.9981898460683
-977.3678621636913
-1016.3849745974534
-1056.0843551995881
-1096.5007477805866
585.220069454285
545.1933249442319
505.7672858499932
466.9197206826209
428.6285949755406
390.87198336562506
353.62798756834576
316.87466064614307
280.58993786379085
244.75157431705998
209.33708941410313
174.32371818576067
139.68836930099056
105.40758957258029
71.45753465502789
37.81394556324038
4.4521305805944715
-28.653047924270787
-61.52718228803929
-94.19632448796898
-126.68698776809603
-159.02614549837187
-191.2412277913656
-223.36011637338225
-255.41113816712422
-287.4230579948521
-319.4250707542757
-351.44679335585886
-383.5182566406517
-415.66989742431565
-447.93255073669485
-480.33744224731174
-512.9161807886758
-545.7007508107517
-578.7235045229081
-612.0171534059656
-645.6147587064985
-679.5497204602115
-713.8557645310336
-748.5669271000104
-783.7175359930113
-819.3421881998406
-855.4757229115128
-892.1531893878764
-929.4098089658306
-967.280930530054
-1005.8019787957028
-1045.0083947966132
-1084.935568035215
574.0178911893947
534.4500267702579
495.4783595142474
457.08139733368876
419.237828044083
381.926425082303
345.12595991919704
308.8151215882727
272.97244363357464
237.57623865828725
202.60454053573156
168.03505422698862
133.84511303720083
100.0116430405726
66.51113430934724
33.31961850220168
0.4126522997217128
-32.23469387891631
-64.64784248174237
-96.85271137827843
-128.87571299538618
-160.7437506612997
-192.48421276214734
-224.1249652815033
-255.69434324684832
-287.22114155042254
-318.7346055465531
-350.2644217540734
-381.8407089134173
-413.49400956433647
-445.25528222329393
-477.15589415065324
-509.22761460891536
-541.5026084249796
-574.0134295818273
-606.7930144823755
-639.874674448111
-673.2920869400673
-707.0792849216709
-741.2706437207408
-775.900864695172
-811.0049549621767
-846.618202417812
-882.7761452517941
-919.514535154263
-956.8692934177159
-994.8764591598148
-1033.5721289342307
-1072.9923870567686
562.5067169638005
523.408507990007
484.9018009950569
446.965909307801
409.5803044245762
372.7245149779512
336.3780332915147
300.52022996861285
265.1302768289613
230.1870783691023
195.66921178754598
161.55487548175944
127.82184579813165
94.44744170041076
61.40849691608752
28.681339030975543
-3.758225073053359
-35.93491810055132
-67.87399624910314
-99.60124886687328
-131.14299459326944
-162.52607470436027
-193.77784435763638
-224.92616238931785
-255.99938026262248
-287.02633070003725
-318.0363164565174
-349.05909960678605
-380.1248916297326
-411.26434447789404
-442.5085427218738
-473.8889967593211
-505.4376369780804
-537.1868086640887
-569.1692673462067
-601.4181741769977
-633.9670908584674
-666.8499735365557
-700.101165010475
-733.7553845313977
-767.8477144030056
-802.4135825428323
-837.4887401218505
-873.1092333697758
-909.3113686175589
-946.1316696486232
-983.6068264470648
-1021.7736344674122
-1060.6689236077132
550.6893036635001
512.0711160122505
474.03955763186445
436.5748182012831
399.6572185761454
363.26710259248364
327.3847374512154
291.99022316173233
257.0634113708929
222.58383374766495
188.53063993915268
154.882544962687
121.6177857559706
88.71408647553318
56.14863201605412
23.898049122120202
-8.061605619116824
-39.7548516794766
-71.20678520403679
-102.44307517957586
-133.48995600192552
-164.37421727142612
-195.12319161232642
-225.76474126214666
-256.3272441128197
-286.8395798090193
-317.331116421346
-347.83169811681125
-378.37163414568397
-408.98168935667786
-439.6930763418932
-470.53744920034916
-501.54689879677346
-532.753949281418
-564.1915555274303
-595.8931010371092
-627.8923957679984
-660.223673234091
-692.9215861486357
-726.0211997938704
-759.5579822304014
-793.5677903961041
-828.0868510930004
-863.1517358209958
-898.7993283933091
-935.0667842595806
-971.9914804724083
-1009.6109552626635
-1047.962836241691
538.5685347820148
500.4402879696678
462.8936327657933
425.90971137705606
389.46976423001126
353.55501416052243
318.14656029508967
283.22528213816264
248.77175420615006
214.76617137176186
181.18828490541603
148.01734902866917
115.23207763291904
82.8106106667719
50.73048956329547
18.96864096536853
-12.498632085143678
-43.69565239780824
-74.6473652730297
-105.37933050260747
-135.9177107034743
-166.28925693571392
-196.52129251425725
-226.64169586386822
-256.67888319242377
-286.6617916675326
-316.6198636813788
-346.5830326795344
-376.58171091202274
-406.64677934449355
-436.8095798425946
-467.10190961700243
-497.5560177914177
-528.2046038319185
-559.0808174551281
-590.2182595154555
-621.6509832592579
-653.4134952274659
-685.5407549879519
-718.0681727867598
-751.0316041236006
-784.4673401838445
-818.4120929967584
-852.9029741393203
-887.9774657712862
-923.6733827680181
-960.0288247181634
-997.0821165750838
-1034.8717367964143
526.1474170937124
488.51854458228917
451.46607723689374
414.9721915683433
379.0191225922916
343.5890399157036
308.6639347583532
274.225518465501
240.25513286987604
206.7336726584894
173.6415196974446
140.95848907172285
108.66378641268375
76.73597591624844
45.15295830511813
13.891957861941767
-17.070482441725517
-47.75849877181578
-78.19689831254885
-108.4111463225301
-138.4273494826093
-168.27223662403352
-197.97313787361173
-227.55796318135998
-257.0551811085033
-286.4937986489381
-315.90334274242247
-345.31384401265046
-374.7558231311215
-404.26028007126894
-433.8586863780245
-463.5829804376668
-493.46556559382384
-523.5393108181396
-553.8375535099796
-584.394103870413
-615.2432501705883
-646.4197641167991
-677.958905402163
-709.8964244312201
-742.268562108234
-775.1120454947537
-808.4640780678068
-842.3623232477812
-876.8448798194916
-911.9502478388741
-947.7172836076398
-984.1851423095264
-1021.3932069374432
513.4290757385835
476.3084822330351
439.758978943152
403.7638644477502
368.3064484732257
333.3699193419026
298.9372237488958
264.99095947339856
231.51328140328937
198.48582101911802
165.88961925103013
133.70507239827188
101.91189058935291
70.48906806893802
39.414864428032146
8.666795752047225
-21.778365451027902
-51.9445827631055
-81.85654207957833
-111.53963283431983
-141.01992550619283
-170.32414665031462
-199.47965263349286
-228.5144031684316
-257.45693563770686
-286.3363410775628
-315.1822425590841
-344.02477656185613
-372.8945777859558
-401.82276769409634
-430.84094692081914
-459.9811915293012
-489.27605294247905
-518.7585612239367
-548.4622312360134
-578.4210710604656
-608.669591929642
-639.2428187854094
-670.1763004585109
-701.5061183452148
-733.2688923501346
-765.5017827655405
-798.2424866704408
-831.5292273575157
-865.400735236305
-899.896218616171
-935.0553227499544
-970.9180755169357
-1007.5248181474353
500.41674749350335
463.8127630105536
427.7744502024296
392.2863238956976
357.33285407727715
322.89832411423185
288.96670286775804
255.52153136642417
222.54582444186647
190.02198746172525
157.93174802719625
126.25610224500228
94.97527494144725
64.06869296752015
33.514970552393926
3.2919055033434197
-26.623515074239727
-56.25510095213451
-85.6274383168414
-114.76586415275395
-143.69643693638784
-172.44590505862385
-201.04167431444776
-229.51177569769095
-257.88483461622604
-286.1900425033027
-314.457131648028
-342.7163539059417
-370.9984637820994
-399.334706206341
-427.7568091476445
-456.29698104179965
-484.98791283656055
-513.8627842924974
-542.9552740159775
-572.2995725449192
-601.930397657608
-631.8830109315488
-662.1932344422189
-692.8974663622482
-724.0326941011087
-755.636503512314
-787.7470825942772
-820.4032180210284
-853.6442827632845
-887.5102130004595
-922.0414724852313
-957.279002504423
-993.2641555886912
487.1137719814293
451.03410244711563
415.5146126282183
380.5411346707364
346.0993901574265
312.17483844316945
278.7525406483857
245.81704004557506
213.35225927089056
181.34141448183675
149.76694627373897
118.6104668703355
87.85272282636902
57.473572230307084
27.45197517844702
-2.234003887055
-31.607183520527297
-60.691243935455304
-89.51069867977277
-118.09086102665562
-146.45780675635368
-174.63833494116602
-202.65992825154342
-230.55071417872796
-258.3394284258212
-286.0553815570595
-313.7284298195864
-341.3889508678925
-369.0678249305192
-396.79642176596286
-424.6065935623872
-452.5306737454586
-480.6014814720391
-508.85233140579425
-537.3170481952164
-566.0299849050036
-595.0260444879173
-624.3407032285796
-654.0100349405974
-684.0707345553158
-714.5601396064651
-745.5162479875125
-776.9777302420297
-808.9839345408616
-841.5748824067915
-874.7912531703927
-908.674355081471
-943.266080965037
-978.6088463006423
473.5235805435439
437.9752546487821
402.98157919683007
368.5298121491188
334.60702420139586
301.19993650130425
268.29477601680094
235.87714937342022
203.93193562587618
172.4431980684864
141.3941148312693
110.76692766521926
80.54290800097502
50.702339079966734
21.224512711102182
-7.912260993962965
-36.73063270407353
-65.25418366969639
-93.50738819226684
-121.51557071486995
-149.304859447529
-176.9021383584136
-204.33499924690972
-231.6316954684055
-258.82109871103063
-285.9326600365597
-312.99637619625565
-340.0427620231759
-367.1028294874328
-394.2080737864388
-421.3904666289982
-448.68245666265597
-476.1169767904823
-503.7274579258436
-531.5478485437983
-559.6126392047038
-587.9568910491504
-616.6162670943905
-645.6270649998644
-675.0262498129922
-704.8514850575566
-735.1411603847957
-765.9344138738752
-797.2711469441251
-829.1920297287699
-861.7384946625747
-894.9527159546303
-928.8775725595654
-963.5565922278751
459.6496824700657
424.6389944803906
390.17743314526
356.25379876086527
322.85661527757543
289.9739565740419
257.5932926408866
225.701356590118
194.2840329945249
163.32626764075556
132.81199836382598
102.72410623261914
73.04438598861014
43.753534313290906
14.831154221033236
-13.744226349144565
-41.995123834472274
-69.94505844059807
-97.61850587155291
-125.04084363609607
-152.23829411202243
-179.23786644555344
-206.06729922134468
-232.75500566410005
-259.3300229324018
-285.8219668473814
-312.260993167458
-338.67776628242666
-365.1034359588381
-391.56962252964854
-418.1084106857161
-444.752351797727
-471.5344744762258
-498.4883028645354
-525.6478819545431
-553.0478090196763
-580.723270070932
-608.710080059574
-637.0447253757297
-665.7644070222912
-694.9070826800087
-724.5115057214714
-754.6172590809304
-785.2647817430006
-816.4953854789454
-848.3512593390938
-880.8754593035305
-914.1118804086564
-948.1052086077387
445.4956482522995
411.0280964286535
377.10420329495054
343.7144367034712
310.84888512272437
278.4970715326607
246.6477897985887
215.2889645559061
184.40753515413468
153.9893637173085
124.0191668923518
94.48047039415957
65.3555850326663
36.625602532187095
8.270409137797694
-19.73128524557321
-47.40190481568179
-74.76495508203024
-101.84496210810048
-128.66740635086325
-155.25865358172433
-181.6458852411085
-207.85703040510052
-233.92070133312615
-259.86613432965726
-285.7231373997524
-311.52204591228656
-337.2936872146011
-363.06935487204873
-388.88079293986965
-414.76019041629576
-440.7401857764843
-466.8538812481291
-493.1348662615088
-519.6172492883093
-546.3356970759502
-573.32548008395
-600.6225227352732
-628.2634569096233
-656.2856769225667
-684.7273940565669
-713.6276885360445
-743.0265566685237
-772.9649507094553
-803.4848088506145
-834.6290725852793
-866.4416885688344
-898.9675919777834
-932.2526682786039
431.0650894812276
397.14530972160173
363.7638353464779
330.9129364614011
298.58438500089403
266.76925517907813
235.457749352255
204.63905046154784
174.3012016547967
144.4310131094493
115.01399551016962
86.03431909612573
57.474796702758965
29.31688879330657
1.5407281175356422
-25.87483864175617
-52.95219506870161
-79.71488800695332
-106.18755232238296
-132.39583037084526
-158.36628899649367
-184.12633671980052
-209.704143560772
-235.1285656918357
-260.42907683685314
-285.6357080378731
-310.77899710630896
-335.88994876878587
-361.0000062153401
-386.1410344629115
-411.34531566414404
-436.6455562212703
-462.074905309102
-487.66698416780235
-513.4559252962608
-539.4764204582924
-565.7637762029495
-592.3539753976958
-619.2837430759591
-646.5906147054941
-674.3130047923496
-702.4902735452891
-731.162789135285
-760.3719828988119
-790.1603946500284
-820.5717050906649
-851.6507521403662
-883.4435278585149
-915.9971524994385
416.361634975117
382.99332923066424
350.15815863232456
317.85034059889887
286.06345780275507
254.79024395545574
224.02239836765796
193.7504306103458
163.96353593367465
134.64950141791047
105.79464216447246
77.38376620702816
49.40016625389212
21.825635880413103
-5.359492614451528
-32.17629178077186
-58.647167321323955
-84.7957745376791
-110.64692634599089
-136.22649621940914
-161.56131926732223
-186.67909445186436
-211.60829067966958
-236.37805920585208
-261.018154459577
-285.5588650567757
-310.030956416384
-334.46562604945865
-358.8944722518893
-383.3494766066777
-407.8630003930479
-432.4677947088763
-457.1970238407108
-482.0843011587589
-507.1637365748463
-532.4699943730427
-558.0383600042819
-583.9048142262116
-610.1061127624347
-636.6798694502814
-663.6646406414676
-691.1000084135733
-719.0266599406016
-747.4864601615814
-776.5225146742924
-806.1792195731985
-836.502294747996
-867.5387969672595
-899.3371088982933
401.3889026697825
368.5747616219482
336.2888477473315
304.5274822227598
273.28619478504265
242.55949344767967
212.3406668616761
182.62162083381162
153.3927497199661
124.64284260521154
96.35902339738504
68.52672322664117
41.129682883705726
14.149982463689549
-12.43190507380293
-38.63704005779347
-64.48792582175733
-90.00840593397386
-115.2235528871584
-140.15955208438447
-164.84358476436938
-189.3037132443501
-213.56877153729425
-237.66826403885062
-261.6322745926441
-285.49138784249993
-309.2766243800294
-333.0193908036139
-356.75144542711973
-380.5048800198955
-404.31211762473833
-428.2059261899678
-452.2194474641335
-476.3862403345263
-500.74033754363603
-525.3163144826126
-550.1493685386306
-575.2754072572701
-600.7311433669736
-626.5541944998121
-652.7831852257214
-679.4578487954016
-706.619125758082
-734.3092563858243
-762.5718635946931
-791.4520228098493
-820.9963149783182
-851.2528586957209
-882.2713171884973
386.1504667480832
353.892086153106
322.15737839757406
290.94493742922754
260.2523862691627
230.07612903833925
200.4111401012686
171.25079205762472
142.5867233637053
114.40874541033777
86.70478795755866
59.460880964991375
32.66117009112332
6.287962485279955
-19.678201018798916
-45.25845157137359
-70.47548032919718
-95.35341341287072
-119.91767833869682
-144.19486630813128
-168.21259448370665
-191.99937204605055
-215.5844734335836
-238.99782173244148
-262.26988472692074
-285.4315856562786
-308.51423026485446
-331.5494512897969
-354.5691711110371
-377.60558289732825
-400.6911502218827
-423.8586247917038
-447.1410816344495
-470.57197081234733
-494.1851844804999
-518.0151378705457
-542.0968625573743
-566.4661101487379
-591.1594643206042
-616.2144589023123
-641.6696994885024
-667.5649858182041
-693.9414319136564
-720.8415807106882
-748.3095096396776
-776.3909233345956
-805.133229359406
-834.5855925524481
-864.7989633064382
370.64981941922616
338.94760943011926
307.76497671615635
277.1029709528217
246.96146552407893
217.33888998021962
188.2320048065172
159.63572048478875
131.54296169575292
103.9445763723004
76.82928821907325
50.18369030109979
23.992276414049197
-1.7624937958381706
-27.100100573460352
-52.04184567437987
-76.6107151098247
-100.83122832958463
-124.72927906711506
-148.33197285034845
-171.66746584992538
-194.76480931680908
-217.6538033800701
-240.36486345449174
-262.9289019673986
-285.37722757473773
-307.7414635112788
-330.05348622130987
-352.3453849518419
-374.6494425643993
-396.99813743692096
-419.4241659813496
-441.9604849932906
-464.64037277292397
-487.49750770420945
-510.566062746845
-533.8808140756524
-557.4772618869374
-581.3917611757627
-605.661660066227
-630.3254430427099
-655.4228761806222
-680.9951512086319
-707.0850249474025
-733.7369503636446
-760.9971951556946
-788.9139434490226
-817.5373758343753
-846.9197226330622
354.89032668077954
323.7434133416243
293.11256118557276
263.00147412186845
233.41244494942168
204.3460660637364
175.80098853233142
147.77373180951065
120.2585450017696
93.24731923585568
66.7295493827301
40.69234220008443
15.120466919570447
-10.003556548248028
-34.69933726670782
-58.98846669513177
-82.89435201747925
-106.4420355418153
-129.65800618265737
-152.57000873307933
-175.20685620278755
-197.59824997289064
-219.7746119290876
-241.7669321091092
-263.6066347629187
-285.3254650978024
-306.9553983809121
-328.5285725119948
-350.07724466731634
-371.63377215517494
-393.2306172160666
-414.9003751424543
-436.67582477988606
-458.5900001967035
-480.67628206431726
-502.9685070671194
-525.5010934513905
-548.3091806157904
-571.4287804368503
-594.8969378023136
-618.7518975872713
-643.0332750483406
-667.7822263264297
-693.0416154354264
-718.85617377367
-745.2726478277104
-772.3399303464637
-800.1091698552216
-828.6338529570136
338.87517730378306
308.2812952731707
278.20067617668104
248.63989409134882
219.60384354644773
191.09542593882028
163.11529141433533
135.66163881705322
108.73007467055729
82.31353052906705
56.402236489994294
30.983747257884538
6.04301594254148
-18.4374902023823
-42.47763861631532
-66.09945182254921
-89.32690655899356
-112.18571880595127
-134.70312162817214
-156.90764233345337
-178.82888489458554
-200.49732292413864
-221.94410777152058
-243.20089556045428
-264.2996962339266
-285.2727469472532
-306.15241146687833
-326.9711066062947
-347.76125616951765
-368.5552723788628
-389.3855643369061
-410.2845727079534
-431.2848294940359
-452.4190415164279
-473.72019598283487
-495.22168631595434
-516.9574562265396
-538.9621598229268
-561.2713353526018
-583.921589957064
-606.9507925840996
-630.3982719339658
-654.3050160151167
-678.7138695462895
-703.6697250649711
-729.2197031879028
-755.4133170205121
-782.3026152335307
-809.9422978220218
322.6073241722567
292.562699567153
263.0294159605662
234.01715316518002
205.53360451388824
177.58413602094774
150.17150936398565
123.295671663814
96.95361306062544
71.1392911320876
45.843619355401685
21.054515161484044
-3.242998276283335
-27.06664349117888
-50.43670118218584
-73.37579193515339
-95.90863563011565
-118.06179684845044
-139.86342423660392
-161.3429912252917
-182.53104478966026
-203.4589681160103
-224.15876216084752
-244.66285018762542
-265.0039084820009
-285.2147256059334
-305.3280917756276
-325.3767192506096
-345.39319401078694
-365.4099584744929
-385.45932457006995
-405.57351611016696
-425.7847391194649
-446.12527852279277
-466.6276193949873
-487.32459079683974
-508.24953005566033
-529.436465182258
-550.9203129394665
-572.7370898758375
-594.9241334065191
-617.520329751823
-640.566345228537
-664.104857025994
-688.1807791843366
-712.8414790291802
-738.1369788064462
-764.1201367057929
-790.8468008705534
306.08941697620696
276.5886390285746
247.59833786518755
219.13155683144004
191.19900162806005
163.80866875992697
136.96554768583195
110.67140006755645
84.92461711923106
59.72015370445243
35.04953562712378
10.900934607207436
-12.740696204054348
-35.893434583621215
-58.57815876258452
-80.81828389443402
-102.6394753519973
-124.0693485140774
-145.1371641897485
-165.87352808564614
-186.31010180934152
-206.47933188133717
-226.4142021545111
-246.14801396242635
-265.7141972781267
-285.1461551954027
-304.4771431673021
-323.7401836648617
-342.96801625997455
-362.1930825875477
-381.4475451970564
-400.7633389513571
-420.1722533562738
-439.70604399304455
-459.39657105858834
-479.27596287966367
-499.3768021401618
-519.7323324284794
-540.3766825628966
-561.3451059723507
-582.6742321892535
-604.4023272403824
-626.5695593943415
-649.2182663376595
-672.3932193997581
-696.141879932174
-720.5146423710464
-745.5650578753625
-771.3500317461737
289.3237250978481
260.35960507760336
231.90636302623938
203.98068890783256
176.5965328564946
149.76469887339027
123.4925239624732
97.7836465716367
72.63786529030989
48.051085910753606
24.015352325472488
0.5189544201369092
-22.453395782517887
-44.92032991093196
-66.90354209928157
-88.42747250908815
-109.51896713301095
-130.20692511000235
-150.52194406087852
-170.49597297341757
-190.1619810042162
-209.55364929639268
-228.70509160444755
-247.65060823100345
-266.42447656104696
-285.0607803644668
-303.593279050239
-322.05531720844203
-340.4797740726416
-358.89905197025035
-377.34510239042584
-395.8494879720623
-414.4434784796522
-433.15817867084627
-452.02468584596
-471.0742747839141
-490.3386076936805
-509.84996672440377
-529.6415064661303
-549.7475237220044
-570.2037416294436
-591.0476049429558
-612.3185829557149
-634.0584761279408
-656.3117220017856
-679.1256954140007
-702.5509973715325
-726.6417262330054
-751.4557240460812
272.3120493382674
243.875464909419
215.95166291408663
188.56129192422736
161.72179940526414
135.44698594169094
109.74665891058956
84.62638998211096
60.087377267491036
36.12640949053583
12.73592639686126
-10.09583312294366
-32.38460593233466
-54.14981492927896
-75.41422808037632
-96.20357999780477
-116.54616971792713
-136.4724477333662
-156.01460433727723
-175.20617005507845
-194.0816374636338
-212.6761121259417
-231.02499878043938
-249.1637273911437
-267.1275222404379
-284.95121597005107
-302.66910937219365
-320.3148768111888
-337.92151641592045
-355.52134361539044
-373.1460261745266
-390.8266586041733
-408.593873643113
-426.4779884124389
-444.5091828006158
-462.71770762267374
-481.13412008734747
-499.78954408010907
-518.7159527082638
-537.9464704420977
-557.5156920074339
-577.4600149314219
-597.8179823042885
-618.6306318898281
-639.9418471928457
-661.7987054688207
-684.2518169424222
-707.3556486878954
-731.168825719526
255.05562089514066
227.13534372637122
199.73152949299012
172.86913054299308
146.56936810367114
120.84924152270786
95.72115375388717
71.19265801562892
47.266326192933256
23.93973536872475
1.205565069769643
-20.948205431109564
-42.538012980598836
-63.5843546203392
-84.11137596825975
-104.146420321821
-123.71955455634617
-142.863086984775
-161.61109099341328
-179.99894659731376
-198.06291019264887
-215.83972083921665
-233.36624948180074
-250.6791956979617
-267.8148349024571
-284.80881748651035
-301.6960201463767
-318.51044866589626
-335.2851906546314
-352.0524161901585
-368.84342394295015
-385.6887301464847
-402.6181976808406
-419.6612025314301
-436.84683493491013
-454.2041325994554
-471.7623434617009
-489.5512154907957
-507.6013110506373
-525.944343268489
-544.6135317127498
-563.6439744463173
-583.0730331837441
-602.9407278324286
-623.2901361377403
-644.1677934739115
-665.6240870294116
-687.7136377254138
-710.4956621840375
237.55498571215514
210.13748974715148
183.24222647215353
156.89883542351143
131.13261467669622
105.96397866679663
81.4080524839514
57.47440814444104
34.16694298296079
11.483895213411069
-10.58201287102177
-32.04331743171502
-52.917457693010974
-73.22634098216874
-92.99584761666796
-112.25529520929051
-131.0368813141628
-149.3751220253933
-167.3063023196077
-184.86795176968323
-202.0983569044364
-219.03611909119584
-235.71976449508
-252.18741051376696
-268.4764911682193
-284.623542290297
-300.6640460057507
-316.6323329650947
-332.56154000969866
-348.4836204474999
-364.4294038164861
-380.4287018957312
-396.5104577399144
-412.70293462574864
-429.03394196651885
-445.5310954389537
-462.22210874609334
-479.1351145783773
-496.29901241255135
-513.7438407850501
-531.5011715734199
-549.6045236067877
-568.089792593383
-586.9956938903102
-606.3642140457787
-626.2410663109752
-646.676144448489
-667.723968155176
-689.4441122730393
219.80987196328755
192.87911925410145
166.47881862318468
140.64372445966492
115.4035450335222
90.78234138907274
66.798087190303
43.46239559014663
20.78041259130919
-1.2491298618419941
-22.633713341527347
-43.38670178074404
-63.526899957864345
-83.07802408314578
-102.06810795373968
-120.52886803559907
-138.49504975455343
-156.00377542338245
-173.09391180318434
-189.8054725073295
-206.17906750095656
-222.25540900274189
-238.07488030079858
-253.6771714577869
-269.10098367471596
-284.3838022485401
-299.5617366070053
-314.66942482305194
-329.73999927326736
-344.8051096672543
-359.89499948954307
-375.0386319111905
-390.26386139178896
-405.5976474554819
-421.0663074396101
-436.6958053418156
-452.5120741952087
-468.5413696494397
-484.810652604107
-501.34799880900874
-518.183033294755
-535.3473873149031
-552.8751751573882
-570.8034877093615
-589.1728990306246
-608.0279814036421
-627.4178233794664
-647.396544228628
-668.0237969355319
201.81903799136825
175.35623839114555
149.43497554232619
124.09559773786329
99.37259119516735
75.29391128081869
51.880504436987195
29.146027411566294
7.096762220853527
-14.268282356612293
-34.95709862623825
-54.98425842763315
-74.37036737074443
-93.14142241024447
-111.32810117234447
-128.96501093846837
-146.0899235171516
-162.74301965394994
-178.96616341294242
-194.8022233824944
-210.294453859001
-225.48594555616702
-240.4191520407295
-255.13549512753355
-269.6750499521085
-284.0763084115597
-298.37601812320116
-312.60909296819915
-326.8085906181393
-341.00575212679416
-355.230098642459
-369.5095804912473
-383.8707742355036
-398.3391237624336
-412.9392219539312
-427.6951299829092
-442.6307317329769
-457.7701212150705
-473.1380211300092
-488.76023087621877
-504.6641023119735
-520.8790414366345
-537.4370338455243
-554.373191331676
-571.7263163473336
-589.539480196436
-607.8606098027483
-626.7430766854272
-646.246280374224
183.5800974677092
157.56343774438457
132.10274550107744
107.24450185375673
83.0283778781343
59.48648800661935
36.642870449797705
14.513201671081266
-6.8952582079495475
-27.583501568547085
-47.56041158772071
-66.84222960530042
-85.45188296463773
-103.41820720354141
-120.7750970549858
-137.56061961197338
-153.81612051349776
-169.5853504632554
-184.9136351593359
-199.84710713779356
-214.4320134214259
-228.7141084710283
-242.7381379517338
-256.5474153804087
-270.1834908837733
-283.6859090909577
-297.0920515890396
-310.4370583362836
-323.7538218845589
-337.0730481291896
-350.42337749496994
-363.83156089786365
-377.3226854150138
-390.92044527909866
-404.6474545262254
-418.52559831817587
-432.5764205845711
-446.82154615426833
-461.28313594255417
-475.98437400503934
-490.9499853480416
-506.20678328442875
-521.7842448318049
-537.7151121633449
-554.0360174321811
-570.788127394578
-588.017803153463
-605.7772690286405
-624.125283030443
165.0893178483675
139.49365488901046
114.4722941190494
90.07845835755853
66.3574550237742
43.345839932457984
21.070852664660816
-0.4498692291223101
-21.208302592242177
-41.20579453982122
-60.45258857096535
-78.96715515730803
-96.77536606983792
-113.90955418769975
-130.40750063470148
-146.3113891191149
-161.66676372470675
-176.52152158149224
-190.92496630393106
-204.9269422638243
-218.57706404101972
-231.92405006955426
-245.01516478466257
-257.89576961194837
-270.6089799842481
-283.19542322129865
-295.69309051624674
-308.13727535774115
-320.56059037687277
-332.99305473481786
-345.46224464806033
-357.99350038129774
-370.61018392821796
-383.33398256506285
-396.1852544328309
-409.1834132239549
-422.34734987248817
-435.69588983713106
-449.24828509809754
-463.0247403389292
-477.0469729388478
-491.3388063489362
-505.92679615564396
-520.8408876456209
-536.1151029683381
-551.7882550453545
-567.9046841954967
-584.5150120279719
-601.676905498353
146.34138733378123
121.13789902397978
96.531601461564
72.58315003166092
49.34399068887273
26.85542055459036
5.147974986154074
-15.758851739895011
-35.85656082847744
-55.147301415786366
-73.6432558753287
-91.36580163181566
-108.34449870666225
-124.61595453460805
-140.2226169166522
-155.2115427648546
-169.6331851274081
-183.5402344848163
-196.9865430946167
-210.02615379074328
-222.71244757477876
-235.09741792161947
-247.23107419765563
-259.16097208429056
-270.9318654501926
-282.5854716845089
-294.1603410017171
-305.6918195309833
-317.21209596880817
-328.7503220573226
-340.3327980118391
-351.9832151345208
-363.7229491036716
-375.5713987275716
-387.54636622288723
-399.664476257824
-411.94163204570907
-424.39350764926553
-437.03607633385576
-449.8861752719321
-462.96210713718625
-476.2842791263066
-489.8758797017207
-503.76359285745394
-517.9783489662904
-532.5561102686504
-547.5386878085825
-562.9745851062404
-578.9198620750544
127.32914444181044
102.48493048017208
78.26610975316581
54.74155739100876
31.96941766181068
9.996045744857039
-11.144656060627646
-31.43150122425159
-50.85589440920434
-69.42135054251044
-87.14270299420937
-104.04505667660112
-120.16254793262593
-135.5369749570404
-150.2163606155275
-164.2535045602175
-177.70457428643456
-190.62777607757786
-203.08213744150922
-215.12642335180317
-226.8181999289036
-238.21305152809128
-249.36395079301758
-260.32077619151994
-271.1299678701312
-281.8343102541994
-292.4728285332441
-303.08078582448144
-313.68976820957585
-324.3278458012731
-335.01979934445694
-345.78740343854537
-356.6497591560522
-367.62367052301636
-378.7240609396593
-389.9644270919593
-401.357329193303
-412.9149174681694
-424.6494956242568
-436.5741226417921
-448.7032545306437
-461.0534277586472
-473.6439858365697
-486.49785005251283
-499.64233457955925
-513.1100051336454
-526.9395790297352
-541.1768628735357
-555.8757222252284
108.04326291273506
83.52088619999067
59.658312129482084
36.53353617481557
14.212025905855226
-7.254473905405867
-27.82865719655857
-47.48788863767216
-66.22397197569566
-84.0424968520726
-100.96182363769489
-117.0117778485878
-132.2321320885205
-146.67095446872463
-160.38289875656545
-173.42750406764313
-185.86756184900057
-197.7675963297101
-209.19249257412704
-220.20629462976348
-230.87118567932453
-241.24665302771587
-251.38883341943185
-261.35002865334695
-271.17837766669913
-280.9176690282326
-290.6072768828848
-300.28220357134705
-309.9732131518767
-319.70704163854043
-329.50667172810563
-339.3916619397455
-349.37852229247375
-359.48113078421727
-369.7111869312288
-380.07870041786805
-390.5925144549733
-401.26086472490897
-412.09197578748297
-423.0946975233642
-434.2791845987632
-445.6576220416248
-457.24499982684677
-469.0599388745875
-481.125570071567
-493.4704668298869
-506.1296302981522
-519.1455246370326
-532.5691577572659
88.47188289127135
64.22884014379618
40.68727062366778
17.935324589127834
-3.9535085855108547
-24.921752169320357
-44.92870915467465
-63.9506426812206
-81.98039965231808
-99.02653469971904
-115.11201269976539
-130.2725818609788
-144.55491579619257
-158.01462246823863
-170.71421149883906
-182.72110044262973
-194.1057267848625
-204.93981711706166
-215.29484950993682
-225.24073060239235
-234.8446961286997
-244.17043298260904
-253.2774126657145
-262.2204200724031
-271.0492578443626
-279.80860470203544
-288.53800589158936
-297.2719748235939
-306.04018679071964
-314.8677480385173
-323.7755261724705
-332.78053071433703
-341.8963354132307
-351.13353655858424
-360.50024395382695
-370.00260333868056
-379.64535086600677
-389.43240172842604
-399.3674761856793
-409.45476706387427
-419.6996532862684
-430.10946415261776
-440.69429891439364
-451.46790569771935
-462.4486230061343
-473.6603858921403
-485.1337974173956
-496.9072642309149
-509.0281929736074
68.60017705915932
44.58828484458311
21.328048769610543
-1.081033435936865
-22.556669753799774
-43.035305088607785
-62.47293498764214
-80.84520491223785
-98.14683860074493
-114.39047311956458
-129.6050036062056
-143.83355635138238
-157.13121471483964
-169.56261932186572
-181.19955363148586
-192.1186102905208
-202.39901479604305
-212.12066286357594
-221.3624082280153
-230.20061968027585
-238.7080108279196
-246.95273382169472
-254.99771922327326
-262.9002381498482
-270.71165948263
-278.4773738298235
-286.23685661261993
-294.02384462737007
-301.8666033042068
-309.7882652706995
-317.8072244447234
-325.93757350016085
-334.1895760087638
-342.5701677523558
-351.08348455165316
-359.731416433864
-368.51419004698016
-377.4309829211836
-386.4805744835985
-395.66203966187044
-404.9754914744373
-414.4228792077839
-424.0088486312061
-433.74167019998214
-443.6342403517772
-453.7051598100272
-463.9798912719669
-474.491996982281
-485.284454471985
48.4098374645114
24.574516824468233
1.5510406299832438
-20.548365818545285
-41.631735663751556
-61.6290959757129
-80.49331798105712
-98.2000932633497
-114.74709891667707
-130.15245717928923
-144.45262561693892
-157.69987123917753
-169.95948629580357
-181.30689643898978
-191.82479584295083
-201.60042158222754
-210.72305396519255
-219.28180320796855
-227.3637179355626
-235.05222904102297
-242.42592434236508
-249.55763563650595
-256.5138101054527
-263.3541322159572
-270.1313597104728
-276.89133736283895
-283.6731542099639
-290.5094133619489
-297.42658770964806
-304.4454394644131
-311.58148614965114
-318.84550018156307
-326.24403336793023
-333.7799614241984
-341.45304690656354
-349.26052177671266
-357.1976931503767
-365.25857765869466
-373.4365712889596
-381.7251625942771
-390.1186977861354
-398.6132064639255
-407.2072966009606
-415.90312690112796
-424.7074637675592
-433.63282888532996
-442.69874181821154
-451.93306005717983
-461.3734166406671
27.878465002747916
4.157904062051683
-18.678826502166707
-40.505171450315814
-61.21851689363352
-80.74215662681603
-99.0261601309314
-116.0471664273923
-131.80719439485227
-146.33161336795314
-159.66645431334734
-171.875260371112
-183.03567689860228
-193.2359678629941
-202.5716210794883
-211.14217341307878
-219.0483525813703
-226.3895980133026
-233.26199195516665
-239.75660542138715
-245.95824257491722
-251.94455189485302
-257.78546271318805
-263.5429006908066
-269.2707346812592
-275.0149092707434
-280.8137212042142
-286.698203137742
-292.69258405826304
-298.8148017972119
-305.07704897898765
-311.4863392549008
-318.04508563942295
-324.75168712199485
-331.6011234597537
-338.5855611810366
-345.69497638435917
-352.9178019449662
-360.2416082820262
-367.6538279333863
-375.142534855985
-382.6972896390149
-390.3100616941035
-397.97623897444566
-405.69573487685074
-413.474200694037
-421.3243503146068
-429.26740182031426
-437.3346382142518
6.978838559909761
-16.696992173849303
-39.40304432687193
-60.996566450455134
-81.36321814087532
-100.41929451925071
-118.11258021848109
-134.42187719522883
-149.3553363189962
-162.94778924874464
-175.25732023602563
-186.36133609102149
-196.35238843571472
-205.33397957360143
-213.4165471548789
-220.71377901423455
-227.33936342088572
-233.40423589135412
-239.01434484247252
-244.26892661207506
-249.259256512541
-254.06782646130557
-258.76789057239125
-263.4233167389782
-268.08868338717804
-272.8095649553201
-277.6229561036669
-282.55779223228717
-287.63553183725077
-292.8707740331002
-298.2718918552419
-303.84166852082177
-309.57792957480353
-315.4741687613849
-321.52016957471744
-327.70262781938095
-334.0057832258417
-340.4120702936528
-346.9028001393668
-353.45888626130125
-360.06162783361395
-366.69356443159273
-373.33941597787515
-379.9871211834459
-386.62898683757714
-393.2629589698762
-399.89402516815517
-406.53575519752013
-413.2119845442712
-14.321965660811546
-38.032476481614424
-60.670666821476004
-82.07540920525426
-102.11944558291202
-120.7118960425357
-137.7990473343624
-153.36349648322144
-167.42183561196214
-180.02114728390166
-191.23462988428338
-201.1566892074065
-209.89781898760654
-217.57955599566773
-224.32974240194397
-230.27826742096067
-235.55339893689242
-240.27875942767525
-244.5709527638756
-248.5378112654386
-252.277206136699
-255.87634831476868
-259.4114993930878
-262.9480118081369
-266.54062203766887
-270.23392843892987
-274.06299510391005
-278.0540335879825
-282.22512474842006
-286.5869526598588
-291.14353132992267
-295.8929125701145
-300.82786986180133
-305.936558448929
-311.2031562922764
-316.60849405564295
-322.130685085854
-327.74576850655205
-333.4283801607354
-339.1524672793325
-344.8920634640581
-350.62214087770667
-356.319556437687
-361.96410829982375
-367.53971798791514
-373.0357521552998
-378.44849615521605
-383.7827893568185
-389.0538294993146
-36.06364268689094
-59.899004924179714
-82.53969048728119
-103.8036434743558
-123.54938655187973
-141.67883535408674
-158.13794061166482
-172.91528059121137
-186.03887046196516
-197.57155890392488
-207.60543932993977
-216.25571410478284
-223.65442138584424
-229.94437571439482
-235.2735968703467
-239.7904180251688
-243.63938336668627
-246.95797402692804
-249.87414344244854
-252.5046008196287
-254.9537537795598
-257.3132067780771
-259.66170806045494
-262.0654420067665
-264.5785731717915
-267.2439608964802
-270.0939772938341
-273.15137539106956
-276.4301673689631
-279.93648466433046
-283.66940195247093
-287.62171565893357
-291.78067475168837
-296.12866729284445
-300.6438707760024
-305.30087783666704
-310.07131167795706
-314.9244476535618
-319.82785901323854
-324.7481059272313
-329.6514876121396
-334.5048777033187
-339.27666295113653
-343.9378048381292
-348.46304279138593
-352.8322562707683
-357.03200113495865
-361.0572333306093
-364.91323015113886
-58.293964687637036
-82.3567558860349
-105.07873018507499
-126.25390840805179
-145.7251925173706
-163.38749668821134
-179.18811793246445
-193.1245409402117
-205.24005961253846
-215.6177263717426
-224.37320264707924
-231.64708294213483
-237.59721149332663
-242.39142036246093
-246.20100790790505
-249.19516259968316
-251.53643148026072
-253.37724351157533
-254.85742979025144
-256.10263590671445
-257.22349481293804
-258.31541817266816
-259.4588663842717
-260.71996839493625
-262.15137861254226
-263.79327687859836
-265.67443651859537
-267.81330353427927
-270.2190462110091
-272.89254838518025
-275.82733126967815
-279.01039819197985
-282.4230041019939
-286.04135754860056
-289.8372673081306
-293.7787492558854
-297.8306116452279
-301.9550388935131
-306.11219541463817
-310.26087207967873
-314.3591985801495
-318.3654453233038
-322.2389384817157
-325.94111140619646
-329.4367147350405
-332.6952061408279
-335.69233871447113
-338.4119644932772
-340.8480666384216
-81.07038909825287
-105.47756286410028
-128.36906585887738
-149.51147629643293
-168.73060100790255
-185.91491395460514
-201.01546398353946
-214.04255634528477
-225.05975804884238
-234.17593523465212
-241.53609414070897
-247.31177350473678
-251.69164388573918
-254.87283261965945
-257.05333680185
-258.4257323459284
-259.17225066528334
-259.46118531010177
-259.44451252945237
-259.2565611821568
-259.01354464599916
-258.8137648070672
-258.73830996434964
-258.85208916577693
-259.20507064861584
-259.8336183397883
-260.7618454914886
-262.0029271054925
-263.56033216705146
-265.42895270445786
-267.5961194854316
-270.0425041184508
-272.74291489413804
-275.6669993417145
-278.77987062198804
-282.0426779064121
-285.41314311035694
-288.84608799584237
-292.29397690084255
-295.7075012931761
-299.03623303058237
-302.2293736292061
-305.2366269510077
-308.00922243899305
-310.5011152630058
-312.67038839599184
-314.48087965503703
-315.90405409030967
-316.92113883351084
-104.46205463359439
-129.34730990599374
-152.50715741739572
-173.6765938190672
-192.66283646337973
-209.34902374690554
-223.69336899385007
-235.7242401694105
-245.53195932131467
-253.25830715462098
-259.08477372464347
-263.2205319340634
-265.8909572642448
-267.3273122792052
-267.75799392029387
-267.40153465376306
-266.46137478653617
-265.1222925755783
-263.54829268706493
-261.8817077962656
-260.2432549859593
-258.73279924633067
-257.43060232029126
-256.3988691895766
-255.68344116369266
-255.3155200157537
-255.3133395898136
-255.68372863432967
-256.4235309838175
-257.5208668477265
-258.95623241692795
-260.70344494756534
-262.73044763614854
-264.99999362008737
-267.4702319002958
-270.0952203606519
-272.82539272526947
-275.60800752112544
-278.3876080844328
-281.1065234681593
-283.70544080576235
-286.124080232462
-288.30200377619076
-290.17958958146585
-291.6992022729615
-292.80658905252017
-293.4525291337036
-293.5947612918031
-293.2002106775367
-128.55227938846764
-154.0689230644239
-177.60775415631204
-198.86732109514486
-217.63483315681532
-233.79001403542733
-247.303060361558
-258.22743469331317
-266.68864377026523
-272.8703791065574
-276.99942741177676
-279.3306241795708
-280.1328762241245
-279.6769751802151
-278.2256156794838
-276.0257578251091
-273.30325681030547
-270.2595315316222
-267.06995601282136
-263.88362244434285
-260.8241294948675
-257.9910808786152
-255.46202523982015
-253.29462008756036
-251.52885336629956
-250.18920231766992
-249.28664856876054
-248.8205002701728
-248.77999691155946
-249.14569098651577
-249.89061401552595
-250.98124365319057
-252.37829471597678
-254.0373608461714
-255.90943589620224
-257.9413455404932
-260.07612052291626
-262.25334362176415
-264.40950305155883
-266.4783857153583
-268.39154448281295
-270.0788744361525
-271.46933366801164
-272.4918445492209
-273.076411191009
-273.1554878731214
-272.66563129560564
-271.54946651012716
-269.75799229375383
-153.44171469204508
-179.76613601512554
-203.80776389575502
-225.22298554157146
-243.77782348895602
-259.3517269582344
-271.9336649587598
-281.6116472495182
-288.55734975868796
-293.0077771893178
-295.2458684963791
-295.58169919648515
-294.33554202939246
-291.8236014548053
-288.34681097636513
-284.18272515646146
-279.5802752074552
-274.75699173822795
-269.8982193916942
-265.1578367059866
-260.66002945069306
-256.50172760638605
-252.7553895896143
-249.47189124405514
-246.6833446196651
-244.40572907491662
-242.641263600314
-241.38048486887433
-240.60402163561292
-240.2840743747941
-240.38562115888425
-240.86737831025494
-241.6825486379468
-242.77939219766188
-244.10165533145886
-245.58889388814742
-247.1767264486965
-248.7970533829239
-250.37827782365775
-251.8455652382503
-253.12117918496207
-254.12493196490465
-254.77479003435252
-254.98767497334774
-254.68050120111147
-253.77149114162182
-252.18180684988596
-249.83753396949086
-246.67204922584295
-179.25236363845522
-206.58827000472982
-231.2710989560365
-252.90839481707286
-271.24432892507195
-286.16303397973127
-297.6818122380672
-305.935959204659
-311.15765939535873
-313.651677944697
-313.77042891333855
-311.8905545665932
-308.39253658963503
-303.6442117429731
-297.9884823216012
-291.735056796103
-285.15574998995913
-278.48270705872267
-271.90886541275603
-265.5900005534543
-259.64778348195705
-254.17338231276045
-249.23124965580575
-244.862837939182
-241.09007065766102
-237.9184662970841
-235.3398638678779
-233.3347365558107
-231.8741055759965
-230.92108258800238
-230.43207845207334
-230.3577207562491
-230.64352408260095
-231.2303566798702
-232.05474600548098
-233.0490641520642
-234.14163292911994
-235.25678760826446
-236.3149382097538
-237.23266775480744
-237.92290808087486
-238.29523547693304
-238.25633030438652
-237.71064659021854
-236.5613388842921
-234.71149396712775
-232.06571377188283
-228.5320927210294
-224.02462734973702
-206.1327515314312
-234.71635510985516
-260.1947859695822
-282.1189847463927
-300.2115728343961
-314.3690350935234
-324.6504852139335
-331.2557183912894
-334.4961729031211
-334.7626532787124
-332.49330510146353
-328.144565643291
-322.1668674721797
-314.9859401526397
-306.9897747034922
-298.52075433511607
-289.87212187919647
-281.287818193961
-272.9647362602118
-265.0565392128997
-257.67834090060956
-250.91171020181247
-244.80961291907596
-239.40103562178817
-234.69513989716796
-230.68487355669527
-227.35002056702163
-224.65970807041657
-222.57441118645593
-221.047508271461
-220.02644422245814
-219.45355981313747
-219.26664285694105
-219.39925358572606
-219.78087296223214
-220.33691933697702
-220.9886763074033
-221.65317306273093
-222.24305800117764
-222.6665069934596
-222.82720925736166
-222.6244762289389
-221.95352178321377
-220.70596525487113
-218.77061137521622
-216.03456278717948
-212.3847204634929
-207.70972442218343
-201.90238112263523
-234.2646479830679
-264.37104268429584
-290.8167208136483
-313.08711242564414
-330.8852942233366
-344.13182417694014
-352.94666939356944
-357.6174519726385
-358.5593864177888
-356.2723736921701
-351.29995206127563
-344.19352097406215
-335.4838084156757
-325.66023185256915
-315.1577827414229
-304.3504062205309
-293.54952690120695
-283.00631562724374
-272.9164119881559
-263.4260316800711
-254.63863356203657
-246.62155687391444
-239.4122417675618
-233.0238072427839
-227.44987996302422
-222.66865032594134
-218.64618563104605
-215.33906143011035
-212.69638758329177
-210.6613104117622
-209.17207065392236
-208.16269162568483
-207.5633650937923
-207.30059525278443
-207.29715471017232
-207.4719010416452
-207.73949855618503
-208.01008753868797
-208.1889424421668
-208.1761612472626
-207.86643039152864
-207.1489131083851
-205.90731340309304
-204.02017275244896
-201.36146124961914
-197.80152839766214
-193.208479972778
-187.45004518015705
-180.39599177392597
-263.8719043872899
-295.82293491575297
-323.425577329918
-346.08973692296115
-363.50386055532556
-375.63038307079773
-382.6771104600572
-385.05118745112105
-383.30367452435667
-378.07249813146564
-370.0300525397332
-359.8396150848939
-348.1225569012271
-335.43649736653623
-322.2632665189118
-309.00483001093954
-295.9851026962463
-283.4556853541788
-271.6038593404389
-260.56154908759527
-250.41433296459854
-241.20990454660011
-232.96564087477998
-225.67512095611343
-219.3135649486635
-213.84224420662304
-209.21195685914114
-205.36568359343048
-202.24054237841142
-199.76915540813434
-197.88053109726894
-196.50055156660193
-195.5521436521811
-194.95520021295016
-194.62630902952992
-194.47833917726243
-194.41992951579144
-194.35492085761993
-194.18177239646104
-193.79300401465218
-193.07470904311236
-191.9061867614056
-190.15975012519255
-187.70077140625511
-184.38803582482348
-180.0744796493962
-174.6083930586836
-167.83516750184108
-159.59966067315548
-295.23221330726255
-329.40621274920994
-358.37355023282913
-381.4577487770034
-398.3424240421408
-409.05887323398576
-413.9411269311089
-413.5590140480729
-408.64129921891436
-399.9999137771119
-388.4635454642114
-374.8254115379772
-359.8068048587134
-344.03552731271924
-328.0368041659537
-312.2336286312326
-296.9534943748676
-282.4388768889072
-268.85940105805093
-256.3242261935288
-244.89370184086573
-234.58976016269332
-225.4048097340294
-217.30909526830524
-210.2566091530946
-204.18970504570905
-199.04258954378884
-194.74386945690716
-191.2183198803563
-188.38801922911432
-186.1729762118788
-184.49135317223016
-183.25937182079454
-182.39097185466906
-181.79728055199
-181.38594211592914
-181.06034917260433
-180.71881521653444
-180.25372578015225
-179.55070756394466
-178.48785862737847
-176.93508894165194
-174.75362898613344
-171.79577423861843
-167.90494454230804
-162.9161479882144
-156.65694697547772
-148.94902676311625
-139.61046122259174
-328.69296211342146
-365.53681860679075
-396.0928423658737
-419.58719010069757
-435.71658101325085
-444.6221132415628
-446.8188694156436
-443.0982156550874
-434.42101410348334
-421.8173267794077
-406.3032179890152
-388.81974909712625
-370.19456056455556
-351.12324004317736
-332.1660620954825
-313.75534847233587
-296.2091850756876
-279.7481170180157
-264.51241314849244
-250.57836035745794
-237.97273461643977
-226.68508761470983
-216.67780918938593
-207.89411445318382
-200.26419890422397
-193.70983723685572
-188.14769666841755
-183.4916106410398
-179.65402509324866
-176.54679407061428
-174.08146817096616
-172.1691901349609
-170.72028752803095
-169.64363295920452
-168.84582734304234
-168.2302508920174
-167.69601937437596
-167.13687929743233
-166.4400747985014
-165.4852210007851
-164.14322341361284
-162.2752907258331
-159.73209915044328
-156.35318020846444
-151.96661983679178
-146.38917340312273
-139.42691581864813
-130.8765544230356
-120.52752990874114
-364.6929146977171
-404.7370090070928
-437.11710842415357
-460.9524974088657
-475.98447425568077
-482.5262434827662
-481.35257800930185
-473.55661440150556
-460.4014157002489
-443.1880965019481
-423.15352038128
-401.40189295574805
-378.86796559783846
-356.30573599630713
-334.295207294902
-313.2601873583507
-293.49144960842216
-275.1711891476342
-258.3961936454425
-243.19832583585716
-229.5617478305502
-217.43684886692438
-206.75113827753472
-197.41750542662533
-189.3402868800244
-182.41956146067952
-176.554045375335
-171.64290061334611
-167.58671088553302
-164.2878259365927
-161.65022941845
-159.57904813086225
-157.97979085682866
-156.75738237059247
-155.81504149618388
-155.0530404235548
-154.36737506158607
-153.648372416721
-152.7792604318171
-151.6347282340116
-150.0795104148047
-147.9670381483359
-145.13821315775095
-141.42037819860022
-136.62657971687204
-130.55524329738435
-122.99040712206211
-113.70267721878636
-102.45107316180346
-403.7923348245025
-447.6689354451306
-482.1094494908791
-506.1215914553685
-519.5453359622651
-522.9612903560783
-517.5171280183982
-504.71684026199597
-486.2147631194588
-463.64425925414344
-438.49567695532124
-412.04483914431734
-385.32449391528485
-359.1272029469866
-334.0279261242575
-310.4164960292085
-288.5328948830064
-268.50086091013003
-250.35743756007045
-234.07753837317014
-219.59350639856405
-206.81013648768536
-195.61583811139258
-185.8906558133329
-177.51181239914894
-170.35734714738078
-164.30831771617704
-159.24993603620666
-155.07192262172
-151.66829265011856
-148.93673044866568
-146.77766506981993
-145.09312643571954
-143.78543713425904
-142.7557776385829
-141.90265109076086
-141.1202667347648
-140.29685779210533
-139.31294952292757
-138.03959620109674
-136.3366119381389
-134.05083036543468
-131.01444324098048
-127.04348945628601
-121.9365946925142
-115.47409766938118
-107.41773818907048
-97.51111746933822
-85.48116076266038
-446.71557437234924
-495.18120167981783
-531.8989983076312
-555.7719102358062
-566.8307636514087
-566.0702332248798
-555.174291739782
-536.2050853870835
-511.31868488045126
-482.5471136367886
-451.66004507564924
-420.0997162322517
-388.9718847227187
-359.0729789300532
-330.93603225872283
-304.88260809110307
-281.0726628710146
-259.5481307165087
-240.26866634805734
-223.13958269712322
-208.032839673392
-194.8022548054562
-183.29412933252217
-173.3543610689066
-164.83293764508795
-157.58652008187573
-151.47966100022845
-146.38506306256832
-142.18317246064356
-138.76131666553303
-136.01253115810226
-133.83417228566475
-132.1263790303099
-130.79042226734202
-129.72696363853464
-128.83423564129305
-128.00614858942112
-127.13032776242926
-126.08608468599346
-124.74232979233211
-122.95543989473592
-120.5671038775515
-117.40218557725635
-113.2666667576888
-107.94576843406755
-101.2023973985035
-92.77612459090096
-82.38296401891422
-69.71626776783683
-494.4124654412878
-548.374342417098
-587.5285521274212
-610.7048742119105
-618.2819326069573
-611.8957438565575
-594.0024781248517
-567.4186326138856
-534.9333492087314
-499.040925454857
-461.79833688247084
-424.7848882289145
-389.13051724267615
-355.5810153194328
-324.57617556261397
-296.32573881227063
-270.8753556302754
-248.15981830575163
-228.04375542188822
-210.3513985124267
-194.88749945943135
-181.4514335728019
-169.84624886839197
-159.88407900636363
-151.3890076549647
-144.19818999052046
-138.16181123812865
-133.14228898778273
-129.01299716890227
-125.65669585026812
-122.96378413037206
-120.830446438145
-119.15673024261919
-117.84457148067995
-116.79577005598011
-115.9099094716468
-115.08221057062158
-114.20130842579808
-113.14694290458966
-111.7875568872491
-109.97780157359735
-107.55595668183152
-104.34128703542225
-100.13138049450117
-94.69955173774974
-87.79245841652725
-79.12816288368899
-68.39497586116637
-55.2515139356875
-548.1487637843458
-608.6942893150608
-650.3158022470402
-671.8528326380774
-674.3003455061005
-660.2902452267574
-633.3901182361757
-597.4255006204356
-555.9629932641832
-512.0029215761942
-467.86121511200145
-425.18584253425684
-385.04868181005315
-348.06597737084047
-314.5175525721434
-284.44967153348966
-257.7564877873567
-234.24067083094877
-213.65633624102733
-195.73808757543605
-180.21973379462707
-166.84563856239106
-155.37698649658734
-145.59465057010203
-137.29985874030191
-130.3134874024941
-124.47453785157816
-119.6381586468215
-115.67344206860344
-112.46113063710513
-109.89130754385806
-107.8611037023386
-106.2724274448457
-105.02970615555137
-104.03761926289046
-103.19879696876393
-102.4114574929824
-101.56695648230803
-100.54722478574288
-99.222074342333
-97.44635601984066
-95.05695825687359
-91.86964364922777
-87.67573810706702
-82.23872457020651
-75.29086483013864
-66.53009096207403
-55.61757077387901
-42.17653046812988
-609.6426957072638
-678.0677857715893
-721.9296438424391
-740.2652647018774
-735.1495581664799
-710.7662821253307
-672.2766063121943
-624.8300872980607
-572.9045600969971
-519.9978330301265
-468.59143823970504
-420.2753275694872
-375.9381464606158
-335.96098350073436
-300.38349155019245
-269.03248961939346
-241.61464045146153
-217.7795164266912
-197.16028553128348
-179.3984476916875
-164.15770238065713
-151.13069131026407
-140.04124697852478
-130.6439301290034
-122.72202762500436
-116.08475699671524
-110.56413618268604
-106.01178652312618
-102.29581340843866
-99.29783020917186
-96.9101419463619
-95.03307524229409
-93.5724235460492
-92.43696700015786
-91.536021799264
-90.77697277912546
-90.06274422958077
-89.28916683930001
-88.3422025494296
-87.09499296143005
-85.40469954801588
-83.10910420324882
-80.02293744242567
-75.9339046628292
-70.59840327566151
-63.7369914514419
-55.02981475712833
-44.11243937658823
-30.572855686781505
-681.2768828029616
-759.1013225840614
-804.4785983635113
-817.0456475350923
-800.7670065727979
-762.251347595625
-708.9212905503355
-647.6034329936132
-583.7550588770616
-521.2542609511252
-462.5495459118849
-408.96717917652177
-361.0389846283484
-318.7819517859255
-281.90891218827124
-249.9744402847253
-222.4693385092761
-198.87801517530215
-178.71074780056028
-161.5197787937697
-146.90547099878927
-134.51665469670087
-124.04780507974269
-115.2346777392797
-107.8493678734057
-101.6953376578745
-96.60269461094292
-92.42384532843376
-89.02955571843819
-86.30539599488407
-84.14852027912093
-82.46471669561367
-81.16565816943225
-80.1662830659258
-79.38223629031603
-78.72730444071574
-78.11078264042638
-77.43471556670744
-76.590960574624
-75.45802564536709
-73.89763693826313
-71.75098651383252
-68.83459707825934
-64.9357190932895
-59.80716194209339
-53.16149507854045
-44.66470337818237
-33.929711855543204
-20.510719940526627
-766.4378545772774
-855.3765470682863
-900.5946079065386
-903.1779356273814
-870.4126122492836
-812.6945279842153
-740.583227389779
-662.8914575105542
-585.9470787119316
-513.6945065523989
-448.19762222788984
-390.22065152440007
-339.7225965340954
-296.2177839562071
-259.01339090166715
-227.35386498607284
-200.5019119058755
-177.7792420894009
-158.58322045750882
-142.3899047232013
-128.74995180946772
-117.28123053226079
-107.6603155775883
-99.6140265704551
-92.91157983107448
-87.35758014648434
-82.78589343150426
-79.05434490027756
-76.0401425600751
-73.63590929312795
-71.74620490532791
-70.28442449273575
-69.16996699911498
-68.32557569901097
-67.67475960809526
-67.1392113547036
-66.6361431859536
-66.07546907520101
-65.3567676802293
-64.36596757348326
-62.97169999591854
-61.02125907995776
-58.336084880237344
-54.70663092883224
-49.88640050052599
-43.58488067599156
-35.45918409053463
-25.104593482658938
-12.045019802978006
-870.0793466232271
-971.8900917954991
-1013.4567253312035
-999.1126357924189
-942.026246217293
-858.4573808262554
-763.1153030808952
-666.8500403305751
-576.3736745324715
-495.06898871414137
-424.074400622976
-363.2120400309315
-311.6381883698666
-268.2450032002749
-231.88538017982648
-201.48587139052555
-176.0942937622438
-154.8918204045026
-137.18730225900342
-122.40383062820939
-110.06289549648848
-99.76881562940844
-91.19463350030502
-84.06988067489701
-78.17022407382854
-73.30882298851452
-69.32915955207675
-66.09909503149228
-63.50591997816443
-61.4521916194507
-59.852178609632674
-58.62875748984153
-57.7106253934913
-57.02970939284115
-56.51866481854128
-56.10836373458967
-55.72528168066022
-55.28869721550178
-54.70762612985166
-53.87742114752814
-52.675976734819685
-50.95947972963261
-48.55762188715846
-45.26811016942668
-40.85014648504368
-35.01632145044451
-27.422227703616592
-17.653384727640088
-5.210194700560908
-999.6981829557194
-1115.697140993068
-1146.5920796660914
-1103.8386879686843
-1011.0833578561275
-893.4344929087306
-770.5450939257644
-654.6298002497327
-551.6112995613768
-463.2654055739781
-389.09488884774953
-327.58209805037745
-276.8980562159542
-235.2569679631149
-201.0668987547688
-172.97429121578747
-149.85818893655573
-130.8039155147771
-115.07100843377242
-102.06218410552457
-91.29600701894591
-82.38394910559938
-75.01163730542811
-68.92374825542517
-63.91193083226099
-59.80517307146215
-56.46210735259069
-53.764832706964086
-51.613911053250625
-49.924259911928644
-48.62171687064581
-47.64009177733221
-46.91855296042897
-46.39921545321535
-46.02481391007554
-45.73635230788462
-45.470628428382405
-45.15753567456538
-44.717050640439076
-44.055824891660826
-43.063315150541555
-41.60740315893946
-39.529454654821535
-36.63869364762321
-32.70553227783776
-27.453016977091202
-20.54492757839081
-11.568833215004794
-0.013596538181692708
-1167.089831613918
-1296.7840758166851
-1303.0038141093628
-1212.8699368375223
-1068.6618655473223
-907.9638104793289
-754.8956027590859
-620.7577815740119
-508.50108897486894
-416.86195544635007
-342.987442906133
-283.7450373231119
-236.278936903034
-198.1854815805512
-167.52050738742483
-142.74332064474007
-122.6450159199353
-106.28060235796207
-92.91142158156313
-81.95877487115243
-72.96757098857893
-65.57822353053083
-59.505064261848766
-54.51978920284914
-50.43874412251577
-47.11311914345372
-44.421338872547
-42.26310444699827
-40.55467345266842
-39.225060562363026
-38.21291304275222
-37.46386680522147
-36.92822494395652
-36.55882513260663
-36.30897744188726
-36.13036221314516
-35.97078060868588
-35.77165080578653
-35.46514401233399
-34.970861738036994
-34.19197580646504
-33.0107906811042
-31.283735591237367
-28.835798335989118
-25.45421174236113
-20.880501823255216
-14.798575821038595
-6.814875653409699
3.5732206825511987
-1391.7357541654806
-1528.9465067189205
-1482.3603900703406
-1314.0733167948754
-1098.5053551190272
-888.0437651118938
-706.8498814968323
-560.3230982721344
-445.24151153620596
-355.93981263105667
-286.82530545344645
-233.20446618559026
-191.39169905468628
-158.57896542955118
-132.65381934346257
-112.03267899859618
-95.52652325571262
-82.2385578207062
-71.48822927101574
-62.755438678317205
-55.63972445259683
-49.83036188318275
-45.084371370751136
-41.21024840550099
-38.055839718929306
-35.49923317403261
-33.44184580637687
-31.80311946684138
-30.516392811021156
-29.525630825401596
-28.78277205855832
-28.24550857147375
-27.875350768066014
-27.635853104063735
-27.4908901805951
-27.40287800650976
-27.33083399162046
-27.228163539198498
-27.040054280935834
-26.700357318659968
-26.1278497936052
-25.221823198884984
-23.857048356065306
-21.878324711610958
-19.094890326195763
-15.274402700996344
-10.133957134927314
-3.321120003745202
5.626052084733745
-1707.2011127331361
-1829.1452991984906
-1673.00086525096
-1379.5146550480608
-1074.0025721533138
-816.4259585222997
-618.4552899404839
-471.31601483985486
-362.9862068120261
-283.0207274116218
-223.51493237740104
-178.76994835811652
-144.74747302189684
-118.59213215756023
-98.27485581692481
-82.34127843096977
-69.73814875739163
-59.69426642682207
-51.638643790432006
-45.143891874242
-39.88671331076212
-35.62005849233154
-32.153294318331
-29.337926009941796
-27.057202717895407
-25.218463695231492
-23.74743397936992
-22.5839158571015
-21.678483328522578
-20.989896409022727
-20.48302678755616
-20.12713679764212
-19.89438681915813
-19.758466583802175
-19.693256183183678
-19.671424526288064
-19.662867561486657
-19.63287670084599
-19.539911457919953
-19.33283426484776
-18.947461912179513
-18.30232424893782
-17.29365065879248
-15.789914401646104
-13.626807612573268
-10.603960237979278
-6.482944957118443
-0.9780826345363494
6.283304524362343
-2175.465723064633
-2208.7520323052595
-1829.748492102729
-1353.754853584322
-959.2000615646173
-679.8624922579055
-488.6156869554298
-357.95663713600175
-267.5049889655789
-203.76645451172297
-157.99757178218664
-124.52940006405673
-99.640105388075
-80.84567901934231
-66.45843282899689
-55.31117260358873
-46.582769377883054
-39.68616670142408
-34.195284327970995
-29.796512739486772
-26.256000253830422
-23.3972442106585
-21.085509794893774
-19.21684017440073
-17.710197119144695
-16.501763307593222
-15.54075412614641
-14.786293149610383
-14.205041555091931
-13.769362178841796
-13.45585923903468
-13.244174653265755
-13.115947485932274
-13.053858114145633
-13.04068534003153
-13.058303890500213
-13.086541680755865
-13.101800491019082
-13.075320017893258
-12.970934953542184
-12.742144858426357
-12.328310143746792
-11.649868098071371
-10.6027880616561
-9.053391473346652
-6.836630158726702
-3.763359055128328
0.3645497215128284
5.765498718567432
-2902.6513382379885
-2625.267479689184
-1827.0988763924074
-1147.5718620546877
-733.1532622817552
-483.26601861088807
-330.34777745755025
-233.45741403620983
-169.91520220733798
-126.87702665837016
-96.88157396638648
-75.44623682892399
-59.79073869075032
-48.13824800107754
-39.32191399063092
-32.556379087415536
-27.301199218657054
-23.176951803684318
-19.912400294038704
-17.310443701157332
-15.225703859707885
-13.549483317296612
-12.19948694012411
-11.11268010068563
-10.240247353279536
-9.543979341247656
-8.993643854177712
-8.565042455927667
-8.238548224185
-7.997981679582633
-7.8297223955999975
-7.721980111894116
-7.664165730698368
-7.646311903553748
-7.658496340565232
-7.690218887665225
-7.729675384703921
-7.762856087646522
-7.772371989316676
-7.735876338544202
-7.623900257611485
-7.396868219149621
-7.0010394234576925
-6.363271778206858
-5.385265718408165
-3.9405821035684916
-1.8853092759966632
0.8931519218605573
4.397621745301926
-4075.3688722471957
-2798.3986564771644
-1384.6622529754886
-744.6872179424535
-428.6733545459101
-265.37060071724085
-173.97924398022275
-119.50350044710268
-85.23139937244473
-62.70209476433928
-47.34316189996875
-36.549940469050895
-28.769003740303447
-23.036998462920366
-18.735996094723816
-15.457831890263023
-12.925870779477677
-10.948314997031218
-9.389476120558221
-8.151614530505405
-7.1631767674632485
-6.371007839087994
-5.735091277719697
-5.224930754020129
-4.8170180893299985
-4.493032496086279
-4.238539283210741
-4.042033865095043
-3.8942265008141135
-3.7874952615514346
-3.7154555731559498
-3.6726081154159793
-3.6540351677978897
-3.6551199821703406
-3.671265054488341
-3.6975833090483583
-3.7285306704435577
-3.7574380337905637
-3.775883014061929
-3.772813434505336
-3.733290043168914
-3.636649720824183
-3.4538043496905946
-3.14333157126495
-2.6462296719215956
-1.8808186906967617
-0.7467342651846085
0.821047517664228
2.627673742074162
-5359.89604704964
-1624.0749663851225
-656.4941585923602
-297.6452400109693
-158.48343606623473
-93.44003798851753
-59.540462736871575
-40.134854197605705
-28.25905585083669
-20.59852805897573
-15.447421248652958
-11.864501247494488
-9.301779436019629
-7.425499072673233
-6.024568677897605
-4.961098963057239
-4.142470430495891
-3.5049374196946417
-3.0036761779839622
-2.6065635371560916
-2.290184707324009
-2.0372108381866525
-1.8346395940372204
-1.6725917762855431
-1.5434734700575135
-1.4413827961059056
-1.3616829111446478
-1.3006894526640735
-1.2554374741290388
-1.2235037458543516
-1.2028672936296978
-1.1917955222164025
-1.1887460021625706
-1.1922754184689985
-1.2009474729686467
-1.2132306641799104
-1.2273745561693943
-1.2412487625359336
-1.252121218393203
-1.2563392208569937
-1.2488542977696806
-1.2224934259570635
-1.166813722238274
-1.0662749067647859
-0.8973577781767261
-0.6245025981967434
-0.19791794331675838
0.422823957764205
1.037256963294098

SCALARS STRESS_YY float 1
LOOKUP_TABLE default
-0.07428279105835145
-14332.352044403444
-149.58541536745952
-149.9251777258894
-0.07427867993388304
-0.07426631569722986
-0.07424560593267415
-0.07421639674649327
-0.07417847270701827
-0.07413155696573881
-0.07407531143806523
-0.07400933714214375
-0.0739331744074434
-0.07384630346535914
-0.07374814496486692
-0.07363806078703306
-0.07351535524296082
-0.0733792763984411
-0.07322901764337075
-0.07306371987056082
-0.07288247423721828
-0.07268432484087839
-0.07246827259163524
-0.07223327979363603
-0.07197827508684895
-0.07170215940851676
-0.07140381339368673
-0.07108210518160263
-0.07073589949909831
-0.07036406867968026
-0.06996550430919513
-0.06953913113022736
-0.06908392230944571
-0.06859891645564176
-0.06808323714032838
-0.06753611411262739
-0.06695690743991634
-0.0663451338477472
-0.06570049580935233
-0.06502291405725202
-0.06431256310244748
-0.06356991031444181
-0.06279575921111302
-0.0619912965613878
-0.06115814413472265
-0.06029841609174014
-0.05941478145038559
-0.0585105328889739
-0.05758966331957538
-0.05665694972448421
-0.05571804628758059
-0.05477958854318388
-0.05384930951939282
-0.05293617048738497
-0.05205050883036222
-0.05120420673483039
-0.05041088426711582
-0.049686122187161175
-0.04904772192829654
-0.048516010605055726
-0.048114201227868136
-0.04786882184031782
-0.0478102309232753
-0.047973240682701146
-0.04839787556241504
-0.0491303022995595
-0.050223977921525886
-0.051741074472015924
-0.053754259590366615
-0.056348934741100365
-0.0596260654046894
-0.06370578318663966
-0.06873199830685861
-0.07487834573041585
-0.08235590390347136
-0.09142328897193774
-0.10239996047654465
-0.11568391049066662
-0.13177539964884488
-0.1513091296725051
-0.17509833337765102
-0.20419592855049018
-0.23998046824547004
-0.28427871141635563
-0.3395432416740434
-0.4091144638988169
-0.49761476702278173
-0.6115546575451702
-0.7602884398354348
-0.9575620418167716
-1.2241092493538872
-1.5921218655466447
-2.113535723300714
-2.874758389673019
-4.032313120499424
-5.8581950136600085
-9.035972699607129
-14.402566332121012
-28.667730878339995
-47.356537123195324
-234.16726333793036
-256.6420806881527
-7216.196549885344
-11330.957677989727
-6992.150044455015
-4913.009188756503
-3732.449988096567
-3003.160249795361
-2507.4252515268763
-2149.1416054225533
-1877.5080671311557
-1663.9644058576841
-1491.1322291734023
-1347.8784817994115
-1226.7502095652949
-1122.582120435352
-1031.6898753486344
-951.3819504376611
-879.6522559718618
-814.9801125084773
-756.1963060373234
-702.3911358935858
-652.8498957234699
-607.0067194948348
-564.4109915207215
-524.7025199796037
-487.5929299484621
-452.8515394239758
-420.2945113731255
-389.7764285209142
-361.18367752917675
-334.42919413866616
-309.4482352353494
-286.1949233753156
-264.63936419723984
-244.76517384261712
-226.56727593853677
-210.0498379348484
-195.22421506233437
-182.10675565965835
-170.71629082342142
-161.07107805243083
-153.1848820005208
-147.06173736002683
-142.6887185992809
-140.02568794306035
-138.9904276013708
-139.43668789994402
-141.12154460553967
-143.658133110859
-146.45740381394535
-148.70997553100528
-149.63231725262438
-149.81999057684942
-150.05425683797534
-150.20515681709026
-150.29697986327255
-150.35112058733233
-150.3808400349264
-150.39417556268623
-150.39617307692998
-150.39013774131686
-150.37832408503732
-150.3623291751594
-150.3433241895948
-150.32219512915634
-150.29963056998287
-150.27617762866123
-150.2522783775787
-150.22829401264437
-150.2045212455859
-150.18120371980743
-150.15854022918882
-150.13669088113198
-150.1157819410097
-150.09590982972531
-150.07714457270328
-150.0595328855115
-150.04310100505126
-150.02785732667405
-150.0137948768625
-150.00089363201295
-149.98912268367457
-149.97844224583594
-149.9688054983704
-149.9601602620008
-149.95245050219975
-149.94561766234125
-149.939601829134
-149.93434273617262
-149.92978061398517
-149.92585689578095
-149.92251479072598
-149.91969973693682
-149.91735974630362
-149.91544565344697
-149.9139112817282
-149.91271353796827
-149.91181244581963
-149.91117112937627
-149.91075575577764
-149.91053544482259
-149.91048215319654
-149.91057053980077
-149.91077781806862
-149.9110835992352
-149.91146973103287
-149.9119201352225
-149.91242064634596
-149.91295885432447
-149.9135239518141
-149.91410658784378
-149.91469872922914
-149.91529352986407
-149.91588520773104
-149.91646893074045
-149.9170407112171
-149.91759730821494
-149.9181361381918
-149.9186551933986
-149.91915296754263
-149.91962838845137
-149.92008075741035
-149.92050969478225
-149.92091509104924
-149.92129706268048
-149.921655913595
-149.92199210108285
-149.9223062051388
-149.92259890158567
-149.92287093868688
-149.92312311675124
-149.92335627031395
-149.9235712528227
-149.92376892297122
-149.92395013375332
-149.92411572267767
-149.9242665028429
-149.92440325658671
-149.92452672959735
-149.92463762581164
-149.92473660329497
-149.92482427088729
-149.92490118561474
-149.9249678504694
-149.925024712612
-149.92507216176685
-149.9251105293331
-149.92514008746417
-149.92516104840018
-149.92517356412483
-149.74871832690621
-149.22584429087777
-148.37019361734818
-147.1960687392424
-145.71783890411317
-143.94993453406914
-141.90684114948104
-139.6030929621528
-137.05326623591515
-134.27197251100785
-131.2738517785702
-128.0735656869544
-124.68579085682205
-121.12521237334697
-117.40651752079064
-113.54438981638913
-109.55350339625882
-105.44851780171231
-101.2440732058931
-96.95478612003122
-92.59524561017385
-88.1800100524249
-83.72360445123351
-79.24051833827498
-74.74520426761077
-70.25207691851105
-65.77551281210904
-61.32985064306159
-56.929392228331714
-52.5884040647356
-48.32111948344347
-44.14174139042473
-40.064445572439766
-36.103384543099125
-32.27269190109807
-28.586487166055868
-25.05888105261171
-21.70398113741762
-18.535897869004323
-15.568750864022974
-12.816675426543682
-10.293829224452779
-8.014399048754953
-5.9926075756832375
-4.2427200480551335
-2.7790507860405995
-1.615969431393978
-0.7679068274311476
-0.24936043099157246
-0.24934665212592222
-0.7678645248159199
-1.615880862198786
-2.7788995798353895
-4.242491398355263
-5.992288396186815
-8.013978095630954
-10.293297185854797
-12.816024981322968
-15.567976711206043
-18.534996729848846
-21.702951732259443
-25.05772405457643
-28.58520513305776
-32.271289188811
-36.101867200451174
-40.062821221820755
-44.14001909442626
-48.31930959970692
-52.58651809098909
-56.92744263900296
-61.32785071919401
-65.77347646609782
-70.25001851462966
-74.74313843992547
-79.23845980778826
-83.72156784249836
-88.1780097111007
-92.59329542317468
-96.95289933883863
-101.24226227440712
-105.44679418989752
-109.55187744038305
-113.54287056783053
-117.40511260440849
-121.12392785667703
-124.68463113188199
-128.07253336623324
-131.2729476069722
-134.2711952955959
-137.05261279517705
-139.60255809716432
-141.9064176389063
-143.94961315489283
-145.71760848077915
-147.19591622300823
-148.37010419788538
-149.2258015423407
-149.74870439040575
-0.24930521453167387
-0.767737314037646
-1.6156145357772616
-2.778444930349565
-4.241803927571112
-5.991328783042533
-8.012712561894617
-10.291697763850536
-12.814069688837513
-15.56564963865867
-18.532288045552683
-21.69985761175307
-25.054246540189055
-28.581351929237577
-32.267073399611924
-36.097307015236574
-40.05793955489436
-44.134843184203426
-48.31387057269513
-52.58085049612724
-56.9215839566712
-61.3218408507285
-65.76735720732603
-70.24383301685343
-74.73693066396726
-79.23227397455815
-83.71544788256843
-88.17199871756483
-92.58743511146002
-96.94722951651323
-101.23682032446003
-105.44161457113515
-109.54699120837152
-113.53830492042333
-117.40089045635563
-121.12006744669021
-124.68114566728752
-128.06943071032163
-131.27023001377563
-134.26885919799128
-137.050648651893
-139.60095030504752
-141.9051445162812
-143.94864700295045
-145.71691572962663
-147.1954576679778
-148.36983533345028
-149.22567299919598
-149.7486624814472
-0.24923581535301764
-0.7675242866814784
-1.6151685962363942
-2.7776837463502204
-4.240653073309801
-5.989722516360565
-8.010594430533828
-10.28902104830599
-12.8107976899052
-15.561755818868331
-18.527756034123765
-21.694681082961893
-25.04842897500616
-28.574906270667192
-32.260021611609474
-36.089679555408665
-40.049774770677935
-44.12618664173995
-48.30477432771557
-52.571372315454035
-56.911786498064984
-61.31179080981189
-65.75712443834416
-70.23348963366215
-74.72655012909485
-79.22193018179107
-83.70521423887115
-88.16194723087216
-92.57763548919314
-96.9377482810735
-101.22771995111043
-105.43295265424057
-109.53881966213423
-113.53066921992684
-117.39382892647176
-121.11361060530562
-124.67531563098014
-128.06424067036903
-131.26568379125956
-134.26495088714196
-137.04736236163922
-139.59826000871595
-141.9030140197813
-143.94703004303298
-145.71575621234234
-147.19469005837186
-148.36938520783156
-149.2254577695759
-149.7485923017983
-0.24913795012730588
-0.7672239296976215
-1.6145399528287143
-2.776610880685304
-4.239031240159811
-5.987459243378751
-8.007610360354022
-10.285250550913524
-12.806189257307238
-15.556272255021387
-18.521374453571514
-21.68739273212389
-25.040238890122826
-28.565832787346647
-32.25009573992702
-36.078944234242456
-40.03828401564034
-44.11400459960201
-48.29197425008234
-52.558035463731485
-56.89800099132288
-61.29765042637605
-65.7427273813057
-70.21893727021332
-74.7119457125881
-79.207377565048
-83.6908165873524
-88.14780574382527
-92.56384813618112
-96.92440856175092
-101.21491568646708
-105.42076481729102
-109.5273212561961
-113.5199242135584
-117.38389125395312
-121.1045232430256
-124.6671097607821
-128.05693494007622
-131.25928368563623
-134.25944822169026
-137.04273491285835
-139.59447129543162
-141.90001325026788
-143.944752243047
-145.71412254947893
-147.19360837877252
-148.36875079989574
-149.22515436957826
-149.74849335506045
-0.2490109130384468
-0.7668341267002319
-1.6137242836262118
-2.7752191378656477
-4.236927813258006
-5.984524500148545
-8.00374171766913
-10.280363249240658
-12.800216854471763
-15.549166856300513
-18.513106695631077
-21.677951538487367
-25.029631017440522
-28.55408218101439
-32.23724271720637
-36.06504451368147
-40.02340760981511
-44.09823458889414
-48.275405453642605
-52.540773022976374
-56.8801588811844
-61.27934990827931
-65.7240954105332
-70.20010487015531
-74.69304632771258
-79.18854540332276
-83.6721849629543
-88.12950542985439
-92.54600573767698
-96.9071449185512
-101.19834431597027
-105.40499040738727
-109.51243821895817
-113.50601531063384
-117.37102630559788
-121.09275793371279
-124.65648455476898
-128.04747412149902
-131.25099453870848
-134.2523203679039
-137.03673982254213
-139.58956199231358
-141.89612422823473
-143.94179961488177
-145.71200444817367
-147.1922056311692
-148.36792789269788
-149.22476072736418
-149.74836494806192
-0.24885379747959746
-0.7663521600604923
-1.6127160408147034
-2.7734992852343865
-4.23432917803391
-5.980899742680599
-7.998964622181106
-10.274329650519633
-12.792845220263729
-15.540398546742274
-18.50290592101757
-21.666305038339324
-25.016547484208903
-28.539591451084856
-32.22139475243391
-36.04790819619503
-40.00506937111782
-44.07879689493714
-48.25498516593602
-52.519499654520736
-56.85817276600926
-61.25680030012829
-65.7011385284073
-70.17690190471785
-74.66976142182952
-79.16534362152495
-83.64923026145654
-88.10695863934839
-92.52402257080823
-96.88587401409907
-101.17792533118606
-105.3855521706167
-109.49409695580538
-113.48887295621648
-117.35516891779233
-121.07825422272843
-124.64338454488124
-128.0358079635438
-131.24077149156943
-134.24352796997914
-137.02934327471652
-139.58350377489558
-141.891323975782
-143.93815427376933
-145.7093887421842
-147.1904728596989
-148.36691108697335
-149.22427418897547
-149.74820619245702
-0.24866549676279703
-0.765774713948133
-1.6115084586106931
-2.771440068516384
-4.231218746932811
-5.976562389085785
-7.9932500087519
-10.267113877237762
-12.784031482537657
-15.529917410238937
-18.490715239631133
-21.652389543375875
-25.000918071737946
-28.522284195657193
-32.202469674947956
-36.02744781199169
-39.98317704505003
-44.05559502819168
-48.230613238491685
-52.494112145942296
-56.831936976314715
-61.22989408939795
-65.67374799510233
-70.14921902009647
-74.64198163559587
-79.13766345522795
-83.62184490375385
-88.08005955689727
-92.49779514853935
-96.86049523840141
-101.15356152964225
-105.36235682178707
-109.47220858406267
-113.4684131271921
-117.33624035044015
-121.0609390363905
-124.62774266039914
-128.021875679062
-131.2285602557519
-134.2330233767812
-137.02050430502732
-139.57626231271405
-141.8855846270802
-143.93379451781013
-145.7062594456742
-147.18839918404643
-148.36569381924244
-149.2236915261177
-149.7480160069807
-0.24844470521679796
-0.7650978783604927
-1.6100935634258207
-2.7690282321703776
-4.227576994668333
-5.971485874575251
-7.986563707408784
-10.258673777587035
-12.773725303918553
-15.517664876513372
-18.47646794109737
-21.636130419166996
-24.982660545061034
-28.50207099461678
-32.180371371611855
-36.00356111059838
-39.957622850161016
-44.02851632172376
-48.20217279338437
-52.46449010296557
-56.801328308056554
-61.19850597494166
-65.64179712579991
-70.11692885708366
-74.60957963745847
-79.10537829245244
-83.58990367693765
-88.0486850338186
-92.46720303553644
-96.83089150053853
-101.12513977520446
-105.33529576660202
-109.44666961152375
-113.4445379618984
-117.31414886345355
-121.04072720271418
-124.60948069067257
-128.00560634908422
-131.21429745962172
-134.2207509315344
-137.01017503682377
-139.56779745601673
-141.87887357036465
-143.92869493072322
-145.70259782294164
-147.185971842688
-148.36426838538267
-149.22300894677977
-149.74779312080057
-0.24818991963178405
-0.7643171544314526
-1.608462186984113
-2.766248545548578
-4.2233815030270065
-5.965639721036311
-7.978866544239295
-10.24896106395937
-12.76186906401049
-15.503573953073808
-18.460087781459283
-21.6174424313017
-24.961681061778123
-28.478849883387255
-32.15499032747519
-35.976131668518306
-39.92828415152019
-43.99743266828662
-48.169531020512075
-52.43049680208057
-56.766206925435085
-61.16249381345651
-65.60514227271274
-70.0798870603189
-74.57241115116963
-79.06834471007686
-83.55326477000315
-88.0126956134728
-92.43210985331041
-96.79693020411275
-101.09253193527499
-105.30424599268338
-109.41736277375009
-113.41713653758147
-117.28879042944604
-121.01752209541495
-124.58850985851788
-127.9869194243768
-131.19791107824983
-134.20664733248375
-136.99830097570026
-139.5580634687288
-141.8711536255375
-143.92282651094456
-145.69838247643025
-147.18317624782352
-148.36262597077194
-149.22222210856577
-149.74753607736477
-0.24789944121229723
-0.76342746152838
-1.6066039834701158
-2.763083835881453
-4.218607016900812
-5.958989623932119
-7.970114466379734
-10.237921483489366
-12.748398083281678
-15.487569509161979
-18.441489333325475
-21.596230167031333
-24.937874669439868
-28.452506928996787
-32.126204282115644
-35.945029626049916
-39.89502427675852
-43.96220141290239
-48.132540142573326
-52.39198022263466
-56.726417452489294
-61.121699762818686
-65.56362401165183
-70.03793349776709
-74.5303161974667
-79.02640372617176
-83.51177102524196
-87.97193677015784
-92.39236449539338
-96.75846442735855
-101.05559601511123
-105.26907114857275
-109.38415804885886
-113.3860858135721
-117.26004959907914
-120.99121641665413
-124.56473151740985
-127.9657253358418
-131.17932095771198
-134.19064207326005
-136.98482137004856
-139.54700931464646
-141.86238326258345
-143.91615683059607
-145.69358945550368
-147.17999605380442
-148.36075668817494
-149.2213261353927
-149.74724323942064
-0.24757137806659557
-0.7624231460955926
-1.6045074508434212
-2.7595150297372726
-4.213225513870931
-5.951497558524245
-7.960258694366999
-10.225495025784781
-12.733240894622824
-15.469568619198402
-18.420578408462287
-21.572388542780377
-24.911125903074407
-28.42291692122587
-32.093879015853084
-35.91011256890965
-39.85769349171632
-43.92266641936082
-48.091038567460366
-52.34877427829156
-56.681790275718576
-61.0759516462657
-65.51706855676869
-69.99089371436901
-74.48312057407763
-78.9793822932735
-83.46525143082133
-87.92624038694706
-92.3478025770733
-96.71533433176016
-101.01417751247504
-105.22962283257874
-109.34691387051912
-113.35125175947367
-117.22780053717082
-120.96169313564273
-124.53803798834304
-127.94192622839626
-131.15843944673745
-134.17265797426867
-136.9696696467896
-139.53457900405542
-141.85251686700948
-143.90865022938289
-145.6881923896787
-147.1764132409972
-148.35864962413115
-149.22031563863524
-149.7469127956918
-0.24720364823738805
-0.7612979928197205
-1.6021599577079968
-2.7555212041180184
-4.207206289245121
-5.943121909186409
-7.94924590651285
-10.211616173043502
-12.716319569356301
-15.449480973858364
-18.39725256218733
-21.545803409265854
-24.881309496247752
-28.38994419341646
-32.05786928263982
-35.871226573265176
-39.816130155748034
-43.87865933183876
-48.04485225028994
-52.300700272018254
-56.63214308241469
-61.02506456308477
-65.4652894312542
-69.93858064850566
-74.43063760295902
-78.92709506089443
-83.4135228830474
-87.87542650145853
-92.29824814794455
-96.66736882629009
-100.96811101915218
-105.18574211787886
-109.30547856429581
-113.31249069201696
-117.19190825150633
-120.92882660259787
-124.5083135550642
-127.91541683496209
-131.13517214930903
-134.1526118175911
-136.9527739332297
-139.52071200951883
-141.8415050595583
-143.9002680489906
-145.6821626500108
-147.172408217867
-148.3562928957544
-149.21918474277857
-149.74654276878488
-0.2467939839660005
-0.7600452388929781
-1.5995477762801968
-2.7510796485662468
-4.200516059039451
-5.933817625715761
-7.93701846049531
-10.196214198800433
-12.697550104924822
-15.427209367885645
-18.371401690946602
-21.516352266788285
-24.848291220329678
-28.35344358993015
-32.01801990826269
-35.82820743444058
-39.77016207870261
-43.83000105578232
-47.99379629136929
-52.24756860222469
-56.57728266432195
-60.96884277648999
-65.40808942423811
-69.88079664237787
-74.37267017708857
-78.86934644053619
-83.35639225072252
-87.81930535105063
-92.24351569961084
-96.61438751930203
-100.91722210014271
-105.13726134308286
-109.25969203522996
-113.26965084731223
-117.15223003924028
-120.89248386153315
-124.47543563782095
-127.88608550869586
-131.1094188157554
-134.1304150993575
-136.934057676694
-139.50534376134692
-141.82929507779266
-143.89096891360293
-145.67546954299232
-147.16795994409844
-148.35367371983534
-149.2179271167235
-149.74613102464986
-0.2463399369011796
-0.7586575914921951
-1.5966561226739842
-2.7461659406768817
-4.193119084052384
-5.923536409892215
-7.923514656907628
-10.17921352271906
-12.676842883973222
-15.402650275753565
-18.342908735714335
-21.483905105289114
-24.81192886859904
-28.313261599440295
-31.974167074683677
-35.78088210262231
-39.71960810533446
-43.77650348563161
-47.937676799624015
-52.189180751294074
-56.51700701820857
-60.90708191130432
-65.34526286910526
-69.81733578228186
-74.3090131429061
-78.80593300947265
-83.2936587786881
-87.75767975455244
-92.18341250467854
-96.55620299360284
-100.861329484608
-105.08400620100055
-109.20938773792187
-113.22257421769666
-117.10861717834617
-120.8525261873551
-124.43927616959272
-127.85381543502162
-131.0810743906212
-134.105974916227
-136.9134403760618
-139.48840623352103
-141.81583122829173
-143.8807090635134
-145.66808054220422
-147.1630460783789
-148.35077849598866
-149.21653601163416
-149.74567528430768
-0.24583888420565359
-0.7571272490734202
-1.5934692059099405
-2.7407540368235033
-4.184977317987638
-5.912226937185437
-7.908669050964072
-10.160534128625436
-12.654103214329204
-15.375694527065459
-18.31165050486535
-21.44832538549033
-24.772073403762523
-28.26923767432121
-31.926139814277253
-35.72907035184225
-39.66427995570814
-43.717971510200925
-47.87629305371512
-52.12533159064003
-56.451107779892965
-60.83957149978502
-65.27659828235647
-69.74798660921877
-74.23945605932145
-78.73664629438676
-83.22511687190689
-87.69034787197575
-92.11774132704818
-96.49262344364135
-100.80024760732553
-105.02579816322742
-109.15439496484146
-113.17109868691219
-117.0609168961387
-120.80881087626173
-124.39970320099414
-127.8184860469484
-131.0500302377015
-134.07919500409128
-136.8908384407162
-139.46982863315912
-141.8010554207177
-143.86944274979118
-145.65996156304624
-147.1576431544069
-148.3475929058838
-149.21500430672972
-149.74517313834798
-0.24528803636708574
-0.7554459270490526
-1.5899702861965892
-2.7348163802631262
-4.17605058324353
-5.8998351188644165
-7.892412819793321
-10.140092054767571
-12.629231959616064
-15.34622809417451
-18.277498632708735
-21.409471179767753
-24.728570290253632
-28.2212057603481
-31.87376174022328
-35.67258671043695
-39.603984351931686
-43.65420532894534
-47.80943999719332
-52.055812040356
-56.379373032194664
-60.76609791874907
-65.2018814064729
-69.67253524339033
-74.16378637845395
-78.66127598105206
-83.15055930589216
-87.61710638710238
-92.04630354859935
-96.42345571921096
-100.73378954349886
-104.96245728127995
-109.09454149186436
-113.11506050096474
-117.00897464895786
-120.76119332152646
-124.3565827629094
-127.77997467004185
-131.01617556655867
-134.0499769490617
-136.86616619383636
-139.44953820768652
-141.78490779406593
-143.8571226986815
-145.6510772872726
-147.15172678936366
-148.34410203142374
-149.2133245637972
-149.74462206416501
-0.24468444650551646
-0.7536048884614388
-1.5861417448989812
-2.7283240293843747
-4.1662967778874815
-5.886304409385879
-7.8746741915652905
-10.11779996588573
-12.60212627372104
-15.314133006786367
-18.240320690439766
-21.367196492737328
-24.681261034309575
-28.168996063078716
-31.816853042036115
-35.61124268523686
-39.538525466896544
-43.5850031168695
-47.73691110736424
-51.980412126710775
-56.30159053148246
-60.686447762369134
-65.1208987044793
-69.59076897249334
-74.08179309826028
-78.57961360024001
-83.06978091383317
-87.53775416366436
-91.96890276253552
-96.34850882462925
-100.66177038368023
-104.89380540975725
-109.02965662452135
-113.0542971151839
-116.95263675105234
-120.7095294097623
-124.30978101978103
-127.73815842611911
-130.97939908556518
-134.01822159331215
-136.83933703911384
-139.42746118531602
-141.76732744819915
-143.8437006559878
-145.6413915440652
-147.14527192938533
-148.34029049478414
-149.2114890916195
-149.74401944600288
-0.24402502114264735
-0.7515949807514488
-1.5819651674742943
-2.721246808778254
-4.155672118637646
-5.871576165578425
-7.855378945235898
-10.093567817399453
-12.572680451880622
-15.279288409742158
-18.199981468370087
-21.321352782873767
-24.62998495628801
-28.11243707856891
-31.755232778179405
-35.544849315131685
-39.46770773350242
-43.510164079635786
-47.658501682476576
-51.89892448386942
-56.21755140178237
-60.60041170294695
-65.0334413590924
-69.50248035813162
-73.99327094208562
-78.49145674524969
-82.98258280606677
-87.45209643033873
-91.88534888745596
-96.26759792632149
-100.58401110107565
-104.81966990178422
-108.9595746927753
-112.98865046268942
-116.8917533956576
-120.65367827713324
-124.25916674856819
-127.69291642781243
-130.9395909098575
-133.98383066029143
-136.81026481201584
-139.4035238667169
-141.74825329538595
-143.8291280212751
-145.63086775515407
-147.1382531374049
-148.33614262260716
-149.20949002252993
-149.74336259901912
-0.24330653388544476
-0.74940667957231
-1.5774214400809825
-2.7135534854014765
-4.144131424168087
-5.855590064229638
-7.8344509901676815
-10.067303623322005
-12.540786912005409
-15.241571781261946
-18.156344450651726
-21.271790709892763
-24.574581223681754
-28.051357920161507
-31.68872150039082
-35.47322009199748
-39.39133905593228
-43.429491944282304
-47.57401259625371
-51.81114835098618
-56.12705435000782
-60.507788896038946
-64.93930983441476
-69.4074719187274
-73.89802512509584
-78.39661388207016
-82.88877718306512
-87.35994955497775
-91.7954628617674
-96.18054892738124
-100.50034296805059
-104.73988783137753
-108.88413904632532
-112.91797069387658
-116.8261821138764
-120.59350546794376
-124.20461418267143
-127.6441322994635
-130.89664475634032
-133.94670862688108
-136.77886533891478
-139.37765388663766
-141.72762504545526
-143.81335658348024
-145.61946945316103
-147.13064492944304
-148.3316426383204
-149.20731940207259
-149.74264879824756
-0.24252564123706577
-0.7470301398486754
-1.5724908634527708
-2.7052119741367804
-4.131628443045969
-5.838284584719361
-7.811813034434465
-10.038914340293914
-12.506337322600594
-15.200860330471613
-18.10927350478787
-21.218362134709846
-24.514891175369723
-27.985590976024966
-31.617144248481676
-35.3961742912853
-39.30923446910161
-43.34279893499273
-47.48325457185726
-51.71689412141355
-56.029910461991264
-60.40839199018399
-64.83831906331145
-69.30556145433687
-73.79587677386445
-78.2949098188787
-82.78819280838951
-87.26114647447648
-91.69908198402221
-96.08720367305342
-100.41061258354007
-104.65431080214488
-108.8032066073682
-112.84212044032938
-116.75579172156131
-120.52888654217114
-124.14600626342158
-127.59169706192544
-130.85046045870848
-133.906764872009
-136.7450582291798
-139.3497816665274
-141.70538434251478
-143.79633937227732
-145.60716088248205
-147.12242216490824
-148.32677488676035
-149.2049692939362
-149.74187531184316
-0.24167890049754703
-0.744455255150811
-1.5671532852054
-2.6961895760890613
-4.118116233009864
-5.819597564793419
-7.787387352367382
-10.008306881349185
-12.469223894409463
-15.15703259498644
-18.058634810555173
-21.160922400367323
-24.450760969902856
-27.91497493497107
-31.540333957631113
-35.31354075878312
-39.22122029687044
-43.24991028834599
-47.38605303362973
-51.61598850474483
-55.92594864300331
-60.30205280905011
-64.73030432984339
-69.19658808436728
-73.6866690709342
-78.18619190687238
-82.6806812140274
-87.15554285199093
-91.59606596989114
-95.98742585655192
-100.31468757864096
-104.56281040708146
-108.71665304278149
-112.76097966166105
-116.6804668092179
-120.45971118258663
-124.08323834516366
-127.53551242350814
-130.80094683948818
-133.86391613329846
-136.7087689275215
-139.31984208087135
-141.6814760717731
-143.77803163845743
-145.59390769247145
-147.11356049846398
-148.32152409465328
-149.20243190213216
-149.74103943987149
-0.2407627911655652
-0.741671726753907
-1.5613882518722377
-2.6864532526427425
-4.103547597004194
-5.7994668381834344
-7.761096663543974
-9.975389274103868
-12.429340853544364
-15.109970261466472
-18.004299055676416
-21.09933292562979
-24.382044594098833
-27.839358221129977
-31.458135323676125
-35.225162203980915
-39.12713886396259
-43.15066936740298
-47.282253600092695
-51.50828036876638
-55.815021772933065
-60.188628778481494
-64.61512792162176
-69.08041907439141
-73.57027420183111
-78.07033705087605
-82.56612371645235
-87.04302403943083
-91.48630380246544
-95.88110770012122
-100.21246307339432
-104.4652844094385
-108.62437862189833
-112.6744511385296
-116.60011283391763
-120.38588785584969
-124.01622240375363
-127.47549452219651
-130.74802498015202
-133.8180893072145
-136.66993105619045
-139.2877763622841
-141.65584985596615
-143.75839197821236
-145.57967773464006
-147.10403690097664
-148.31587567108036
-149.1996997123394
-149.74013855996614
-0.2397737398212172
-0.7386691431308421
-1.5551751843519952
-2.6759699400597086
-4.087875581374469
-5.777830962437186
-7.73286513503033
-9.94007197974765
-12.386586117062667
-15.059560233928813
-17.94614392754468
-21.03346414546758
-24.308607271556138
-27.758602882359963
-31.370409176151306
-35.13090005471848
-39.02685382115369
-43.04494343884852
-47.17172828676374
-51.393647334238366
-55.69701365262641
-60.068010177686645
-64.49268663345315
-68.9569575353002
-73.4466011893089
-77.94725961513153
-82.44443932838793
-86.92351292943304
-91.36972145880931
-95.76817749193552
-100.10386896294371
-104.36166372007224
-108.52631483209069
-112.5824666793243
-116.51466187627004
-120.30734908670178
-123.9448918026077
-127.41157816734123
-130.6916319313852
-133.76922463063585
-136.6284890798202
-139.25353427174105
-141.6284617629728
-143.7373836188869
-145.5644419759554
-147.0938302571931
-148.30981605355504
-149.19676565500578
-149.73917017959587
-0.23870814841084353
-0.7354370713774827
-1.5484935785549538
-2.664706908457376
-4.071054044224361
-5.754630047416569
-7.702619519677931
-9.902269389842068
-12.340863192850602
-15.005696976071587
-17.884056932832397
-20.963198836116174
-24.23032931414736
-27.672588981345296
-31.277037413511415
-35.03063993289754
-38.92025614903751
-42.93263018336107
-47.054382493463265
-51.27200320128885
-55.57184682367682
-59.94012829994374
-64.36292021037852
-68.82615108504217
-73.31560470580175
-77.8169203153697
-82.31559365765928
-86.79697878726475
-91.24629060179385
-95.64860806615293
-99.98887811705293
-104.2519202524684
-108.42243182976306
-112.48499411350065
-116.42407913089487
-120.22405740795341
-123.8692066739039
-127.34372163291057
-130.63172490967685
-133.71727928360613
-136.5844013271688
-139.21707656278406
-141.59927624741962
-143.71497588372586
-145.5481755410368
-147.08292204942305
-148.30333310505094
-149.19362329294415
-149.73813199640716
-0.23756242675285222
-0.7319651616954204
-1.5413232340278569
-2.6526321703193787
-4.053038301188032
-5.729806695281681
-7.670290446490583
-9.861901520212484
-12.29208332656751
-14.948285156625719
-17.817938579711893
-20.88843586528358
-24.147110463077723
-27.581219541797086
-31.17792855977063
-34.92429781657083
-38.80727091122673
-42.81366501570864
-46.93016285733263
-51.143306292855186
-55.43949135086805
-59.804964615359125
-64.22582082555658
-68.68800157007591
-73.17729496231556
-77.67933619612786
-82.17960889166932
-86.66344716004662
-91.1160383325132
-95.52242631914531
-99.86751558376993
-104.13607574161564
-108.31274680825726
-112.3820451497604
-116.32837020307286
-120.13601205348036
-123.78915997601115
-127.27191205754917
-130.5682860301888
-133.6622314562517
-136.53764340589913
-139.1783777705332
-141.56826835168255
-143.69114585439002
-145.5308588975353
-147.0712971368173
-148.2964165669726
-149.19026703597336
-149.73702196756426
-0.2363330296198498
-0.7282432659937328
-1.5336445139941262
-2.6397149440024563
-4.033785855967174
-5.703307062601944
-7.635813877638412
-9.818895922455617
-12.240167922780543
-14.88724262984011
-17.747705960441603
-20.809094411473996
-24.05887477045843
-27.484426107776137
-31.07302400659094
-34.81182695913162
-38.68786483369976
-42.68802929678479
-46.79906605966041
-51.007568807922716
-55.299974664665925
-59.662561036617376
-64.08144369560014
-68.54257595083372
-73.03174877972404
-77.5345917993144
-82.03657497255195
-86.52301096741402
-90.97905810573786
-95.38972386133085
-99.73986889278578
-104.0142116187339
-108.1973333705082
-112.27368418062666
-116.22758928825563
-120.04325646598127
-123.70478429249727
-127.19617151066805
-130.50132762797915
-133.60408492595843
-136.48821205034528
-139.13742935804476
-141.5354261925787
-143.66588025234444
-145.51247919964638
-147.05894464030044
-148.2890585747345
-149.18669238551274
-149.73583838888229
-0.23501649851579742
-0.7242615721964469
-1.5254386389890584
-2.625926176768715
-4.013257224756124
-5.675082058099726
-7.59913274893222
-9.773189834395083
-12.185051267989326
-14.822503785647104
-17.67329677590406
-20.72511870121121
-23.965576077219133
-27.38217497914973
-30.962305010903968
-34.69322564229022
-38.5620547939655
-42.55575952760129
-46.66114868186609
-50.86486728532306
-55.153392568276
-59.51303139517991
-63.92991894411624
-68.3900184640163
-72.87912195548199
-77.38285163713468
-81.88666207576937
-86.37584288461414
-90.83552191712643
-95.25066891030107
-99.60609956004969
-103.88648003939062
-108.07633199927504
-112.16003812123323
-116.12184831657025
-119.94588669401465
-123.61615944133351
-127.11656378657814
-130.4308982227401
-133.54287419302722
-136.43612944360814
-139.09424325497693
-141.50075376122933
-143.63917756063913
-145.49303180598923
-147.04585894378008
-148.2812542423192
-149.18289621263403
-149.73457998495616
-0.23360950943761338
-0.7200107559312556
-1.5166880175060697
-2.611239133636232
-3.9914168638419127
-5.645088689026835
-7.560198813299685
-9.724732594936494
-12.126683585593618
-14.754023306747538
-17.594673847165744
-20.63648331692064
-23.867204147804166
-27.27447419103975
-30.845800524495306
-34.568545847040525
-38.42991731144865
-42.416957623405196
-46.51653821417787
-50.7153542862209
-54.99992152170894
-59.356574244640356
-63.771464832781504
-68.23056418233024
-72.71966304710784
-77.22437409069705
-81.73013451249159
-86.22220913616192
-90.68569387704753
-95.10551953641583
-99.466455901849
-103.75311616804223
-107.94996172204893
-112.04130737451268
-116.01132714736576
-119.84406075750951
-123.52342096677208
-127.03320199138315
-130.3570891847553
-133.4786702256664
-136.3814480569223
-139.0488558238823
-141.4642740660903
-143.6110504089423
-145.47252198823634
-147.03204082323998
-148.27300232267913
-149.17887707289154
-149.7332460115499
-0.2321089262915308
-0.715482151194692
-1.5073766181270258
-2.5956300589021097
-3.968234210174714
-5.613291570331775
-7.518974706610798
-9.673488349569212
-12.065034456956791
-14.681780373543198
-17.511830162754446
-20.543199132690315
-23.763791527529957
-27.161381312580843
-30.723595938918496
-34.437902934119464
-38.29159913761397
-42.271802372983736
-46.36544532929955
-50.55927141328371
-54.83983232540175
-59.193487116677744
-63.60640248752474
-68.06455410075807
-72.55372870228356
-77.0595268630247
-81.56736618250892
-86.0624848249964
-90.5299452931926
-94.95463837945893
-99.32128727127531
-103.61445182692778
-107.81853307310237
-111.91777801735364
-115.89628490254267
-119.73800906452631
-123.42676958900276
-126.94625699059438
-130.28004216230343
-133.41158686631613
-136.32425605166938
-139.00133229272615
-141.426032649553
-143.58152824577678
-145.45096684842528
-147.01749871601078
-148.2643059515462
-149.17463556136224
-149.73183637095968
-0.2305118605109655
-0.7106679412921721
-1.4974903862249462
-2.5790789165184975
-3.943684845902524
-5.579664613697474
-7.475436258148257
-9.619439074635185
-12.000096645080077
-14.605783362368353
-17.424794515255314
-20.445319940859594
-23.655421195847183
-27.043012147119445
-30.595842836582875
-34.30148643352759
-38.14732905398065
-42.12056219876306
-46.20817754269405
-50.396963793863264
-54.673505335121064
-59.02418236438889
-63.43517225692679
-67.8924518876809
-72.381800673751
-76.88880412411392
-81.39885771297547
-85.89717092856372
-90.36877138955552
-94.79850895981333
-99.17105983534873
-103.4709306211465
-107.68246245859656
-111.78983530793326
-115.77707253152964
-119.62804596344267
-123.32648168848534
-126.85596678719176
-130.19995733293956
-133.34178795400157
-136.2646832907734
-138.95177169300396
-141.38610150983214
-143.55066032261675
-145.42839746338677
-147.002250142518
-148.2551734817352
-149.17017471159954
-149.73035174192893
-0.22881573816837886
-0.7055613723595044
-1.4870177092943493
-2.561570217101192
-3.9177517987594754
-5.544192913068507
-7.429575069694792
-9.562587952558246
-11.931890360523678
-14.526075086161732
-17.333637787369746
-20.342949839332498
-23.542235094722216
-26.919550423196164
-30.462769847669186
-34.15957205187559
-37.997430995714865
-41.96360934355028
-46.04515439143444
-50.22889616441661
-54.50144735007184
-58.84920473856622
-63.258351849970566
-67.71486244830396
-72.20450466570584
-76.71284549279524
-81.22525542573821
-85.72691310130175
-90.202809796038
-94.63775371135118
-99.01637401455501
-103.3231246563124
-107.54228803373117
-111.65797861637134
-115.65414670276888
-119.51458251778766
-123.2229209039907
-126.7626469012936
-130.11710254189398
-133.26949521853257
-136.20290800691464
-138.9003123424017
-141.34458346094243
-143.51851901556833
-145.40486127493313
-146.98632329353444
-148.24561941638962
-149.1655004429772
-149.72879372606423
-0.2270183747826593
-0.700156991848857
-1.4759499357742811
-2.543093939801942
-3.8904269918349996
-5.50687484589853
-7.381401389373281
-9.502963132902355
-11.860468014105024
-14.44273863175097
-17.23847995251474
-20.236251456161384
-23.424443619504082
-26.79125857536377
-30.324694722729916
-34.0125350173094
-37.84233862899311
-41.80143562000345
-45.87692427583012
-50.055670705770154
-54.324310327253514
-58.669250852489306
-63.076676410130304
-67.53255245760059
-72.02263116739721
-76.53245700810437
-81.04737228195357
-85.55252242787788
-90.0328609481924
-94.47315387055781
-98.85798371209263
-103.17175296806066
-107.39868720362587
-111.52283788183003
-115.528085117036
-119.39814059192749
-123.11655092506477
-126.66670182337383
-130.0318233907517
-133.19499700164826
-136.13916417575328
-138.84713791305109
-141.30161696339871
-143.4852035102287
-145.38042474511755
-146.96975879622624
-148.23566544915778
-149.1606220597634
-149.72716501093856
-0.2251180582873431
-0.6944509131447774
-1.464281952008811
-2.523646557584641
-3.8617128562791265
-5.46772441172768
-7.330947310101529
-9.440621917641465
-11.785919505780452
-14.35590385465213
-17.13949786134475
-20.125455095398024
-23.3023361701175
-26.658489723736785
-30.18203774121396
-33.86086489361793
-37.68261152350702
-41.634669872126096
-45.70418311913171
-49.87804679024834
-54.14291208740546
-58.48519070270158
-62.891060694123695
-67.34647302968608
-71.83715843869233
-76.34863425186833
-80.86621096036504
-85.37499827712722
-89.85991054024899
-94.30567135847168
-98.69681746217114
-103.01770178445523
-107.25249586113401
-111.38519170114658
-115.3996033384569
-119.27936833480453
-123.00794955806595
-126.56863761227436
-129.9445543400886
-133.11865786092443
-136.07374964192408
-138.79248412557155
-141.25738145848473
-143.45084387571848
-145.35517629596146
-146.95261167198464
-148.22534161885545
-149.15555280630267
-149.72546955198112
-0.22311364089176777
-0.6884411090782692
-1.4520128228946731
-2.5032321761632517
-3.8316241227866286
-5.426773830568607
-7.278270324352945
-9.375655413489024
-11.708378103760698
-14.265754598411686
-17.036933895537864
-20.01086889838281
-23.176292869252286
-26.52170097284363
-30.03533658873036
-33.70518200739701
-37.51895307466066
-41.46409731232099
-45.52779501577662
-49.696962815950144
-53.95825919102839
-58.2980914257046
-62.70262353463671
-67.15778470121552
-71.64927782138203
-76.16258779105397
-80.6829892322792
-85.19555341289866
-89.68515417976249
-94.13647279404549
-98.53400162673526
-102.8620467427107
-107.10472947394555
-111.24598715251375
-115.2695732386649
-119.15905714795079
-122.89782414245342
-126.46907570731082
-129.85583088810938
-133.0409291101245
-136.00703504326862
-138.73664610727985
-141.2121032382828
-143.41560555314726
-145.32922955263382
-146.93495349961285
-148.2146875875256
-149.1503104828194
-149.7237127746723
-0.22100464116815743
-0.6821277376618582
-1.4391465018421172
-2.481863796996457
-3.8001898097113695
-5.384076427467853
-7.22345727192193
-9.308193699703228
-11.628026975210776
-14.172536713369823
-16.931105578644605
-19.892890125646694
-23.04679756734941
-26.381468164124843
-29.885262850987154
-33.546255648047996
-37.3522303454897
-41.29068091277091
-45.34881505402387
-49.513560318794745
-53.77157217720774
-58.10924348354459
-62.51271477818378
-66.96788491637673
-71.46042155866415
-75.97577111544493
-80.49916780088853
-85.01564152091865
-89.5100243939604
-93.96695577995067
-98.37088577155484
-102.70607718032701
-106.95660613086656
-111.10636145432792
-115.13904314514414
-119.038160220705
-122.78702839255274
-126.36876802047504
-129.76630288257687
-132.9623603468098
-135.93947357792604
-138.6799864517419
-141.1660618815904
-143.37969428233862
-145.30272690761728
-146.91687479650906
-148.2037540495994
-149.14491812495163
-149.72190179783712
-0.21879135673323447
-0.6755135020136649
-1.4256926165500516
-2.4595647164887353
-3.76745542733709
-5.339709832649113
-7.166628721215066
-9.238411564867885
-11.545106436870451
-14.076566959340493
-16.822416244509704
-19.77201767660614
-22.91445226919666
-26.238502231705635
-29.73264028858579
-33.385024218020234
-37.18349601614859
-41.11558504765247
-45.168514515422046
-49.32921056877491
-53.58431337348439
-57.92018948535751
-62.322944902015294
-66.7784382117638
-71.27229331419458
-75.78991125370095
-80.316480777853
-84.83698731387568
-89.33622013787195
-93.79877759898707
-98.20907034928291
-102.55132261751785
-106.80957165318696
-110.96766555476817
-115.00925977901558
-118.91781270847777
-122.6765807325694
-126.26861336895516
-129.6767490191067
-132.8836120132675
-135.8716116539186
-138.62294401378915
-141.11959728339397
-143.34336148923938
-145.27584342351554
-146.89848762963902
-148.1926042793429
-149.13940475142445
-149.72004567996117
-0.2164749883460786
-0.6686040476646298
-1.4116673382032374
-2.4363700752003083
-3.733485420481415
-5.29377953017439
-7.107943829948681
-9.166534873658339
-11.459922003399168
-13.978242887856833
-16.711366877483805
-19.648865980051944
-22.779993132098497
-26.09366732923306
-29.578465075975
-33.2226175299653
-37.014012649305045
-40.94020160303988
-44.98840867444641
-49.14554387604858
-53.39821750182121
-57.73275586725858
-62.13521752685842
-66.59140931074904
-71.08690159038439
-75.60704225608708
-80.1369689735175
-84.66161937777073
-89.16573895460732
-93.63388645808747
-98.05043681199655
-102.39958154030431
-106.6653268692348
-110.8314897393843
-114.88169205947798
-118.79935362172886
-122.56768418328282
-126.16967529993363
-129.58809257191336
-132.80546903030572
-135.80410045472712
-138.5660434685464
-141.07311730272642
-143.30691015368944
-145.24879108945376
-146.87992846706422
-148.18131582353632
-149.13380618363948
-149.718155689634
-0.21405777672074322
-0.661408401407833
-1.3970943422801483
-2.4123285721212397
-3.6983658741367478
-5.246422792518736
-7.0476057381150525
-9.092847633273603
-11.372853322341609
-13.8780538128592
-16.598569254029357
-19.524180405830073
-22.644308206412035
-25.948000917130187
-29.423928210627928
-33.06038147119447
-36.845279503442036
-40.76617879450636
-44.810287442039694
-48.964481852304985
-53.21532532446185
-57.549087669289825
-61.951765056281474
-66.40909934714867
-70.90659625323445
-75.42954173728893
-79.9630161784521
-84.49190592104671
-89.00091193311283
-93.47455541003639
-97.89718026857531
-102.25295258499064
-106.5258571392059
-110.6996913314113
-114.7580568390792
-118.684349481403
-122.46174784909866
-126.07320134883444
-129.50141839194197
-132.7288555346509
-135.73770844780069
-138.50990565691524
-141.0271060473881
-143.27070117301045
-145.2218234428545
-146.86136127892593
-148.1699823455756
-149.12816593995967
-149.71624560094006
-0.21154315357452447
-0.6539394554959941
-1.3820058699028692
-2.3875043618888014
-3.6622075116355077
-5.197813043975501
-6.9858675531053045
-9.017699839819116
-11.284364096876505
-13.77659299413244
-16.484760533852153
-19.398854368663716
-22.508457112249467
-25.802736024368112
-29.270440324622093
-32.899905282838574
-36.679062152213326
-40.59545295827115
-44.63624912261059
-48.78827289608556
-53.03802059385281
-57.37168666527694
-61.775187687517324
-66.23418544878189
-70.7341083778303
-75.26017067539844
-79.79738861367868
-84.33059358505552
-88.84444160226396
-93.32341907228398
-97.75184478925448
-102.11386821091676
-106.39346420217628
-110.5744245444252
-114.6403466189601
-118.57461978038809
-122.36041003756392
-125.98064375719318
-129.41799119392294
-132.65485073821966
-135.67333485191264
-138.45525873188006
-140.9821328076988
-143.23516023169054
-145.1952405654215
-146.84298089469982
-148.15871562511
-149.1225362068623
-149.71433201502538
-0.20893590747579793
-0.6462145013290055
-1.3664439009974316
-2.361979155262233
-3.6251490184470114
-5.148164703262275
-6.923038996931307
-8.941516196841985
-11.195013113564649
-13.674571176790398
-16.370819470593712
-19.27394832098897
-22.37369287341832
-25.65932592862986
-29.11965916173405
-32.74305173181535
-36.51742519944619
-40.43028361162626
-44.468737582458495
-48.61953119742653
-52.869070593819146
-57.20345312069741
-61.60849605282174
-66.06976392191382
-70.57259363480404
-75.10211666439433
-79.64327772395202
-84.180849466904
-88.69944288974517
-93.18351324949344
-97.6173614432206
-101.9851309291763
-106.27080039766403
-110.45817252600395
-114.53085927121724
-118.47226426961386
-122.26556302316625
-125.89368165791696
-129.3392751379448
-132.5847059128622
-135.61202406586062
-138.40295010831423
-140.93886164289654
-143.2007851812208
-145.1693944574368
-146.82501662002002
-148.14764771571782
-149.11697888896552
-149.71243470833846
-0.2062423663284818
-0.6382558187250567
-1.3504614519574076
-2.3358545459879707
-3.587360729840171
-5.097738563245535
-6.859493796798521
-8.864805813157535
-11.105466511807496
-13.572831653706482
-16.257784439152438
-19.150710861233303
-22.241486162883838
-25.519471533459058
-28.973520019079693
-32.59199049085872
-36.36276841569344
-40.27329211380028
-44.310583159383455
-48.46127958460454
-52.7116705834181
-57.04773147381319
-61.45515776584253
-65.91939728713797
-70.42567944238236
-74.95904081752808
-79.50434648215858
-84.04630649383265
-88.56948725800805
-93.0583175473135
-97.49708913352957
-101.86995213072328
-106.16090528773645
-110.35378160337264
-114.43222976812248
-118.37969206042446
-122.17937944189862
-125.8142447119281
-129.26695468871748
-132.51986248478863
-135.55498104529477
-138.35395920580086
-140.89806161258716
-143.16815392522656
-145.14469478775752
-146.80773611247
-148.13693326146142
-149.11156673868396
-149.71057700795674
-0.2034705989468648
-0.630091326759036
-1.3341240118525661
-2.3092545920804355
-3.5490487286755297
-5.046847775725155
-6.795677913943894
-8.788173006305112
-11.016511453799403
-13.472367044602587
-16.146873508293922
-19.030602219801175
-22.11355225281786
-25.385151762475466
-28.834269496086414
-32.44923508524383
-36.21786666410972
-40.127504297930884
-44.165047680165685
-48.31699656858402
-52.56949248219592
-56.90836025651313
-61.31914816315508
-65.78716542597805
-70.29751610968131
-74.8351285130264
-79.38477936266426
-83.93111227370129
-88.45865010918274
-92.95180103928638
-97.39485826472651
-101.77199352583537
-106.06724467185059
-110.2644977090314
-114.34746388537951
-118.29965250281703
-122.10434027255647
-125.74453815082552
-129.20295670867773
-132.4619711993347
-135.50358759381564
-138.3094109568488
-140.8606176321261
-143.13793279468302
-145.12161500964058
-146.79144951103285
-148.1267519695951
-149.10638456420375
-149.70878619389418
-0.20063063683227966
-0.6217553031016863
-1.3175111349326585
-2.28232868461318
-3.510459407124941
-4.99586452199998
-6.73211872333118
-8.71232935987938
-10.929071381877595
-13.374338018783737
-16.03950682578997
-18.915320428193503
-21.991881009571024
-25.2586573410303
-28.704502943786743
-32.31768381521168
-36.085914033224974
-39.996397490942186
-44.03587399424114
-48.19066797814001
-52.44673816646423
-56.789726594569956
-61.20500554588266
-65.67772110509716
-70.19283219749
-74.73514416606577
-79.28933612551053
-83.8399815229842
-88.3715615223782
-92.8684710154393
-97.31501724145348
-101.69541116756133
-105.99375194640518
-110.19400492259803
-114.27997380431289
-118.23526775848178
-122.04326432184635
-125.68706914453836
-129.14947370938813
-132.41291228789817
-135.45941950930262
-138.27059003168512
-140.82754191340698
-143.11088538566463
-145.10069882379008
-146.77651380727013
-148.11731123333126
-149.10153051352927
-149.70709392750183
-0.19773471931155484
-0.6132891816106039
-1.30071821030527
-2.2552547423456097
-3.4718845559198535
-4.94522746516483
-6.669435277434445
-8.638107210043565
-10.844223085152475
-13.280094230046865
-15.937331630520582
-18.80683052903355
-21.878770330038424
-25.14262839367317
-28.587206067109005
-32.20066512274166
-35.97057265091223
-39.88395239180946
-43.927340480527896
-48.08684361931664
-52.348197778725584
-56.696825651579
-61.11789124175403
-65.59635015036913
-70.11699431865529
-74.66449019814044
-79.22340953170163
-83.77825214410758
-88.31346035116064
-92.81342480037401
-97.262481750685
-101.6449019833174
-105.9448717105627
-110.14646601283911
-114.23361548710042
-118.19006693817697
-121.99933908308678
-125.64467437000393
-129.10898814633015
-132.37481653413315
-135.42426449708043
-138.23895570641716
-140.79998593344948
-143.08788181579837
-145.08256695821404
-146.76333743924098
-148.1088488939488
-149.0971174301091
-149.70553670476124
-0.19479756505131007
-0.6047424378714297
-1.2838584333590042
-2.228242779343308
-3.433667058296898
-4.895450098808141
-6.608349813648019
-8.566474770742055
-10.76321583750987
-13.191197781081199
-15.842250262361233
-18.707397247600827
-21.77686348317416
-25.040096356454068
-28.48580120563691
-32.10198794205898
-35.8760267215136
-39.79471034105478
-43.84432103905248
-48.01069943895917
-52.27931348905772
-56.635325406093195
-61.063654821682874
-65.54903654545915
-70.07607159105716
-74.62927035483855
-79.19308708069676
-83.7519449865282
-88.29025166273854
-92.79240457603875
-97.24278672339216
-101.6257526783484
-105.92560545728628
-110.12656480213592
-114.21272763775075
-118.16802161409935
-121.97615278379266
-125.62054860498068
-129.08429759563023
-132.35008709532144
-135.40014072516277
-138.21615727138294
-140.77925284869715
-143.0699083375267
-145.0679242212118
-146.75238508027712
-148.1016361264784
-149.09327427229584
-149.7041563322377
-0.19183667303099838
-0.5961735755822346
-1.267065008859376
-2.2015389022390544
-3.3962072813850277
-4.847130129493731
-6.5497006964645905
-8.498553148744723
-10.687492921005049
-13.109449594876162
-15.756451609178269
-18.619621620883965
-21.689190901984716
-24.954530788351473
-28.4041989024522
-32.02599765610001
-35.80704240667102
-39.73383658589398
-43.79235114204148
-47.96810572483529
-52.246249187732005
-56.61163717834286
-61.048904817962836
-65.5425327289006
-70.07690494197738
-74.63635749614471
-79.20521682244649
-83.76782727653966
-88.30856744295706
-92.81185508006212
-97.26214080166014
-101.64389080047056
-105.94155911327627
-110.13955010158581
-114.22217198898772
-118.17358244771317
-121.97772737094174
-125.61827411047165
-129.07854059552636
-132.34142188612344
-135.38931585565115
-138.20404984109166
-140.76681024453313
-143.0580772247113
-145.05756676781635
-146.74418258373396
-148.09598042715834
-149.09014758687306
-149.70300042254533
-0.18887265824530175
-0.5876512301283157
-1.250493622141562
-2.1754298050181973
-3.3599702769078093
-4.800960060257847
-6.494457024518116
-8.435635549277247
-10.618715911255773
-13.03691914472014
-15.682446514410906
-18.54648217244182
-21.619217068994978
-24.88989176613883
-28.346855471877
-31.977638379743098
-35.76903426284078
-39.70719022890567
-43.77770059117452
-47.96570193263739
-52.25596663032431
-56.63299235009664
-61.08108530249885
-65.5844353577489
-70.12718144038469
-74.69346594643469
-79.26747724587045
-83.8334796388185
-88.37583041965136
-92.8789839710912
-97.32748305271616
-101.70593766909528
-105.9989921026393
-110.19128087486885
-114.26737456860444
-118.21171659101965
-122.00855210446724
-125.64185049346936
-129.09522287158168
-132.35183627531308
-135.39432633763994
-138.2047103868615
-140.76430307659206
-143.05363682340544
-145.05238950220178
-146.73932203250945
-148.09222867304874
-149.08790302343456
-149.70212290502604
-0.1859296272470985
-0.5792554073081
-1.234325223167172
-2.150247845414171
-3.3254939273792417
-4.757739177367458
-6.443735182378592
-8.379209036180201
-10.558792176689062
-12.975978083952443
-15.623107770364772
-18.491381333132374
-21.570893256075422
-24.850688668390134
-28.31883739810937
-31.96252240661024
-35.768139056647755
-39.72140164474997
-43.807453709230366
-48.010978795348294
-52.316308603647464
-56.70752574739469
-61.168558689166346
-65.68326679262094
-70.2355138027271
-74.80922844319173
-79.38845118151562
-83.95736655528802
-88.50032076871346
-93.00182455622797
-97.4465415685411
-101.8192627656405
-106.10486750385053
-110.28827218466299
-114.35436749589729
-118.28794542157831
-122.07361733918941
-125.69572465822446
-129.13824358959053
-132.38468577935683
-135.41799668905927
-138.22045376613823
-140.77356662283034
-143.05798162814565
-145.05339351642303
-146.73846682817108
-148.0907702158149
-149.08672687072536
-149.7015845457369
-0.1830355997759483
-0.5710788808016751
-1.218769178162237
-2.126376805526945
-3.293398205018452
-4.718387186295995
-6.3988176757136905
-8.330979288001592
-10.509906139366402
-12.929338427052425
-15.581715446065367
-18.458197941936984
-21.548717021942736
-24.842046299983743
-28.325893539913054
-31.987007793535625
-35.81129790494509
-39.7839582603073
-43.88959778773903
-48.112368443080065
-52.436089730949604
-56.84436618205674
-61.320695125988514
-65.84856253734043
-70.41152517376966
-74.99327765904539
-79.57770357541068
-84.14891001158175
-88.69124535931999
-93.18930045913751
-97.62789346807563
-101.99203905638385
-106.26690274241405
-110.43774135182157
-114.48983074034315
-118.40838205874729
-122.1784479704724
-125.78482035901328
-129.2119211934477
-132.44368836158554
-135.46345843127642
-138.25384846755367
-140.79663922161194
-143.07266221195448
-145.06169344142103
-146.74235673803278
-148.09203996246333
-149.08682759299066
-149.70145346951918
-0.18022298549081484
-0.5632287779143716
-1.2040668554658893
-2.1042584611831465
-3.264395747547013
-4.683959799510667
-6.361174664813115
-8.29289888665834
-10.474554959892902
-12.90009606867595
-15.562008450729522
-18.45134682552856
-21.55779954260823
-24.869779482416213
-28.374536287010258
-32.058285218294074
-35.9063478342327
-39.90329972243984
-44.033120717748496
-48.27934333959694
-52.62519558444404
-57.05373467033751
-61.547968837569414
-66.09096483321291
-70.6659392250889
-75.25633219017419
-79.8458628890798
-84.41856596262492
-88.95880906401453
-93.45129166717777
-97.88102567314752
-102.23329857185486
-106.493620113936
-110.64765361288377
-114.68113313754232
-118.57976797963562
-122.3291358983724
-125.91456675697606
-129.3210182881939
-132.5329458604857
-135.53416826679214
-138.30773173022678
-140.83577452085945
-143.09939480005727
-145.07852455956507
-146.75181279905877
-148.09652138323275
-149.08843733848724
-149.7018056756893
-0.17752912609037708
-0.5558283885383126
-1.1904957289220164
-2.084400116034196
-3.239304002790334
-4.655666646520917
-6.332488702845387
-8.267199792891738
-10.455589451950344
-12.891780592568185
-15.568243418671285
-18.475846655779332
-21.603942057892073
-24.940477444078915
-28.472133017738372
-32.18447543699311
-36.062124025855745
-40.088923624653546
-44.24811884820998
-48.52252492858041
-52.89469082580917
-57.34705086339616
-61.86206176089057
-66.4223225584154
-71.01067553530399
-75.6102867998917
-80.20470575406179
-84.77790310452005
-89.31428750142561
-93.79870122885794
-98.21639565621564
-102.55298739160678
-106.7943962623194
-110.92676639662523
-114.93637179733463
-118.80950790302357
-122.53237072721309
-126.09092525877216
-129.47076491658387
-132.65696397278145
-135.63392500682954
-138.38522362753145
-140.8934529097778
-143.14007023420885
-145.1052494954862
-146.76774195725903
-148.10474937554466
-149.0918133853323
-149.7027255354029
-0.1749969152172035
-0.5490192417223199
-1.17837410273723
-2.067383293066932
-3.219059252812908
-4.6348919613986865
-6.314683299964827
-8.256430809050014
-10.45626121015808
-12.908412527896242
-15.605262228122555
-18.537397525698005
-21.693722967656026
-25.06159959562269
-28.62700944924323
-32.37473889263414
-36.288574212963866
-40.3515031316452
-44.54591624861948
-48.853802974545744
-53.25693714646973
-57.73704823363346
-62.27597478553005
-66.85579751425416
-71.45895011309558
-76.06830657316056
-80.6672443523895
-85.23968326391105
-89.77010038867664
-94.24352167317767
-98.64549115540497
-102.9620189816149
-107.1795095383796
-111.28467114771112
-115.26440885831636
-119.10570194128807
-122.79546776308635
-126.32041377580238
-129.6668794535571
-132.8206701089476
-135.76688466443184
-138.4897396284248
-140.97239174241827
-143.19676202825892
-145.1433642678552
-146.79114129812618
-148.1173128994783
-149.09723948437704
-149.70430625743847
-0.17267551223750388
-0.5429635059893769
-1.1680665858234676
-2.053873820520529
-3.204732901619666
-4.623218611782342
-6.309956081853771
-8.263501013072421
-10.480277151325357
-12.954569460582732
-15.678569744387465
-18.642469979570635
-21.834597414248716
-25.241584576287465
-28.848566758837016
-32.639399289295866
-36.59688692612939
-40.70301803242435
-44.939196698250655
-49.2864666785779
-53.72572182357529
-58.237898557050386
-62.80414685857795
-67.40597708438814
-72.02538078993626
-76.64492447082502
-81.24781580037849
-85.81794250184191
-90.33988445366302
-94.7988999880169
-99.18088761449793
-103.47232459609229
-107.66018393479862
-111.7318314071504
-115.67490433781177
-119.47717382976958
-123.12639219800619
-126.61012738641811
-129.91558620615197
-133.02942832036055
-135.93757302724035
-138.6250010663488
-141.07555389502863
-143.27173316339315
-145.19450344848974
-146.82310169820244
-148.13485728351924
-149.10502705066511
-149.7066503072813
-0.17062117040021363
-0.5378467823838164
-1.159990475739182
-2.04463361019792
-3.1975505059805354
-4.622456167755024
-6.320817487920705
-8.291730373379503
-10.531862941918634
-13.035462716828938
-15.794423717471712
-18.798407594452275
-22.035011556035506
-25.48997481741269
-29.14741469586992
-32.99008325586258
-36.999635551098805
-41.156900967547536
-45.442149881806806
-49.83534874763785
-54.31639774486494
-58.86534620789142
-63.46258213506753
-68.08899312358511
-72.72609703637652
-77.3561415637766
-81.96217257657588
-86.52807177145088
-91.03856458584725
-95.47919971704283
-99.83630182829951
-104.09689918301378
-108.24862803262317
-112.27961561221028
-116.17834359479818
-119.93349383058458
-123.53377817629885
-126.96775421093906
-130.22362865446675
-133.28905036691953
-136.15089491434156
-138.79504285525343
-141.20615412795854
-143.3674412161422
-145.26044413356533
-146.86481070018874
-148.15808608388176
-149.115516146974
-149.70986976030053
-0.16889820458435167
-0.5338813763934311
-1.1546232530563252
-2.040534499463744
-3.1989141451578043
-4.6346738778314975
-6.350136180684068
-8.344909036664863
-10.615837121228274
-13.157026720502607
-15.959939182940607
-19.01354564835387
-22.304534180521365
-25.817559302096935
-29.53552330729335
-33.43987858367865
-37.51094046719401
-41.728200815727575
-46.070633440205526
-50.51698369063542
-55.04603577648696
-59.63685273174679
-64.26898523907988
-68.92264676052105
-73.57885353464187
-78.21952896648688
-82.8275727442524
-87.38689565855229
-91.88242158244489
-96.30005840912159
-100.62663995290853
-104.84984092256671
-108.95806709786883
-112.94032279892184
-116.7860576655412
-120.48499467327719
-124.02694122847625
-127.40158512333477
-130.59827710662879
-133.60580185368374
-136.41213920435004
-139.00421769555015
-141.3676626449237
-143.4865413532504
-145.34310838799684
-146.9175543847214
-148.18776236319698
-149.12907619461913
-149.71408656786787
-0.16758013036382025
-0.5313101587465106
-1.1525114382717874
-2.042574620964208
-3.2104288735459043
-4.662239633044379
-6.401192623392199
-8.427367135860692
-10.737698148149821
-13.326023599735699
-16.183210229485056
-19.2973489461339
-22.654008841448594
-26.236537716356985
-30.026396377950658
-34.00351394249492
-38.14665188235375
-42.43376549024479
-46.84235270079665
-51.34978169822459
-55.933590342560706
-60.57175207599894
-65.24290453855421
-69.92653857043834
-74.60314655812087
-79.25433016505863
-83.86286836464971
-88.41274736252133
-92.88915446833371
-97.2784382773981
-101.56803767112797
-105.74638217293986
-109.80276613219385
-113.72719908097251
-117.51023444755572
-121.14277863653598
-124.61588232818644
-127.92051572155862
-131.04732936629415
-133.98640221663987
-136.72697859695637
-139.25719591131627
-141.56380516194363
-143.63188666537812
-145.4445637807474
-146.98271798296892
-148.22470923614694
-149.1461063377614
-149.7194327121896
-0.16675101466686115
-0.5304111533986422
-1.1542811288612853
-2.051897885009007
-3.233934190678614
-4.707866269981375
-6.477742638519195
-8.544057409316336
-10.903727124353354
-13.55016620664276
-16.473452629475204
-19.660572529011425
-23.095730354220077
-26.760709805055683
-30.63527024830907
-34.6975634644783
-38.92455637277566
-43.29244668243837
-47.77706008777755
-52.3542195293545
-57.0000790443742
-61.69141671607795
-66.40588310963314
-71.12220327404688
-75.82033185102969
-80.481562035537
-85.08859006983602
-89.62553763183588
-94.07793492172786
-98.4326674862502
-102.67788988111306
-106.80290919834435
-110.79804130893797
-114.65444243532247
-118.36391839711283
-121.91871359865951
-125.31128158232765
-128.53403876431707
-131.5791028270408
-134.43801718209664
-137.1014629410203
-139.55895995503852
-141.79855871605477
-143.8065252493752
-145.56702158283485
-147.0617849426621
-148.26980951132055
-149.16703537799694
-149.7260502220123
-0.16650708908142775
-0.5315030263985303
-1.160650617322247
-2.0698173116076326
-3.2715417030322307
-4.774666907267805
-6.584093212496655
-8.700653481327851
-11.121109600793803
-13.838263445278095
-16.84117161032397
-20.11544979356565
-23.643650270134554
-27.405694484819463
-31.37934233288138
-35.540680143277164
-39.86461057159122
-44.32532939358507
-48.89677638014013
-53.55304985813284
-58.26877705059888
-63.019434705667564
-67.78161675741575
-72.53324773018997
-77.25374225141204
-81.9241123559187
-86.52702524716275
-91.04681484300231
-95.46945081652336
-99.78246897954843
-103.97486679622894
-108.03696760509767
-111.9602568131956
-115.73719295032109
-119.36099606949108
-122.82541558747896
-126.12447930603517
-129.25222505948224
-132.20241621906462
-134.96824216604605
-137.54200483262957
-139.91479251144895
-142.07614236083793
-144.01369338550182
-145.71283215386708
-147.1563341293749
-148.32400423966232
-149.192321187234
-149.7340910190386
-0.16695869046336398
-0.5349516974170321
-1.1724455989582943
-2.0978431439472693
-3.325680459705066
-4.866221447109452
-6.725193386461449
-8.903667360801059
-11.398080696694024
-14.200392713902534
-17.2983600094039
-20.6759135245349
-24.313616898563584
-28.189184144474172
-32.27803443531041
-36.55386263280783
-40.9892059314042
-45.555989407972135
-50.226036125668344
-54.97153051233408
-59.765426816925356
-64.58179737343444
-69.39611804452352
-74.18549048763828
-78.92880273672661
-83.6068310117374
-88.20228666559336
-92.69981279115564
-97.08593528814062
-101.3489731870103
-105.4789128036982
-109.4672499145689
-113.30680365390606
-116.99150528961832
-120.5161644756065
-123.87621504954868
-127.06744196642677
-130.08569056155125
-132.92655904210383
-135.58507492156116
-138.05535605712615
-140.3302570286031
-142.40100181564372
-144.2568040961365
-145.88447700001097
-147.26803481617267
-148.3882899631284
-149.22244949864498
-149.74371656131405
-0.16823261170981318
-0.5411783566760384
-1.190617616426616
-2.1377169276432184
-3.3991518399450777
-4.986656932716498
-6.906743803005433
-9.160590608049748
-11.744098794703996
-14.648105406031867
-17.858733248978588
-21.357856541734563
-25.12365659095587
-29.131240607030062
-33.35329685399748
-37.760760747919605
-42.323469001712205
-47.010782164877796
-51.792159614141745
-56.63767493214954
-61.51846341276767
-66.40709695648106
-71.27788472522951
-76.10710051753072
-80.8731398672106
-85.55661135983235
-90.14036763228961
-94.60948203231636
-98.95117703185528
-103.15471029065591
-107.21122382807826
-111.11356115659906
-114.85605652800399
-118.43429969581133
-121.84487885621579
-125.08510373948768
-128.15271020870557
-131.0455472094509
-133.7612465313635
-136.2968755888348
-138.6485733264062
-140.81116940832558
-142.77778706102185
-144.53943031646148
-146.08455694659068
-147.39863908845533
-148.4637144412793
-149.25793196710953
-149.75509724781816
-0.17047496844490162
-0.5506692481923317
-1.2162665677547118
-2.1914530661434126
-3.49519638035755
-5.140745171473682
-7.135329413374135
-9.480064757030377
-12.170054380776318
-15.194672837294432
-18.538009046560834
-22.179440127319566
-26.094304383846875
-30.25464046305376
-34.62996030849499
-39.188025768432134
-43.89560220124929
-48.719166760441226
-53.625553829112945
-58.58252495526504
-63.559255303825324
-68.526732862502
-73.45807025358596
-78.32873192820105
-83.11668172918907
-87.80245732288077
-92.36917888572958
-96.8024997680354
-101.09050674437263
-105.223576999289
-109.19419828055321
-112.99675777514726
-116.62730429959275
-120.08328741099012
-123.36327609482362
-126.46665881100182
-129.3933259129034
-132.14333481810644
-134.71655782697445
-137.11231216246603
-139.32897165226254
-141.3635595015896
-143.21132180792472
-144.8652818598257
-146.3157758346632
-147.54997126837486
-148.5513706193555
-149.29930338372583
-149.76841154582712
-0.173854717458779
-0.5639876833202724
-1.2506683391835516
-2.2613897854849974
-3.617575590295506
-5.334021962160396
-7.418581050778744
-9.872088031250174
-12.68852225036074
-15.855381750513242
-19.354241610005335
-23.161460192004867
-27.248993760597383
-31.585278940518023
-36.13614390171957
-40.865712521020555
-45.73727060555974
-50.71406901662701
-55.7600446882336
-60.84044664433317
-65.9223598114823
-70.97512443626063
-75.97065308219892
-80.8836504266188
-85.69174340449185
-90.3755307118395
-94.91856139007672
-99.3072522819895
-103.53075371553395
-107.580771962208
-111.45135595136881
-115.1386545094752
-118.64064911981039
-121.95686593818104
-125.08806961324983
-128.03594038189607
-130.80273497930983
-133.39093113760129
-135.80285486072592
-138.04028926869552
-140.10406360289014
-141.99362098458437
-143.7065637171118
-145.23817532477702
-146.58091912596015
-147.72391394646954
-148.65238859267936
-149.3471179247779
-149.78384480076028
-0.17856800252611116
-0.581788883604224
-1.2953089304195347
-2.3502519958884487
-3.7706726665544705
-5.572933469358226
-7.765373123917774
-10.348267248848348
-13.314067401868883
-16.64789079716926
-20.328222344460833
-24.327783331223735
-28.614517287235017
-33.15264317958649
-37.90372867223419
-42.82774114175315
-47.884040772173044
-53.03228764114509
-58.23324258620639
-63.44944924615524
-68.64579157345104
-73.78992700760297
-78.85260023536402
-83.80784598652086
-88.63309167314216
-93.30917198688084
-97.82026797715747
-102.15378281332457
-106.30016556291102
-110.2526930591236
-114.00721843158345
-117.56189325866238
-120.91686866544443
-124.07397912058266
-127.03641123354757
-129.80835856017296
-132.39466231955475
-134.80043702523963
-137.03067934710856
-139.08985805150098
-140.98148262296058
-142.70764814480606
-144.26855421207043
-145.6619960672407
-146.88282678604224
-147.92239019970972
-148.76792531681716
-149.4019443130934
-149.80158768797014
-0.18484355517512618
-0.6048384299702061
-1.3519268446446322
-2.4612292671176546
-3.959617148794083
-5.865016859965233
-8.186066692538077
-10.922126203387126
-14.063617613042123
-17.592662221237177
-21.48396192995014
-25.705867603067016
-30.22157226572427
-34.99036775862768
-39.96890777658868
-45.11242737195327
-50.375878031951686
-55.71494739323904
-61.08694268682688
-66.45152641803239
-71.77130107800036
-77.01224653773797
-82.14401905754558
-87.14012455774156
-91.9779810528139
-96.63888613899854
-101.10790536871416
-105.37369647766923
-109.42828298264335
-113.26678884208722
-116.88714384109936
-120.28976727250401
-123.47723544027431
-126.45393659379855
-129.22571516693117
-131.79950567646065
-134.18295535372243
-136.38403355078262
-138.4106251802347
-140.2701049115832
-141.96888856362952
-143.5119580859769
-144.9023567193322
-146.14065135878025
-147.2243598147987
-148.14734157540278
-148.8991518134427
-149.46435976956354
-149.8218342656722
-0.19294944776898237
-0.6340353315254026
-1.4225660528804054
-2.5980730993100205
-4.190440046510052
-6.219124377492322
-8.692809802958244
-11.609484895932138
-14.956919118181457
-18.713486544475685
-22.84927215055265
-27.32738613023072
-32.105408388430455
-37.13688758922668
-42.37282595104508
-47.7630911495438
-53.25770889746174
-58.80800275857705
-64.36756045140032
-69.89301745963043
-75.3446586265119
-80.68684626020683
-85.88828902509248
-90.9221696389276
-95.76615134529987
-100.40228357751516
-104.81682649061482
-109.00001242555247
-112.94576017515288
-116.65135539252705
-120.11710781805145
-123.34599336322263
-126.3432865856386
-129.116186798255
-131.67343902768664
-134.02494928951018
-136.18139220030636
-138.1538077897768
-139.9531835083653
-141.59001683551497
-143.07385357639262
-144.4127968770713
-145.61298218928533
-146.6780138704044
-147.60835981005275
-148.40070143280252
-149.04723762981703
-149.53494263702373
-149.8447795896925
-0.20320158836753155
-0.6704410438409609
-1.5096425595244418
-2.7652189572319807
-4.470267946855025
-6.645702750871655
-9.29991038858569
-12.428928001646858
-16.017096194366196
-20.038122574811428
-24.456470238099207
-29.228975609527694
-34.306597734830646
-39.63620586547155
-45.162322586674975
-50.82875403382144
-56.58005514664358
-62.36279477092907
-68.12660138342272
-73.824984294459
-79.41593675686265
-84.86233621425006
-90.13216296887634
-95.19856206746269
-100.0397745512972
-104.63896382042128
-108.98396115880796
-113.06695186767794
-116.88412031476821
-120.4352688238533
-123.7234219256724
-126.75442423553349
-129.53653722208003
-132.08003745492806
-134.39681659624387
-136.49998144182575
-138.40345071700636
-140.1215440734548
-141.66855779685355
-143.05832110574596
-144.30372658421015
-145.41622822897529
-146.4053008030183
-147.27785466476956
-148.03760098369287
-148.68436325902323
-149.2133323256008
-149.61426356697186
-149.87061685351514
-0.21597447215129106
-0.7153161930416103
-1.6160285626820687
-2.967940263602899
-4.807567256056703
-7.157143447434879
-10.024301553460733
-13.402386180258853
-17.271341117626044
-21.59908079271144
-26.343233942999717
-31.45313663974656
-36.871951380445275
-42.538797594218494
-48.390794413595145
-54.364936490367164
-60.39974554465067
-66.43666209094246
-72.4211617062083
-78.3035971570223
-84.03978105929426
-89.59133334936254
-94.9258238838008
-100.01674338638662
-104.8433362911107
-109.3903273909225
-113.64757118303976
-117.60964892490887
-121.27543410678767
-124.64764265052318
-127.73237989943321
-130.53869253475793
-133.07813003645913
-135.3643172476022
-137.41253700739682
-139.2393196732295
-140.86203463267398
-142.2984775752422
-143.56644631480054
-144.6832973067423
-145.66547465971644
-146.52800338569682
-147.28393885859788
-147.9437649520581
-148.51473410487296
-149.00014361396188
-149.39854378445588
-149.70287517064122
-149.899534020954
-0.23171487417671033
-0.7701673420255812
-1.7451595138950338
-3.2125438821005936
-5.212453283987394
-7.76822410705422
-10.8861250347437
-14.555860685506397
-18.751768254248326
-23.434585451280448
-28.553642314620454
-34.04931860038081
-39.85561142455718
-45.9026722769423
-52.11919526927818
-58.434566035435395
-64.78070979647288
-71.09360497837467
-77.31445339324071
-83.39051811277182
-89.27565523119067
-94.93057577979312
-100.32287958257092
-105.4269045562852
-110.22343370073224
-114.69929862973096
-118.84691372750733
-122.6637695247791
-126.15190817196651
-129.31739832130114
-132.16982155622676
-134.72177787305364
-136.98841369270264
-138.9869724713238
-140.73636516005377
-142.256755485093
-143.5691532302041
-144.69500734318888
-145.65578970335818
-146.47255974796275
-147.16549982152262
-147.7534110713708
-148.25315995715277
-148.6790659640473
-149.04222191998446
-149.34973941161635
-149.60391318026046
-149.80130005355497
-149.93170992483044
-0.25095940034024133
-0.8368069300235077
-1.901171176985929
-3.5066198072999826
-5.697083706000354
-8.496667991805623
-11.909466605755062
-15.920330737076865
-20.496475515897195
-25.589759979004917
-31.13944556175351
-37.075228778451944
-43.32035238182415
-49.79462241107915
-56.41719146095012
-63.10900635582616
-69.79485679868641
-76.40499699032436
-82.87634228239911
-89.1532663579938
-95.18804089917941
-100.9409696056672
-106.3802726703314
-111.48177753562061
-116.22846815257698
-120.60993916823627
-124.6217944451904
-128.2650218401821
-131.54536880054118
-134.47273646523354
-137.0606038032409
-139.3254879920696
-141.2864427509717
-142.96459265334465
-144.3826984777915
-145.564746323287
-146.535551422256
-147.32036625438283
-147.94448161884984
-148.43280871918728
-148.80943001064193
-149.09710654061064
-149.31672977324945
-149.48670642741803
-149.62226569145798
-149.73467930894566
-149.8303864680562
-149.91001717315584
-149.96730981229132
-0.2743571357774186
-0.9174306158375847
-2.089076265087694
-3.8593621614589395
-6.27616252975703
-9.363857090485368
-13.123287858909954
-17.53289503027809
-22.550868707123342
-28.118092036343562
-34.16161771603228
-40.5984136769047
-47.33913153766275
-54.29168735900039
-61.364491406538036
-68.46921528069451
-75.52303505027704
-82.45033359003708
-89.1838814700464
-95.66554233887403
-101.84656590006341
-107.68754030189434
-113.15807757006237
-118.23630232508147
-122.90820710638631
-127.16692864455467
-131.01198956600808
-134.44854016619828
-137.4866256462264
-140.14049593903638
-142.42796812173452
-144.3698454503002
-145.98939220709872
-147.31185969905115
-148.3640557506309
-149.17394775410082
-149.7702876388985
-150.18224589144947
-150.4390409017775
-150.56954937995886
-150.60188332500468
-150.56291903179877
-150.47776388951988
-150.36914726483656
-150.25672260457222
-150.15626904686678
-150.07878231457835
-150.02944648111347
-150.00648032525334
-0.3026990795017157
-1.0147177921204578
-2.3149936895358803
-4.281984677616533
-6.967589781868385
-10.39574653963567
-14.562613212116956
-19.438214581598835
-24.96932031700461
-31.08324951689646
-37.69225851993154
-44.6981700154534
-51.99693381197336
-59.482864327662384
-67.05236692130862
-74.607035166357
-82.05606645933554
-89.31799868628767
-96.32181322446985
-103.00747864708961
-109.32602604594912
-115.23925282224164
-120.71914954133003
-125.74713647600156
-130.31318501198479
-134.4148860118702
-138.05651392148928
-141.24812282033434
-144.0046993455549
-146.34538774434156
-148.29279429516097
-149.87237189838447
-151.11188060743618
-152.040916035355
-152.69049471257273
-153.0926833843606
-153.28025774191082
-153.28637503472348
-153.1442443060904
-152.88677756064033
-152.54620496655872
-152.15363721262787
-151.73855839333243
-151.3282333110057
-150.94701390362945
-150.61553066332988
-150.3497564304611
-150.15993183758604
-150.04934391339629
-0.33695668897963094
-1.1319632069263506
-2.586448321216279
-4.788262368689772
-7.7933047639415935
-11.6240445643147
-16.270050533197246
-21.690345219107776
-27.817255216228013
-34.56133771466681
-41.81692638869087
-49.46785379185011
-57.3929624536162
-65.47109894735316
-73.58537975282741
-81.62661183966131
-89.49583476004416
-97.10601857427407
-104.38300058054543
-111.26577388310008
-117.70625458121728
-123.66865512243207
-129.12858279677135
-134.07196789643535
-138.49390862932472
-142.39750169428567
-145.79271005525607
-148.69530385407495
-151.12589705953908
-153.1090914900688
-154.67273116244874
-155.847263259228
-156.66519705824385
-157.16064859390258
-157.36895631181125
-157.32635126095377
-157.06966421285637
-156.63605133283102
-156.06271953040937
-155.38663230827774
-154.64417677758414
-153.87077251705705
-153.1004031529737
-152.3650519833104
-151.69402372275462
-151.1131355667087
-150.6437623079476
-150.30172220632457
-150.09599268523283
-0.3783327649695485
-1.2732507250343073
-2.912766091060048
-5.395243140184849
-8.780388455554048
-13.087745081055283
-18.297750484289914
-24.355076310067922
-31.17378303395583
-38.643711764054935
-46.63750277302404
-55.01766759850954
-63.64323165458634
-72.37558601523294
-81.08331934103978
-89.64592629596763
-97.95639501700771
-105.92275671558585
-113.46873375061764
-120.53365067936595
-127.07178028023004
-133.05128870193397
-138.4529260272788
-143.26858526175667
-147.49982768544749
-151.15644820499435
-154.2551324174575
-156.818238378661
-158.87272080929517
-160.4492035362313
-161.58119699205633
-162.3044511090683
-162.65642944381847
-162.6758873798533
-162.4025353657343
-161.87676700421986
-161.13943114595313
-160.23162675907622
-159.19449910960284
-158.06901562292882
-156.89569968152827
-155.71430057271908
-154.56337788679866
-153.47977896943806
-152.49798865105993
-151.6493315038471
-150.96100839559622
-150.45495115428167
-150.14648170887068
-0.4283292165807637
-1.4436847331665614
-3.305599226589351
-6.12419034985321
-9.962515754729134
-14.835132182274823
-20.709946403634753
-27.512930349435017
-35.135032652540545
-43.44048837892451
-52.27570990251518
-61.478018422936785
-70.883619466688
-80.33440448030447
-89.68334423552743
-98.79840488528478
-107.5650495249973
-115.88748093406372
-123.68883557661815
-130.9105603072104
-137.51119924078478
-143.46479707394246
-148.75909416607882
-153.39365383665358
-157.37802789410466
-160.73003510650972
-163.4742005996487
-165.64038251641108
-167.2625955399091
-168.37802853640414
-169.02624489966672
-169.24854841682253
-169.08749390723585
-168.5865198811098
-167.78967950211577
-166.7414458050863
-165.4865671090547
-164.06994866197118
-162.53653662278447
-160.93118046404138
-159.29844976066846
-157.68238116757846
-156.1261312705601
-154.67151105174128
-153.3583780894116
-152.22386345842378
-151.30141174207563
-150.61961468215557
-150.20082177578666
-0.4888381634238623
-1.6497012339901858
-3.779630948790052
-7.0018422624303085
-11.381884181913591
-16.92642095285273
-23.586267325671102
-31.26302932231072
-39.8183907260596
-49.08493796486773
-58.87742839821158
-69.00354885089216
-79.27343679419074
-89.50749679555551
-99.54229718478737
-109.23454606827462
-118.46330563184506
-127.13070533689533
-135.16146348372118
-142.50153332195555
-149.11616690649953
-154.98764912187534
-160.11290557843913
-164.50113866847045
-168.17160067236676
-171.15157398046912
-173.474597185215
-175.17895185926034
-176.30640748024072
-176.9012100972066
-177.00929279500377
-176.67768170068103
-175.95406923410965
-174.88652574649805
-173.5233209988419
-171.91282764722288
-170.10347969669508
-168.14375954149307
-166.08218760773678
-163.96728870945702
-161.84750904179484
-159.77105734770487
-157.7856433408195
-155.9380861300178
-154.27376537655763
-152.83588844606044
-151.6645480949426
-150.79554739020585
-150.25897163494668
-0.5622656770490781
-1.8994903710856335
-4.353530392815783
-8.062110861844658
-13.091797638796617
-19.437263400265913
-27.026087401599895
-35.72810305842174
-45.367906389813314
-55.738983220661126
-66.61798740435597
-77.77795106318536
-88.9995567808017
-100.07997700923997
-110.83912847025229
-121.12346144651781
-130.8075899449646
-139.79417085026455
-148.01247189741576
-155.4160483713498
-161.97989607176885
-167.69737980311447
-172.57716495263412
-176.64031286419907
-179.91764330774186
-182.44742119748327
-184.27338975831412
-185.4431474060653
-186.00684899819106
-186.01620200635068
-185.52372286073717
-184.58221674547633
-183.2444442956667
-181.56294003822964
-179.58994934770595
-177.3774526763407
-174.97724754771997
-172.44106007412634
-169.82065847744173
-167.16794125177876
-164.5349722464322
-161.97393419776955
-159.5369712752107
-157.27589026922186
-155.24168943067883
-153.48388398747682
-152.04959832150004
-150.98239692615257
-150.32082968671267
-0.6517017473328455
-2.2035767100102355
-5.051260596154712
-9.348396609467216
-15.160159784330801
-22.46344057496262
-31.154273839105066
-41.0610084848501
-51.9612018110118
-63.600083515546835
-75.70862484259588
-88.01967020513612
-100.28112237133126
-112.26570802093897
-123.77730787108544
-134.6541711452074
-144.76953791997295
-154.03027896279931
-162.37415831443485
-169.76625996414373
-176.19502454657868
-181.66823690369128
-186.20920538819408
-189.85328737080187
-192.6448460726599
-194.63467176095486
-195.87786375234765
-196.4321458829221
-196.35657423361477
-195.7105892554752
-194.55336272944965
-192.9433913938581
-190.93829219253686
-188.59475793731053
-185.96863604811665
-183.11509647686745
-180.08885766597152
-176.94444128983963
-173.73642752524512
-170.5196827241422
-167.34953069887223
-164.2818375377935
-161.37297817059311
-158.67965110000156
-156.2585061998386
-154.16554969007478
-152.4552907925638
-151.17959654966063
-150.3862250897115
-0.761156613946909
-2.5756258782056634
-5.90389110667461
-10.916777045168963
-17.674243936804796
-26.12719553282082
-36.12883443557567
-47.45325510616816
-59.81832642041294
-72.9098440396855
-86.40433329230436
-99.98858300157444
-113.37479853818189
-126.31101708402306
-138.58702506194066
-150.03641321855554
-160.53560466007673
-170.00073176626893
-178.38316838927722
-185.66439193692682
-191.85069465258505
-196.9681116267945
-201.05780058241135
-204.17200218473462
-206.37063040056753
-207.7184875709413
-208.28306404837468
-208.1328627799002
-207.33618075664788
-205.96027816009752
-204.0708694664293
-201.73187662085627
-199.00539117340773
-195.95179899068125
-192.63002720204815
-189.09787803539461
-185.41241796507109
-181.6303930684615
-177.80864267356873
-174.00448334908225
-170.27603415912648
-166.68245205663516
-163.28404358179864
-160.1422160303178
-157.31922844613996
-154.8777007779584
-152.87983898731898
-151.3863354545235
-150.45490816992665
-0.8958938061976056
-3.033580768481766
-6.952141891290442
-12.840451011335261
-20.74727453296769
-30.58585677521892
-42.15116179650557
-55.146201766413256
-69.21311411029815
-83.96474979468557
-99.0133067912619
-113.99368465256622
-128.58044494860928
-142.49830697377473
-155.52686142168582
-167.50061725816664
-178.30564890386108
-187.87405738834929
-196.17728211934752
-203.219069286784
-209.02866896301435
-213.6546258763653
-217.15936245795947
-219.6146296087604
-221.09781660480684
-221.68905950274132
-221.46905951911896
-220.5175119824384
-218.91204669910294
-216.72758741189256
-214.03604821049942
-210.90629606544212
-207.40431967553366
-203.59355470554277
-199.53532379397848
-195.2893562336011
-190.91435692665135
-186.46859714274942
-182.01050084085148
-177.59919997505364
-173.29503042493386
-169.15993715534273
-165.25775318732738
-161.6543123518254
-158.41735118380547
-155.616151482016
-153.3208729722246
-151.60152618085863
-150.52653991728909
-1.0629064152667347
-3.6012852350785423
-8.25000307985827
-15.216011889516949
-24.52760986667793
-36.04368877178672
-49.47984833200951
-64.44581526495857
-80.48774675160344
-97.1294747031505
-113.90816558415507
-130.40170911807698
-146.246932995302
-161.14915073700743
-174.88445122991925
-187.29654749784984
-198.29002607617446
-207.82161529283997
-215.89074843442486
-222.53033183666713
-227.79829764776528
-231.77025466892607
-234.53335480247236
-236.18136097199883
-236.81082286621574
-236.5182261642385
-235.39796694799054
-233.54100601141056
-231.03407042263655
-227.95928687513717
-224.3941497356393
-220.4117442243378
-216.08116072500007
-211.46804929658117
-206.63527389193274
-201.64363363866482
-196.55262395291575
-191.42121342797992
-186.30861353635214
-181.27501736305942
-176.38228098082135
-171.6945168343732
-167.27856284612585
-163.20428427428584
-159.54465829336135
-156.37558480806905
-153.7753624875246
-151.82376797507305
-150.60068019453485
-1.2716093094189773
-4.310841473355943
-9.869963341218448
-18.172424350277076
-29.21170655231192
-42.768331707582036
-58.44943717397774
-75.74217546181536
-94.07138554401591
-112.85323005288522
-131.53902476194304
-149.64640877146837
-166.77758696415822
-182.62620800136602
-196.97542395232352
-209.6899357804545
-220.70458963474283
-230.01158638552027
-237.64778682199412
-243.68305678805993
-248.21015966643012
-251.33638418369338
-253.17688413927948
-253.84958245414373
-253.4714315357444
-252.15580439395598
-250.01079958308142
-247.13826580354697
-243.6333807143956
-239.58464808315762
-235.07420491805937
-230.1783542353091
-224.96825908141818
-219.51074935440064
-213.86920512322862
-208.1044889158767
-202.27590522254275
-196.44216858744412
-190.66236240555844
-184.9968690792465
-179.50824861936562
-174.26203716136868
-169.32742930848926
-164.77779898864569
-160.69100323930462
-157.14940316484703
-154.23952801508085
-152.05130424327322
-150.67677403724056
-1.5348633348028606
-5.206092689442556
-11.910686374920164
-21.884060359338964
-35.06265325508915
-51.11382757792845
-69.49602322851115
-89.53528221928335
-110.50387806468822
-131.6895447112546
-152.44823003636688
-172.2378739211258
-190.6343498691432
-207.33294355758485
-222.1396200875531
-234.95620006459347
-245.76285083215842
-254.6003703779352
-261.5538449323961
-266.7385254581008
-270.28823271432793
-272.34625205686973
-273.05848041169656
-272.5684967201985
-271.01420614057554
-268.525728369412
-265.2242411756341
-261.22153838021
-256.6201092118662
-251.51358907302284
-245.98746848760368
-240.1199769962453
-233.98308239496652
-227.6435636943898
-221.16412931682532
-214.6045611140973
-208.02287042873294
-201.47645514410073
-195.0232468256994
-188.72283483172893
-182.63754969252474
-176.83348103606235
-171.38139573665126
-166.35750979743446
-161.8440531664478
-157.92955141595314
-154.7087342177419
-152.28197118841396
-150.75413505607557
-1.8705210154971823
-6.347867887385618
-14.508485302285656
-26.589933153544152
-42.43701655526088
-61.55318123340274
-83.19237980328042
-106.46915814498834
-130.46562166960496
-154.31962010177136
-177.28611306096366
-198.77069981258092
-218.33920511692443
-235.70963682872548
-250.7331962247241
-263.3700905666008
-273.6644044615599
-281.7207588151089
-287.68421035042775
-291.7239189186953
-294.020517741293
-294.7567952632531
-294.11115753813715
-292.25331790721475
-289.3417040286396
-285.52214565250756
-280.92748806510696
-275.6778536899601
-269.8813421603304
-263.63501534638334
-257.0260585361312
-250.133043448921
-243.0272445817823
-235.7739791276481
-228.43395375734448
-221.06461008150822
-213.7214654986974
-206.45944804697416
-199.33422322416845
-192.40350770495849
-185.72835939315667
-179.3744249930949
-173.41311476581612
-167.9226588719465
-162.98898060490882
-158.7062997950995
-155.17735727418045
-152.5131331683067
-150.83192440265896
-2.3038112350282276
-7.822049822094137
-17.85481353116159
-32.622565919437235
-51.82426353037435
-74.72483165603609
-100.29631504868618
-127.37669424752158
-154.81453052589157
-181.57881099338374
-206.82626683598767
-229.92889578230026
-250.47056267899762
-268.223525319313
-283.1147935384464
-295.18985360648304
-304.5786284421451
-311.46626094680687
-316.06965133932465
-318.6196390657433
-319.3481673854774
-318.4795509996032
-316.22495193603083
-312.7792596468612
-308.3197050401579
-303.0056782834211
-296.9793479192771
-290.36678647142224
-283.27939390413934
-275.8154767784312
-268.0618907227567
-260.09569013294936
-251.98575478406042
-243.7943807483665
-235.57883462293702
-227.39287706567546
-219.28826510059008
-211.31624333307343
-203.52903256988535
-195.98132053413323
-188.7317532418657
-181.8444166011057
-175.39028491911813
-169.44859498724037
-164.10808015831793
-159.46796834265353
-155.638613506169
-152.74159802216968
-150.90912293250256
-2.8711100437975787
-9.752281977421156
-22.223507090777346
-40.45212642086559
-63.905476421189356
-91.49953651045041
-121.8172847337332
-153.3379948027743
-184.63044628942512
-214.4845637227533
-241.97737807096894
-266.4840354990967
-287.6511874171325
-305.3501366134261
-319.6234865937082
-330.6343156844061
-338.62266915281555
-343.8710815932783
-346.6789424294531
-347.3445503428861
-346.1533580758775
-343.3709242135037
-339.2392775841473
-333.9756481451223
-327.7727632924737
-320.8001218777957
-313.2058308203815
-305.1187221574478
-296.6505671265029
-287.898275104529
-278.94601529181955
-269.8672333160757
-260.7265577266975
-251.58160588846746
-242.48470743433833
-233.48456787334248
-224.62789632215572
-215.96102040289043
-207.53150858363156
-199.3898158059031
-191.59096194394058
-184.19624372697393
-177.27496771155145
-170.9061723526944
-165.1802783769062
-160.20056647108854
-156.0843307453788
-152.963502220048
-150.98449294934645
-3.626070823407403
-12.320515945214275
-28.01423268906415
-50.75524513189852
-79.64205591663388
-113.07729592528747
-149.10781380748122
-185.75475296575263
-221.26573505659977
-254.26182522619374
-283.7862549899339
-309.2811184510666
-330.52279795792606
-347.54200854129533
-360.54586779565267
-369.8512785851617
-375.8329243162569
-378.8855520744685
-379.39845915019265
-377.73954685517504
-374.2464133330256
-369.2223536910474
-362.9356060987735
-355.620619563542
-347.480481103923
-338.68991981436767
-329.3985114304619
-319.7338534135735
-309.80458142885357
-299.70316561999255
-289.5084689882539
-279.2880777503624
-269.1004300497599
-258.9967785080458
-249.02302632444264
-239.2214775969336
-229.6325412973519
-220.29642554181865
-211.25485486375726
-202.5528383270045
-194.24051040747358
-186.37505890931152
-179.022742905358
-172.26098522353857
-166.18049297413847
-160.88731013550455
-156.50463529354252
-153.17415061446857
-151.05652399424707
-4.649908240814575
-15.80123335237898
-35.82361783792872
-64.52460133710366
-100.41160472445573
-141.12835798775515
-183.9875860714104
-226.44155211235773
-266.3972750754332
-302.35778729275614
-333.42296297451173
-359.203864755547
-379.70081170231265
-395.1802789649391
-406.0695675971281
-412.8759547375554
-416.12975522754266
-416.34737451068304
-414.00954289279025
-409.5502858862923
-403.3530317050645
-395.7511696640522
-387.0311690520947
-377.4369919368596
-367.17499108222967
-356.41880440356476
-345.31397305320604
-333.98215054084756
-322.524858406982
-311.02679706587946
-299.5587507156124
-288.1801410443218
-276.94129142156544
-265.8854649458522
-255.05073835722493
-244.47177073072868
-234.1815217699822
-224.21296981766312
-214.60087465306796
-205.3836250099652
-196.605205711027
-188.31731412778635
-180.58164874038874
-173.47237951498482
-167.0787821620086
-161.50796384636104
-156.88751488602
-153.36778789741624
-151.12335414232354
-6.069279748156639
-20.620378349143103
-46.565110875386665
-83.24734063198639
-128.21872710950902
-177.998099058234
-228.90786476653318
-277.7300870288258
-322.06790243630223
-360.43083380068583
-392.13358954168075
-417.1078461889648
-435.7012331423532
-448.50445885536055
-456.2211052425275
-459.57910072189236
-459.27614415141454
-455.9499276416734
-450.16506548843296
-442.4104881943064
-433.10287995288627
-422.5932184504805
-411.1745665101005
-399.09001844863025
-386.54019971092924
-373.6900310035193
-360.6746570599454
-347.60454857796367
-334.56984369018323
-321.6440224893964
-308.8870175028761
-296.3478626782155
-284.0669783223643
-272.0781823718463
-260.4105108927922
-249.08992350395016
-238.14096267053063
-227.58842949324665
-217.4591326839763
-207.78376210894385
-198.59893422867924
-189.9494547812484
-181.89084401821816
-174.49216810915289
-167.83920612145783
-162.03793428984426
-157.21820005550683
-153.53726711741965
-151.18265349254042
-8.088702364198525
-27.4607649409392
-61.67751997120735
-109.20225822267169
-166.02526182499724
-227.00153094908583
-287.15889330123014
-342.57041340470596
-390.6920153481683
-430.2875908964018
-461.13920108154787
-483.70668159932586
-498.83122778071754
-507.51679352644874
-510.78769309304926
-509.60630278059904
-504.83258716412547
-497.2101313420328
-487.36754619714293
-475.8278492786428
-463.02123726089394
-449.2985940319609
-434.9443176948273
-420.1878056217517
-405.2133745485102
-390.1686309661544
-375.1714250981142
-360.3155703312617
-345.67552050457533
-331.31018876727626
-317.2660747116606
-303.57984723069075
-290.2805122030971
-277.39127809868324
-264.931219347485
-252.9168266523565
-241.36352482987488
-230.28723159951906
-219.70602447415507
-209.6419775105127
-200.12322612758754
-191.18631882384804
-182.87892247777577
-175.2629635622123
-168.4183017591012
-162.44701586556386
-157.4782804310794
-153.67356244623866
-151.23144875793045
-11.05218772112984
-37.45903507249179
-83.50075190919287
-145.96625384410018
-218.2694424388668
-292.83470395903316
-363.1050187914137
-424.5876775489821
-474.9768557929484
-513.7266626452174
-541.4523845403703
-559.3953294358687
-569.0370322841734
-571.8609890314002
-569.2260326654277
-562.3127581873541
-552.1127137428886
-539.4399210562535
-524.9522028444014
-509.17524463106145
-492.5257427736691
-475.33200274378754
-457.85146259776064
-440.28518573435275
-422.78962628832244
-405.4860612244346
-388.4680880417725
-371.8075525214097
-355.55922229862784
-339.7644720728928
-324.4542010040932
-309.6511646204582
-295.371872825664
-281.62818185376545
-268.4286903651304
-255.78003717798777
-243.68818913816008
-232.15980102990142
-221.20372398060687
-210.83273378310886
-201.0655466144781
-191.92919025490642
-183.46181164171114
-175.7160362365525
-168.76305342359854
-162.69765707828944
-157.6444363210275
-153.76504516827558
-151.26585493194494
-15.567721598680052
-52.592386514466455
-115.97985462663229
-199.29464874683973
-291.67570333687416
-382.1112678980833
-462.38435386980854
-528.0018803468047
-577.6754023207523
-612.2304240082851
-633.5796090558381
-643.9988469156106
-645.7098024499073
-640.6818818711695
-630.5666487082569
-616.7018873095847
-600.1467890074528
-581.7270371046295
-562.0792656632954
-541.6903955744194
-520.9304960359852
-500.0793184517868
-479.34726610894865
-458.89173486886943
-438.8297264216908
-419.2475206593879
-400.2080585148296
-381.75655881349155
-363.92478286482924
-346.7342710449592
-330.19880525422326
-314.32629732267884
-299.12026341529895
-284.58101570818627
-270.706682850545
-257.4941580573135
-244.94006627991496
-233.04183791553487
-221.79897392874668
-211.2145841366044
-201.2972758600009
-192.06346681195004
-183.5402045904288
-175.76861853004468
-168.80823791140176
-162.7425872422802
-157.68661858993167
-153.7963983966951
-151.28065808411716
-22.774799584291713
-76.48555396215801
-166.03630376989054
-278.6764863396326
-396.4710485557523
-503.9531400869982
-591.894150522945
-657.2307087872383
-701.0421807015774
-726.437694800825
-737.0872777139288
-736.4502647220086
-727.4642689484674
-712.4835642403996
-693.329753816649
-671.3807462108774
-647.6628988435007
-622.9321842825939
-597.7404486001655
-572.4872854476959
-547.4596544089637
-522.8616788943417
-498.83683986648833
-475.48439922702494
-452.87149722786165
-431.0420301084579
-410.02314143568617
-389.82994943164385
-370.4689730453863
-351.9406010518035
-334.24086171297716
-317.3626879922419
-301.29682920543945
-286.0325300437114
-271.55807895468166
-257.86131755245674
-244.93019907469693
-232.75348492480137
-221.32167158082189
-210.62824237120506
-200.67133609065183
-191.45591532702858
-182.99650881194384
-175.3206248043624
-168.47305850611772
-162.52163799707614
-157.5654588598666
-153.74698166751907
-151.2686557235236
-34.985316655158755
-116.20000320231134
-246.37199068097541
-400.05459038701827
-548.0523591886908
-670.2953438820618
-759.1563838050939
-815.8673188243066
-845.839479808481
-855.3536621885248
-850.0455699283899
-834.4329532412064
-811.9277277657603
-785.0177398848969
-755.4767438932936
-724.5493259041311
-693.0973648380584
-661.7100666007676
-630.7842785294129
-600.5821506064304
-571.272133949947
-542.9579608582553
-515.6990490129983
-489.52482025300844
-464.44471145093075
-440.45513724881647
-417.5442946564683
-395.69543799929835
-374.88906879459
-355.1043563619613
-336.3200153047929
-318.5148042128558
-301.66776830601464
-285.7583220467203
-270.76625254313717
-256.6717185938997
-243.45532193969433
-231.09833527019754
-219.58318376935122
-208.89428980850676
-199.01939737256583
-189.95148465004712
-181.6913428555512
-174.2508623121081
-167.65711286492174
-161.95767634507735
-157.22867506384193
-153.58837314237994
-151.2195972139337
-57.30410087023847
-186.6155605801314
-381.2798076881063
-590.4948328406891
-768.5254139769522
-894.9649146725815
-970.2349482074667
-1004.6580322351233
-1009.8060455855525
-995.3473447994502
-968.4393512958088
-934.0718723860027
-895.6047412446326
-855.248071435248
-814.4273441427981
-774.0424885906561
-734.6455878705599
-696.5606588994891
-659.963654172813
-624.9356305639716
-591.4979689141328
-559.6356261447947
-529.3124119987156
-500.4809459133912
-473.08906010400517
-447.0838251163066
-422.413982992897
-399.03131338381115
-376.891284951897
-355.95322909402455
-336.1801962450827
-317.53860443526844
-299.9977573261
-283.529289624253
-268.1065885687583
-253.70423954078635
-240.2975511646473
-227.86223046701082
-216.37430140454146
-205.81038839063487
-196.14851412920368
-187.36957349353895
-179.45961563866408
-172.41296368190143
-166.23604726617918
-160.95189037168174
-156.60638948889886
-153.28076094518616
-151.11846581700854
-102.9568439193777
-321.4238961670044
-619.6341845322788
-894.2297815730217
-1086.0787569721588
-1188.915698600321
-1225.2034610401054
-1218.307685452564
-1185.7703321779638
-1139.1771735340553
-1085.745620833154
-1029.8125346417746
-973.9056039068646
-919.4428943348589
-867.1718892376905
-817.4401487296125
-770.3608754457571
-725.9137847081523
-684.0063241102384
-644.5105918429382
-607.2853379478931
-572.1887962459856
-539.0858804509922
-507.851925539166
-478.37432511343513
-450.5529026475107
-424.29953582110545
-399.5373540602466
-376.19970449366474
-354.2290030452353
-333.5755382267363
-314.19626488169337
-296.05360728365133
-279.11428190771693
-263.3481479869747
-248.72709811186877
-235.22401224321987
-222.81181818396837
-211.46273209000276
-201.14779610474915
-191.83688597811164
-183.49941958172002
-176.10602426312903
-169.6313373921644
-164.0577851528866
-159.37956695681828
-155.6060318176112
-152.76807091375736
-150.9427394827069
-208.83804296486008
-607.7518615796624
-1056.896145364326
-1377.8284960938206
-1521.959046999173
-1548.7714021422848
-1510.9011454466138
-1441.8106145793413
-1360.1024610062032
-1275.5386938774232
-1192.9786531273446
-1114.656157480818
-1041.4264089050607
-973.4386866023292
-910.4968505824324
-852.2515082168981
-798.3012371679397
-748.2445342749415
-701.705049204148
-658.3424083226807
-617.8553835072514
-579.9811256500876
-544.4925072994358
-511.19468686903747
-479.9214857603043
-450.53187804383487
-422.9067297152529
-396.94583488986774
-372.56524798688105
-349.69488598851035
-328.2763629921479
-308.2610147064668
-289.60807009330506
-272.2829294752853
-256.2555126816637
-241.49864769959677
-227.98648136380007
-215.69291166825766
-204.5900708885048
-194.64693661563163
-185.82822260568335
-178.09380990135278
-171.39911238173843
-165.69686407307765
-160.94064204288034
-157.08944148782473
-154.11011065574854
-151.97331399390563
-150.6585104603804
-522.7270569681356
-1260.9294498641175
-1886.8790158318284
-2083.8477302890383
-2057.0295341541228
-1938.966342094895
-1793.8624803421988
-1648.440805483993
-1512.7702479824393
-1389.7845379593589
-1279.5091030961205
-1180.8810470131134
-1092.5268334697096
-1013.0831326058828
-941.3176008711721
-876.1627185524011
-816.7132486808567
-762.2099603942231
-712.0196262706307
-665.6155261335008
-622.5600516612819
-582.4898233301686
-545.1032272302033
-510.1500901036721
-477.423164266598
-446.7511081753651
-417.99268490084376
-391.03194212529354
-365.7741759519252
-342.14251402550644
-320.07498059598055
-299.521927548689
-280.443731771309
-262.8086713658152
-246.5909020790833
-231.76846206881402
-218.32123939318444
-206.2288450859342
-195.46835001491792
-186.0118742139548
-177.82407760296414
-170.85971528815716
-165.06162423834357
-160.35983109184957
-156.67284458537637
-153.91208130563396
-151.9876367278188
-150.80303833645743
-150.2184958567438
-1510.1257396811961
-3014.79653530948
-3175.323470624792
-2916.8754013087178
-2585.4540168791714
-2280.330271467922
-2020.2622842518122
-1802.6357442193935
-1620.3035135042282
-1466.2784096844487
-1334.7749819691708
-1221.2436455008403
-1122.1627539837211
-1034.8114424159894
-957.078999666502
-887.3173439685245
-824.2301686564028
-766.7904011593167
-714.1787345740768
-665.7376359766016
-620.9366934633574
-579.3462943793274
-540.6174593958609
-504.4662565376574
-470.6616475894407
-439.0159250352957
-409.37711640272755
-381.62288993782374
-355.6556087101693
-331.39826193604165
-308.7910611349734
-287.7885306686015
-268.35695135757624
-250.47203501692448
-234.11671873585163
-219.2789717539249
-205.94950568689802
-194.11927149113717
-183.77661551538773
-174.9039560564696
-167.47384018237716
-161.44426970090382
-156.7532934429214
-153.31315372357687
-151.00494145101314
-149.67597844117083
-149.14337261649558
-149.20154270275034
-149.58571454921832
-6794.696685528274
-5652.2918721621345
-4415.402301794414
-3536.472847235462
-2915.487213502612
-2466.767168156726
-2130.3176950529487
-1869.6646920587846
-1661.8743894366748
-1492.1521442767068
-1350.6106731672141
-1230.4391290510166
-1126.8163430226014
-1036.248520285346
-956.1518200564507
-884.581628800064
-820.0522417165582
-761.4138808299842
-707.7670094256871
-658.4014766522469
-612.7525431111508
-570.3686035252554
-530.8871554308666
-494.0166724681626
-459.5227655216394
-427.21749678288114
-396.951037353916
-368.605082081515
-342.0875899416669
-317.32852633475727
-294.2763593029935
-272.8951142136052
-253.16182687342786
-235.06425710869212
-218.59873565983253
-203.7680175554671
-190.5790044304169
-179.0401746765072
-169.1585203759368
-160.93572818070425
-154.36324993476586
-149.41577868873705
-146.04247107255617
-144.1550541173047
-143.61182620307895
-144.19688461222574
-145.59581827859162
-147.37439043481982
-148.96429766381377

SCALARS STRESS_XY float 1
LOOKUP_TABLE default
0.08876067461728952
8971.926872365375
-0.4610201555291384
0.0894099926289287
0.17751644284349616
0.3550132231303217
0.5324705317061599
0.7098682663704047
0.8871858852872799
1.064402261124446
1.2414955349198937
1.4184429709611879
1.5952208122300457
1.7718041366532904
1.9481667149008106
2.1242808699627993
2.3001173391855527
2.475645138814036
2.650831432596987
2.825641404866513
3.0000381391439683
3.1739825039988006
3.347433046620528
3.5203458962380987
3.6926746792623346
3.864370447711601
4.035381623414342
4.205653960284862
4.375130527661224
4.543751717334706
4.71145527775052
4.878176379472988
5.043847714794456
5.208399636562844
5.3717603415525055
5.533856101980789
5.694611551410921
5.8539500318208635
6.011794007140948
6.168065550868205
6.3226869152733265
6.475581190557607
6.626673063035934
6.775889681448195
6.9231616435691965
7.06842411326686
7.21161808190768
7.352691789112779
7.491602317561144
7.6283173818744565
7.762817331657372
7.895097392437403
8.025170173494402
8.153068474120158
8.2788484275728
8.402593028097579
8.52441609654855
8.644466751500655
8.762934465707175
8.880054808712245
8.996115997225132
9.11146640446646
9.226523217672739
9.341782478965822
9.457830805587333
9.575359162443178
9.695179159282063
9.81824247437088
9.94566417210571
10.078750901996637
10.219035253226416
10.368317919281909
10.52871983480156
10.702747127299215
10.893372650062977
11.104139123889393
11.33929065766078
11.603941847397966
11.904297083194749
12.247937592530247
12.644200838928342
13.104687307704793
13.643945238150494
14.280407410475526
15.037690471149462
15.946424608768336
17.046873755481073
18.392758981316508
20.056956418125274
22.140193398334066
24.78468489205892
28.196192977620793
32.68102096234521
38.71075441832268
47.04143028904511
58.94719432983473
76.71700158697021
104.82481778902442
153.2353029004435
247.91084904525945
483.505402368001
1229.6560704515591
5387.895088709875
5761.595356909894
1816.8176668382253
825.606371184898
460.3759141141669
295.73331825923617
206.76917467398954
153.18469121672666
118.39669990589434
94.56664097304169
77.55887480230027
65.01682456196363
55.51583962890089
48.15316446453005
42.33426201061373
37.654702223382785
33.831672174782824
30.662619563840302
27.999403131612198
25.731644024563174
23.775717943457977
22.067306052614786
20.5562489790802
19.20292562279986
17.97566250651723
16.848852856959258
15.801573115252486
14.81655395819301
13.879408208212016
12.978048190725644
12.102245645126992
11.243301644869863
10.39380434886601
9.54746028180327
8.698991300624154
7.844095317652435
6.979475056873384
6.102946608236395
5.213649701797371
4.312396647377692
3.4022205325435526
2.489222311968432
1.5838835861258604
0.7031319007899222
-0.1263326739645459
-0.8625266698282288
-1.4388500347740991
-1.748883740894307
-1.6301315727438341
-0.9501643369405475
-0.9499242867218096
-1.6266963289296443
-1.7346352745204345
-1.403357022418175
-0.7954935190447816
-0.019946599199104298
0.8526320729265442
1.775245849662178
2.715653680247714
3.6511600821131185
4.5654913037738485
5.446859206652788
6.286720628335597
7.078956356237167
7.81931006811109
8.504992060526385
9.134389563455878
9.706847324580059
10.22249545756
10.682109833701507
11.086995544482441
11.438887327458165
11.73986302205332
11.992267523881114
12.19864560209572
12.361682507734015
12.48415164380544
12.568868765907979
12.61865228640039
12.63628930168941
12.62450697536429
12.585948904128417
12.5231560813646
12.438552061408132
12.334431918166246
12.212954589833828
12.076138206409519
11.925858005391499
11.763846460104654
11.591695265750065
11.410858852447934
11.222659124518913
11.028291152970068
10.828829578333664
10.625235510840579
10.418363743740148
10.208970121474234
9.997718930935875
9.785190206985124
9.571886863551779
9.358241581294688
9.144623398520341
8.931343967987168
8.718663451219065
8.506796035706149
8.295915068611794
8.086157804696196
7.877629775737839
7.670408791355124
7.4645485842943735
7.2600821168661
7.0570245667671205
6.855376010878921
6.655123827376862
6.456244835939247
6.258707195965744
6.062472082228233
5.86749515668032
5.673727854862537
5.481118503227861
5.289613284023407
5.099157063132605
4.9096940938893985
4.721168610739333
4.533525325018413
4.346709832653284
4.160668944515406
3.9753509490749854
3.790705814914416
3.606685340498829
3.4232432587415715
3.2403353013518563
3.057919228994846
2.875954832558185
2.6944039077468833
2.5132302093479693
2.3323993870537567
2.1518789049034783
1.9716379486950664
1.791647322537203
1.6118793362288781
1.4323076854692496
1.2529073260635288
1.0736543430496002
0.8945258167919758
0.7154996851578335
0.5365546036552096
0.35766980417318905
0.17882495155277656
0.17616458604593896
0.3461159847851254
0.5089338095340254
0.6645833417093676
0.8130325533300076
0.9542523524258841
1.0882167743148388
1.2149031219596393
1.334292057955801
1.446367650770915
1.5511173786713306
1.6485320943863884
1.7386059532054077
1.8213363076452784
1.8967235719448197
1.964771058607811
2.025484790044893
2.0788732881278706
2.1249473437906796
2.1637197693590817
2.1952051358266114
2.2194194971935026
2.236380104379747
2.2461051106011167
2.248613270123297
2.2439236327606435
2.232055236025952
2.213026797056711
2.1868564062286096
2.1535612247044886
2.113157188464954
2.0656587207051
2.0110784547622855
1.9494269706645921
1.880712547478049
1.8049409339068
1.7221151402139374
1.6322352538558187
1.5352982820509826
1.4312980237772774
1.3202249743175138
1.2020662653074239
1.076805642744477
0.9444234860997873
0.8048968710135764
0.6581996781379313
0.5043027505941865
0.3431741020257959
0.17477917713553934
0.3495487164060112
0.6863293906665314
1.008578144139729
1.3163641922901044
1.6097515947436825
1.8887987347679818
2.1535579038630797
2.404074987732108
2.640389249380195
2.8625332045846914
3.070532584716579
3.264406381566454
3.4441669684384517
3.6098202920778624
3.7613661295402148
3.8987984041578314
4.0221055551104286
4.131270954576081
4.226273367245225
4.307087446667044
4.373684263101357
4.426031858061867
4.464095820309366
4.487839878717399
4.49722650770245
4.492217540496528
4.4727747859520175
4.438860644881999
4.390438721630246
4.32747442699026
4.249935568176322
4.157792921645986
4.051020784941549
3.929597502826194
3.7935059633017
3.642734059120844
3.4772751096626577
3.297128238341058
3.102298700265986
2.892798154529994
2.6686448757144925
2.4298638985897902
2.176487090029062
1.9085531422703181
1.626107481263841
1.3292020839280136
1.0178951986492137
0.6922509633723959
0.35233891577361653
0.6990588112499336
1.3725833961612737
2.0170466760873285
2.632587501053873
3.2193343375527377
3.777404229813494
4.306901971733387
4.807919481953974
5.28053537351896
5.724814708550702
6.140808927707952
6.528555943722871
6.888080387769756
7.219393997323631
7.522496133853602
7.797374418765905
8.04400547622857
8.26235577129265
8.452382532386782
8.61403474736908
8.747254222568174
8.851976694742405
8.928132985936742
8.975650192108734
8.994452896471529
8.984464398383675
8.945607949430531
8.877807988390346
8.780991366751747
8.655088556747419
8.500034833590426
8.315771423713617
8.102246610751154
7.8594167904052314
7.587247465468128
7.285714171686851
6.95480332476324
6.594512978526002
6.204853483708566
5.7858480364971285
5.337533105417262
4.859958724809669
4.353188643071261
3.817300313412553
3.2523847147487337
2.6585459907055444
2.035900894817457
1.3845780304273583
0.704716874631788
1.0484913838705663
2.0586861057657257
3.025295248252083
3.948528132966416
4.828578326242739
5.665622086836449
6.45981713077638
7.211301701956934
7.920193935301008
8.58659149797024
9.210571493301504
9.792190611077055
10.331485507172594
10.828473395498246
11.283152834547009
11.69550469117863
12.065493264367646
12.39306755170562
12.678162642039341
12.920701217887446
13.120595151922133
13.277747182519207
13.39205265343228
13.463401303370027
13.49167909225682
13.476770050821193
13.41855814069563
13.316929112535504
13.17177235001112
12.982982687562004
12.750462189504473
12.474121878431946
12.153883400339119
11.789680613447533
11.38146108775168
10.929187501242037
10.432838918259698
9.892411935244336
9.307921677868594
8.679402633267111
8.006909300316789
7.290516640234687
6.530320309593382
5.726436657235711
4.87900246661028
3.988174425077543
3.054128302106654
2.077057819043595
1.0571731940163605
1.3978069757634626
2.7445605585050155
4.03321204373834
5.264042477321075
6.437311561043996
7.553255593983899
8.612085838900262
9.61398729796018
10.559117879911138
11.44760793913174
12.279560165772228
13.055049804781033
13.77412518121264
14.436808508425395
15.043096955532455
15.59296395098842
16.086360698810683
16.523217884495544
16.903447548385905
17.226945104705326
17.49359148522922
17.70325538726519
17.85579560647992
17.951063435809203
17.988905112329597
17.96916429471744
17.891684554343907
17.756311863460112
17.562897064384238
17.311298303600505
17.001383414747725
16.633032234190278
16.20613883264747
15.720613645921127
15.176385487110583
14.573403422022576
13.911638488469189
13.191085239570633
12.411763090053316
11.573717443552036
10.67702057821079
9.72177226694319
8.708100108067118
7.6361595415855446
6.506133526142318
5.318231851725454
4.072690063648468
2.769767974210229
1.409747739700297
1.7469652920033316
3.430128219461537
5.040683044687346
6.578984202116509
8.045358902544763
9.440104578000678
10.763486861274139
12.015738079842581
13.197056241357942
14.307604485848024
15.347510977918953
16.31686921083429
17.215738693875323
18.044145993267136
18.802086097034252
19.48952407418217
20.106396998770112
20.65261611021367
21.12806918161403
21.53262306884387
21.86612641415012
22.128412478727988
22.319302080033676
22.438606610602015
22.486131115670148
22.46167740812003
22.365047199769744
22.196045228615354
21.954482362089795
21.640178656356923
21.252966352079607
20.79269278650042
20.259223201298628
19.65244342549235
18.97226241138589
18.21861460075592
17.39146209767044
16.490796622831148
15.51664122328258
14.469051710082262
13.34811779523776
12.15396389830925
10.88674959211003
9.546669656098013
8.133953705759913
6.648865366473833
5.091700960609927
3.4627876775446627
1.7624811979318287
2.0959249237423316
4.115308458106721
6.047591304076861
7.893203355718274
9.652541037891003
11.325964267421654
12.913794060670648
14.416310762477437
15.833752868267181
17.16631640870965
18.414154864142933
19.577379574506484
20.656060609596764
21.65022806355148
22.559873737564967
23.384953174804266
24.125388011900956
24.781068612202212
25.351856946915685
25.837589691172397
26.23808150329394
26.553128457068876
26.782511597853308
26.92600059425293
26.983357458923003
26.954340312945305
26.838707168626804
26.63621970674569
26.34664702466284
25.96976933172109
25.505381568733707
24.95329692795817
24.313350249223852
23.585401267575396
22.769337686417536
21.865078049117173
20.872574380887876
19.79181457093044
18.62282446347075
17.365669624806806
16.020456751820205
14.587334686064066
13.066494996338683
11.458172091666949
9.76264282600091
7.9802255558659185
6.111278612661614
4.156198152208865
2.1154153460009155
2.444643071299996
4.800018029380599
7.053816223066759
9.206545477110026
11.258673458715796
13.210624170859344
15.062775206567695
16.81545573359968
18.468945175623723
20.023472553126606
21.479216444847843
22.836305528757027
24.094819660684443
25.254791447744466
26.31620827380966
27.279014734578258
28.143115439972846
28.908378142940208
29.574637154765398
30.141697008380447
30.609336332653402
30.977311902019576
31.24536282778236
31.41321485872571
31.480584759883453
31.44718474002395
31.312726899287547
31.076927669292754
30.739512218675756
30.30021879726896
29.758802992246867
29.11504186924771
28.36873797078254
27.51972314352018
26.567862164599216
25.513056135886544
24.35524561347403
23.09441343757493
21.730587226454375
20.26384149580203
18.69429936314723
17.02213379512222
15.247568353558325
13.370877395418137
11.392385680659611
9.31246734159122
7.131544167741702
4.850083161208139
2.468593319369865
2.793075269139808
5.484170558781324
8.059232835470521
10.518850717173173
12.863565454457763
15.093866975420198
17.210190809096552
19.212915850945695
21.10236293015979
22.878794135354994
24.542412852470978
26.093364466924168
27.531737680797523
28.857566395343458
30.070832108857424
31.171466780496722
32.15935611130509
33.034343195048905
33.79623249289523
34.444794087609694
34.979768174908955
35.40086975130947
35.70779346005383
35.900218558363186
35.97781397104178
35.940243397008345
35.787170436793176
35.51826371006083
35.13320193275931
34.63167892429678
34.013408514951536
33.27812932316682
32.425609372079506
31.455650513424235
30.36809262534006
29.162817549050363
27.839752727428163
26.398874505862306
24.84021105406277
23.163844864868874
21.369914783069355
19.458617515930907
17.430208574627162
15.28500259376596
13.02337297556653
10.645750804405404
8.152622977261457
5.544529496653265
2.822059874886028
3.141175112530834
6.167676032126382
9.063711100840434
11.829952973433834
14.467019124811117
16.975467470035117
19.3557929837351
21.608425276069923
23.73372707812378
25.731993585933154
27.603452609479447
29.34826547119833
30.966528597195946
32.458275743796776
33.82348080207878
35.062061123802835
36.1738813130683
37.15875742966781
38.016461551943955
38.7467266489577
39.349251714151634
39.823707114888805
40.16974011478742
40.386980527851605
40.47504646554739
40.43355013996116
40.26210368780101
39.96032498128135
39.52784339264566
38.964305479789374
38.26938056076359
37.4427661439291
36.484193180180554
35.39343110228158
34.170292614485305
32.81463819391381
31.3263802623242
29.705486984436448
27.951985646307733
26.06596556412409
24.047580470622584
21.897050323966738
19.614662481020734
17.20077217475042
14.655802233912453
11.980241982031519
9.174645252538486
6.239627457426648
3.1758616489875378
3.4888939867424114
6.850440291898465
10.06711520940737
13.139679042598196
16.068828416307703
18.85519149982879
21.499324354172288
24.00170835327453
26.362748624624082
28.582773450635358
30.662034568987302
32.60070830818654
34.398897493505494
36.05663405782374
37.5738822921507
38.950542671733885
40.18645619475502
41.281409172833506
42.2351384146344
43.04733674645894
43.717658816478846
44.24572713224235
44.63113828342457
44.87346930492835
44.972284138071096
44.927140149440454
44.737594669317545
44.40321151291013
43.923567448987455
43.298258580852725
42.52690660475797
41.60916491067303
40.54472448922062
39.33331960684934
37.9747332095879
36.468802013527984
34.81542123665976
33.014548924094115
31.066209815151275
28.97049869691076
26.727583185718792
24.337705874391837
21.801185779510583
19.11841902060913
16.289878660642522
13.31611363532124
10.197746698754528
6.935471312747912
3.5300474087963134
3.8361807998149295
7.532364541878561
11.069302901342411
14.447847794596985
17.668778188340443
20.7327949584148
23.640517001762518
26.39247854340966
28.989127575528087
31.430825361027747
33.71784693121339
35.85038250515137
37.82853975672687
39.652346855485526
41.32175620786227
42.83664882639689
44.19683925653634
45.40208099308718
46.45207232099076
47.34646251822548
48.08485836189193
48.666830882237846
49.09192231219117
49.359653183534576
49.46952952408475
49.42105011258418
49.213713750505036
48.8470265116535
48.32050893226045
47.633703104620714
46.78617963742231
45.77754444573826
44.60744533248348
43.27557832127662
41.781693698337314
40.125601718419745
38.30717792615685
36.326368040471166
34.18319234577723
31.8777495294162
29.41021990018231
26.78086791880956
23.990043967297684
21.038185279943704
17.925815956406016
14.653545974597108
11.222069119943015
7.6321597475939145
3.884668295311685
4.182981719561872
8.213344861935397
12.070124803581201
15.75426937283265
19.26664331499362
22.608022825529464
25.779091469697207
28.78043742199062
31.612551953091724
34.27582908716031
36.770566349400426
39.096966521916755
41.25514032454612
43.24510993746288
45.06681328319887
46.7201089871688
48.20478193845895
49.52054937540654
50.66706742376452
51.64393801904801
52.450716148789326
53.08691735419304
53.55202543462208
53.84550030262362
53.96678594032994
53.915318411510015
53.69053388624904
53.29187663753658
52.71880697066922
51.970809047077736
51.047398564755724
49.94813025665409
48.67260516736465
47.220477666330325
45.59146215313281
43.785339407183045
41.80196252998109
39.64126242391774
37.30325274663598
34.788034275037994
32.09579860759552
29.226831128605884
26.181513153197685
22.960323167025535
19.563837071093943
15.992727338686116
12.247760989631278
8.32979628627001
4.239778056193483
4.52923991623181
8.893271735732183
13.069423788659192
17.058744426648598
20.862187829889212
24.48060825927771
27.914755833515887
31.165273754648002
34.23269689922281
37.11745168766998
39.819857141382144
42.34012703489247
44.67837304963918
46.83460883624018
48.80875489330316
50.60064417301835
52.21002832674802
53.636584507221315
54.87992264836013
55.93959314782006
56.81509488218862
57.50588348981356
58.01137986055345
58.330978776273916
58.46405765062406
58.409985320078945
58.1681308413738
57.737872253532515
57.11860526424151
56.30975182152389
55.31076853220272
54.121154887908595
52.74046125790755
51.16829660587346
49.404335884790704
47.44832706009502
45.30009770634186
42.959561118083585
40.426721869707116
37.70168075284408
34.784639013880245
31.675901807907604
28.37588077950642
24.88509567489206
21.20417488522161
17.33385481660442
13.274977979606176
9.028489689105891
4.595433265728631
4.874895311562201
9.57202959359886
14.067034359147023
18.36106338129254
22.45516412141838
26.350271752172212
30.047204849094705
33.54666266336695
36.84922388148898
39.955346772878826
42.8653706235108
45.57951835159949
48.097900200630285
50.420518405935724
52.54727273268878
54.47796678594749
56.212314997015966
57.749950194598654
59.09043167436725
60.23325368570712
61.17785425969731
61.923624308608005
62.46991693242758
62.81605687291416
62.96135006140118
62.9050932106466
62.64658340477139
62.18512764465915
61.52005230841475
60.65071248774259
59.57650116190415
58.29685816990509
56.8112789399992
55.119322933609354
53.2206217565169
51.114886885919724
48.80191695685145
46.28160454539801
43.553942379223166
40.61902889918326
37.4770730883679
34.12839847735003
30.573446227408205
26.812777186344842
22.84707280548295
18.67713480096993
14.303883438340623
9.728354316949103
4.951693529647567
5.219884336613461
10.24949637473317
15.062782063917908
19.661005753580124
24.04531218859985
28.21672036289483
32.1761191909904
35.924264897524274
39.4617800181708
42.78915390016814
45.90674458785169
48.81478197697085
51.51337212096134
54.00250257377681
56.282048656126236
58.3517805354619
60.211371014621875
61.86040392897051
63.29838305793881
64.52474146314236
65.53885117158299
66.34003312946288
66.92756735813732
67.30070325040933
67.45866995129596
67.40068677213878
67.12597359185601
66.6337612026997
65.92330156071634
64.99387790246567
63.84481469050369
62.475487349230846
60.88533175102314
59.07385341000726
57.040636336221446
54.78535149806767
52.30776483494827
49.60774475491539
46.68526904426884
43.540431108094936
40.17344545198677
36.5846523061261
32.774521284577666
28.743653964094797
24.49278525875006
20.022783460499348
15.334648809840536
10.429510456854082
5.308621670960245
5.5641396995665415
10.925543111861849
16.056482951966103
20.958339521780587
25.632358968446916
30.079647037309073
34.30116479781475
38.29772622881539
42.069997542698864
45.61849812261133
48.943602944596414
52.04554635449948
54.924427069613635
57.58021427747666
60.0127547065856
62.221780548390996
64.20691811539524
65.96769712612448
67.50356051509286
68.81387467296653
69.89794002972954
70.75500190186884
71.38426153191199
71.78488725578363
71.95602574067149
71.89681324214213
71.60638683430034
71.08389557127751
70.32851154158648
69.33944077867903
68.11593399208998
66.65729708275599
64.96290140402698
63.03219372690308
60.86470586340246
58.46006389584762
55.81799695297671
52.938345465982025
49.82106882834321
46.46625237378938
42.87411357665734
39.045007368456695
34.97943045418476
30.67802450166786
26.141578067704806
21.37102711684488
16.367453980794796
11.132084600881079
5.6662838932706645
5.907590166231844
11.600033543715089
17.047943070448788
22.25282055772668
27.216017745181283
31.938730031625425
36.421992340077
40.666676988124784
44.673493427654186
48.44298971297327
51.97555555380487
55.271426808207934
58.330691271120465
61.15329561710847
63.73905335937007
66.08765369263341
68.19867109395702
70.07157556268133
71.70574338932974
73.10046835160888
74.2549732448453
75.1684216631997
75.8399299569682
76.26857929970171
76.45342780682988
76.39352265479141
76.08791215557282
75.53565774683443
74.7358458614026
73.68759964243357
72.39009047163496
70.8425492770581
69.04427758487816
66.99465827617118
64.69316600428724
62.139377221711264
59.33297975752257
56.27378187714559
52.961720745799056
49.396870206015954
45.57944776772083
41.509820697043466
37.18851107812732
32.61619970970995
27.793728687156307
22.72210250996092
17.402487545299877
11.836209671332647
6.02474991836419
6.250160355561474
12.272823759834774
18.036958015727205
23.544192134296388
28.795987657432033
33.79363245609314
38.538236830438535
43.030731766017844
47.271869192950106
51.262224090249305
55.00219827491392
58.49202571473433
61.731779204853225
64.72137825156899
67.46059801188434
69.94907914354157
72.18633842800969
74.17178003786842
75.90470732947148
77.38433505182525
78.60980187358794
79.58018314011068
80.2945037830494
80.75175131512805
80.95088885148141
80.89086810764584
80.57064233110334
79.9891791296493
79.14547316378568
78.0385586735602
76.66752181150366
75.0315127523686
73.12975754849687
70.96156969530286
68.52636136552817
65.82365426336199
62.853090040674616
59.61444020663672
56.10761545033
52.33267428331847
48.289830895292226
43.97946210149258
39.40211324633169
34.55850291362043
29.449526279699747
24.076256932803314
18.439946970898106
12.542025180478936
6.384093091178401
6.59177055238237
12.943761882920697
19.02331254458118
24.83218451780914
30.37195331659797
35.6440019564086
40.64951739789578
45.38948930205741
49.86471092529266
54.07578197760905
58.023113265077754
61.706932937767796
65.12729416599161
68.28408407222392
71.17703375222152
73.80572922628305
76.16962317080316
78.26804729097205
80.10022520628159
81.66528573259379
82.96227645682164
83.99017751227844
84.74791547503767
85.23437731270721
85.44842432817241
85.38890605024125
85.05467403116455
84.44459551866439
83.55756697437917
82.39252741467465
80.94847155121356
79.2244627076476
77.21964548706775
74.93325815974649
72.36464473425156
69.51326666651619
66.37871415119064
62.96071692753348
59.25915451857201
55.27406580738721
51.00565783870472
46.45431371762703
41.62059945998921
36.50526963246137
31.109271603893536
25.433748213810496
19.480038649951013
13.249677314291176
6.744390447378424
6.932336541513653
13.612687797021657
20.00678025766846
26.11651466021065
31.943584553907385
37.48947055359555
42.7554372495607
47.74253258925752
52.45158953835833
56.88322982390578
61.03786956055795
64.91572656131056
68.51682913682663
71.84102619324067
74.88799844538201
77.65727057169661
80.14822414792528
82.3601112087402
84.2920682996887
85.9431308956772
87.31224807621037
88.3982973619287
89.2000996309093
89.71643404607167
89.94605293793484
89.88769659763531
89.54010794481661
88.90204704335127
87.97230544326985
86.74972033198922
85.23318847942977
83.42167996107082
81.31425164067659
78.91006038903151
76.20837600791572
73.20859381880265
69.91024686413198
66.31301765540331
62.4167493870985
58.221456518173525
53.72733460490129
48.93476924993908
43.844344012696006
38.456847106298426
32.77327668707147
26.794844524077437
20.522977818557273
13.959318928153413
7.105722737942532
7.271769466171549
14.279432927183219
20.987123365630666
27.39688600763612
33.51053631745438
39.32965466653539
44.85558384743393
50.08942922481382
55.032061308091826
59.68412052580926
64.04602398021801
68.11797396212498
71.899968009493
75.39181030035161
78.59312417922425
81.50336562711442
84.1218374982424
86.4477043604374
88.48000779155072
90.21768200037492
91.65956965675721
92.80443783210288
93.6509939673214
94.19790180064055
94.4437972018962
94.38730387277622
94.02704888349538
93.36167802576432
92.38987096882164
91.11035621019607
89.521925815131
87.62344993824905
85.4138911182207
82.89231833036533
80.05792077430874
76.91002136289922
73.44808986543754
69.6717556428494
65.58081989498965
61.17526732103841
56.455277073265485
51.42123286219476
46.07373204871725
40.41359353599093
34.441864250771644
28.159823981630552
21.56898832098239
14.67110943914826
7.468174401688507
7.609975715009314
14.943820079768429
21.964092550000604
28.67298843969126
35.072448738005846
41.16415534201772
46.94952932970587
52.42973203994624
57.60566871917803
62.477994489677855
67.0471223929984
71.31323326527746
75.27628720514329
78.93603640357043
82.29203911572735
85.34367456729616
88.09015860318294
90.53055990270043
92.66381660304482
94.48875319146318
96.00409754554369
97.20849801971896
98.10054049439566
98.67876532213138
98.941684121164
98.88779638145053
98.51560586134285
97.8236367636197
96.81044968773058
95.47465736060491
93.81494015159015
91.83006137639845
89.51888239215901
86.88037747943045
83.9136484980584
80.61793929179778
76.99264980151901
73.03734983007229
68.75179238153605
64.13592647610223
59.189909318029194
53.914117668934466
48.3091582529298
42.37587699294775
36.11536685147421
29.52897402249878
22.618302196752104
15.38521459939388
7.83183347868281
7.94685684219213
15.60566335241361
22.93742693386172
29.94449836053517
36.6289473891881
42.99255872169365
49.03683121075822
54.762980047982694
60.17194166559486
65.26438107911983
70.04070139787109
74.50105523336414
78.64535774171708
82.47330104626715
85.98436979917977
89.17785765569595
92.05288445239326
94.60841389967591
96.84327161941405
98.75616337994947
100.34569340231165
101.61038263344078
102.54868690318766
103.15901490193089
103.43974593467782
103.3892474241577
103.00589215026845
102.28807522553056
101.23423081556086
99.84284862034488
98.11249013530622
96.04180471113975
93.62954542812668
90.87458479409062
87.77593026514242
84.3327395747032
80.54433583995345
76.41022239570609
71.93009728278417
67.10386729396947
61.931661453259565
56.4138437755648
50.55102512468551
44.34407395582637
37.79412569862145
30.90259050583726
23.671159063665712
16.10180613156583
8.196791454748748
8.282309525601594
16.26476812386324
23.906854177234496
31.211078962031642
38.1796437678395
44.81443677638089
51.11703339455066
57.08869974994412
62.730399049297134
68.04280049664399
73.02629046795758
77.68098564328949
82.00674780564704
86.00320002718166
89.6697439782005
93.00557811213106
96.00971649993974
98.68100810944253
101.01815634883177
103.0197387182659
104.68422643803241
106.01000394732121
106.9953881914038
107.63864763814101
107.93802098658786
107.89173554923877
107.49802530683749
106.75514864852846
105.66140582103498
104.21515611850516
102.41483484814917
100.25897010748118
97.74619940543823
94.87528615222702
91.64513603180188
88.05481325609081
84.10355668144348
79.79079574618304
75.1161661632835
70.07952527413188
64.68096693900736
58.92083580752146
52.79974077834685
46.3185674218506
39.47848910410147
32.28097651491063
24.727805267763262
16.821061206935184
8.563143026378196
8.61622556874208
16.920931135264595
24.872090715241217
32.47238068261896
39.72413602428588
46.62934834484909
53.18966754457763
59.40640684496357
65.28055082832829
70.8127661543225
76.00341461702777
80.8525682117025
85.36002589032859
89.5253316985725
93.34779400423535
96.82650554786102
99.960364069677
102.74809329241519
105.18826406710977
107.27931551696231
109.01957604309813
110.4072840848195
111.4406085542661
112.11766889219238
112.43655471581434
112.39534505175158
111.99212716684364
111.2250150253069
110.09216741331078
108.5918057811881
106.72223185800053
104.48184509375285
101.8691599811709
98.88282330070727
95.5216313204978
91.78454696659819
87.67071695783906
83.1794888762521
78.31042811553893
73.0633346186059
67.43825928157142
61.435519864598035
55.055716211272795
48.299744538023525
41.16881051422377
33.664440812379056
25.78849276703651
17.543161742805534
8.930985774814676
8.948491952427474
17.573940675149146
25.832842157409353
33.72804188750703
41.26200997490346
48.43684051504391
55.25425485510942
61.71560839788344
67.82190057225645
73.57378759525656
78.97159765322374
84.01534813604573
88.70476456972636
93.03930090937433
97.01816087490829
100.6403200353277
103.90454837483718
106.80943310337855
109.35340150559912
111.53474365463653
113.35163484994658
114.80215767109412
115.88432357107887
116.5960939628823
116.93540078061046
116.90016652236699
116.4883238036777
115.69783446872084
114.52670832104803
112.97302154567473
111.03493490020657
108.71071175332018
105.99873604539172
102.8975302371767
99.40577329936511
95.5223187777249
91.24621294541299
86.57671302764471
81.51330545245224
76.05572404623044
70.20396805486985
63.95831982948445
57.319361972078156
50.28799369119632
42.86544607029997
35.05329590428333
26.853477712866265
18.26829349387797
9.300419735612591
9.278990942883297
18.22357688183539
26.78880386953288
34.97768979904062
42.7928404330585
50.236450390680446
57.310308272194064
64.01580551740045
70.35394858423635
76.3253740311853
81.93036609015286
87.16887632475695
92.04054498265998
96.54472366989624
100.6804989985522
104.44671688695328
107.84200722274048
110.86480863308225
113.51339314239148
115.7858905349643
117.68031227748907
119.19457489361162
120.32652271920007
121.07395000089379
121.4346223322193
121.40629745085786
120.98674544506517
120.17376843847559
118.96521983926824
117.3590232508358
115.35319114801194
112.9458434241933
110.13522591071654
106.9197289606812
103.2979061745893
99.26849332527274
94.83042751462865
89.98286656461919
84.72520861054153
79.05711182550432
72.97851416239672
66.48965295319954
59.59108415615272
52.28370098955607
44.56875163793677
36.44785566199313
27.923018689323353
18.99664490991925
9.671546849287182
9.607600264137298
18.869612178834977
27.73966176141498
36.22094170803739
44.31619289730962
52.02770729127726
59.35733522137224
66.30649660872699
72.87619565918061
79.0670385705553
84.87925379354142
90.31271439777805
95.36696211105333
100.04123262185186
104.33448176265586
108.24541222357422
111.7725004820291
114.91402367291774
117.66808616509684
120.03264565247463
122.0055386110048
123.58450501530336
124.76721224979818
125.55127818828241
125.93429345180093
125.9138428878065
125.487526341277
124.65297881258209
123.40789011611977
121.75002416635182
119.67723802580598
117.18750085168793
114.27891287316575
110.94972452186555
107.19835582171625
103.02341612230288
98.4237242327873
93.39832897998107
87.94653017603348
82.06789993789539
75.76230425303108
69.02992463406565
61.871279650004794
54.2872460631407
46.27907924054243
37.84843244731155
28.997374566567725
19.72840572931447
10.044470277775773
9.934193342221073
19.511811859610805
28.685093305607907
37.45740650072659
45.831625640499766
53.810135436669086
61.394840900744924
68.58718126837026
75.38814755345635
81.79830321809598
87.81780744944382
93.44644054718056
98.68363094374314
103.52848340579897
107.97980799732329
112.03614942111977
115.69581639732883
118.95691078219647
121.81735617770423
124.27492583109623
126.32726967228002
127.97194038592275
129.2064184613629
130.02813620791324
130.43450076416786
130.4229161667966
129.99080457635523
129.13562678472596
127.85490215003702
126.14622812008079
124.00729951384409
121.43592773364223
118.43006007576211
114.98779929634608
111.10742357231311
106.78740697293487
102.02644052731924
96.82345393655747
91.17763793730681
85.08846727557567
78.5557241964622
71.5795222981411
64.16033053671666
56.29899710316022
47.9967728254919
39.25533367944711
30.076801919899864
20.463765274075637
10.419293568200997
10.258639630070231
20.149934839460236
29.62476881520889
38.68668653956472
47.338692248315525
55.5832571752381
63.42233220794182
70.85736489686364
77.88932024908003
84.51870473589443
90.7455929492382
96.56965635664257
101.99019362675926
107.00616202725357
111.61620943404618
115.81870653315725
119.6117788439043
122.99333824389083
125.96111373012371
128.51268120622322
130.64549214136215
132.3569010017967
133.6441914091261
134.50460102931788
134.9353452429619
134.93363968908832
134.4967218109765
133.62187156295528
132.30643146096943
130.547826177204
128.34358188874265
125.69134559335816
122.58890460126473
119.03420639952425
115.02537906712816
110.56075239232027
105.6388798107082
100.25856124244068
94.41886686051501
88.11916176946823
81.35913151515125
74.13880828257965
66.45859756986881
58.31930505373485
49.722163285604914
40.66885777823469
31.1615519620765
21.202910409495733
10.796119644458134
10.580805023875577
20.783734595563566
30.558353011553443
39.908379938851624
48.83694465857086
57.346596817638954
65.43932237374585
73.11656411248433
80.37924610401247
87.22780146452672
93.66220279501415
99.68199468670711
105.28632770918045
110.47399333133
115.24345926793387
119.5929047938468
123.52025562227384
127.0232180026527
130.09931175546768
132.74590202484796
134.960229593347
136.73943966584733
138.08060908995338
138.98077203695098
139.4369442196017
139.44614577034017
139.00542294415902
138.11186884452553
136.7626433977613
134.95499282073277
132.68626883792
129.95394790751772
126.75565071169757
123.08916215320919
118.95245208009158
114.34369693136487
109.26130246057497
103.70392764986366
97.67050987662921
91.16029133686567
84.17284666458498
76.70811161659304
68.76641261565152
60.34849686397275
51.455562653752494
42.08928941287697
32.25186693211596
21.946023128427562
11.175049606276652
10.900552379888996
21.412960315646338
31.48550691475355
41.12208328122418
50.325936760152814
59.09968514648957
67.44533638301797
75.36431305664375
82.85748098861494
89.92518121223401
96.56726464056958
102.78312874643777
108.5717556073533
113.9317507081658
118.86138194327384
123.35861831674242
127.42116790125687
131.04651468496658
134.23195400551785
136.97462634315153
139.27154931720943
141.11964780151806
142.51578214235622
143.4567745266279
143.93943360729344
143.96057754558444
143.51705567567183
142.60576903552783
141.22369003782245
139.36788157670333
137.0355158785587
134.22389340927913
130.93046214593394
127.1528375062678
122.88882320757895
118.13643329499752
112.89391553969655
107.15977635975347
100.93280736063689
94.21211352915824
86.99714304357573
79.28771858535448
71.084069954371
62.38686769926166
53.19725737966699
43.51689397848117
33.34797587886392
22.693277716577605
11.556181312489429
11.217742143753384
22.037358279597843
32.405890094250466
42.32739482481893
51.80522861458101
60.84206467906063
69.43991727370226
77.60017069361643
85.32361252088168
92.61047033273356
99.46045109405614
105.87278248123653
111.84625541934892
117.37926716100243
122.4698642920539
127.11578511430835
131.31450092746186
135.06325581035858
138.35910458225018
141.19894870735783
143.57956998870503
145.497661977701
146.9498591031271
147.9327635955228
148.4429703495676
148.47708992609353
148.03176994674547
147.10371517690092
145.6897066260932
143.78662001924454
141.39144400602586
138.50129848060345
135.11345337876975
131.2253483040641
126.83461331053431
121.93909113557716
116.53686113322144
110.626265106359
104.20593517534918
97.27482375185573
89.8322356092611
81.87786195610583
73.41181632688749
64.43467200578937
54.9475005936568
44.95191121827037
34.45008977310508
23.4448374514536
11.939607723062945
11.532233105451379
22.65667349999217
33.31916331924066
43.523918256107834
53.274391370011045
62.57329576682183
71.42263341134903
79.82372921474712
87.77726952220951
95.28334412361568
102.34149092179803
108.95074242061202
115.10967323536138
120.81644788195686
126.06886816669899
130.86441957346614
135.20031612831775
139.07354331011234
142.48089866864134
145.41902990592828
147.8844702697831
149.87367120064104
151.38303225964285
152.40892844743084
152.94773509774924
152.99585059622072
152.54971723169544
151.60584053495066
150.16080749676905
148.21130408382433
145.75413248644153
142.7862285375405
139.30467973631931
135.30674429351083
130.7898715888847
125.75172439465898
120.19020317145142
114.10347268735478
107.48999114451742
100.3485419226063
92.67826796463028
84.47870873811098
75.7498396036855
66.49211331460317
56.7065032551407
46.39454790359898
35.55839587727307
24.200850784556643
12.325414973799639
11.843883292439607
23.270651649325085
34.2249916529857
44.71126704913491
54.733012945753174
64.29296362646677
73.39308684882472
82.03462367091007
90.21813282958661
97.94353869078952
105.21018180653579
112.01687114458323
118.36193710425925
124.24328449384855
129.65844472087596
134.60462653315594
139.07876474384068
143.07756647590878
146.59755456736548
149.63510788613453
152.18649840988434
154.24792502978585
155.81554413578826
156.88549713243523
157.45393511777309
157.51704103177403
157.07104964402777
156.112265802968
154.63708140964133
152.64199160794502
150.12361070042644
147.07868830385328
143.5041262526177
139.39699674002088
134.75456215830607
129.57429705834062
123.85391259928394
117.59138379739395
110.78497981187536
103.43329742441914
95.53529777797664
87.09034634020013
78.09825594731392
68.55933266513321
58.474424077549266
47.84496947803159
36.67305129726636
24.96144695298583
12.713680154886811
12.15255101626105
23.879041305474434
35.1230480399056
45.889069497745254
56.180704571477875
66.0006864047995
75.35092289180061
84.23254296993132
92.64594761471854
100.59086444060517
108.06640482915141
115.071122541987
121.60307283103005
127.65987113090642
133.23875050569674
138.33661712249403
142.9501031342225
147.07561647127113
150.7093871628087
153.84750993141807
156.48598292581903
158.62074257350892
160.24769464627695
161.36274173458207
161.96180741959236
162.04085751392898
161.59591881254624
160.62309585222462
159.11858622303112
157.07869500640385
154.4998489327985
151.37861085706328
147.711695142258
143.4959845231911
138.7285489890014
133.40666718060356
127.52785074420908
121.08987201607596
114.09079533668995
106.52901220549239
98.40328038879461
89.71276698511194
80.4570953337374
70.63639552291596
60.25135811613344
49.303290567037344
37.7941756366357
25.726730963014568
13.104468762312484
12.458096088480287
24.481596548675398
36.01301743786104
47.05697449398916
57.617108275850576
67.69612439289669
77.29584100406451
86.41724239007895
95.06053737621724
103.22522137786186
110.91014086106684
118.1135590525653
124.83322179743092
131.06642254722001
136.810065562555
142.06072652985978
146.81470991909887
151.06810254401694
154.8168229253038
158.0566661971289
160.78334443512136
162.99252241655444
164.67984894832043
165.84098401376636
166.47162209285082
166.56751210116823
166.12447447080982
165.138415958312
163.60534281353281
161.52137297684675
158.88274799103073
155.68584531944572
151.9271917532724
147.60347856843322
142.71157905848833
137.2485690224577
131.21175072708306
124.59868079253698
117.40720236795053
109.63548186931318
101.28205044688356
92.34585023290335
82.8262852924286
72.7232770607103
62.03732390046801
50.769564251066406
38.9218426700429
26.49677788579829
13.497831790469576
12.760381223537205
25.078079947217716
36.89460155460806
48.21465813463123
59.04190542961888
69.37899051710187
79.22760720193756
88.5885577784446
97.46181978985412
105.8466164073368
113.7414890733306
121.14437110343518
128.05266101624304
134.46329445822226
140.37281370887922
145.77743388553685
150.67310511379003
155.0555700848372
158.92041658005726
162.2631247030697
165.07910871597335
167.3637535262714
169.11244601151404
170.32060149753244
170.9836858212838
171.097233509608
170.65686268947397
169.65828741365954
168.09732813751577
165.96992111765482
163.27212752313983
160.00014305402334
156.1503088516354
151.71912445998078
146.70326355979992
141.09959314569826
134.90519675272472
128.11740226299042
120.73381473455547
112.752354594818
104.17130142787401
94.98934346126747
85.20563272026409
74.81984566820148
63.83224898923908
52.24376999481285
40.056070948197174
27.271626401781816
13.893802431749902
13.059273647843627
25.66826597323967
37.76752425391874
49.361831246299815
60.4548264591847
71.04906224837598
81.14606810351162
90.74642162150937
99.84982462259443
108.45518285888153
116.56068779181052
124.1638989729723
131.26182565083883
137.85100634035757
143.92758522968106
149.48738445431854
154.52597143887124
159.03872068495343
163.02086956708047
166.46756788036097
169.37392106178356
171.73502717620315
173.54600791576553
174.80203400511834
175.49834553221157
175.63026783473657
175.19322366382178
174.18274242000857
172.5944673114552
170.4241613208304
167.66771288701403
164.3211422102839
160.380609076776
155.8424230701275
150.70305699601664
144.95916428989605
138.6076011094258
131.6454537321232
124.07007178446896
115.87910772267655
107.07056286572484
97.64284014917476
87.59480362247783
76.92584455246048
65.63595382189163
53.72580012325428
41.196813244936955
28.051271528954718
14.292392347963142
13.354646935685356
26.251944893368023
38.631537702896324
50.498247930020504
61.85566186174478
72.7061950903151
83.05116681964866
92.89088119871677
102.22471394084448
111.05120248068661
119.36813795208523
127.17265733877107
134.4613342531341
141.23026693262972
147.47516220407252
153.19141434738523
158.37417798738784
163.018434348512
167.11905041730037
170.67083076569816
173.6685619903866
176.10704991429702
177.9811498731646
179.28579056973882
180.01599211880495
180.16687902648596
179.73368894624716
178.71177813227962
177.0966245681378
174.8838297856115
172.06912040756822
168.6483504487731
164.61750539208631
159.97270902601792
154.7102339828968
148.82651685623864
142.31817870236597
135.182051645109
127.41521220224614
119.0150218404776
109.97917513976215
100.30575580801859
89.99330063351097
79.04087129211254
67.44813374183185
55.215444734557934
42.34394475601635
28.835656468525453
14.693587477392589
13.646383096087945
26.828927184554217
39.48642934108255
51.623715238196795
63.24427466783045
74.3503378240327
84.94296089570962
95.02211905462963
104.58680487015599
113.63513017404196
122.16442943622332
130.17136279400444
137.6520169994119
144.6020027072316
151.01654671483877
156.89057797639572
162.21880644310872
166.9957940196967
171.21601716813785
174.87392092847756
177.9639643556643
180.48065758644333
182.41859094848604
183.7724567006796
184.5370641480494
184.70734900538264
184.27837798929014
183.24534970104372
181.60359292129777
179.34856347432589
176.4758408356947
172.98112565438643
168.86023933937966
164.1091268242908
158.7238635716771
152.70066781275443
146.03591893943747
138.72618287369994
130.76824513419405
122.1591522022095
112.89626165736074
102.97730140683998
92.4004381707597
81.16435520727275
69.26833906551276
56.712374938957495
43.497249957349936
29.62466350046731
15.097343340736424
13.93437493515071
27.399048530912797
40.33202976215949
52.73810411164428
64.62061451647193
75.98154971169191
86.82164253946397
97.14047605475696
106.93659519543212
116.20762177561757
124.95037060671356
133.16096464757368
140.83494723097618
147.96738959971827
154.55299220718487
160.58617848536156
166.06118004945
170.9721125844303
175.3130419365639
179.07804020550694
182.26123189272877
184.8568304044572
186.85916542854488
188.26270189973687
189.06205143667808
189.25197727500426
188.82739383278175
187.78336212988
186.1150823421994
183.8178848061675
180.88722080118453
177.31865443002638
173.10785689069417
168.25060439033956
162.74278089396503
156.58038682942566
149.7595547850542
142.27657313910163
134.12791845064518
125.31029731819692
115.820698275619
105.65645414277238
94.8153150805679
83.29553241328601
71.09595307571318
58.21612431571105
44.65640803303317
30.418103862231938
15.503579809077987
14.218528723294728
27.962175464505293
41.16822160936906
53.84136171991244
65.98473352989903
77.60001988814197
88.68756140347736
99.2464773264724
109.27479212864286
118.76956523084013
127.72702138829499
136.14267935659026
144.01147663607287
151.3278883136884
158.086038282383
164.27980140937086
169.90289553514012
174.9489625054179
179.4116377584056
183.28460830127293
186.56165920500115
189.2367090196425
191.30383475804788
192.75728731103413
193.59149834057922
193.80107984784104
193.38081773001775
192.32566072728113
190.6307062184274
188.29118435419542
185.30244202418163
181.6599281385192
177.35918167159122
172.39582386503747
166.76555592207552
160.46416344761815
153.4875287974649
145.8316523976795
137.4926839810363
128.46696455982595
118.75107981390065
108.34192541593988
97.23678464339284
85.43341843345809
72.930167823906
59.726068485273814
45.820976786499415
31.215706545708642
15.912175297467932
14.498767199784908
28.5182117210216
41.994949600779826
54.93352536967655
67.33680420166183
79.20608920164038
90.54125022615366
101.34086142605787
111.60234461335659
121.32211554585075
130.49573029201164
139.11802898042208
147.1832744454513
154.68528354465283
161.6175492328345
167.97335182003945
173.74585820427336
178.9282082416578
183.51358778615153
187.4952882874614
190.86675317049423
193.62161152634872
195.75369991769094
197.2570733372767
198.1260065560432
198.3549872560211
197.93870246429123
196.87201989074654
195.14996582551322
192.7677012756853
189.7204980200513
186.00371623622527
181.612785311364
176.54318938892243
170.79045913027983
164.3501710849016
157.21795596579963
149.38951701994708
140.86065956511737
131.62733263376668
121.68568352191781
111.03212588132614
99.66342181714464
87.57677825690375
74.76995763636542
61.241402701845075
46.99037495396704
32.017105951168205
16.3229603499285
14.77503294976768
29.06710539084694
42.81223181661002
56.01473816864213
68.67713954217842
80.80027480264118
92.38345367972022
103.42461312084903
113.92047958554616
123.86673395587329
133.25817582370877
142.08888408868384
150.35237105063845
158.04172749588244
165.1497566441673
171.66909522743634
177.59232039740397
182.91204159187174
187.62097691628304
191.71201400478046
195.17825570480323
198.01305127260508
200.21001406907374
201.76302700249772
202.66623717574842
202.91404136155774
202.50106405185738
201.42212990939103
199.67223249591888
197.24650116547093
194.1401679983117
190.34853661517215
185.86695465648341
180.69079164108032
174.81542383608934
168.2362276763996
160.9485831686825
152.94788860341575
144.2295877773711
134.7892107964807
124.62242938515138
113.72512746849428
102.093487617116
89.72409374574553
76.61405023371529
62.7611173833534
48.163862848162985
32.82182834247259
16.735710583768537
15.047292196417402
29.60885695781908
43.62017239931199
57.08526666023687
70.00621576278776
82.38329782441262
94.21516082536527
105.49900023316557
116.23074266985623
126.40523180607372
136.01641277430937
145.05751160548783
153.52120649598078
161.39978809134502
168.68530641090348
175.3697025160367
181.44492352513527
186.90302008304485
191.73622588568418
195.93701932709126
199.49816776646304
202.41275529630042
204.67419522572965
206.27622877156503
207.21291167261688
207.47859061337653
207.06787146324888
205.97558141195077
204.19672711657861
201.72645097576734
198.55998761807083
194.69262264026497
190.11965556164984
184.8363688769257
178.83800499584643
172.11975275592283
164.67674508497538
156.5040692743234
147.596791200572
137.94999470204272
127.55883717329068
116.4186222839222
104.52489055341009
91.873528316815
78.46089539296504
64.28397151247258
49.340521272737746
33.629277055262435
17.1501389642653
15.315539054673003
30.143528331826403
44.41897584271878
58.14552068067505
71.32469782605844
83.95611455514477
96.03764163810871
107.56561505926291
118.53504386015274
128.93981971106223
138.77292395506606
148.02662812998253
156.69268434228013
164.7625023244331
172.22731053076078
179.07829919501114
185.30674386218698
190.90410849599044
195.8621278335046
200.17286919279587
203.82877442517184
206.82268313209525
209.14783863139073
210.7978784561935
211.76681140330996
212.0489833184911
211.63903391928434
210.53184701804736
208.72249652532156
206.20619059465452
202.97821622143132
199.0338865369321
194.3684929509888
188.97726419710338
182.85533422663724
175.997720786855
168.39931640159097
160.05489335426967
150.9591241501772
141.10661880506834
130.49198016908014
119.10987834347864
106.95514507893967
94.022888853242
80.30863110696097
65.80846386302856
50.519228664030294
34.43871642219052
17.56588738783143
15.579800301655569
30.671252999649763
45.20896307515487
59.19607573013381
72.63346824212995
85.51995156523769
97.85248813839911
109.62642095717966
120.83570881527224
131.473162638845
141.5306780147256
150.9994593374847
159.87023145132977
168.13343521669213
175.77940406006408
182.79851924145146
189.18134226931656
194.91872358144408
200.00188726966059
204.42249223758017
208.17267072891525
211.24504563995842
213.63272842687888
215.32929973574886
216.3287751227813
216.6255583983231
216.2143852282751
215.09025966882956
213.24838630442295
210.68410061417057
207.3928001169843
203.3698787495209
198.61066682105195
193.1103787703813
186.86407082814674
179.86661056509374
172.11266018435657
163.59667529527158
154.31292078499138
144.25550527958234
133.41843555594465
121.79569212403152
109.38132704098214
96.16958483783982
82.15504722987028
67.33280203533434
51.698636438550125
35.24925439239164
17.98251755779495
15.840140728206652
31.1922474382516
45.99058957576152
60.237698201103186
73.9336595578755
87.07634533276666
99.66166075658082
111.68380479348973
123.13553649851713
134.00844165843003
144.29319406035404
153.97980613758577
163.0578642958444
171.51674489593898
179.34580762636156
186.5345638058619
193.07281797790498
198.95078196518264
204.15916131570617
208.6892147707193
212.53278800212547
215.68232339352787
218.13084806814078
219.87194269965238
220.89969388198318
221.20863298799003
220.79366452638843
219.64998701995927
217.77300939014145
215.15826575459448
211.80133143617502
207.69774285468247
202.8429238354221
197.23212072755263
190.8603485857161
183.72235053432985
175.8125723059924
167.12515382410226
157.65393958265975
147.39250946074097
136.33423149068446
124.47233797156093
111.800026177559
98.31058474620195
83.99754663680831
68.85486931636464
52.87714255048655
36.0598238401688
18.39950114475699
16.09666914583211
31.706823961051562
46.76446580781075
61.271373869444346
75.22669106662923
88.62718700752981
101.46754066418247
113.74063605193696
125.43786400482875
136.5494232030231
147.0646139056844
156.9721183500594
166.26026246153089
174.9172543400756
182.9313959031
190.29126502964218
196.98586652476024
203.0047511672695
208.33810298781907
212.97679572213616
216.91242007715948
220.13728402680718
222.64438881343784
224.42738367371743
225.4805025402493
225.79848610289696
225.37649266092166
224.21000117221794
222.2947098251574
219.62643333646668
216.20100202885692
212.01416557714202
207.06150414152418
201.33834943915645
194.83971814662692
187.5602598796313
179.49422186291224
170.63543228382983
160.97730421353083
150.51286187698418
139.23479095162782
127.13551446735659
114.20729576055378
100.44236979335011
85.8331039769061
70.37218942459974
54.05286329795649
36.86916258297491
18.816209238537027
16.349545139019018
32.21540520113389
47.53138030687056
62.298340129120874
76.51431036117765
90.17477306740018
103.27298893677677
115.8003335485641
127.74663956014737
139.10053683119955
149.8497828858937
159.9815767535318
169.48285007509293
178.34053036848684
186.54177245307613
194.0741551908874
200.925841857502
207.0857035632012
212.54340616776713
217.28946204117275
221.31524879771678
224.61299776310872
227.17575541936242
228.99732141661167
230.072166955253
230.39533744090141
229.9623433156287
228.76904289163613
226.8115208776265
224.08596611067824
220.58855180492958
216.3153214175415
211.2620830234186
205.4243148923064
198.79708478183048
191.37498530089897
183.15208756123678
174.12191521932104
164.2774409130319
153.6111070127091
142.11487252767785
129.78028792924624
116.5985995610367
102.56088519632311
87.6582221602335
71.88188925103124
55.2236034560491
37.67579215362466
19.23190110956091
16.598986668571385
32.718540472558814
48.2923258252588
63.32012254519414
77.79864047588312
91.72186276678164
105.08141357128896
117.86694086007597
130.06650483867702
141.66696262002836
152.6543403090856
163.01418446528265
172.731885961662
181.79297049368586
190.18335133697286
197.88954134372977
204.89882254027358
211.19937298746072
216.7803517489561
221.63194384524746
225.74536793423732
229.1128501423873
231.7275679745978
233.5835685655323
234.67566571591473
234.99932020578473
234.55050781477746
233.3255793329225
231.32111663816582
228.53378867059598
224.9602108685557
220.59681136548372
215.43970699177288
209.4845918937331
202.72664137777463
195.16043341650348
186.77989011501626
177.5782413277285
167.54801253498454
156.68103902798396
144.9685084019887
132.40103331251595
118.96875639717551
104.66148919444558
89.46888678881314
73.38065976641664
56.386824862195006
38.47799540596145
19.645712314958267
16.845278654451832
33.21692430266221
49.04852901925092
64.33857641732035
79.08223351069694
93.27174344889202
106.89684557215939
119.94521177337839
132.40288794176217
144.25472950792494
155.48482077309455
166.07686873170246
176.01456341107138
185.28189827252456
193.86344585781583
201.74458553924214
208.91168186455153
215.3522135126423
221.05485424246416
226.00950838777337
230.20730440456276
233.640550707753
236.30265854491338
238.18803696315138
239.29196505294072
239.61044662858328
239.14005235874367
237.87775412385875
235.82075607960596
232.96632657433045
229.31163472678134
224.85359513860178
219.58872390872614
213.51300884547695
206.62179654334665
198.90969880823826
190.37052077748072
180.99721298561306
170.78184956841045
159.7156347681324
147.7889398930533
134.99137288299482
121.31188262770743
106.73890016430917
91.26051882866844
74.86471533938509
57.53961363758272
39.27379307355578
20.056642207215788
17.08878269328143
33.71141748923456
49.80148426589884
65.35593418718167
80.36813180967233
94.82830500606501
108.7240255561852
122.04070730931252
134.76210861987906
146.87082611877824
158.3487677539113
169.1775943405558
179.3391205083148
188.81566781060113
197.59036476428753
205.6473906071387
212.97216150416955
219.55145972312488
225.37350787449594
230.4279916314624
234.70603539071712
238.20013610242847
240.90406099852834
242.81271520744932
243.92198529173123
244.22856462085207
243.7297662338752
242.42332849419236
240.3072184288261
237.37943720897763
233.63783179518643
229.07991636200683
223.702706749467
217.50257087411066
210.47509777786965
202.61498779974448
193.91596622300864
184.37072267384826
173.9708785189837
162.7069845201219
150.56855104123463
137.54411315805643
123.62133307247522
108.78714227584625
93.02792591646401
76.32975179215373
58.67864629350542
40.06091944598027
20.463540924875236
17.329948097883964
34.20307111178222
50.5529923220127
66.37485970201196
81.65993799450261
96.39612503766266
110.56850261124961
124.15990616232662
137.15149759745867
149.5233258498647
161.25486107655024
172.32549001019308
182.71496205864923
192.40377807341778
201.37351615773196
209.6070913251596
217.08894813472583
223.80518752557126
229.74363088457673
234.8938258611082
239.24699957584457
242.79596565907494
245.53499201972448
247.45963642445656
248.56655690083002
248.85330371946173
248.31809930726297
246.959611945436
244.7767285572579
241.7683313290406
237.93308236572508
233.2692200854737
227.7743706223833
221.4453771457513
214.27814972407242
206.26753816211365
197.4072301178016
187.6896767547732
177.10604819776995
165.64622111829829
153.2988008751836
140.05118075450085
125.88964097776137
110.79949026266915
94.76525280814388
77.770903617069
59.80015504810577
40.83679738148271
20.865095973765147
17.569324491495614
34.693154025250635
51.30520469843914
67.39851056852453
82.96189543048067
97.98056657622386
112.43674749516381
126.31033075659323
139.57953219983835
152.2215283035291
164.21306011612663
175.5309892700198
186.15279420641417
196.0569976314672
205.22351922736138
213.63395059310457
221.27175214793152
228.12237418444607
234.17330633166011
239.41406133584493
243.83610027621404
247.43270711674737
250.19882089031267
252.1308338666408
253.22636383236227
253.4840081732341
252.90308685940585
251.48338075404934
249.22487094721092
246.1274841049289
242.19084815529152
237.41406203477032
231.7954827089385
225.3325322729602
218.02152763260455
209.85753506570816
200.8342518607211
190.9439172136965
180.177254626603
168.52344817254084
155.97015516260075
142.5035579480996
128.10845780171132
112.76841402469822
96.46593160531508
79.1827008861061
60.8998927648093
41.59851293422959
21.259818537924655
17.807576240583924
35.18318448435144
52.06067482101848
68.43061010875499
84.27898105012393
99.5878906535469
114.33628269024689
128.50069155021615
142.05599088654043
154.97611949189155
167.2347648449279
178.80598751474366
189.6647729026635
199.78750040373185
209.15232375920922
217.73945994381407
225.53138721537078
232.5129558205756
238.67141721211743
243.99637944712424
248.4796977006205
252.11530956939617
254.89902511594033
256.82828147968996
257.9018714440223
258.1196546754239
257.4822595260677
255.99078238518092
253.64649064148713
250.4505344300481
246.40367152299612
241.5060090126969
235.75676484722936
229.15405182084552
221.69468629808375
213.37402375572847
204.18582315190773
194.12214216422316
183.17326546338913
171.32766838824932
158.5720186436817
144.89121893596845
130.26849377016026
114.68552394172002
98.12263253851627
80.55902650862622
61.97309802280686
42.34278994514771
21.646029697081214
18.045499078271924
35.674966700092206
52.82241729983529
69.47553077681042
85.61701289320605
101.22538647513197
116.2758323582767
130.74105274394006
144.59212977881054
157.79935365280454
170.33299714457414
182.1640170885988
193.26466740727966
203.609012848549
213.173337107659
221.9364433381736
229.87984896353586
236.98788003642264
243.2476730647072
248.64909419358267
253.18458691501792
256.84896011890754
259.6391283862611
261.55381605149785
262.5932358340266
262.75875186594413
262.05253582181655
260.4772236753562
258.0355794407647
254.7301711620894
250.56306343535715
245.53552991459895
239.64778858166227
232.8987620571564
225.2858648944822
216.80481962085022
207.4495032564236
197.21182613796043
186.08164507674076
174.0467131726456
161.0926689648803
147.20306800338545
132.35946035150147
116.54151795860726
99.7272162480163
81.89307462882606
63.014460937233316
43.06596502017965
22.021846766263092
18.284039357251
36.17063332492999
53.59397694470038
70.5383913323241
86.98277526265457
102.90152258691151
118.26549589146065
133.04302319132978
147.2008848508988
160.7052599920597
173.52260513879924
185.6204424269036
196.96804000287437
207.53697286099072
217.30155795737997
226.23916267930107
234.33039038649184
241.5591506062173
247.91262445817264
253.38113798475803
257.9579573029389
261.6390199593371
264.4226166762224
266.30903695678376
267.30019091235346
267.3992183167726
266.6100944058122
264.9372404265063
262.3851454873435
258.958004930611
254.6593792874157
249.49187691203463
243.45686263962173
236.55419427058382
228.7819883491447
220.13641655819157
210.61153407835405
200.19914143480497
188.88868165664812
176.6671749766138
163.51919377868182
149.4268810330937
134.37001601915298
118.32613170234832
101.27068867862161
83.17731110385436
64.01809046571105
43.763963403841736
22.385170017458208
18.52431647903781
36.67269510866253
54.379509565700175
71.62517061869228
88.38416507621531
104.6261231867585
120.31694955876902
135.41997708670422
149.8971041494724
163.7098782229065
176.82049367414436
189.1926774390098
200.79244302580724
211.5887003376593
221.553715696967
230.66342279720598
238.8975908008282
246.2398602524293
252.67766078986995
258.20202681185697
262.8073283719186
266.4909347443091
269.25282751133994
271.0951788346076
272.0219089742144
272.03823527905433
271.1502229353653
269.3643458521484
266.68706427640774
263.12442413711335
258.6816817596458
253.36295649600595
247.1709129880201
240.10647421485393
232.16856615754045
223.35389482030078
213.6567564543435
203.06888210746052
191.57931804329075
179.17434410889393
165.83743274997894
151.54925205322888
136.2877169089126
120.02809310853303
102.74315989734114
84.40343716628789
64.97748406760805
44.43227634856021
22.733670092862337
18.767649186913598
37.18409928281995
55.18387710773507
72.7428414936108
89.83036385171391
106.41057469534772
122.4436817428254
137.88730995819645
152.6978152349675
166.83152741400386
180.24588447382268
192.90042743834664
204.75763415254136
215.78357892415028
225.94841352986597
235.22667275151414
243.5974140884598
251.04420637435325
257.55498562972014
263.1217986447646
267.7404556382466
271.410113070129
274.132806526677
275.9129517861687
276.75682994269425
276.6720700227081
275.66714005082497
273.7508551485823
270.93190908646966
267.21843382636513
262.6175900293284
257.1351902789747
250.77535588126253
243.54020753135873
235.42958986098247
226.44082986464252
216.56852941632357
205.80439249328953
194.13708828791817
181.55215207830352
168.0319265116464
153.55554680323536
138.09897423934805
121.6350832683988
104.13380834666961
85.56235754716539
65.88550071900627
45.06594067571369
23.064776469025674
19.015586587977538
37.70829863314047
56.01276031866733
73.8995293482159
91.33204084613047
108.26806890436009
124.66126849468294
140.46273665335474
155.6225340274319
170.09111338781426
183.82060989976128
196.7659579792442
208.88581057134837
220.14324780914686
230.50627249660988
239.9480991099199
248.44725061621745
255.98748314584526
262.5575623762795
268.1509174938925
272.76519900313315
276.40176573140513
279.06512444527255
280.76234286395015
281.5024538232746
281.2958651608652
280.1537867687376
278.08768335107777
275.1087588409697
271.2274762396562
266.4531148755427
260.79336574224425
254.25396464924825
246.8383623737198
238.54743079915744
229.37920412320364
219.3286545683615
208.38750259231603
196.54406233037906
183.78312387209445
170.08587494317126
155.4298656025126
139.78902064081197
123.13370545686439
105.43085226429233
86.64415451858481
66.73433843113138
45.65952132725601
23.375667386011774
19.269945000841588
38.24933373923186
56.87279298748217
75.10470078866338
92.90159424465836
110.21389053546051
126.98769766560164
143.16663941991078
158.69362241215975
173.51248073687054
187.56944466131216
200.81439290337084
213.20186215281825
224.69180149067407
235.25007228825876
244.84870529497923
253.46593548211524
261.0860415851092
267.69902119336706
273.30013387175035
277.8893444880142
281.47069706413447
284.0516464909529
285.6423717542192
286.25509028214714
285.9033889452546
284.60158335690096
282.36411360834916
279.2049815339984
275.13723209865884
270.17247954356475
264.3204775066255
257.58873140812864
249.9821509155843
241.502740216083
232.14932407324721
221.91730817357603
210.798473022456
198.78080158724396
185.84834196090017
171.98110749858108
157.15501812901857
141.34188783020616
124.5094645605362
106.62153022467785
87.63806950363302
67.51551756948115
46.20709781264637
23.66326171195891
19.5328520243419
38.811931531663646
57.771722867651285
76.3693895128373
94.55343904915534
112.26575895650792
129.44375178189324
146.0224759108053
161.9367033449323
177.12281643780216
191.52048016361596
205.07404366063346
217.73364291901032
229.45599411172833
240.2048829846504
249.95136904774893
258.6737335239797
266.35720694008853
272.99351600538705
278.5802903631693
283.1203684062795
286.62103818279945
289.09324504686083
290.5507926588057
291.00955865857696
290.48674118604623
289.00014766783136
286.56753310805806
283.2059916091397
278.93140204462765
273.7579266977257
267.6975602233938
260.75972542454826
252.9509119802409
244.27435434930948
234.72974552394012
224.312984055645
213.01595276141057
200.8263286889774
187.72742523029513
173.69806868477815
158.71251305462346
142.7403983723798
125.74675939144342
107.69209298668804
88.53249409178986
68.21987142073951
46.7022555614836
23.924213269948215
19.80679960922838
39.40162418706273
58.718605797076606
77.70646829539746
96.30435255819599
114.44423622154972
132.05346220482377
149.05725904523038
165.38114381870975
180.95311302382655
195.7055464319362
209.5767714492788
222.5122588685545
234.46544309649173
245.39817950205878
255.280867389003
264.0922787109904
271.81913993194274
278.45551768135005
284.0020586266382
288.46513099998333
291.8559102515636
294.1894451025015
295.48373350200245
295.75883120029476
295.0360092439276
293.3369709670243
290.683134159783
287.09498011748184
282.5914682105093
277.1895124174908
270.9035148472883
263.7449505421044
255.7219976996218
246.83920777590555
237.09721064224237
226.4924509867672
215.01695340767395
202.65811508285765
189.39852647275498
175.21582218130231
160.08256583114874
143.96617457502524
126.82889063989431
108.62780906120219
89.31497248777092
68.83754560304112
47.138083296091445
24.154908207923256
20.094708424798462
40.02489352479871
59.724041351642896
79.13097843691298
98.17389121746677
116.77321667730642
134.84465008378083
152.3021232121926
169.06061793356955
185.03870028750333
200.16068658554502
214.35838277464313
227.5723683682446
239.7528242234726
250.85992739366864
260.863854995627
269.7444519771733
277.49062494240275
284.0995263538859
289.57559136368195
293.9294842624464
297.177004135602
299.3379907498126
300.43526278679985
300.49361193862256
299.53886853565984
297.5970475814007
294.69357845648165
290.8526171555435
286.09643668007874
280.44488902147805
273.9149308971478
266.52020490518635
258.270667899354
249.17225902865232
239.22660092405604
228.43072885587972
216.77684425401685
204.2520907202122
190.8383525202405
176.51207748766763
161.24412826901718
144.999667868144
127.7380874814859
109.41298663368617
89.97221760413055
69.35800805759406
47.50717763894156
24.351466047154027
20.400006480225805
40.689347568004166
60.80046075849104
80.66053121210201
100.18489634494952
119.28051729894976
137.8495733193235
155.79299439965615
173.01376445788952
189.4198554486047
204.92668851015824
219.45905744022733
232.95248861812848
245.35404668272662
256.6226244588328
266.72877743044717
275.6541770754696
283.39076400115687
289.9396820377096
295.3100695945319
299.5177761264973
302.5840609135937
304.5343197723277
305.3968737956767
305.2018434957482
303.980122280922
301.7624552952284
298.5786233615762
294.45672705298284
289.4225626323998
283.4990795685362
276.70590835216126
269.0589472067144
260.5699968268714
251.24643333281617
241.0909110665067
230.10108857551506
218.2693730519414
205.58268055929554
192.02221154557458
177.563243375171
162.1749438901615
145.82021231265986
128.45555610432112
110.03101468672644
90.49014317754848
69.77007149001133
47.80165626005443
24.50974509160286
20.726725847813654
41.403937921221114
61.962480953333284
82.31580002737569
102.36411107651665
121.99859293377735
141.10570339077572
159.5713855639468
177.28495566569254
194.14250250974564
210.0496774643271
224.9238054573142
238.69529779483705
251.30839173490708
262.72127706361044
272.9056948955477
281.8461084240191
289.5385502929033
295.98924827206935
301.2131219728234
305.23223048132286
308.07423589038495
309.77093233807534
310.3568755030687
309.8681343691825
308.34117592021767
305.81188444551367
302.314710301949
297.8819381229235
292.5430613419527
286.32424822479055
279.2478840965624
271.3321748483765
262.5907978842043
253.0325882377186
242.66124950419325
231.47508138409097
219.46671794563827
206.62287312904772
192.92409250015703
178.3445127943474
162.85163335500224
146.40610615189817
128.96155364845106
110.4644263551856
90.8539144405697
70.06193024593757
48.013180948740164
24.625352920953034
21.07962252046962
42.179229271962534
63.22734286468999
84.1211275056678
104.74293719218986
124.96540706602808
144.6566617016554
163.68534301538952
181.925196817531
199.25901191540493
215.58177150464795
230.80294545418857
244.8479169026267
257.6585918552422
269.19328274443217
279.42598479868064
288.345177959381
295.95228873826306
302.2599383842842
307.2900889091043
311.07217970282124
313.6413270889934
315.0366391364962
315.2996797210184
314.4731000388475
312.59944290358885
309.72011524514585
305.8745170879939
301.0993105780982
295.4278099566158
288.88947233520037
281.5094693313132
273.3083207417174
264.3015731951672
254.4995089185536
243.906872218113
232.52260390800652
220.33957664289966
207.34432688725266
193.51678206064312
178.82998422756333
163.24981454681358
146.73472555766327
129.235491247858
110.69498770801552
91.04802000744598
70.22121369976884
48.132992058021685
24.69366272444218
21.46432603005849
43.02773589347877
64.61545763021401
86.10527903665604
107.35836877220356
128.22549700306706
148.5533523432369
168.19057487282706
186.99317828038576
204.8291112731551
221.58179830298724
237.15259125695053
251.46214745796306
264.450818091019
276.078181038128
286.3218820364817
295.1759594581356
302.6488239073729
308.7610481837463
313.5431000794946
317.03312373475694
319.2748479509246
320.31567423455976
320.20497487572663
318.99261281047853
316.72768057605145
313.45744514171605
309.2264783467443
304.07594853552547
298.04304715564126
291.1605240182079
283.45630611924827
274.9531769836371
265.6684961034463
255.6139409688141
244.79525727459574
233.21200602828878
220.85729943151438
207.71752053790718
193.7720248039231
178.9928247576586
163.34426212812534
146.7826749136523
129.25607002226295
110.70381527798109
91.05636773174945
70.23505830732898
48.1519558160023
24.709836253381553
21.887527619488708
43.96434487057047
66.15109204334848
88.3023841265364
110.25415056801168
131.83128308248362
152.85533720703785
173.15179876932228
192.55650467756413
210.92091622897613
228.1160663855751
244.03512451951593
258.5946300167582
271.734530992691
283.41722192004556
293.62580407002054
302.3617984080957
309.6425270577567
315.49835256204125
319.969929703215
323.1055875474238
324.9589234743666
325.5866588072837
325.04677872211994
323.39695791366165
320.6932578890528
316.98907117470753
312.3342813669739
306.774604963148
300.351080446242
293.09967143225543
285.05095321428615
276.2298552834788
266.65543602608193
256.3406695524792
245.29222836227936
233.5102492129978
220.988073113904
207.71195382077056
193.66073259269677
178.8054803264742
163.10911154490609
146.52597811040778
129.0014539743025
110.47152574737487
90.86240735964057
70.09020051902937
48.06062602437377
24.66885418108659
22.357218728614427
45.00685240079599
67.86323486568745
90.7531200843749
113.48222348025942
135.8446853439162
157.6325105778567
178.64435292169486
198.693127115432
217.6120867168954
235.25917489691793
251.5196183468026
266.30687301785
279.56213386389004
291.2526849659431
301.3693931247774
309.92364312023756
316.9439845195175
322.47271686154033
326.5625901759113
329.2737474889134
330.6709897472374
330.82140417257347
329.7923656438399
327.6498973438064
324.457360902764
320.27443650595615
315.15634863354484
309.1532920261111
302.31001400676183
294.6655125257202
286.2528135074737
277.0987957526539
267.22403642089387
256.6426547767941
245.36213630588333
233.38312346697896
220.69916325897174
207.29640549751468
193.15324929131054
178.2399387511035
162.5181125256916
145.94031538662188
128.4494838019891
109.97842124499975
90.44928283786327
69.77309277058575
47.84932167241497
24.565554659442792
22.882995661420654
46.176648688032124
69.78669984440214
93.50621052338357
117.10453889748237
140.3391290620541
162.96714413090712
184.7561221712527
205.49300457406912
224.9911063393164
243.09483198596328
259.6821580171031
274.6650798487617
287.9883449195454
299.62686149560346
309.5821897311216
317.8784983143732
324.5583192465192
329.67836747542276
333.3056218709993
335.51379730317046
336.3802794357641
335.98354681211737
334.4010694450932
331.70764865709634
327.97414779077144
323.26655575228995
317.64532327471164
311.16491360492574
303.87351361619585
295.8128570339667
287.0181177360672
277.5178374087795
267.33385787535485
256.4812339907667
244.96810806273126
232.79553134133442
219.95722229620463
206.43925528230565
192.2196769018537
177.26805101919962
161.54493708269646
145.00131022844877
127.57793562991169
109.20471371413839
89.80001714369243
69.27004477154861
47.50822198823282
24.39468085084787
23.4764520459321
47.49959974274614
71.9635409737981
96.62033572393634
121.19534962447239
145.4020438205414
168.9563900216324
191.58983807589016
213.06001748474347
233.15866942363942
251.7166303444701
268.60597770928484
283.7396723092992
297.06917564720504
308.5805855426723
318.28982999240094
326.2374060763152
332.48306669959686
337.10076079411215
340.1740361175809
341.7920273676433
342.0460811373579
341.0270150240572
338.8229702975111
335.5177938185928
331.189872596265
325.91134060392733
319.7475796252962
312.75694177758305
304.9906292670886
296.49267563670793
287.29998143626847
277.44236537842283
266.9425993758894
255.81640230595028
244.0723729523902
231.71184744685422
218.72867082834088
205.10887624014612
190.83026896836878
175.86191616613172
160.1635468510583
143.68487072394387
126.36482860071561
108.13079178675582
88.89773249627751
68.56739230471503
47.02748043535955
24.150938199696487
24.151688826234388
49.00719247399073
74.4448831445833
100.16658584158816
125.84412017004601
151.13799097758363
175.715349733228
199.26581837252326
221.51414786821124
242.22913801655235
261.22869566727235
278.38129317380873
293.60436799400435
306.86036435970595
318.15116660113716
327.5116333675985
335.00284150086037
340.7055164189474
344.7139866476066
347.13087091132945
348.06259728905906
347.61576970323495
345.89433740943196
342.99748540942664
339.0181437018068
334.04200656999603
328.14695557454263
321.4027881166113
313.8711646996847
305.6057004100634
296.6521383791451
287.04855430835937
276.82555113906045
266.006411510921
254.60718282793982
242.6366757047429
230.09636152116514
216.9801590227208
203.27410362727014
188.95589658349837
173.99433460533982
158.34862427829722
141.96758955772955
124.78878515463569
106.73753355766006
87.72590880767726
67.65169575794694
46.39735916164662
23.829062197138953
24.9259831679084
50.73803527939829
77.29331042296458
104.23163522776433
131.1592466686707
157.67259333315576
183.38083936151503
207.9252138067755
230.99392209476153
252.33199462459982
271.7460745981014
289.104654916215
304.3346140591146
317.4150645463642
328.36953705922576
337.2574188962771
344.1653928641656
349.1994235308109
352.4776438348448
354.12432676038463
354.26499409251693
353.02261905728017
350.51481856511134
346.85189772521176
342.13559734494254
336.45839771724036
329.9032435995033
322.5435716239397
314.44353939395285
305.65837320174865
296.2347674590109
286.211282979089
275.6187030124667
264.4803155094644
252.8120977125671
240.62278519132343
227.91381218363495
214.67911395691277
200.9047851963691
186.5685914897003
171.63933410190083
156.07607168118935
139.82720652177252
122.82944767660786
105.00666862245559
86.26868326836741
66.50997066210739
45.608385439547575
23.42389739798937
25.82067455510973
52.739843705271326
80.58601021242063
108.92188260568822
137.27284138696416
165.15749074867105
192.116006994983
217.73382517132882
241.65907769411433
263.6131581184831
283.3946555387348
300.8775684950235
316.0051062001711
328.7805251932379
339.2563800650468
347.5233572321844
353.69958133766085
357.92099297273677
360.3331341240502
361.08446584296155
360.32118799470356
358.1834302893398
354.80262822800125
350.2998761750713
344.7850518623688
338.35652320784857
331.10127241466785
323.0952989665911
314.40418915214224
305.08376328395013
295.1807319568958
284.7333092837624
273.77174423479636
262.3187413835785
250.3897500209269
237.99310626100578
225.1300169359854
211.79437722747383
197.97241654501468
183.64216953117594
168.7727716076511
153.32358150422138
137.24313701695877
120.46795503455054
102.92119276861536
84.51119408813392
65.12995265591324
44.65153174431606
22.930488493199793
26.86235123689696
55.07209556541444
84.41895276944103
114.36889616247018
144.34692510466965
173.77660864037102
202.11598186058603
228.88653275251696
253.6933539044153
276.2359381246405
296.31030787384327
313.8040199410566
328.68602477612797
340.9934234258897
350.81695070633907
358.2866369083868
363.55866736506914
366.804047911532
368.1993413798417
367.9194847793462
366.1325277510979
362.9960376426678
358.6548777260785
353.2400651434249
346.86843903057337
339.6429053192778
331.653064801938
322.97606997541874
313.6775910521865
303.8128010328239
293.4273136107214
282.55802627612195
271.2338349670802
259.4761967630657
247.29952422198653
234.71139975669269
221.7126015875221
208.29693486707444
194.45086305826763
180.15293601325732
165.37301286709817
150.07128022340459
134.19706953743722
117.6874824037636
100.46583884409237
82.43997169717404
63.50039960918159
43.51842135306435
22.344184353946016
28.08445738283212
57.809621514466386
88.91250483441972
120.73663767918023
152.58149148961868
183.7541043081617
213.61475138892413
241.6123307960546
267.30719945304645
290.3812598009001
310.63676793527026
327.98639516144607
342.4374954021428
354.0734190547482
363.03424888549335
369.4987021014762
373.6682967589203
375.7543192067948
375.96769975814914
374.51161402888283
371.5764607109828
367.3367951700287
361.94979272077853
355.55484999609826
348.27398764951204
340.21277895740093
331.4615881309095
322.0969546540898
312.18300378521866
301.77279824355406
290.9095727606507
279.62781275826245
267.9541522105439
255.90807499641315
243.50240985452052
230.7436123616212
217.63182895180256
204.16073853245047
190.31716728842412
176.08047229165157
161.42169001246498
146.30244722508428
130.67363457896067
114.47384771912166
97.62760765248314
80.04338125126597
61.61143420933056
42.20156179581686
21.66075619088742
29.52949787756008
61.04752049461206
94.21905373553494
128.23113498790482
162.22507262734138
195.36444842701496
226.89345775122064
256.17985763919137
282.74001267877236
306.24657006146856
326.5215735712339
343.51908121845673
357.3016262678613
368.01440003850723
375.86015472685324
381.07681633492973
383.9188698069555
384.64284392292507
383.49671624106276
380.7127600676833
376.50322189542334
371.0581986155058
364.5451340422828
357.10943912770296
348.8758358282709
339.9501163635493
330.4210899780436
320.36255537165164
309.8351886174603
298.8882750636682
287.561241477408
275.8849637017298
263.88283736736037
251.57160644885835
238.96194808787382
226.0588132433817
212.86152224545106
199.36361291534885
185.55243713202245
171.40850006479118
156.90453523417176
142.00430862186198
126.66114680506092
110.8161881751736
94.3963633349972
77.31212120658284
59.45493128650742
40.6946092619356
20.87653137979405
31.252105286760553
64.90797935440386
100.53348654457423
137.11355652793458
173.58865896890222
208.9451995325665
242.29025299671778
272.90311742978713
300.26123464665454
324.0425003140134
344.10902819108753
360.47877379026426
373.29129106709735
382.77278880651187
389.2041127838408
392.8937389831292
394.15658635798013
393.2985497511619
390.60610648562056
386.340095078944
380.7327139330306
373.9868608427123
366.2770680225832
357.7514394691048
348.5341424925365
338.72813050333525
328.41787526216285
317.67196427320766
306.54547568728947
295.0820827206555
283.31586592543954
271.27282798267515
258.9721147654576
246.4269503952185
233.6452945295237
220.63022839537584
207.38007301272017
193.88823929982578
180.14280582474584
166.12581630136435
151.81228597193297
137.168904303132
122.15242163765534
106.70771045685318
90.76549871167462
74.23978419751509
57.02495570379077
38.992668321995815
19.988545186263845
33.32337191372235
69.54987350170653
108.10778011099463
147.71805967497792
187.06412710588899
224.9131186893776
260.21170022316926
292.14673276668617
320.1691368206296
343.9858566415795
363.52873016201596
378.91018323482297
390.3746276181814
398.25220563292464
402.91897719918546
404.76539475749485
404.17324964975256
401.5002433535184
397.0708378377908
391.17191698747433
384.0518962414692
375.92213341092304
366.9597415019939
357.3111386822503
347.09586965150476
336.4103901416522
325.33162402627727
313.9201863673102
302.2232225663172
290.27685017928053
278.108211473178
265.73715588259574
253.17757552211305
240.43841627938775
227.52438349615016
214.43635604473923
201.1715165438979
187.72319908067078
174.0804495005589
160.22728740773866
146.1416538239663
131.79402447597766
117.1456666770558
102.14651886857746
86.73267759358667
70.82348867109171
54.318259019374494
37.092633295942264
18.994713716599957
35.837073293963186
75.18250119650318
117.27159838145796
160.47640216280968
203.1487197237483
243.78430175589892
281.14535988651335
314.3294320649484
342.78537625465464
366.28676577572423
384.87760642385103
398.8054406527061
408.45404187383036
414.28378146063625
416.783750400897
416.4366071373652
413.69512773002765
408.9684300146537
402.61555689219847
394.9442516891944
386.21311501236073
376.63574729851996
366.3858695405657
355.6027384208228
344.39642193158954
332.8526831436294
321.0373449101095
309.0000899448641
296.777700597097
284.39677029242773
271.8759312920409
259.2276464230861
246.45960945203603
233.57579231052176
220.57716907861874
207.4621375200633
194.226649671127
180.8640538645808
167.36464180760368
153.71488603702844
139.89634539138225
125.88420939782775
111.64544740248725
97.13652622859892
82.30066326232159
67.06459295013863
51.334846660948685
34.99358059316745
17.894033123755225
38.918778975039615
82.0855814538206
128.46180773049727
175.9522215863124
222.47760316782322
266.1988685819487
305.67247327358575
339.92336509347626
368.44217791290083
391.12673978972015
408.19262861035475
420.0750982339915
427.3384167255428
430.60155549422393
430.4832290287462
427.56530321782526
422.3715033543602
415.3576836192029
406.91011398108674
397.3488451654939
386.9339277630757
375.8729236207351
364.3286875105708
352.4268018742921
340.26233179801574
327.9057556911157
315.408044294344
302.8049278963899
290.120425521121
277.3697224084666
264.56148171812526
251.6996686139916
238.78495331011644
225.81574646927984
212.78890682033403
199.7001476882213
186.54415662442665
173.3144305632171
160.00281783437342
146.59874776992854
133.08811838641776
119.45180271290086
105.66372525204628
91.68845320357246
77.47824521586622
62.969507894599616
48.078632478933635
32.69722583170716
16.68681270765085
42.739473943483475
90.63894625309302
142.26545429494098
194.88924223861656
245.86704827045224
292.95020452684037
334.4782121191067
369.4449337560434
397.45712885965867
418.62295456546326
433.410504820866
442.5083063516387
446.7073596246993
446.81280487779145
443.58510410401226
437.7061365437133
429.76401835354625
420.2506656704735
409.56717631570996
398.0333824102091
385.89909229033236
373.35546622993957
360.54564161897144
347.57417585840324
334.5151607179489
321.4190289395385
308.3181617906721
295.2314441041799
282.16792120197783
269.12970324871844
256.1142453615546
243.11611121502082
230.12830674340233
217.14325030917257
204.1534270070851
191.1517577723713
178.1316985614315
165.08707082537168
152.011611437395
138.89821768460666
125.7378503185572
112.51804444095643
99.22096405145781
85.82092238922674
72.28127985356983
58.550630384247405
44.558204822863075
30.208466156974264
15.374953512033601
47.53641174546253
101.367591303141
159.48342148382656
218.27964641220478
274.3711503146741
325.0172956816822
368.35418787957167
403.4296137934244
430.0877625314874
448.77214776464007
460.3097896673113
465.719770255697
466.0669140717797
462.36401383426465
455.5159607913267
446.29527045311625
435.3385488730667
423.1553469714369
410.1432206411691
396.60494541407627
382.7654746894109
368.7873716281791
354.7841772145303
340.83161164678506
326.97674062719716
313.24534633020374
299.6477764038961
286.1835369941167
272.84486834331074
259.61950624293206
246.49279622254312
233.44929317366058
220.47394848930105
207.552960022324
194.67433695337596
181.82821151106643
169.00691183539232
156.2047945457602
143.4178211521288
130.64284857492237
117.87658969716495
105.11418375751202
92.34729722847385
79.56165330697569
66.73386471663612
53.82742765028514
40.78773840989692
27.536037850406075
13.962290013164107
53.645905124739784
115.01169553758186
181.22643337151555
247.46164157757136
309.35468177219025
363.59528195054185
408.18270096856554
442.377968426945
466.45412177520495
481.365408996461
488.4304487943708
489.08188882836066
484.6975692369718
476.50473010446063
465.53899912213313
452.63914364189384
438.4621095100144
423.50746924202406
408.14446444366797
392.6378383941146
377.17064834468135
361.86345085558924
346.78991399635663
331.98922764728275
317.47579935662253
303.24673056287156
289.28752273298363
275.57639731464894
262.0875445428697
248.79355233539914
235.6672109762
222.68284256597696
209.81726556879346
197.05047294608977
184.366075992077
171.75154383110765
159.1982495711242
146.70131748447
134.25925055628264
121.8733034242032
109.54655079285853
97.28258368619994
85.08374237693994
72.94876250755357
60.8696694274962
48.82771197653585
36.78810004892232
24.69333339842178
12.455021592920284
61.556485762524204
132.63840863355077
209.06256403241431
284.2588917530564
352.582239664641
410.11180280034125
454.8826435342136
486.6517249981551
506.4123266039727
515.863427043298
516.9668280768147
511.6428141699712
501.5981283305972
488.25402144291354
472.7382094962701
455.9113548681261
438.40808565536247
420.68069867166184
403.0394471786968
385.6868996142351
368.74585912290036
352.2813224765262
336.3173529183019
320.8498207110386
305.85589343046
291.3010277785744
277.1440735953243
263.3409708427155
249.84740978429954
236.62073456994256
223.62129899852536
210.8134272740474
198.16608885842717
185.65336212916492
173.25473401912916
160.95526020842323
148.7455913101372
136.62185383366437
124.58535981256604
112.64210514963239
100.80200270301121
89.07777921424969
77.48344029172092
66.03216737506322
54.73344790217822
43.58915575862524
32.588214530011136
21.69944258824659
10.862274384860415
71.99816068885004
155.82576180497927
245.24811932370426
331.17821291142945
406.3157615593457
466.20064300787226
509.2799458825733
536.286499356892
549.3567561103827
551.2221989466876
544.6338577197522
532.0361666289725
515.4335948484817
496.3777700479528
476.01608797422125
455.1631661596298
434.37373886700243
414.00710577722526
394.2798888458634
375.3072039893466
357.13377078787977
339.75687686326097
323.14302711524965
307.2398362216693
291.9844118767721
277.3091904318469
263.14594817973233
249.42852295283797
236.09463627116799
223.08709781005217
210.35459338912523
197.85219803273748
185.5417112492517
173.39187808913312
161.3785333900445
149.4846854024325
137.70053696777242
126.02342652410984
114.45765695472198
103.0141675370686
91.70999254445793
80.56743720312399
69.61288136235805
58.87508040570977
48.382752572289895
38.161106213946816
28.22678000298123
18.580511546500645
9.196855514495379
86.09851216262507
186.97551904448432
293.09516302558166
391.6822617004342
473.39007359579523
533.5710450968758
571.8366230721823
590.6720115186326
593.9260748308633
585.6655028065201
569.5158294974852
548.397131296526
524.5020338313615
499.3894126748195
474.1143564265313
449.35412526328395
425.5140935201207
402.8103267474945
381.33098672598027
361.0805549936774
342.010935889969
324.04291206836336
307.0806853926915
291.0215543560704
275.7622227407045
261.2028077632331
247.24930093711185
233.815007542454
220.82132896288985
208.19813829685575
195.88391980231629
183.825786652965
171.97945169178624
160.30919694157134
148.78786565035094
137.3968828068415
126.12629444569421
114.97480159189388
103.94975116008507
93.06703422482329
82.35083305265906
71.8331523820992
61.55306294993273
51.555559577878455
41.889856813521625
32.60676211734774
23.754448628713227
15.371555284383668
7.476295192794414
105.66900616988252
229.86571259140925
357.56333439128207
470.5386211582212
557.1787083429251
613.6451811180151
642.1282416679642
648.0370252619879
637.5976373194399
616.4192713366562
588.9256654350227
558.3134763015523
526.7438499052025
495.5910046859708
465.66866650550816
437.40927167838726
410.99554783008557
386.45275680392984
363.7113236348314
342.6483073482109
323.11424421952387
304.95010623011433
287.9976968705955
272.1057587932751
257.13332676432015
242.9513483244508
229.4432478584825
216.50487714652377
204.04414061392956
191.98048100154492
180.24434357212039
168.77669234275226
157.52862206459753
146.46108917408657
135.54476980718715
124.76004042037619
114.09706465503456
103.55595766538346
93.14698607190257
82.89074937622328
72.81828044857636
62.97100348904232
53.4005002775853
44.16804812108363
35.34385846855884
27.005761144880942
19.23661228865632
12.118916502347439
5.724324817857449
133.7613626789603
290.6661079231135
446.21173986681094
574.175968680662
661.2216111106256
706.7144588700763
717.9053381706979
704.6853493340117
676.1935755694346
639.4640531278018
599.3324384573045
558.8573346573535
519.8247679830811
483.1735894311801
449.3074544696524
418.3074254756111
390.0703794360055
364.39617604890424
341.04097915901684
319.74885406180374
300.26971562979344
282.36886219902993
265.8314292606756
250.4638588543587
236.09368754788986
222.56845368762995
209.7542093162528
197.533925799624
185.80596102154848
174.48268207329997
163.4892929345867
152.76289041689262
142.25175636345344
131.9148850125285
121.72173827555771
111.65221608512303
101.69682209922603
91.85699556474795
82.14556751285673
72.58728487536203
63.21933418165416
54.09179740218657
45.26800218031002
36.824798880332494
28.852876854828224
21.457175627944334
14.75693730200401
8.883635823285935
3.9730226203855965
175.822261381714
379.88984067529145
570.6723810328225
710.7296698726427
787.9626020029813
810.1673363636071
793.5583563233496
754.0109130106732
703.4205607493899
649.4309948611151
596.4521534305031
546.7581804624205
501.3259490156228
460.3925150216128
423.80016613992063
391.20030794937156
362.1694190844602
336.2722670354891
313.0943284222972
292.25665699617696
273.4210290340963
256.2899233676077
240.60394854327942
226.13818696145526
212.69826085421545
200.1165420522147
188.24871021729865
176.9707437278408
166.1763631241214
155.77491509281947
145.68967137241435
135.85651344356123
126.22297552438205
116.74762220406167
107.39974099789825
98.15933259896963
89.01738111759735
79.97638155075467
71.05109065310961
62.26944990455242
53.67360853607612
45.32096244557536
37.285150221059844
29.657062154157003
22.546171392834612
16.082795046811142
10.421732329587911
5.746070375886592
2.2659885035836447
242.32067197537992
516.2564356848105
748.6237782314968
888.6770473436211
935.3456804496467
915.1671199236214
857.9707111788427
785.5855201144809
710.7397382339036
639.851764408585
575.6234135956324
518.776193200503
469.06350551523764
425.82087108483347
388.2495486317576
355.55438210839264
327.0046864368367
301.955835558331
279.85166782662935
260.2182378186013
242.6542958086616
226.82114592802571
212.43310516444274
199.2490519192246
187.06518851690453
175.70897181339814
165.0340962476746
154.91639447507066
145.25052577747627
135.94733806845784
126.93180855347498
118.14148759031092
109.52538847506783
101.0432820651726
92.66536893717503
84.37231265622378
76.15562478256842
68.0183938386944
59.976344130397194
52.05919302542435
44.31224529537623
36.79812587195976
29.5985358002063
22.816002382282665
16.57596005996741
11.030358583498378
6.365010801159443
2.8120989485402137
0.66309958106103
355.1684537912945
734.5896721122072
1004.8279365340011
1110.6113687411162
1089.0233980313124
1001.3843124942159
892.5804655602878
785.0946082828141
688.0685716788522
604.0157299802016
532.5696253927337
472.2999803334683
421.52792833135777
378.6606409082891
342.3068026333919
311.2971857575234
284.66761540043524
261.62992200210465
241.54175801589975
223.87944397770815
208.2150377567804
194.19757959235577
181.53801098586783
169.99715675676157
159.37619241613072
149.50910082926632
140.2567126338512
131.5020080565376
123.14642862485559
115.10700553139083
107.31415861629405
99.71005813774161
92.24747267505495
84.88905233002308
77.60701811300781
70.3832467467722
63.209755093090685
56.08959892492193
49.0382040939935
42.08513914114762
35.27630916252692
28.676492902093546
22.372062059567497
16.47367218419595
11.11893082483134
6.47617516705005
2.753543522811081
0.22094442902271422
-0.7523919386013369
566.394172549456
1099.6584593801472
1363.1145806781888
1353.590774364906
1207.17001359712
1032.6254409898872
871.9266751778542
736.4124378857973
625.8471882015829
536.5855685785232
464.53963858390557
406.11088277946624
358.380959216157
319.0593890211442
286.37030568171235
258.9400932181683
235.70340670956946
215.82953877297064
198.66633879643365
183.69799793130085
170.51337573745928
158.78220630520468
148.23715719672484
138.66023448574265
129.87242571333664
121.72576899130738
114.09725397984697
106.88411938201878
100.00022793262886
93.37328561391594
86.94273581544888
80.65820779412701
74.47843677682823
68.37060384133838
62.31006986634462
56.28050119900328
50.27440637990981
44.29412346018698
38.35331465841821
32.47903474304771
26.714431225245804
21.122088151346485
15.787909062015466
10.825221201690677
6.378556840639801
2.6269567815552066
-0.20980547766164415
-1.8466808715594003
-1.8637748865074557
1007.0520477374445
1721.29348787446
1795.3023683574404
1515.1460341529005
1210.7201436670564
960.9084418791172
770.2254400495199
626.8596655287681
518.5604619937334
435.7800275262283
371.6081946205947
321.1392288980164
280.88679988097624
248.35058736676933
221.71503845781484
199.64392622740826
181.14037066868502
165.45080022012087
151.99836419736693
140.33620708361855
130.11426967152204
121.05540911360285
112.93801773224797
105.58323051173059
98.84541316495711
92.60502507333064
86.76322356993589
81.23776246584765
75.95986719610629
70.87186032021432
65.92537684362185
61.08005736236092
56.30264420258257
51.56643570258599
46.85107970163544
42.14271166081319
37.434467750216236
32.72743043282291
28.03209460406455
23.370475451858336
18.779009414420102
14.312409773716297
10.04858427772624
6.094503678083689
2.59234522122414
-0.27577349828777176
-2.2862312846490624
-3.1653283367004477
-2.509391680116657
2086.1497339102043
2633.035193504319
1979.6593131895418
1399.0493198168501
1007.0191901803244
748.8204558246557
575.2691795187567
454.8737383304474
368.7475596778505
305.4066316633556
257.6771821770105
220.93640389390382
192.11619485694422
169.12443344963185
150.49933412608502
135.19695373672178
122.45696433944889
111.71570608486309
102.54855619350609
94.63091968939952
87.711315428689
81.59248121780028
76.11789716392137
71.16203479864512
66.62321063469437
62.41828897949779
58.47871797945217
54.74754188598501
51.17714019062064
47.727518583416305
44.365029162470286
41.061435504629564
37.79326720624284
34.541431952586414
31.291073873692973
28.031687311466875
24.757517560796007
21.468307360441738
18.170483172645817
14.87892249572214
11.61950635521433
8.43273984668676
5.378802518697656
2.5443993212512956
0.05148128199068469
-1.9334225202176585
-3.1944741762443623
-3.4778097730809114
-2.484176502263063
4312.829548212659
2484.838854103947
1382.260672759763
851.571799970951
569.0654219566842
405.7511103605626
303.76098615723754
236.2148256622008
189.3584885674568
155.63271461456344
130.6138455687086
111.5793181739194
96.78159748230806
85.05872374663925
75.6144926098438
67.88896295223627
61.47930909560627
56.08987130504422
51.49973586934772
47.541164351762816
44.084921084158665
41.03009388644669
38.29690582558484
35.821557815102615
33.552475426505104
31.447543307751545
29.472045656898267
27.597119795331366
25.798589164053737
24.056082566969163
22.352374843016975
20.67290465935044
19.005440669103297
17.33987993462844
15.668173911095797
13.98438891574807
12.284921527375257
10.568906910012455
8.838882751303023
7.101808170853193
5.37059322502244
3.6663823787961465
2.0219710724538844
0.48693168211908083
-0.8647560293903163
-1.9238863249445248
-2.533573376127383
-2.4896411260664175
-1.6130640051663878

SCALARS STRAIN_EQV float 1
LOOKUP_TABLE default
0.00453748859087616
0.2017188367003445
0.0008565064985676979
0.0067203623690469914
0.004536486688974856
0.00453348109782618
0.004528472161921485
0.004521460458165038
0.00451244680000094
0.004501432243187935
0.004488418093219166
0.004473405914382396
0.004456397540454227
0.0044373950870191525
0.0044164009653997385
0.004393417898183878
0.004368448936324577
0.004341497477785977
0.004312567287700196
0.004281662519993412
0.004248787740426604
0.004213947950981128
0.004177148615520472
0.004138395686630465
0.0040976956335269515
0.004055055470907372
0.004010482788598308
0.003963985781825636
0.00391557328191332
0.0038652547871934357
0.003813040493872418
0.003758941326578567
0.0037029689682761104
0.0036451358892019316
0.003585455374447648
0.00352394154976933
0.003460609405182965
0.0033954748158621442
0.0033285545598296393
0.0032598663319130176
0.0031894287534141776
0.0031172613769442307
0.003043384685889142
0.002967820088008338
0.0028905899027514676
0.0028117173420065277
0.0027312264841906145
0.0026491422419048422
0.0025654903238349304
0.0024802971922455053
0.0023935900184125667
0.002305396639793195
0.0022157455248801266
0.002124665754896453
0.0020321870363056416
0.0019383397654601934
0.0018431551780818617
0.001746665634175816
0.0016489051177663817
0.0015499100781789666
0.0014497208195023675
0.0013483837838616586
0.0012459553241828147
0.0011425080297189742
0.0010381415816397975
0.0009330019960554456
0.0008273172122902463
0.0007214665463126461
0.000616125550609894
0.0005125928844190045
0.00041359045897473845
0.00032529257253162267
0.00026140035660740177
0.00024293358391754423
0.0002801232762243475
0.0003602615999194861
0.0004645196929167225
0.0005821149662940412
0.0007084811784309293
0.0008418443307466449
0.000981680424532639
0.001128120299676839
0.0012817230450470171
0.0014434023610307505
0.0016144286912636182
0.0017964809303689913
0.001991743174078493
0.0022030545531446983
0.0024341317410171504
0.0026898991800861517
0.002976987029255822
0.0033045012464465126
0.003685252282927406
0.004137798861292301
0.004689982384857369
0.005385571800407033
0.006296748954341906
0.007555326166188608
0.009407781157049632
0.012514194092910207
0.018391947238253017
0.0361095601372951
0.12583000103413577
0.13687817729829208
0.055124638236280776
0.03230928439524951
0.023219755780918023
0.01811799932312904
0.014897724602787404
0.012646180586423802
0.010979554804493325
0.009689628351660116
0.008657380480274632
0.007808882318707215
0.007095956984155454
0.006485850641279092
0.005955553589187982
0.005488455564234959
0.005072293665084344
0.0046978430111982074
0.004358054356167075
0.004047470079756035
0.0037618190761330933
0.003497729734968537
0.0032525227544436494
0.00302405907044057
0.0028106265614314973
0.002610854498596904
0.0024236481548609483
0.0022481382673488924
0.0020836415875761013
0.0019296298121515285
0.0017857049264499605
0.0016515795169045333
0.001527060977022932
0.0014120387816053724
0.001306474141468686
0.001210391360544918
0.0011238700559544285
0.001047037007110643
0.0009800557143938543
0.0009231107747853325
0.000876383069343618
0.0008400108507237982
0.000814031538765038
0.0007982994437815329
0.000792374865232423
0.0007953783728542846
0.0008058004073825181
0.000821258694396817
0.0008382368131753193
0.0008515469862954702
0.0008612641027375057
0.0008736638912130573
0.0008886445084836457
0.0009014347738381986
0.0009094473330650561
0.0009110407846472428
0.0009052144040087944
0.0008914606471998796
0.0008696815567595935
0.0008401451553581823
0.000803477559578917
0.0007606949966510458
0.0007132865315008724
0.0006633630124698114
0.0006138817197561158
0.0005689114010364813
0.0005337645983455918
0.000514589389235618
0.000516997647539589
0.0005441082369712746
0.0005954811860251364
0.0006678985164855157
0.0007571093745257298
0.0008591458743371212
0.0009708142432381457
0.0010896882820253914
0.0012139449063609722
0.0013421976337318177
0.001473369252892299
0.0016066031369575133
0.001741203311393533
0.001876594034197049
0.0020122921932736195
0.002147888063706701
0.0022830315464959575
0.0024174220445587853
0.0025508007912016673
0.0026829448638843365
0.0028136623813247194
0.002942788551659714
0.003070182348908064
0.003195723666394156
0.0033193108427863804
0.0034408584876024105
0.0035602955539212455
0.003677563620132512
0.003792615352130597
0.0039054131239144333
0.004015927779091658
0.004124137518957285
0.004230026905059522
0.004333585965798434
0.004434809397813096
0.004533695853840223
0.004630247309465416
0.004724468501800663
0.004816366433650143
0.004905949937188548
0.004993229291607921
0.0050782158895831524
0.005160921947773659
0.005241360256940284
0.005319543967592476
0.005395486407394
0.005469200926865946
0.005540700770216277
0.0056099989683937035
0.005677108251723669
0.005742040979728545
0.005804809085955652
0.005865424035849654
0.0059238967959033065
0.005980237812497197
0.006034456999009827
0.0060865637299273075
0.00613656684082512
0.006184474633222759
0.006230294883423288
0.006274034854559522
0.0063157013111594905
0.0063553005356309505
0.006392838346141745
0.00642832011544009
0.006461750790218079
0.006493134910680548
0.006522476630025947
0.006549779733586112
0.006575047657415239
0.006598283506144966
0.006619490069955526
0.006638669840532629
0.006655825025904823
0.006670957564074318
0.006684069135366328
0.006695161173440736
0.0067042348749163285
0.00671129120757029
0.006716330917083776
0.006719354532309688
0.006583816960833414
0.006313468571384952
0.006048488480714103
0.0057886433387738575
0.005533699363648898
0.005283422440898706
0.005037578231555546
0.004795932289096466
0.004558250186459655
0.004324297655206005
0.004093840740423805
0.0038666459771412474
0.003642480597259976
0.0034211127810249405
0.003202311974923309
0.0029858493107162297
0.002771498181751315
0.002559035069866687
0.002348240783099576
0.0021389023901277806
0.00193081638580276
0.0017237941426689529
0.0015176718734669298
0.001312330195593324
0.0011077362058635092
0.000904045491465288
0.0007018944221266483
0.0005034750388878266
0.00031838271325829984
0.0002012237289237672
0.00023873411684603287
0.00040230191539654273
0.0006012544063511446
0.0008097993643707917
0.0010232219589103296
0.0012402742811777883
0.0014605942287881355
0.0016841282840368613
0.001910953627530594
0.002141210778695654
0.0023750742012705658
0.0026127380795631606
0.00285440887648018
0.003100301197476344
0.003350635380794889
0.0036056360406337635
0.0038655311605490022
0.004130551516190947
0.004400930300570842
0.004399956053043508
0.00412963972180529
0.003864696703368527
0.003604895158262687
0.003350006048436905
0.0030998036543723197
0.0028540663619476517
0.002612577885783096
0.0023751292194089425
0.002141521840891055
0.0019115731871204742
0.0016851264601374376
0.0014620692863469638
0.0012423720710304938
0.0010261752218486586
0.0008140165980427024
0.0006075515932244884
0.00041258588985128276
0.0002564922555540702
0.00022166543224380172
0.000333206982203662
0.0005131013160537954
0.0007088802471965976
0.0009094928683855229
0.0011121639006378818
0.0013160181135962884
0.001520787280006322
0.0017264448787648735
0.0019330762022109552
0.0021408242045539315
0.002349864150402459
0.002560390646894854
0.00277261052646307
0.0029867387072194727
0.0032029956626807663
0.003421605805338421
0.0036427964109040324
0.003866796873649071
0.004093838170506247
0.00432415246014531
0.004557972771281067
0.004795532751230553
0.005037066456047084
0.00528280817009351
0.005532992247151336
0.005787852967986423
0.00604762441122257
0.006312540335700594
0.00658283407346082
0.004397033437154352
0.004126904505342305
0.003862193570775968
0.003602672854795973
0.0033481185283410074
0.0030983116529237306
0.0028530395903369316
0.002612098165042785
0.0023752950725485743
0.002142455428313864
0.0019134311617472488
0.0016881176982192967
0.0014664853855233873
0.0012486432470090645
0.0010349811509695185
0.0008265285858406179
0.0006260214970885833
0.0004417967368293448
0.00030329260717246284
0.00027483137646027865
0.00037385798524620874
0.0005408735644265533
0.0007294160909872214
0.0009256360387356589
0.0011253398968846706
0.0013270193228546929
0.001530095068630204
0.0017343727621716256
0.0019398400477167496
0.0021465796516756904
0.0023547279590508978
0.0025644535691679597
0.002775945428539114
0.002989405890858925
0.0032050464630005797
0.003423085087535284
0.003643744340606744
0.0038672501942635914
0.004093831137372446
0.004323717530310975
0.004557141115655694
0.0047943346352358465
0.005035531521279522
0.005280965640364594
0.005530871076008895
0.005785481940462156
0.006045032209462496
0.006309755575929673
0.006579885320125989
0.004392162833820874
0.004122346367825129
0.0038580224808012075
0.003598970162690037
0.0033449742532571025
0.003095827078571343
0.0028513308788953437
0.0026113014989251207
0.002375574154315955
0.002144012739975721
0.0019165254457299554
0.0016930921922028003
0.001473815608080387
0.0012590224574647747
0.0010494832253070587
0.0008469396311715203
0.0006555367715081296
0.00048614398957405304
0.0003676042970484878
0.0003463692259711993
0.00043259488318359875
0.0005840434575072838
0.0007623586698548163
0.000951913687139222
0.0011469557609607944
0.001345151489431781
0.0015454823359927925
0.0017475059560306035
0.0019510616693516089
0.002156139019380833
0.0023628134645856816
0.002571212474286565
0.0027814965201805224
0.0029938478552228387
0.0032084635906013126
0.0034255512561559578
0.003645325852923791
0.003868007832902441
0.004093821672152556
0.004322994833542063
0.004555756991395582
0.004792339436029065
0.005032974604432454
0.005277895701309626
0.005527336386344521
0.0057815305112853006
0.006040711895666866
0.006305114133596947
0.006574970426546714
0.004385344880702457
0.004115966147430607
0.0038521846341112434
0.0035937888077717858
0.003340575617164367
0.0030923530798915477
0.002848944093988537
0.002610192189334697
0.002375970445599286
0.0021461957626030376
0.001920852551888475
0.0017000338107512902
0.0014840160736162298
0.0012734047185895972
0.001069436329820325
0.000874659489740968
0.0006945821249419919
0.0005416475201568825
0.0004416820725158973
0.00042709637197815777
0.0005028860874726134
0.0006393589526070986
0.0008061332655625819
0.000987494757178586
0.001176536728774579
0.0013701273635459347
0.001566768533119549
0.0017657284018836824
0.001966665793295645
0.0021694536910610647
0.0023740898706543154
0.00258064863594556
0.002789253282163788
0.0030000596267012957
0.003213245748525194
0.0034290053613072907
0.0036475433929059544
0.003869072948220525
0.004093813164287921
0.004321987655544444
0.004553823358453472
0.004789549652161193
0.005029397673829497
0.005273599774061277
0.005522389075278936
0.005775999107506565
0.006034663503866873
0.00629861574351131
0.006568088933485351
0.004376580476395335
0.0041077650242023
0.0038446817199546835
0.0035871312168696936
0.0033349259844032393
0.0030878940778855434
0.002845884657522796
0.0026087762573594664
0.002376489501821147
0.0021490072533339143
0.0019264076442885346
0.001708920404762387
0.0014970273333051493
0.0012916507909385014
0.0010945269343249852
0.0009089817958366034
0.0007415697071194034
0.0006051408130240014
0.0005214244312952296
0.0005126338768398619
0.0005805353519969882
0.0007038887684290948
0.0008590414128015573
0.0010313951556669124
0.00121349008925216
0.0014015764902006247
0.0015937157889443067
0.0017888849172991814
0.001986550691793845
0.0021864574413270046
0.002388514972906381
0.0025927362721472526
0.0027992011816544704
0.003008034319213774
0.003219391145639367
0.0034334488783592603
0.0036504003851931303
0.0038704499667064447
0.004093810367788306
0.004320700608798722
0.004551344375298247
0.0047859687963545654
0.005024803498498477
0.005268079859025762
0.005516030406338565
0.005768888331039683
0.006026887082381346
0.0062902600321838005
0.006559240193607543
0.00436587078630704
0.0040977445266641745
0.00383551592452235
0.003579000528561931
0.0033280297025350286
0.0030824557790328443
0.0028421595559202303
0.0026070614416041854
0.002377138435138103
0.002152450715772256
0.0019331845827628732
0.0017197242174267838
0.0015127761704999997
0.0013135937755099584
0.0011243957256953222
0.0009491582000538553
0.000795041916649634
0.0006743589362052891
0.0006046389753816127
0.0006009019514435891
0.0006629977102596524
0.0007753121193706724
0.0009194800707451962
0.0010825858358622944
0.0012571565184280194
0.001439070178331907
0.0016260414180861752
0.0018167875968471202
0.002010591490261774
0.002207068137591169
0.002406036017037708
0.0026074429606105223
0.0028113218595873643
0.003017763209078978
0.0032268975206069636
0.0034388837128925803
0.0036539012353554424
0.003872144586830357
0.004093819409833234
0.004319139644922047
0.004548325413390416
0.004781601410261669
0.005019195661600959
0.005261338546781197
0.005508262017097688
0.005760198962780601
0.006017382694551949
0.006280046515649137
0.006548423367107513
0.004353217250210062
0.0040859065403495405
0.0038246899417664626
0.003569400607109206
0.003319892119006023
0.0030760451921610123
0.0028377773516309684
0.0026050571959227347
0.002377925891587716
0.0021565303696688878
0.0019411759779664403
0.0017324123785361744
0.001531177682573069
0.0013390462414718876
0.0011586593672081834
0.0009944552388052408
0.0008537570256316588
0.000747730727762323
0.0006900933744172808
0.0006908389778658918
0.0007487134850382522
0.0008518967819376314
0.0009860515674568445
0.0011400731765049926
0.0013068559067796822
0.001482146283603584
0.0016634312114487252
0.0018492229400118587
0.0020386439763928023
0.002231189749931412
0.0024265907320280286
0.0026247301465577165
0.0028255933623806337
0.0030292358283460392
0.0032357621718056397
0.0034453122066671095
0.0036580513312917044
0.0038741637840552902
0.004093847801554126
0.004317312070373363
0.0045447730757083755
0.004776453083445958
0.005012578577770853
0.005253379032202835
0.005499085929127827
0.005749931968016504
0.006006150419778355
0.00626797459672712
0.006535637416121344
0.004338621591475841
0.004072253318263845
0.003812206986727941
0.003558336059658603
0.0033105196017187673
0.003068670649200483
0.002832748197166234
0.0026027746864638055
0.0023788620232198495
0.002161251114591308
0.0019503732555117392
0.0017469474622058346
0.0015521375122019869
0.001367807258262383
0.0011969290925683432
0.0010441905632185594
0.0009166999986508671
0.000824166718208641
0.0007770579557987363
0.0007818590623451553
0.0008366999994177466
0.0009323785329820404
0.0010575932457760509
0.001202947670789972
0.0013619229418466757
0.0015303312044040146
0.0017055522708610948
0.0018859591434224124
0.0020705486624186514
0.0022587145621259545
0.0024501084941960776
0.0026445537254991725
0.0028419904117024134
0.0030424400745333495
0.003245981992546806
0.003452737144320917
0.003662857044437421
0.0038765158164647436
0.004093904450782105
0.004315226565352385
0.004540695219253011
0.004770530476585221
0.005004957514416842
0.005244205131896599
0.0054885045603436725
0.005738088503207529
0.005993190354919121
0.006254043561768832
0.006520881097957375
0.004322085827989455
0.004056787493305965
0.003798070811437968
0.003545812256827468
0.0032999195636357146
0.0030603418299086213
0.002827083851631104
0.0026002267879267136
0.002379958455268928
0.0021666184880175274
0.001960766727575905
0.00176328808620319
0.00157555410391712
0.001399668845191295
0.0012388250475159801
0.001097751384840442
0.000983058670405854
0.0009029029974989289
0.0008650793004434008
0.0008736159119964197
0.0009263182962024055
0.0010158382524893955
0.0011331634412037554
0.0012704062621559766
0.0014217312776988028
0.0015831576148299378
0.001752064471251682
0.0019267530768554344
0.002106134867392656
0.0022895254767856836
0.0024765115755189387
0.002666864682086021
0.0028604847052339007
0.003057362334394728
0.0032575535108119668
0.003461161760435467
0.00366832573046872
0.0038792102306935312
0.004093999676490561
0.004312893205698418
0.004536100981432305
0.004763841348890678
0.004996338617048733
0.005233821305040329
0.0054765207398581065
0.005724669924244979
0.005978502616142883
0.006238252576951492
0.006504152957185226
0.004303612284742719
0.0040395120926773
0.0037822857234776804
0.0035318353568044034
0.003288100491571637
0.0030510697906669776
0.0028207976997351512
0.0025974280789165184
0.00238122824845258
0.0021726386183751056
0.0019723456703115236
0.0017813895315335676
0.0016013208797097383
0.0014344215249012808
0.001283986280046365
0.0011546002551802892
0.0010521893524342216
0.000983395525030409
0.0009538631930270742
0.0009658927148384286
0.0010171397435835086
0.0011016039761865312
0.0012120099358219473
0.00134175665899184
0.0014857075047806827
0.0016401774906811203
0.0018026300088334795
0.00197135658494755
0.002145224621829024
0.00232349831573201
0.002505716430522633
0.00269160976556281
0.002881045240889354
0.0030739876190824327
0.003270472932613289
0.003470589746536354
0.0036744657291309236
0.003882257867788323
0.004094145224596491
0.004310323487547472
0.004531000810200916
0.004756394589723244
0.004986728938693797
0.0052222326777508505
0.005463137725481917
0.005709677796313248
0.005962087341332599
0.006220600684194259
0.006485451316630411
0.0042832036081038635
0.004020430554312419
0.003764856607291583
0.003516412333130679
0.003275071979361214
0.00304086699747261
0.0028139047732587495
0.0025943948362852102
0.0023826858565192087
0.002179318173631514
0.0019850984054252422
0.0018012043626450575
0.0016293282516653706
0.0014718588331526583
0.0013320768969977766
0.0012142730550214603
0.001123583098149843
0.0010652501454497816
0.001043211284018802
0.0010585470145031252
0.0011088682421085592
0.0011891793531247988
0.001293535199046546
0.001416411178751164
0.001553337208635732
0.0017009707235620837
0.0018569208357495605
0.0020195218909624217
0.0021876362439614684
0.002360504031078627
0.002537634979531126
0.0027187321827855525
0.002903638656786297
0.003092299707916653
0.0032847361879958293
0.003481025257540563
0.0036812863627591137
0.0038856708685552407
0.004094354284724236
0.004307530354454625
0.004525406497794109
0.004748200254376781
0.004976136473472281
0.005209445071105342
0.0054483592240197
0.005693113905502592
0.005943944693165668
0.006201086796783335
0.006464774267334767
0.004260862781760286
0.003999546745373162
0.003745788948372673
0.003499551006353974
0.0032608447656219076
0.0030297473632722245
0.002806421774954693
0.0025911450283373034
0.002384347079206796
0.0021866643061237844
0.0019990123843877153
0.0018226830312372763
0.0016594654157520196
0.0015117807713328868
0.0013827891755799195
0.001276372867893052
0.0011968367191348668
0.0011481762794812516
0.0011329852736028613
0.0011514813053316165
0.0012012936625348464
0.0012781931473649115
0.0013772647647888605
0.0014938755792328101
0.0016241655417486222
0.00176515002711054
0.001914624042084337
0.002071006002824224
0.0022331874872429593
0.002400410760388839
0.0025721758514694808
0.0027481722909950563
0.002928229579348133
0.003112281297858877
0.0033003389785959377
0.0034924729170788117
0.0036887979329731147
0.003889462677864143
0.004094641507452235
0.00430452822661968
0.004519331217849325
0.004739269603974059
0.004964570194396984
0.005195465032959763
0.0054321894145388395
0.005674980272343489
0.005924074863013133
0.006179709694816401
0.006442119657557152
0.004236593144328537
0.00397686498285572
0.0037250888604576267
0.0034812600797839285
0.0032454307763718163
0.0030177262898140444
0.002798367104875992
0.0025876983067945523
0.0023862290108349017
0.002194684594405987
0.002014074273919048
0.001845774449851773
0.0016916218956881247
0.0015539962803776677
0.0014358444487834227
0.001340562147903226
0.0012716293515166197
0.001231956028991172
0.001223085816022259
0.0012446264619790422
0.0012942631923864635
0.001368363986904719
0.0014628208037523456
0.0015737362916472884
0.0016977943778196366
0.0018323629801882805
0.001975445411868389
0.002125574121268224
0.002281698205962251
0.002443085678396899
0.002609245556023399
0.002779868274378669
0.0029547809722483454
0.0031339141557531437
0.003317276825599444
0.003504937821056697
0.003697011714969738
0.0038936480473116025
0.004095023021483713
0.004301333031788244
0.0045127895656623795
0.004729615149394122
0.004952040095461216
0.005180299873721302
0.005414632974806595
0.0056552791674562754
0.0059024780758212
0.006156468020588581
0.006417485080903043
0.004210398408621345
0.00395239005636348
0.003702763115893516
0.003461549179617223
0.0032288431728005468
0.003004820714207924
0.00278976088911471
0.0025840759974268875
0.0023883499848242834
0.0022033869829778535
0.0020302700416214917
0.0018704265248736852
0.0017256888270444984
0.0015983248674172014
0.0014909924838955241
0.0014065546040950686
0.0013477040780433959
0.0013164233111485723
0.0013134396276746456
0.001337931952123025
0.0013876632138976296
0.001459475748506437
0.0015499009726223111
0.0016556479448343814
0.0017738776040013126
0.0019022920188577124
0.002039111461175143
0.002183002120339951
0.0023329925258442756
0.0024883966162149935
0.00264874956213764
0.0028137567907619266
0.0029832544794506357
0.0031571792704410766
0.0033355451168839657
0.0035184255387498238
0.003705939948751384
0.003898243035548493
0.004095516450094067
0.004297962237315084
0.004505797601258292
0.004719250699117088
0.004938557238068053
0.005163957706237103
0.0053956951111104835
0.0056340131295346384
0.0058791545961657
0.006131360274067636
0.00639086786368838
0.004182282682559567
0.003926127253113185
0.0036788191793694263
0.003440428899746541
0.0032110964045453322
0.0029910491604284535
0.0027806250109517682
0.002580301089266276
0.00239072951450588
0.00221277972085736
0.0020475850409232763
0.0018965866419964265
0.0017615599882695042
0.00164459753739923
0.0015480099248042867
0.0014741075546803853
0.0014248537322173024
0.0014014495659503137
0.0014039913451295541
0.0014313598184410123
0.0014814075413087445
0.0015513602616565023
0.0016382618666098885
0.0017393220826233933
0.0018521156170856119
0.0019746530673088736
0.0021053702850430075
0.002243078212794757
0.0023869005371758654
0.0025362134352603805
0.0026905932669022744
0.0028497735772672486
0.0030136107562586264
0.003182057001928053
0.0033551391520646443
0.00353294211064382
0.003715595826543866
0.0039032650054837137
0.004096140926103263
0.0042944348827822195
0.004498372894884263
0.004708191410819399
0.004924133801826755
0.005146447489966246
0.0053753815916995455
0.005611184985910174
0.005854104735698202
0.006104384808627258
0.006362265051661139
0.0041522504917147155
0.0038980823852487138
0.003653265245233144
0.003417910851618295
0.003192206268876682
0.002976431796029419
0.002770983144443327
0.0025763982223760704
0.0023933882306832006
0.002222871300045024
0.0020660040947985845
0.0019242021003619564
0.001799132597005384
0.0016926571810669934
0.0016066982194314512
0.001543015091717673
0.001502910005881904
0.0014869338214404029
0.0014946982310889072
0.00152488084876493
0.0015754296000453501
0.0016438850414667856
0.0017277062188258067
0.001824517398463082
0.0019322496974406625
0.0020491933476571166
0.002173991518625348
0.002305603932057965
0.0024432595490788992
0.002586409156501656
0.002734682845406664
0.002887854006351051
0.0030458097830599017
0.0032085272248982906
0.0033760541841248415
0.003548494042168436
0.003725993475579328
0.003908732617476253
0.004096917104507191
0.004290771612458805
0.004490534574449077
0.004696453846505199
0.004908783139734054
0.005127779079606892
0.0053536987840978965
0.005586797875968201
0.005827328862224985
0.006075539827234941
0.006331673396232592
0.004120306803459766
0.003868261819552396
0.00362611027865993
0.003394007719562468
0.0031721899762492327
0.002960990494360507
0.002760860790462421
0.0025723936741708186
0.0023963478165084026
0.002233670395015498
0.0020855115780425357
0.0019532204943551426
0.0018383078973244935
0.0017423585568187864
0.001666881325677628
0.0016131021602745215
0.001581735105833212
0.0015727956869619655
0.0015855266431196832
0.001618472066345394
0.0016696771114073493
0.001736944493843095
0.0018180730428177818
0.001911031503331192
0.0020140566508976246
0.0021256887645079415
0.0022447656757394853
0.002370394564524734
0.0025019149560762807
0.0026388608558237975
0.0027809259778601592
0.002927933586109412
0.0030798111572660426
0.003236569464045904
0.0033982854562773536
0.0035650882923851735
0.003737147935312723
0.003914665817515241
0.004097867171790054
0.004286994706775213
0.004482303374333667
0.004684056030884796
0.0048925198377046
0.005107963278334619
0.005330653696562426
0.005560855277720118
0.005798827410700048
0.006044823379324871
0.006299089340394049
0.004086457052701459
0.00383667250966108
0.0035973640609827245
0.003368733322095058
0.003151066222763557
0.0029447489026435915
0.002750285315256803
0.002568315344343378
0.0023996309403563247
0.002245185804484383
0.0021060914982191413
0.001983590044323817
0.0018789915671126988
0.001793567983895661
0.0017284033891770028
0.0016842195308643417
0.0016612153549292893
0.0016589703424829108
0.001676449625614968
0.0017121150441778172
0.0017641084079852416
0.0018304535382967135
0.0019092300444573569
0.0019986940970983078
0.0020973439182660585
0.0022039411385060157
0.0023175030784937187
0.0024372791570262072
0.0025627207735908976
0.002693450343365333
0.002829232454941561
0.0029699484010046982
0.0031155743597674397
0.00326616301885483
0.003421828232659269
0.0035827322566124144
0.0037490751280582664
0.0039210858192719345
0.004099014850792711
0.00428312811183547
0.00447370168486923
0.004671017512620125
0.0048753597783773965
0.005087011895816135
0.005306254023977133
0.005533361037863019
0.005768600896443116
0.006012233358609027
0.00626450900452034
0.004050707169170935
0.00380332203091019
0.0035670372395360354
0.0033421026797561906
0.003128855270141014
0.00292773251629651
0.002739285991607788
0.0025641927385319334
0.0024032611875049502
0.002257426396781453
0.0021277275757153684
0.002015259879294841
0.0019210939756714013
0.0018461628426894065
0.0017911265126702384
0.0017562395849880165
0.0017412562699942573
0.0017454049090309667
0.0017674452368250987
0.0018057947498078151
0.001858689834279487
0.001924342931485945
0.002001067768048514
0.002087361358643557
0.0021819452318655023
0.0022837754680745974
0.0023920325433345797
0.002506100209228375
0.002625539899301944
0.00275006464896748
0.0028795146659472597
0.0030138354911451786
0.0031530589929971158
0.003297287075643516
0.0034466778214478637
0.003601433741895861
0.0037617918219259514
0.003928015078785029
0.0041003853998732
0.004279197465848556
0.004464753601654296
0.004657359427970253
0.004857320209074992
0.005064937811130834
0.005280508198474143
0.0055043194056830155
0.0057366499309290196
0.0059777675021252166
0.006227928172299493
0.004013063606232022
0.00376821861795501
0.003535141382453007
0.0033141320901594164
0.0031055790339070515
0.0029099687599454115
0.002727894042699725
0.002560056950930061
0.0024072629915748733
0.002270401060258978
0.002150403323627341
0.00204818027608934
0.0019645303205853854
0.0019000309575227445
0.001854928685369833
0.0018290528119763814
0.0018217787612687785
0.0018320557891376812
0.0018584953690494233
0.0018994987414508015
0.0019533938848130096
0.0020185558008117073
0.002093495063568104
0.0021769113623585135
0.002267716827150777
0.0023650373285491436
0.0024681999461588235
0.002576713143197079
0.0026902441540272853
0.002808596337894898
0.0029316879769068285
0.0030595331699071657
0.003192224988422647
0.003329920804880839
0.003472829588948754
0.0036212009341339254
0.003775315584823146
0.003935477260406087
0.004102005604943731
0.004275230121198421
0.004455484973728796
0.004643104566241619
0.0048384198137048995
0.0050417550407041425
0.005253425445093541
0.0054737350712011764
0.00570297524053815
0.0059414233908592785
0.006189342277068866
0.003973533371164584
0.003731371205342694
0.003501689038909842
0.0032848392110318494
0.0030812611805990124
0.0028914870756388458
0.0027161426888608247
0.0025559406461525807
0.00241166156684272
0.002284118660274475
0.0021741021284962542
0.0020823028601380704
0.0020092206706226272
0.001955069919260277
0.0019197019060969828
0.0019025649134863374
0.001902716186061376
0.001918886698807091
0.0019495849075907633
0.0019932166030625503
0.0020481978534395017
0.002113045049125244
0.002186435560853536
0.002267240343213316
0.0023545341784962292
0.0024475904686846396
0.002545866753779017
0.0026489856247895005
0.0027567141504360126
0.0028689436812495642
0.002985671007508166
0.0031069812810138315
0.0032330327819281037
0.003364043441954622
0.003500278963183971
0.003642042355593273
0.003789664728194111
0.003943497192497454
0.0041039037627845784
0.004271255160664597
0.0044459234494299265
0.004628277436298934
0.004818678788302578
0.005017478811324265
0.005225015842793475
0.005441613207980744
0.005667577688700368
0.005903198452324118
0.006148746388877552
0.003932124056884031
0.0036927894712515986
0.0034666938054047493
0.0032542431521343455
0.0030559272348981946
0.0028723190188293195
0.0027040671973835393
0.002551878040773948
0.0024164828426890056
0.0022985880043651526
0.0021988073331477573
0.0021175807738340402
0.0020550899385372154
0.002011186390150614
0.001985350511670742
0.001976694419745663
0.0019840120561974675
0.0020058671999140017
0.0020407011278326917
0.0020869395462230654
0.002143082843775082
0.0022077713941238853
0.0022798249135540065
0.0023582596557054124
0.002442289209500275
0.0025313146313382584
0.00262490858109081
0.0027227967953115623
0.0028248390314583585
0.002931010704472659
0.003041385816553356
0.003156121397156635
0.0032754434560836035
0.003399634349734439
0.0035290214254839174
0.0036639668114544477
0.003804858239041479
0.003952100811226277
0.004106109653863487
0.004267303406117724
0.0044360985185698905
0.0046129043332351445
0.004798118919807955
0.004992125638257322
0.005195290391115897
0.0054079595210505624
0.005630458301913874
0.005863089965529134
0.006106135202643158
0.0038888438750459557
0.003652483884654745
0.003430170398778048
0.003222364577116878
0.003029604697727069
0.0028524983627611737
0.0026917049356948077
0.0025479048851113134
0.0024217534016484333
0.002313817817359032
0.0022245023231425203
0.0021539688185494258
0.0021020678045739214
0.0020682954213816747
0.0020517897084009404
0.002051370733304882
0.0020656182491255426
0.002092971600249307
0.002131833263598519
0.0021806601315956593
0.00223803303955491
0.002302701875838884
0.002373608634231367
0.0024498932967070204
0.002530887921599162
0.0026161036037667695
0.002705213812088631
0.0027980364578011675
0.0028945161136101623
0.002994707135498163
0.003098758005946392
0.0032068969629482935
0.0033194188487522167
0.003436673061412228
0.0035590524885533805
0.003686983323938372
0.003820915698666949
0.003961315090658479
0.0041086545027051715
0.004263407417787619
0.004426041549339739
0.004597013404104887
0.004776763667538746
0.004965713408413566
0.005164261082811394
0.005372780300431394
0.005591618300164322
0.005821095068827157
0.006061503027830326
0.003843701690483506
0.0036104657562197945
0.003392134736795361
0.00318922581652371
0.003002323176499188
0.0028320612119757697
0.0026790954281868846
0.0025440584459328146
0.0024275004226751344
0.0023298167282348554
0.0022511706185196277
0.002191423576459522
0.0021500886083807343
0.002126319804542438
0.0021189442967403417
0.0021265325285877846
0.0021474936100846906
0.0021801781279107307
0.0022229722016830216
0.002274372078453671
0.002333035165528703
0.0023978087135673536
0.0024677403860512547
0.002542075885261236
0.0026202483850976694
0.002701863489948041
0.002786682307260108
0.0028746042505257696
0.002965650464056951
0.0030599482717995766
0.0031577167529771516
0.0032592533853855045
0.003364921627813994
0.0034751393022166037
0.003590367659438633
0.003711101052461138
0.0038378571864429788
0.003971167957194392
0.004111570923635697
0.004259601481947606
0.00441578581809195
0.004580634711396168
0.004754638246645562
0.0049382614684168125
0.005131940982695741
0.005336082480771803
0.005551059132326839
0.00577721077119097
0.00601484378013772
0.0037967070569258237
0.003566747293326805
0.0033526040272795427
0.0031548509933685314
0.002974114528867858
0.002811046125747144
0.002666280417145308
0.0025403774909828736
0.002433751631450527
0.002346593270658178
0.002278795972707056
0.002229903518231639
0.002199091224230441
0.002185189471205965
0.0021867475752158014
0.0022021264473985292
0.002229602860660677
0.002267468313779585
0.0023141102717238356
0.0023680701410239997
0.002428078090733927
0.0024930684269450017
0.0025621806294506464
0.002634751012449344
0.0027102990406256407
0.002788511189995591
0.0028692242087424535
0.0029524088307379738
0.0030381544343695537
0.0031266547830122423
0.0032181947800948144
0.003313138075194862
0.003411915332047198
0.003515012988692258
0.003622962385797775
0.0037363291981842633
0.0038557031668143456
0.003981688186239864
0.00411489284953534
0.004255921584615031
0.004405366529875648
0.004563800292661659
0.0047317697126527895
0.0049097907173320035
0.005098344312985221
0.005297873707629653
0.005508782517189072
0.005731433967535178
0.005966150975747192
0.0037478702539489673
0.003521341659666684
0.003311596866956465
0.003119266162927843
0.0029450130214947047
0.0027894942523257566
0.0026533039282665635
0.002536902276404293
0.0024405352597829306
0.002364155899239898
0.0023073624806414115
0.002269369102423738
0.0022490189319225593
0.0022448409497038777
0.002255140408276677
0.0022781060411367123
0.0023119157499001996
0.0023548265346174215
0.002405241110141662
0.002461750037179234
0.0025231525402897633
0.0025884611592518134
0.0026568955468260647
0.002727869891324459
0.0028009772645064164
0.002875973068150525
0.002952758846952389
0.0030313670842686945
0.0031119471688208483
0.0031947524632715933
0.0032801282705729987
0.0033685004424321113
0.0034603643783502024
0.0035562742042967426
0.003656831983823727
0.003762676891219297
0.00387447435761142
0.003992905278855806
0.004118655441013049
0.0042524053685813225
0.004394820827287527
0.004546544214439228
0.004708187045956272
0.004880323703660825
0.005063486545307814
0.005258162410954459
0.00546479049079093
0.005683761458775853
0.0059154177287682585
0.0036972023251147946
0.003474263039991784
0.003269133351401427
0.003082499468669184
0.0029150555055666343
0.0027674494749753823
0.0026402123413509413
0.00253367453829401
0.002447880016290365
0.0023825130236250526
0.0023368546982633397
0.0023097828721733594
0.0022998192935797675
0.0023052168845076964
0.0023240704427647287
0.002354430919596249
0.0023944063997188695
0.0024422396824930934
0.0024963595833304205
0.0025554084195349124
0.002618250891657535
0.002683970157612233
0.0027518561866849865
0.0028213902507422776
0.002892228157470023
0.00296418378965965
0.0030372137472713108
0.0031114033707654396
0.003186954100694327
0.003264171944957172
0.003343456737514943
0.003425291849544858
0.003510234035569772
0.0035989031500920678
0.0036919715460983016
0.0037901530586399034
0.0038941915776225158
0.0040048493159610035
0.004122894973194204
0.004249092070793252
0.004384187784860838
0.004528902618259067
0.004683921234886049
0.004849884726047859
0.005027384499517677
0.005216957886338254
0.0054190854608381295
0.0056341899773978445
0.005862636752594512
0.003644715117270843
0.003425526710722487
0.003225235197743195
0.003044581316543734
0.002884281611000834
0.0027449585708858035
0.0026270544669079604
0.00253073748991454
0.0024558150708055087
0.002401673062644258
0.0023672577756936684
0.002351109554472995
0.002351444044748052
0.002366265621090155
0.0023934914586134543
0.0024310660738780733
0.002477052808030028
0.002529696935687232
0.002587461759848338
0.0026490428822270617
0.002713367038214617
0.00277958137665904
0.0028470377825299703
0.0029152754281262148
0.0029840035218853186
0.0030530853071041456
0.0031225237321120597
0.0031924488100470837
0.0032631064464112994
0.003334848383255306
0.003408122852630582
0.003483465524838089
0.003561490365191896
0.00364288006931984
0.0037283758276295278
0.0038187662713764165
0.003914875571275688
0.004017550787535833
0.004127648697110627
0.0042460224368140505
0.004373508385860372
0.004510913756175619
0.0046590053556333595
0.004818499936938306
0.004990056449357154
0.005174270384608179
0.005371670269007997
0.005582716219388783
0.005807800365981835
0.003590421320997779
0.003375149117273189
0.00317992588210576
0.003005544570243994
0.0028527339615263434
0.0027220713841281047
0.002613881629491105
0.002528135826291248
0.002464370055139425
0.0024216445208550853
0.0023985576065201014
0.002393316167059402
0.002403849006740526
0.002427940857467782
0.0024633628407844336
0.0025079813473297494
0.0025598364818587996
0.0026171896129886683
0.002678544924508995
0.002742651998800155
0.0028084963077679333
0.0028752831807952873
0.0029424192121366285
0.0030094936251810057
0.003076260997925993
0.003142625977826298
0.003208630111773697
0.0032744406118800314
0.0033403407043276897
0.0034067211189294554
0.0034740722401833046
0.0035429764389251868
0.003614100129091207
0.0036881851446187437
0.0037660391082207545
0.003848524567936713
0.0039365468081510365
0.004031040394117773
0.0041329546724602605
0.004243238608783481
0.00436282547795783
0.004492618012836603
0.0046334746469772255
0.004786197448180828
0.004951522234889119
0.005130111210324159
0.005322548262030016
0.0055293368834936135
0.005750900504763476
0.0035343345122230774
0.0033231479591633918
0.003133230794152759
0.0029654247704449773
0.0028204584130964343
0.0026988410139477514
0.0026007477587574566
0.0025259157381955135
0.002473575083039393
0.0024424360899161254
0.0024307409957528246
0.002436372137687294
0.002456994026006108
0.0024902013625938096
0.002533649161058332
0.0025851510336986384
0.0026427421794171357
0.002704711098233669
0.002769607629554688
0.0028362353882491727
0.002903635427156397
0.002971066126505357
0.0030379825707568483
0.0031040172977559875
0.0031689633337513476
0.003232759795628562
0.003295479956464539
0.003357321449132428
0.0034185981625952555
0.0034797333248749833
0.003541253240512526
0.0036037811463668704
0.0036680306644442393
0.003734798366606452
0.0038049550292615416
0.0038794352528162177
0.003959225254948344
0.004045348817759683
0.004138851568310557
0.004240783982980372
0.004352183703842377
0.004474057910656198
0.004607366577347864
0.004753007437275518
0.004911803381473902
0.0050844928297277955
0.005271723372485848
0.005474048718841255
0.0056919287402270174
0.0034764691950695064
0.0032695422842415646
0.003085177411569183
0.002924260381533343
0.002787504318351312
0.002675324019747717
0.002587709489370117
0.002524124937785965
0.0024834607923777726
0.002464056777335701
0.00246379584911749
0.0024802494403123334
0.002510842945371377
0.0025530107611781696
0.0026043198599130617
0.0026625535859615065
0.002725757745233567
0.002792256825608297
0.0028606497797622845
0.0029297938073748063
0.0029987825265637667
0.0030669228107718213
0.0031337128377462655
0.0031988226567468163
0.0032620777687475313
0.003323445721569297
0.0033830254415033504
0.0034410388727028536
0.0034978244186245544
0.003553831640507002
0.0036096166465815374
0.0036658375942319322
0.003723249725726144
0.0037826993724696745
0.003845116402957413
0.003911504667365264
0.003982930117433438
0.004060506459498643
0.004145378428131284
0.004238703032799312
0.004341629402418178
0.0044552780941791575
0.004580720901296852
0.004718962252624189
0.004870923224884575
0.005037428988647853
0.005219200210331989
0.005416848582106568
0.005630876305305335
0.0034168408460611664
0.0032143525936606295
0.0030357954978812345
0.002882093069901868
0.0027539248201713263
0.0026515806442266674
0.0025748262710273894
0.0025228126984550205
0.002494058412796863
0.0024865160652424653
0.00249771138650042
0.0025249227525855284
0.0025653636113937275
0.0026163373843229726
0.0026753490203584853
0.002740171422865817
0.002808874026387312
0.0028798243189321693
0.002951672749540567
0.003023329268446756
0.003093937179000056
0.003162847775079393
0.0032295976206465444
0.0032938892614520427
0.003355575512269688
0.003414647100320109
0.0034712232576741115
0.003525544765481913
0.003577968911167141
0.003628965796679655
0.0036791154160817846
0.0037291048988506124
0.0037797252935327518
0.00383186725310685
0.003886514991899888
0.00394473793075984
0.004007679549782667
0.004076543140286317
0.004152574395388225
0.004237041092662126
0.004331210475784705
0.004436325289172319
0.004553579701919874
0.0046840965157282245
0.004828907041911006
0.0049889348408013005
0.005164984166207228
0.0053577335054874956
0.00556773412987043
0.003355465959899018
0.0031576009596419622
0.002985117327703004
0.002838968018529107
0.002719777177647755
0.002627675056199747
0.002562160490096951
0.0025220299117574216
0.0025053998622615505
0.0025098241019740593
0.002532478382487865
0.0025703696388843893
0.0026205279215431015
0.0026801541853370492
0.0027467152270785776
0.002817990823110921
0.002892084860983137
0.0029674132802354576
0.0030426795310234326
0.003116845181828195
0.00318910047180237
0.003258837457088408
0.0033256269642634754
0.0033891996903974114
0.0034494313031668803
0.0035063311501202466
0.0035600340789424937
0.0036107948318344183
0.0036589844648053874
0.003705088232677348
0.0037497043608302615
0.0037935430915912506
0.0038374253497548087
0.0038822803272609606
0.00392914125679788
0.003979138648641363
0.004033490328675523
0.0040934877622575555
0.004160478395787665
0.004235844098111442
0.004320976216769813
0.004417248231432202
0.00452598741520429
0.0046484472178135875
0.004785782185530148
0.0049390270868466596
0.005109081527638535
0.005296700776895169
0.005502492886560742
0.0032923620971349486
0.0030993111585668537
0.002933177944323104
0.0027949342833109366
0.0026851231281125906
0.0026036756146624947
0.002549777604481713
0.0025218291645650913
0.0025175178761248766
0.002533991929398945
0.0025680894371164797
0.002616570763053373
0.0026763119146403494
0.0027444387202895364
0.0028184015056174645
0.002896001899482265
0.0029753871324042806
0.0030550257245107303
0.0031336749128421915
0.0032103465236308377
0.0032842751079583815
0.0033548901839352153
0.003421793214904492
0.003484739277436655
0.00354362303767996
0.0035984685157480377
0.003649422080111061
0.0036967481186672324
0.0037408268457833132
0.0037821537058674044
0.0038213398144072604
0.003859112833992353
0.0038963176183910743
0.003933915880964691
0.003972984070095687
0.0040147085868960306
0.004060377489408881
0.004111367927152965
0.004169128772169274
0.0042351582771169485
0.0043109770913692565
0.004398097559708617
0.004497990831630409
0.0046120538078140965
0.004741578223369156
0.004887724124413222
0.005051499609296029
0.0052337480338870085
0.005435143048738517
0.003227547934232101
0.003039508822563389
0.002880015455547738
0.0027500451974551026
0.0026500292891796827
0.0025796551556992006
0.0025377462935615444
0.0025222648399346897
0.002530446172519236
0.0025590317490293956
0.0026045392801168385
0.002663510135015891
0.0027326959078233346
0.00280917319315783
0.0028903953376097705
0.0029741986472137318
0.003058780884746585
0.0031426661586955785
0.0032246656897789764
0.0033038400288351918
0.0033794655358147132
0.0034510062025750305
0.003518090931987787
0.0035804959031766935
0.0036381314552308653
0.0036910328751446606
0.0037393544973569207
0.003783366563779215
0.0038234543273303456
0.0038601188937708465
0.0038939792783136817
0.003925775102140694
0.003956369271021917
0.003986749870456106
0.004018030393093498
0.004051447307965426
0.004088353921257258
0.004130209508690969
0.00417856286799391
0.004235029787435845
0.004301264470038755
0.004378925666532529
0.004469639069658386
0.004574958268020564
0.004696327077772531
0.004835046209164017
0.004992246898477846
0.005168873373008899
0.005365674962345067
0.0031610433167090857
0.0029782216135441266
0.0028256713749360554
0.0027043588312063676
0.0026145676049978534
0.002555691303784332
0.002526138625241197
0.0025233932454872274
0.002544219658075944
0.0025849572301680423
0.002641825112131727
0.0027111753954259235
0.002789664683243832
0.0028743445657980304
0.002962688749196613
0.003052579062507194
0.003142269496391948
0.003230341803946187
0.003315660903935782
0.003397334410562238
0.0034746781062771274
0.003547187743654266
0.0036145168407804
0.0036764598334953786
0.0037329398731489657
0.003784000591367652
0.0038298012250037273
0.0038706145670197316
0.003906827262056588
0.003938941987566362
0.00396758104625931
0.003993490839715461
0.004017546595693373
0.0040407565865706735
0.004064264914061965
0.0040893517669711695
0.004117429919257268
0.004150036175705391
0.0041888165553850675
0.00423550429475904
0.004291890301453112
0.004359786500150614
0.004440983514992885
0.0045372051730052316
0.004650063165294056
0.0047810156267363586
0.004931333217019743
0.005102075476346014
0.0052940789336028945
0.0030928693163477954
0.002915479424648124
0.002770191017028808
0.00265793851523581
0.002578815841145872
0.0025318668089609198
0.0025150302423424414
0.002525272773418507
0.0025588746781550734
0.002611783863509977
0.002679946986627435
0.0027595581426329407
0.002847207727755216
0.0029399447333963843
0.0030352784707852057
0.003131145328488517
0.0032258599098619056
0.0033180628609514855
0.0034066721183255403
0.0034908406063283966
0.0035699212569539184
0.003643439116150056
0.0037110698211626414
0.0037726235982401012
0.003828033962576668
0.0038773504023712517
0.003920734442207835
0.003958458579635326
0.00399090765851849
0.004018582275424435
0.004042103805605381
0.004062220578679428
0.0040798146276881326
0.004095908278458052
0.004111669644759235
0.004128415864896121
0.00414761268958375
0.004170868862892737
0.00419992370372552
0.004236626486316551
0.004282906722042106
0.004340735310174083
0.004412077718722482
0.004498841726635969
0.004602823532850353
0.004725656875126644
0.004868769900812686
0.005033353757227326
0.005220345334717979
0.0030230482938251165
0.002851314615310907
0.0027136239569546207
0.0026108534372077646
0.002542858132721683
0.002508269911216935
0.002504500570796536
0.0025279640966006846
0.0025744493159695465
0.0026395293638410426
0.002718908236455738
0.002808654306355097
0.0029053195289693357
0.003005970766504204
0.003108166167228829
0.00320990406701092
0.0033095629170529686
0.0034058428186089
0.003497713724000394
0.003584372052211126
0.003665205722940725
0.0037397668305596448
0.003807750928141994
0.0038689819041687933
0.003923401558728297
0.003971063141786186
0.00401212826351305
0.004046866707048351
0.004075658758619802
0.004098999713514606
0.004117506214457016
0.004131924026166398
0.00414313674035617
0.004152174734287289
0.004160223472641942
0.0041686299559941225
0.004178905805684609
0.004192725186107981
0.004211915584957293
0.004238439514680858
0.004274365594427589
0.004321828329010591
0.004382977246615202
0.00445991777112522
0.004554647987095138
0.004668996856734036
0.004804569998066754
0.004962708527172492
0.005144464729946055
0.002951603968629442
0.002785762287789919
0.0026560245669511777
0.0025631793223170464
0.002506785590167549
0.002484994733129518
0.00249463305229854
0.0025315304055581675
0.002590983745190175
0.0026682141257358283
0.002758715949341725
0.002858464572658844
0.002963999931277003
0.003072425221264143
0.0031813587383428296
0.0032888666556900245
0.0033933934997665473
0.0034936988068571236
0.003588803281998685
0.0036779449858800484
0.003760544774052594
0.003836179748746147
0.0039045634403994437
0.003965531576885896
0.004019032499319606
0.00406512148432671
0.0041039584074045055
0.0041358083201777605
0.004161044612105821
0.004180154481951075
0.004193746452318788
0.004202559615666935
0.004207474193898742
0.004209522816437086
0.0042099016659459644
0.0042099803065274366
0.004211308612360317
0.004215618799287027
0.0042248202119476875
0.004240984366668634
0.0042663179678081135
0.004303122380690936
0.004353739471036919
0.004420485761106734
0.004505579212783599
0.004611065078849693
0.004738748487390906
0.004890141186313541
0.00506642802461099
0.0028785614987863854
0.0027188606150155255
0.0025974526449343937
0.0025149992099374736
0.0024706969671844338
0.0024621417015253896
0.0024855154043382723
0.002536037691465501
0.0026085206408590226
0.002697861736448303
0.00279938149688993
0.0029089948650749342
0.0030232545556610254
0.003139316519892193
0.0032548686904040245
0.0033680496103529294
0.0034773712260442883
0.003581651994734282
0.003679961901414116
0.0037715787793783932
0.003855954478298562
0.003932689258706067
0.004001512933497703
0.004062271526982469
0.004114918485421716
0.004159509709731767
0.004196201877032544
0.004225253670207035
0.00424702964402686
0.004262006522479599
0.0042707817417559435
0.004274084020196348
0.004272785639672961
0.004267915948456317
0.00426067532872737
0.0042524485019472
0.0042448155750639885
0.004239558690261472
0.004238661606571736
0.004244299152514668
0.004258813453384254
0.004284674408331881
0.004324423296160367
0.004380600694721284
0.004455662875005157
0.004551893860860896
0.004671322516640483
0.004815654439662079
0.004986226639904214
0.002803947573818314
0.0026506512322587708
0.002537974153374563
0.0024664043398949847
0.0024346993946062225
0.002439817998414289
0.002477239910757636
0.0025415550806574547
0.00262710565368359
0.0027284995505415187
0.002840921122089763
0.002960256886990049
0.00308309528747866
0.0032066594040136885
0.0033287145799772047
0.0034474750337694753
0.0035615207033269846
0.003669728034970031
0.0037712146548714636
0.003865296302389672
0.003951453991263186
0.004029309472495069
0.004098607374457438
0.004159202735744962
0.0042110529591855225
0.004254213479281583
0.00428883664725474
0.0043151735014806455
0.004333578210631124
0.004344515054170123
0.004348567837956025
0.004346451624672884
0.004339026577283536
0.004327313550927466
0.004312510802874329
0.004296010799598252
0.0042794155717652115
0.004264548412960819
0.004253458994563945
0.004248418310951019
0.0042518995081764835
0.004266540911270312
0.004295088806380525
0.004340319992608288
0.00440494769914352
0.0044915185458016885
0.004602311663304267
0.004739252541725869
0.004903852716544354
0.0027277905255544523
0.002581179708452147
0.0024776620904865304
0.0024174951632095214
0.0023989091832854847
0.002418138040856936
0.002469903746252474
0.002548155226518271
0.0026467879530807856
0.002760159331209924
0.002883356590755137
0.003012268730822404
0.0031435408367564872
0.0032744754639459396
0.0034029215320084236
0.0035271711320910204
0.003645872089809481
0.003757957556511926
0.003862591032584405
0.003959124316501423
0.004047065870812108
0.004126057445361547
0.0041958572343331856
0.004256328255799902
0.0043074309928623385
0.004349219618833108
0.004381841351937421
0.004405538656865412
0.004420654138682721
0.004427638062864446
0.004427058482599468
0.004419613954334694
0.004406148761438217
0.004387670423175292
0.00436536901401541
0.0043406374240519685
0.004315091124858323
0.004290585253796537
0.004269225924666987
0.0042533717263831695
0.004245620621006025
0.004248777282883871
0.00426579682722583
0.00429970331461276
0.004353485521290941
0.004429977713127782
0.004531738216968183
0.004660941572104114
0.0048192993506408375
0.0026501204630111704
0.0025104961173051774
0.0024165975201995097
0.002368382493284489
0.0023634526977240867
0.0023972239886971263
0.0024636093385804166
0.002555914765058269
0.002667620844717537
0.0027928779637297384
0.002926715912810845
0.003065055559887309
0.0032046173759376073
0.0033427937475039434
0.0034775218346802107
0.0036071728009096334
0.0037304616656514875
0.003846376706419599
0.003954125435968826
0.004053093900628373
0.004142816416151609
0.004222953413782801
0.004293275615120115
0.004353653221816531
0.0044040491833287326
0.004444515902053376
0.004475194965100533
0.004496319669471641
0.004508220242694396
0.004511331759575533
0.004506204817898329
0.00449351905555383
0.004474099555202724
0.004448936067578776
0.00441920475820948
0.004386291802244018
0.004351817570798473
0.004317659330407556
0.00428596931021925
0.004259183755136793
0.00424001739509498
0.0042314370403351235
0.004236608387569703
0.004258812302923716
0.004301331300601079
0.0043673133887101815
0.004459627484076118
0.004580729744796513
0.00473256086538321
0.0025709694397371362
0.002438655733915609
0.002354870792654556
0.0023191888143160003
0.002328467300261032
0.002377206278204586
0.0024584647726009178
0.002564914840927027
0.0026896624687175936
0.0028266982470548127
0.002971034139949549
0.003118650369391209
0.003266359260535938
0.0034116514524613925
0.0035525556140396323
0.003687522283207229
0.003815332465830516
0.003935027742426723
0.0040458577114256995
0.00414724090725712
0.0042387360297135015
0.0043200210495439135
0.0043908783867908805
0.00445118486587928
0.004500905545846947
0.004540090827080467
0.004568876469022104
0.004587486334094319
0.004596237813966323
0.0045955500024320705
0.004585954756115555
0.004568110824955848
0.004542821225986346
0.004511053953102467
0.004473965926290471
0.004432929735695646
0.004389562165380101
0.004345752621371533
0.004303688392020064
0.004265872158685643
0.004235125522685753
0.004214570938002067
0.004207584071681857
0.0042177102393251495
0.004248543083723176
0.004303571247006033
0.004386008114800391
0.004498627754052992
0.004643633122465851
0.002490371664960509
0.002365719889744606
0.0022925829931311394
0.00227004976382865
0.0022941023629077443
0.002358224178682753
0.002454584240759474
0.002575241711148964
0.00271297658523264
0.0028616697702493264
0.0030163542468440918
0.0031730948335477595
0.0033288098386572533
0.003481094707279242
0.003628071591831829
0.003768269901741837
0.0039005349764537384
0.00402395967723687
0.00413783372445715
0.004241606448557086
0.004334859599606295
0.004417287726222676
0.004488684329522921
0.004548932531462965
0.004597999400118756
0.004635933379146869
0.00466286450171207
0.004679007251029867
0.004684666074631152
0.004680243676100471
0.0046662522992877604
0.004643328282303884
0.0046122501803091765
0.004573960714539646
0.004529592662771104
0.004480498507271165
0.004428283122895494
0.004374837926024074
0.004322373622145473
0.004273446942905738
0.004230974648305753
0.004198225957228094
0.004178783249706814
0.004176461603339345
0.0041951819100491386
0.00423880079917493
0.004310912451317257
0.004414649159656108
0.004552513877458366
0.0024083637739038635
0.0022917570281232764
0.0022298476643660002
0.00222111580535109
0.0022605203402503308
0.002340426368024575
0.002452088545238728
0.0025869874345204025
0.002737633454753278
0.0028978498812455176
0.0030627281038668854
0.003228440246472696
0.0033920223559337596
0.003551179445244625
0.003704127930381107
0.003849474868604906
0.003986127896258847
0.004113228975242342
0.004230105973627876
0.004336237410549152
0.004431226899414964
0.00451478479344712
0.004586715275146442
0.004646907678908321
0.004695331240712786
0.00473203277078558
0.0047571369752889975
0.004770849334081635
0.004773461589108463
0.004765360021889808
0.004747036803254635
0.004719104782125764
0.004682316133095908
0.0046375852838534005
0.0045860164562869605
0.004528935920154894
0.0044679285878061765
0.004404877754147256
0.004342005469337867
0.004281909103735404
0.0042275871188432144
0.004182444166296917
0.004150263175562767
0.004135131517314502
0.004141311645050126
0.004173055559560658
0.0042343768961406805
0.004328810814555629
0.004459203183647672
0.0023249851781794906
0.002216844014526917
0.002166792855159578
0.00217255410479231
0.002227897892062927
0.0023239715221856933
0.0024511056578065955
0.00260025065536168
0.0027637108213642
0.0029353047564080444
0.0031102175502095777
0.00328474856530265
0.003456060963073461
0.0036219723776800467
0.003780793168677383
0.003931206174727769
0.004072178964755216
0.004202900301751443
0.004322734243012251
0.0044311869924557774
0.0045278830009332915
0.0046125478530202315
0.004684996240567459
0.0047451238740545045
0.00479290258274126
0.004828378150082902
0.004851670655705924
0.004862977273564308
0.004862577624465944
0.004850841910963244
0.004828242179469915
0.004795367158601642
0.004752941206970063
0.004701847949946975
0.004643159158712377
0.004578169267062562
0.004508435538067035
0.004435823146029502
0.004362553147680156
0.004291249281145795
0.004224976620470531
0.004167261446278657
0.004122077942151848
0.00409378506410358
0.00408699872754543
0.004106393181443418
0.00415644229838802
0.00424113333777595
0.004363703849208503
0.0022402785248654927
0.0021410677715136546
0.0021035635567019893
0.0021245506192725926
0.0021964270381655353
0.002309028912631719
0.002451771344455451
0.002615137491284729
0.002791295008173363
0.0029741105805224186
0.003158895577346617
0.0033420935648661256
0.003521001833943977
0.0036935520724052174
0.0038581472540845274
0.004013543562043689
0.0041587658580269585
0.004293047324036997
0.004415786290684783
0.004526515267007225
0.004624878693860172
0.004710617029342861
0.004783555544236337
0.004843596750042751
0.004890715772093304
0.004924958265974614
0.004946440692926116
0.004955352943895502
0.004951963450099378
0.0049366270521507185
0.0049097960273281095
0.004872034797743781
0.004824038956808083
0.004766659343215957
0.004700931930328852
0.004628114228162225
0.004549728619885915
0.0044676124242604915
0.00438397327149331
0.00430144632507854
0.004223146704665704
0.004152706080624578
0.004094277285213635
0.004052486462959398
0.004032311815413239
0.004038875551320278
0.0040771543549109925
0.004151641635464759
0.004266021952904797
0.0021542903036191547
0.0020645273285544823
0.0020403245966966123
0.002077312399053818
0.002166316320632024
0.0022957790052766302
0.002454229863315315
0.002631762535842682
0.0028204821354402493
0.003014354848185515
0.0032088476340048936
0.0034005621142321287
0.0035869344028687192
0.003766010144116477
0.003936282674240961
0.004096578580772598
0.0042459771525514955
0.004383753562432497
0.004509338569356411
0.004622289755753956
0.004722270904603345
0.004809037224586904
0.004882424894711247
0.004942343930300956
0.004988773747620863
0.005021761077817531
0.005041420089049129
0.005047934743957814
0.005041563565964781
0.005022647124921202
0.0049916186890514936
0.004949018630441372
0.004895513314623088
0.004831919341359592
0.00475923410881601
0.0046786736967654435
0.0045917189144819015
0.004500169879651208
0.004406208440780224
0.004312465778917893
0.00422208920808199
0.004138797209119955
0.004066905229245309
0.004011298089792641
0.003977321313084851
0.003970568829169735
0.003996564022100647
0.004060365472848921
0.00416616742390106
0.0020670716563618266
0.001987336403319113
0.001977264069177546
0.0020310700905025398
0.002137791939706678
0.0022844140545398473
0.002458634746163951
0.002650249988407868
0.002851379473525846
0.003056137799271392
0.003260173065320642
0.003460255586673517
0.003653962730687716
0.003839452563844894
0.004015305693764114
0.004180415733847651
0.004333913356443075
0.004475113288285761
0.004603476973448773
0.004718586011313863
0.004820123103994342
0.004907858346615499
0.004981639437891948
0.005041384898311687
0.00508707974038923
0.005118773294345652
0.005136579089985913
0.005140676856774632
0.0051313168472224314
0.005108826826981891
0.005073622218409551
0.005026220039520564
0.004967257449755757
0.004897515893125244
0.00481795200031726
0.004729736532606721
0.004634302638384614
0.0045334043948777976
0.004429185763108963
0.004324258288220084
0.004221782573900674
0.004125543150129695
0.00403999857175439
0.00397027932913559
0.003922098763325461
0.003901543420305235
0.003914727932888219
0.003967340099714805
0.004064154691669491
0.001978679465669556
0.0019096266649247047
0.0019145973832127576
0.001986080609132685
0.002111098819944021
0.002275138687144644
0.00246514967625513
0.002670734925624072
0.0028841069448464884
0.003099574003137135
0.003312986700585045
0.0035212914159486693
0.003722207010080277
0.003914001095108331
0.00409533770027231
0.004265173709793362
0.00442268800622188
0.004567232463740477
0.0046982976046013765
0.004815488195815151
0.004918505690781853
0.005007135494572496
0.005081237746424205
0.005140740796795793
0.005185636892325025
0.005215979824610382
0.005231884484074731
0.005233528413150643
0.005221155591617224
0.005195082824820846
0.005155709253773623
0.005103529673588429
0.005039152539347705
0.004963323757022237
0.004876957591533927
0.004781176243508428
0.004677359780019635
0.004567208010865711
0.004452815319578635
0.004336757944765605
0.004222190085462386
0.004112939598908093
0.004013585205745862
0.0039294852471869635
0.003866716085437818
0.0038318738625321602
0.0038317088119452698
0.0038726069318019483
0.003960003412440873
0.0018891778290268486
0.001831551873037841
0.0018525720136335446
0.0019426299249022763
0.002086501552943084
0.0022681704728229274
0.002473949478269715
0.0026933647311454386
0.0029187987914409655
0.0031447941085892273
0.003367420605971252
0.003583804813317256
0.0037918052216240625
0.0039897948647260335
0.004176516663906757
0.004350986704338839
0.004512428825492722
0.004660229715955817
0.004793907544702974
0.004913089641499575
0.005017496334246054
0.005106929083435595
0.005181261731155971
0.005240434135448484
0.005284447773323327
0.005313363120544262
0.005327298788459671
0.005326432541814046
0.00531100445427314
0.005281322594324281
0.005237771785280856
0.005180826160123594
0.00511106644420866
0.005029203152635029
0.004936107182774196
0.004832849597486048
0.004720752676806996
0.004601454442622844
0.004476988584497596
0.004349880578526571
0.004223258026381949
0.004100967714078807
0.003987682284812008
0.0038889650782904708
0.0038112446422575545
0.0037616386104766
0.003747575880374654
0.003776214290217394
0.0038537392791820097
0.0017986400710792406
0.0017532931415020785
0.0017914730271552733
0.0019010358652037428
0.002064285153586664
0.00226374048347366
0.0024852212401277303
0.0027183007034993047
0.00295560542788274
0.003191946779579452
0.0034236260211308036
0.0036479506615589036
0.003862914953168695
0.004066992076554954
0.0042589987139431485
0.00443800582955961
0.004603278939593844
0.0047542373353138215
0.004890425621884563
0.005011493375362213
0.00511718025491596
0.005207304884369763
0.005281756450128148
0.005340488382180297
0.005383513772043671
0.005410902387389021
0.005422779301142553
0.005419325286202925
0.005400779252722591
0.0053674431372923185
0.005319689805135372
0.005257974710119009
0.005182852285558859
0.00509499832295148
0.00499523994305218
0.004884595168876328
0.004764324538798973
0.004635997553234827
0.00450157681066996
0.0043635220129269086
0.0042249137850701906
0.004089592109245415
0.003962294240550817
0.003848760521320179
0.003755754119430409
0.003690919697341136
0.0036624052393020813
0.0036782182006388836
0.0037453949227279912
0.0017071515117616774
0.0016750656428587668
0.0017316294307351526
0.0018616507927502097
0.0020447555597993376
0.0022620938492273236
0.002499165591381352
0.0027457198658964004
0.002994695503163264
0.0032412008400968177
0.00348177550138532
0.0037139056043104584
0.003935715396218322
0.004145771876487833
0.004342959835106512
0.004526400607314763
0.004695398137258445
0.004849402283307627
0.004987983150386029
0.0051108125846826705
0.005217650417052293
0.005308333952327483
0.005382769785350103
0.005440927407893139
0.005482834331122157
0.0055085726342652104
0.005518276993274056
0.005512134365366008
0.005490385623033301
0.005453329558436762
0.005401329829504864
0.005334825606599983
0.0052543469186973595
0.0051605360072503655
0.005054176389945391
0.004936231824026322
0.004807897927074023
0.004670669797092969
0.00452642939474115
0.004377556301766924
0.004227063925485273
0.004078758771917339
0.003937410668213351
0.0038089038477761993
0.003700311202627012
0.0036198022530422426
0.0035762802196897796
0.0035786832536670145
0.003635010912509472
0.0016148133050004215
0.0015971271511811785
0.0016734213354144111
0.001824863955400292
0.002028239804235525
0.0022634903299180937
0.002515998169090956
0.002775817006676087
0.003036258199846062
0.0032927476559260847
0.0035420652905940224
0.0037818703513393228
0.004010409534159825
0.00422633637692249
0.004428597684727352
0.0046163605409802
0.004788964166405777
0.004945887190870006
0.005086724619491886
0.005211170994095005
0.0053190076001414606
0.0054100924059366454
0.005484351951402515
0.005541774749021615
0.005582405992323007
0.005606343532674512
0.005613735212569655
0.005604777753609879
0.005579717505874396
0.005538853486206742
0.005482543279995932
0.005411212569601668
0.005325369300586894
0.005225623825604868
0.005112716798908392
0.004987557154474655
0.004851273197774583
0.004705280646241827
0.004551372239989023
0.004391833969442126
0.004229592250034387
0.00406839293748983
0.00391300410342617
0.003769415830037323
0.0036449780418409496
0.00354837385694545
0.0034892916834891132
0.0034776835272473535
0.0035226368663643513
0.0015217478060891494
0.0015197889128021715
0.0016172878330955951
0.0017911032347107192
0.002015085793324652
0.002268204933988312
0.0025359513097641434
0.0028088069853729625
0.0030805058046902574
0.003346803786057408
0.003604717953788079
0.0038520722230211187
0.004087226538263646
0.004308912848367917
0.004516133529707162
0.004708096755741529
0.004884174046042033
0.005043871321641746
0.005186808299646823
0.0053127031172238645
0.005421360308798433
0.005512661016963182
0.005586554792544636
0.005643052645321828
0.005682221211190504
0.0057041780456669735
0.005709088164647883
0.005697162050435391
0.005668655439280667
0.00562387131968198
0.005563164712495756
0.005486950990827638
0.0053957187497149965
0.005290048578054345
0.005170639549255177
0.005038345868454995
0.0048942269258314955
0.004739615017029183
0.004576206137310404
0.00440618027965151
0.004232357884833175
0.004058396951817747
0.0038890277204610153
0.003730303506206454
0.003589810496940702
0.003476723703459676
0.0034015382589678567
0.0033753035716202733
0.003408332680325376
0.00142810613866287
0.0014434294300895382
0.00156373532452736
0.0017608359459380157
0.002005661649018581
0.002276528634342351
0.0025592760153053122
0.002844927347178349
0.0031276765921636022
0.0034036139426892346
0.0036699853033288496
0.003924767960201894
0.004166424388352483
0.004393756084753842
0.004605814299125811
0.004801843692719667
0.004981245369652606
0.005143551466776379
0.005288406725033123
0.005415554336569864
0.005524824471013868
0.005616124557422968
0.00568943081635904
0.00574478080256474
0.005782266893944005
0.005802030784726924
0.005804259134617649
0.005789180609071634
0.005757064632855766
0.005708222282903698
0.005643009881338727
0.0055618360322884156
0.005465173098465743
0.005353574464076227
0.005227699417182359
0.005088348155135647
0.0049365103262459025
0.004773431718130693
0.00460070518900154
0.0044203935616937695
0.0042351934219679414
0.004048648161811342
0.0038654129905929713
0.003691557807216368
0.0035348561654186036
0.003404941559893062
0.0033131264908094647
0.003271639456831747
0.003292169891186568
0.0013340789470161845
0.0013685118250878674
0.0015133457866047762
0.0017345682776297579
0.002000354605591103
0.0022887692521606625
0.0025862442523552206
0.0028844412982968392
0.0031780380710976185
0.003463454306159179
0.0037381516578051193
0.00400024682878398
0.004248292735681663
0.004481150947095629
0.004697914743916264
0.004897860835511604
0.005080417566865822
0.005245142727825357
0.005391707000879776
0.005519880753871899
0.005629522863270821
0.005720570841470145
0.005793031901835609
0.0058469748207709725
0.005882522601665479
0.005899846045195941
0.005899158406521882
0.0058807113886819905
0.0058447927963226655
0.005791726267470748
0.0057218736273934355
0.005635640584925219
0.005533486740849784
0.0054159412313141446
0.005283625830074552
0.0051372880402853925
0.004977847695319127
0.004806461945592349
0.004624615304377404
0.004434243627759992
0.004237903157996831
0.004038996879393064
0.0038420673474781463
0.0036531510822835067
0.0034801522019930423
0.003333116498517804
0.0032241708834934773
0.0031667998824864802
0.003174233187292627
0.0012399117792144681
0.00129560548324865
0.0014667840941686887
0.0017128429270818588
0.001999569511305842
0.002305252604921298
0.002617151658231472
0.002927641106829054
0.003231890655606147
0.0035266362499773453
0.003809537479148521
0.004078834051695476
0.004333156025722514
0.004571415087098593
0.0047927396889153075
0.004996434438910596
0.0051819530791272096
0.0053488791315864734
0.005496910870146475
0.005625848739200282
0.0057355841873133915
0.0058260893862124965
0.005897407608023433
0.005949644218363966
0.00598295835828228
0.005997555464315981
0.005993680833335846
0.005971614492185099
0.005931667693866152
0.005874181444291266
0.005799527580066865
0.005708113085730587
0.005600388581855342
0.005476862266688826
0.005338121101088803
0.005184861757192912
0.005017934899534919
0.004838407855813499
0.004647652801320441
0.0044474703193878974
0.004240261472728262
0.004029264470019956
0.0038188719149254684
0.00361503457012982
0.003425722950431246
0.003261335389105421
0.0031347938147271914
0.003060907349256205
0.0030546220867027135
0.00114592719818444
0.0012254125978801425
0.0014248029899295025
0.0016962345234292973
0.0020037270638872456
0.0023263240433869653
0.002652320743402342
0.0029748520088185557
0.003289571834642125
0.0035935105417246958
0.003884503440652993
0.004160894604247099
0.0044213768977970115
0.00466490184748708
0.004890626354049797
0.005097879217814781
0.005286138390866155
0.005455014004806133
0.005604234457299481
0.005733634089980757
0.0058431417069041
0.005932769600359935
0.006002602995790023
0.006052789971019229
0.006083531989438817
0.00609507523882762
0.006087703005285309
0.00606172934879988
0.0060174943948089026
0.005955361626172446
0.0058757176654522705
0.0057789751953315205
0.005665579899152187
0.0055360226482571925
0.005390858668792615
0.005230736162781029
0.005056437946040297
0.004868941253533743
0.004669503153655507
0.004459782226551455
0.004242011397315778
0.004019241622649393
0.0037956793606426864
0.00357713587532532
0.003371577420681898
0.0031896811446526945
0.003045125294545363
0.0029540993918033597
0.002933452807112821
0.0010525565884384786
0.0011587999181635247
0.0013882436334321968
0.001685342576233302
0.002013262006802357
0.0023523505333582747
0.002692104700688968
0.003026436717664867
0.003351460930686578
0.0036644720980904956
0.00396345498665503
0.004246837411959354
0.004513359876384852
0.004762003328680177
0.004991946709708547
0.005202539938814909
0.00539328483924863
0.0055638200164332356
0.005713907585961366
0.005843420690453101
0.0059523313332948925
0.0060406983917772215
0.006108655859690537
0.006156401471069351
0.006184185909198701
0.006192302831689735
0.006181079959572539
0.006150871498226938
0.006102052191160023
0.006035013364823113
0.005950161416350193
0.005847919342796312
0.005728732133626829
0.0055930771826185706
0.005441481373532382
0.005274547236016324
0.005092991675877749
0.004897702438905343
0.004689819930806341
0.004470855628727053
0.004242863425955826
0.0040086868635320055
0.003772311947327052
0.0035393565212283365
0.0033177066589485313
0.0031182307219522754
0.0029553025453926064
0.0028465298733855835
0.002810860359340456
0.0009603856575072911
0.0010968351816964556
0.0013580289553794555
0.0016807819851324172
0.0020286216226328463
0.0023837234707229328
0.002736891955923826
0.0030828006579845173
0.003417984557621244
0.003739965387011098
0.004046847453417787
0.004337119992263814
0.004609555364665601
0.004863153600913042
0.005097109815305443
0.005310792836488743
0.005503729102018236
0.005675588769755421
0.005826172541417446
0.005955398537046361
0.006063289024902304
0.006149957064353248
0.006215593249400772
0.006260452799194013
0.006284843260904698
0.00628911309028325
0.006273641370557714
0.006238828932176067
0.0061850911538428345
0.006112852769193627
0.006022545084901135
0.005914606150693867
0.00578948463244306
0.005647648460534989
0.005489599810453131
0.005315898704103335
0.0051271986294281514
0.004924299265717127
0.004708223983577442
0.004480333713811161
0.004242494631081368
0.003997325381517652
0.003748559859566075
0.00350156966286506
0.00326408107444777
0.0030470528904048277
0.0028654693794082677
0.0027383703437352247
0.0026870009067642433
0.0008702185780278221
0.0010408257714653913
0.0013351465836444788
0.0016831716126651766
0.0020502649676734904
0.0024208624523901416
0.002787111624732519
0.0031443980731443747
0.0034896229114193
0.0038204905869627026
0.004135191830095947
0.004432253582391785
0.004710463943333116
0.0049688320255943524
0.005206564068116758
0.0054230467494088535
0.0056178332325669085
0.005790629794859358
0.005941282117215632
0.006069760965009712
0.0061761473393290075
0.006260617350897883
0.0063234271406423966
0.0063648981849931995
0.006385403307740451
0.006385353691793555
0.00636518715650815
0.006325357949280463
0.006266328302484298
0.006188562037338374
0.00609252056549629
0.005978661761602045
0.005847442377331152
0.005699324972930298
0.00553479080879851
0.005354360851626759
0.005158628142951093
0.004948306471800175
0.004724302938149886
0.004487826137954691
0.004240548147851248
0.003984848237636198
0.0037241798912505957
0.0034636180541460677
0.003210647803739714
0.002976205797208541
0.0027757753516200307
0.0026298114641397762
0.0025620544482670366
0.0007831662144946942
0.0009923526786433875
0.0013206184580301851
0.0016931220218405056
0.0020786633825108473
0.002464220261379106
0.0028432400768608253
0.0032117391902539514
0.0035669170555808613
0.003906610632992874
0.004229061247913277
0.004532808794111395
0.004816640965423647
0.005079566627804724
0.0053207992597209125
0.005539743835420059
0.005735984072558665
0.00590926875196619
0.0060594967462507645
0.006186700875620165
0.006291030944024198
0.006372736401983134
0.006432149094238693
0.0064696665173335
0.006485735958200232
0.006480839826056328
0.006455482437950084
0.006410178481991324
0.00634544336910903
0.006261785701698294
0.006159702145011003
0.006039675097731742
0.005902173741878421
0.005747659340749446
0.005576596098397046
0.005389469578819399
0.005186815745681667
0.0049692653525874216
0.004737611069436239
0.004492908997231187
0.004236633100079502
0.003970912036690032
0.0036988945835104764
0.003425312373607263
0.0031573282110563296
0.0029057343748663004
0.0026863746722273598
0.002521064507348694
0.0024362279040171767
0.0007007649479386285
0.0009532832851199442
0.0013154562033504118
0.0017112241009893158
0.002114302871900742
0.002514289363068191
0.0029058088548633842
0.0032853986687403874
0.0036504773969267402
0.00399895930092833
0.004329098293920182
0.004639421830066369
0.004928701418518223
0.005195937430724671
0.005440348297039934
0.005661359679189107
0.005858591822803918
0.0060318446064868605
0.00618108046952731
0.006306405720641341
0.006408050855222449
0.006486350520852632
0.0065417237193400165
0.00657465474981786
0.006585675302677277
0.006575348022928806
0.0065442517843116626
0.006492968859647331
0.006422074144722898
0.006332126598526708
0.006223663109637194
0.006097195098366017
0.005953208334971737
0.005792166725476734
0.0056145212372025605
0.005420725787552362
0.0052112629386696285
0.004986683859694224
0.004747669634812931
0.004495125290588946
0.004230325046521238
0.003955139143471424
0.0036723919074702813
0.003386430020922241
0.003104015640222342
0.0028356676577297154
0.0025974248680393237
0.0024123629454033896
0.002309758714874823
0.0006251445250789979
0.0009257295279534031
0.0013206054581777443
0.0017380407614178647
0.002157688965499917
0.0025716102545692635
0.002975414250463081
0.0033660256103581997
0.0037409935870861936
0.004098250504942067
0.004436023251412015
0.004752801283864294
0.005047324996121828
0.005318579618993346
0.005565788390619175
0.005788402544204376
0.005986087489930128
0.006158705474952657
0.006306295438727601
0.006429050950638143
0.0065272971332654365
0.006601467402239905
0.006652080733842722
0.00667972003245103
0.006685012030932681
0.006668609031491414
0.006631172691215462
0.006573359981746865
0.006495811410585532
0.006399141586926402
0.006283932253398929
0.0061507279959803944
0.006000035003507882
0.00583232350253087
0.005648034888426765
0.005447595187414521
0.005231437449330157
0.005000037218102804
0.004753967759766345
0.004493985962591952
0.004221167033578645
0.003937118531086834
0.0036443255895002207
0.003346714502441363
0.003050573549626098
0.002766016097692876
0.0025090851928198047
0.002303964146137047
0.002182919111877381
0.0005593321507906571
0.0009119000727858358
0.0013368881121512128
0.001774104006619278
0.002209354651922668
0.002636782065292439
0.0030527289126549596
0.0034543554715761255
0.003839246131263483
0.004205289008167109
0.004550643369658549
0.0048737355229689396
0.00517326127573481
0.005448186336680618
0.005697741439682711
0.0059214114421854884
0.006118918846474643
0.006290202765079172
0.006435394580565249
0.0065547915759462845
0.006648829716406745
0.006718056599152217
0.006763105393012624
0.0067846703892517875
0.00678348459809127
0.006760299663776403
0.0067158682419459935
0.006650928890741905
0.006566193473920264
0.00646233706235485
0.006339990353287901
0.00619973471147991
0.0060421000862756905
0.005867566297420533
0.005676568552133847
0.005469508629191044
0.005246774069253083
0.005008769167799544
0.0047559639779258716
0.004488971623882525
0.004208671347978959
0.003916407353828242
0.003614316179261382
0.0033058755278653124
0.0029968341754346723
0.002696768994570019
0.0024215147990971843
0.002196151209093491
0.0020560212789088204
0.0005080186870389303
0.0009138067894963676
0.0013649563742406754
0.001819919326654828
0.002269871939418937
0.0027104758810923696
0.003138515950680185
0.0035512242958806893
0.0039461200387903555
0.004320982769352059
0.004673863257136571
0.005003100614518307
0.005307334835912671
0.005585510840350627
0.0058368732457317165
0.006060952590137705
0.006257544441398736
0.0064266831405390195
0.006568611970478168
0.006683751423599638
0.006772667025739449
0.0068360379080797395
0.006874627038439586
0.006889253755536698
0.006880769011378676
0.0068500335284871604
0.006797898925277282
0.006725191756148505
0.006632700352316491
0.006521164334539978
0.006391266700532533
0.006243628472319299
0.0060788060325319545
0.005897291504222956
0.005699516873890814
0.005485863088921768
0.005256676196996357
0.005012293948354435
0.004753088539161774
0.004479535056983643
0.004192322070724773
0.0038925333421143907
0.0035819529628855627
0.0032635899418261873
0.0029425978790054773
0.002627892183301012
0.0023348707001878202
0.002089234983620082
0.0019294237295463062
0.0004792280354763775
0.0009328720345551121
0.0014052732217267627
0.0018759786257254128
0.0023398675666353864
0.00279345136600946
0.003233646107389815
0.0036575857759856716
0.0040626209089057955
0.004446357167060063
0.004806696468870006
0.005141868691552529
0.005450450049767604
0.005731367609988522
0.005983891056334727
0.0062076136929855585
0.006402425072468437
0.0065684777292111945
0.006706150369902268
0.006816009601199834
0.00689877192307255
0.006955267332643547
0.006986405507051259
0.006993145191245338
0.006976467124232239
0.006937350603130646
0.006876753610355718
0.006795596313242287
0.006694747683433328
0.006575014971409964
0.0064371358073655755
0.006281772784608204
0.006109510523275109
0.0059208554275449535
0.005716238671930834
0.005496023442112342
0.0052605182218580125
0.005009999157429899
0.004744746610396852
0.004465104624572132
0.004171578541405892
0.0038649981222893042
0.0035467968254720935
0.003219503614046578
0.0028876333417445464
0.002559326146850359
0.0022493055708588034
0.0019835563242249095
0.0018035393636942915
0.0004838980010005632
0.0009696177432244603
0.0014581280593131346
0.0019427819800543682
0.002420043403508386
0.0028865773960082444
0.003339118720683215
0.003774531766667746
0.004189893908276912
0.004582571350588438
0.004950278310410198
0.005291116559371922
0.005603595155791328
0.0058866318589050805
0.006139538768530378
0.006361995320426021
0.006554011976790014
0.0067158878608079425
0.006848165275656191
0.006951583601954258
0.0070270345550186054
0.007075520262670734
0.007098115138554726
0.007095932102503252
0.0070700933528320695
0.007021705629667005
0.0069518397205196895
0.006861513842220612
0.00675168047828679
0.006623216249695762
0.006476914444057015
0.006313479921550624
0.006133526260217999
0.0059375752120480185
0.00572605884353264
0.005499325183801006
0.005257648898215854
0.005001249625830009
0.004730322503937548
0.004445088706311252
0.004145879849558401
0.003833281569513627
0.0035083841690371014
0.0031732344103691983
0.0028316787742913227
0.0024909847493195425
0.0021649654583131405
0.0018794886464976537
0.0016788458841110838
0.0005267714413785155
0.001023642924258941
0.0015236864346930726
0.002020867771272224
0.0025112021831490937
0.002990857612069405
0.003456087370309535
0.0039033169997871467
0.00432924615973515
0.004730936953903113
0.005105879794546681
0.005452034192684925
0.005767845012180036
0.006052236663317971
0.006304588895033781
0.006524698432156003
0.006712730806703911
0.0068691664650847245
0.006994744714047412
0.0070904084083235576
0.007157251576094072
0.007196471496603689
0.007209326135854081
0.007197097338573108
0.007161059777630348
0.007102455373394823
0.007022472705065006
0.006922230829806121
0.0068027668889198535
0.006665026900183347
0.006509859202237815
0.0063380101255200265
0.006150121616341824
0.005946730747032937
0.0057282713300844884
0.005495078265190414
0.005247395872194568
0.004985392461889267
0.004709185077010354
0.004418881298340188
0.0041146504769253
0.0037968473076190968
0.0034662319945407065
0.0031243763651538107
0.002774444307190659
0.002422754807157788
0.0020819875020207206
0.0017774408409580707
0.0015558995709520373
0.000600561044083315
0.0010939156579932606
0.0016020637514688628
0.0021108504226771663
0.0026142794245261522
0.0031074620623518998
0.0035858913335008614
0.0040453889045685525
0.004482173116287538
0.004892939359583416
0.00527492254103842
0.00562593255069152
0.00594436166557278
0.006229166633824119
0.006479830101754306
0.00669630683711946
0.006878960231876215
0.007028494086774323
0.007145883891371149
0.007232310882550152
0.007289101220200928
0.007317671749210109
0.007319483075403366
0.0072960000931314465
0.007248659665510752
0.007178844862293509
0.0070878649845785725
0.006976940527118161
0.006847192225809301
0.006699633391451224
0.006535164827248362
0.006354571758903214
0.006158522371649386
0.005947567756317439
0.0057221433372979386
0.005482572230136893
0.005229071531885397
0.004961763425525576
0.0046806944527688805
0.004385868915862929
0.00407730722083026
0.0037551494756211654
0.003419844260150088
0.0030725051744463286
0.0027156157281497803
0.002354496736468241
0.002000497791448781
0.0016778605617456608
0.0014353538787800245
0.0006947214731302212
0.001179195645363932
0.0016934096047155466
0.002213465206505964
0.0027303827723935193
0.0032377664559810797
0.003730094256102717
0.004202423606070708
0.004650389525851581
0.0050702615891579745
0.0054589941733997685
0.0058142498065473
0.006134391479204102
0.006418446650252861
0.006666048745470042
0.006877363041472768
0.007053003743948342
0.007193948283280384
0.0073014536961921025
0.007376978683005244
0.007422113696547368
0.007438520336435012
0.007427880444495248
0.007391854637014442
0.00733204955434482
0.007249992829997138
0.007147114645279054
0.007024734707357826
0.006884053537756944
0.00672614706018111
0.006551963613584209
0.006362322678236751
0.006157914786647347
0.005939302303822419
0.005706921020386213
0.0054610828432075246
0.005201980357581648
0.004929694795895838
0.0046442102163499
0.004345438943273132
0.004033267534045018
0.003707640886607564
0.003368719633022538
0.0030171851302457676
0.0026548597281472385
0.0022860465307308004
0.0019206095253283162
0.0015812377933684463
0.0013179849797270325
0.0008028267416004048
0.0012783843110428233
0.0017979921354403293
0.0023296203551844944
0.002860840524101029
0.0033834010204324737
0.003890531796632555
0.004376369354730425
0.004835865574450175
0.0052648106852017495
0.005659863394275615
0.006018554604093152
0.006339257029199535
0.006621123648688332
0.006864002358078545
0.007068335540639525
0.007235052941674222
0.0073654649777418705
0.007461161953677954
0.0075239229344344774
0.00755563644152894
0.007558233832042561
0.00753363521472243
0.007483707055762655
0.007410230189469627
0.007314876725740332
0.0071991942842276925
0.0070645960359900645
0.006912355157399335
0.0067436024678572395
0.006559326211808131
0.0063603731450114645
0.006147450291896509
0.0059211269606546605
0.00568183685156693
0.005429880403207484
0.00516542794764945
0.004888524894773483
0.004599101238450475
0.004296989577143627
0.0039819594201854994
0.00365378271106669
0.0033123607593458
0.0029579776208518184
0.002591830817589388
0.0022172193360446993
0.001842421675276548
0.0014881083436411606
0.00120472721588986
0.0009218095990723381
0.0013907277688614346
0.0019162778108084326
0.002460457880537487
0.003007261869497114
0.0035463115736995027
0.004069370428058881
0.004569498810797908
0.00504086868477281
0.005478746078317513
0.005879493344977905
0.006240544254983379
0.006560341239726966
0.0068382387501030985
0.0070743824219917425
0.007269575142930626
0.007425140254996939
0.007542790165081875
0.007624506284604495
0.007672433935062799
0.007688793887812045
0.007675810668399482
0.007635656662945312
0.007570410372694695
0.007482026800083872
0.007372317834537081
0.007242940562984522
0.007095391595125957
0.006931005717692795
0.006750957440680758
0.006556264249769739
0.0063477906217303415
0.006126252091476012
0.005892218886873766
0.0056461188859998545
0.005388239929410492
0.005118731886464129
0.004837609418577601
0.004544757271842213
0.00423994150416041
0.003922833025325267
0.003593055823534345
0.003250285188047291
0.0028944513325740266
0.002526180077526613
0.0021478149015912787
0.0017660184013409133
0.0013990564063434423
0.0010967221596256357
0.0010502962580139154
0.0015159047026149864
0.0020490080416372875
0.0026074259812631237
0.00317161239512004
0.0037288362327558937
0.004269180088851225
0.0047844717303546285
0.005268011169606327
0.0057145088049106235
0.006120050977864989
0.00648203478715704
0.006799060223516047
0.007070786116412013
0.0072977630488514
0.007481257387035703
0.007623078753468918
0.007725420248952569
0.007790717461621199
0.007821529342776003
0.007820441649829299
0.007789991934045948
0.007732613943941655
0.007650598721294065
0.00754606946162454
0.007420967274913123
0.007277045213269275
0.007115868251318035
0.006938817255922638
0.0067470953281440395
0.006541735221585
0.006323606829307463
0.006093423987505276
0.005851750076898784
0.0055990021288674745
0.005335453389142938
0.005061234600626147
0.004776334713242138
0.004480602451604837
0.004173751447651588
0.0038553740657920514
0.003524973959074398
0.0031820380986706614
0.0028261943064162294
0.002457565923656783
0.00207762519404629
0.001691469518047362
0.0013147144398354092
0.0009953843626105724
0.0011878303344850546
0.001654058635311741
0.0021972784343393327
0.002772367692746275
0.0033563097822608434
0.003933802230746351
0.004493023948850632
0.00502440960010047
0.005520303374515902
0.005974849415915107
0.00638390885249016
0.0067449383360460415
0.007056819946910901
0.007319653776668075
0.007534531313701402
0.007703307565433784
0.007828386428447772
0.007912529281853799
0.00795869234148585
0.007969894598742581
0.007949115414330653
0.007899219036374767
0.007822902325274411
0.0077226616034553695
0.007600774614909893
0.007459293911595286
0.0073000484527858175
0.00712465071815585
0.006934507136910472
0.006730830090322281
0.006514650138892986
0.006286827456262725
0.006048061726930588
0.005798899997129027
0.005539742176755337
0.00527084410133258
0.004992318315349291
0.0047041330952276505
0.004406110805617164
0.004097927701443824
0.003779119228537828
0.0034490988350099313
0.0031072070049156224
0.0027528280325799116
0.002385667087236006
0.002006444480228787
0.0016188323667210979
0.0012357572016881105
0.0009024807412444909
0.0013345583650788875
0.001805819656489745
0.002362629345149105
0.002957632626167889
0.0035643464876843173
0.0041646486613193005
0.004744569152321873
0.005292983509898966
0.00580121089340751
0.006262850774338653
0.006673633809895772
0.007031221384554987
0.007334950063501915
0.007585540262482975
0.00778479404039875
0.007935304357684449
0.008040192225507637
0.00810288157871958
0.008126915866623745
0.008115815888652424
0.008072975418176302
0.008001589485518703
0.007904609537556357
0.007784719744202667
0.007644329207559646
0.007485575534411662
0.007310336006918265
0.00712024333441698
0.006916703638083856
0.0067009148867624765
0.006473884463304032
0.006236444905020623
0.005989267145018309
0.005732870802900177
0.005467631256416365
0.005193783397336369
0.004911422171183314
0.004620500276112377
0.004320823845706079
0.004012047746730777
0.0036936736732841495
0.0033650574039051718
0.0030254386340409136
0.0026740238090625624
0.0023101980623376076
0.0019340822074232825
0.0015481555105720957
0.0011628849732446143
0.0008201977957117862
0.0014911080068754016
0.001972342146283256
0.0025471587276637217
0.0031662215209690733
0.0037994487186964066
0.004425582658138874
0.005028222910777789
0.005594515791647841
0.0061147125841366735
0.006581939353545008
0.006991954110507122
0.0073428346247813294
0.00763460597906147
0.00786883924224078
0.008048254865110136
0.008176357735499937
0.008257121270750744
0.00829472870636071
0.008293372383578208
0.008257106795134568
0.008189748253472424
0.00809481285292411
0.007975484391393051
0.00783460463455707
0.007674679384604702
0.007497895003596114
0.007306141181231724
0.007101036743190846
0.006883956134604345
0.006656054880662562
0.006418292837845482
0.006171454428572662
0.005916165326238482
0.005652905254205353
0.005382016708994951
0.005103709543808318
0.004818061488386685
0.0045250148839849225
0.004224370258921645
0.0039157780143123915
0.003598730753758058
0.003272561416336827
0.0029364582206214294
0.0025895216519554987
0.002230927338727767
0.00186037905070097
0.001479484725908303
0.0010967895512928255
0.0007511120383712076
0.001658560268295694
0.002155374738466107
0.0027536711818187593
0.0034019773239184425
0.004066284452057415
0.00472177856600173
0.005349298505451163
0.00593409426205831
0.006465352935862265
0.006935874634910616
0.007341692473951655
0.007681601529994498
0.00795662738184052
0.008169482538140843
0.008324054597165613
0.008424956836038864
0.008477157391069948
0.00848569089920972
0.008455447762004817
0.008391031060164183
0.008296668924792657
0.008176169996819894
0.008032910675274195
0.007869844537021949
0.007689526169535478
0.007494143428166625
0.007285553672417212
0.0070653208003956264
0.006834750888042279
0.006594924978602605
0.006346728098803502
0.0060908739440847645
0.005827924916394834
0.005558307350746429
0.0052823218636136645
0.005000148828750426
0.004711849068655708
0.004417359988643248
0.004116487649087444
0.003808895807766872
0.0034940940564849587
0.003171429485761027
0.0028400915023675233
0.002499152127663904
0.002147698838576851
0.0017852265538244529
0.0014128718002978315
0.0010380973699596835
0.000697887812249839
0.0018384823618535352
0.002357376487103697
0.002985881744583819
0.003669842248002083
0.004370737926693006
0.0050596319868190685
0.005714215145542483
0.006317694541995389
0.00685827703166926
0.007328700063573287
0.007725646570546481
0.0080490479022294
0.008301338154541935
0.00848673018019869
0.008610567571460708
0.008678784248540836
0.00869748247674865
0.00867262475664828
0.00860982568689044
0.008514225660078815
0.008390427649111087
0.00824247994343928
0.008073890368405534
0.007887660490613074
0.007686331116312107
0.007472032799390911
0.007246537015268168
0.007011305140187236
0.0067675334593672795
0.006516193184922691
0.006258064967810852
0.0059937677017373285
0.00572378159501203
0.005448465573174582
0.0051680691077521474
0.004882738578011519
0.0045925182979198575
0.004297346425215282
0.003997046186470346
0.0036913133381231288
0.0033797018255742554
0.0030616118599529575
0.002736289765114151
0.0024028615823742123
0.0020604571042281976
0.001708590859803924
0.001348386638367083
0.00098728999804073
0.0006625389523345959
0.0020330137125116224
0.0025816968313128836
0.0032487005809300855
0.003976208697575651
0.004720274355086901
0.005447082877451523
0.006130733279772273
0.006752299609230534
0.007299227638124928
0.007764629777958998
0.008146390353563182
0.008446148619864063
0.008668269050699527
0.008818894977815395
0.00890514739272361
0.008934495134499638
0.008914294890849321
0.008851481937026366
0.008752384225225921
0.008622630793503196
0.00846712786535981
0.008290080354112593
0.00809504134237716
0.007884976648593906
0.007662335430854915
0.007429120804203387
0.007186956706366061
0.006937148853613951
0.006680738717194286
0.006418550147896954
0.006151228689072507
0.0058792738323815135
0.005603064551531017
0.005322878447329482
0.005038904791777333
0.004751251703437534
0.004459947656333527
0.004164937567395408
0.0038660739015266635
0.0035631037295031256
0.0032556537923769248
0.0029432181063936214
0.002625158347539843
0.0023007413664288593
0.0019692769341173653
0.0016305410854023795
0.001286133071182922
0.0009446147197871644
0.0006454645054227285
0.0022450118368726453
0.0028328458744103432
0.0035486371376265537
0.004329404470143391
0.005124426933005162
0.00589402330832707
0.006608221092243934
0.00724599430684505
0.007794469896721433
0.008247831696274525
0.00860595870568859
0.008872960773528372
0.009055781459469187
0.009162989365445674
0.00920381808922285
0.009187463536718869
0.009122613526698865
0.009017167813375684
0.008878102507815653
0.008711436447134704
0.0085222642854056
0.008314829232523777
0.008092615909010477
0.007858450036279663
0.007614596490918235
0.007362850740565397
0.007104621081704092
0.006841000668078339
0.0065728292780358345
0.006300745302770395
0.0060252286845666305
0.005746635596484607
0.0054652256048214895
0.005181181944486065
0.004894625403219509
0.004605622185869428
0.004314186050119565
0.0040202750214442294
0.0037237831979787415
0.0034245287252351545
0.00312224034413544
0.002816547895097864
0.002506989065107896
0.0021930617692619207
0.0018743983008414804
0.0015512828780922443
0.0012262684904322143
0.0009100125516333371
0.0006449826545760619
0.00247827732993304
0.00311689716300523
0.003894382416788955
0.004740371326032514
0.005595448732712737
0.0064128041178762125
0.007157935175845957
0.007807992348293224
0.008350586829265448
0.008782048003855366
0.009105364067296893
0.009328105247883633
0.009460569439103022
0.009514285536337777
0.009500912546315127
0.009431505106614162
0.009316080871598456
0.00916341501281853
0.008980992216383658
0.008775058899241376
0.008550732465025287
0.00831213730277704
0.008062547672003892
0.007804525420289316
0.007540045951804085
0.007270609487769614
0.006997336916009105
0.006721050826141726
0.006442342986951591
0.006161629773705821
0.005879197055911789
0.005595235917535915
0.005309870372251654
0.005023178001918718
0.00473520421980957
0.004445970669741349
0.0041554781534416455
0.0038637044885389904
0.003570597947177082
0.003276067633612315
0.0029799738163991535
0.0026821249746742143
0.002382297001745821
0.0020803114351911622
0.0017762674198109473
0.0014711974627618558
0.0011690268657569686
0.0008830960627654676
0.0006578367271302383
0.002737893472384348
0.00344209157798768
0.004297660738720196
0.005223623840901822
0.006149184035929565
0.007018846218130785
0.007793272540537384
0.008448518491705465
0.008974054435637119
0.009369967276639517
0.009643877905829512
0.009808053837850658
0.009877020664180416
0.00986578856350459
0.009788671027759944
0.009658596471582357
0.009486788156324779
0.009282694616298964
0.00905407446230556
0.008807164656268197
0.008546884073270778
0.00827704210060805
0.008000534977195302
0.007719521299242171
0.007435573619632834
0.007149806293347281
0.00686298142807137
0.006575595545582802
0.00628794973108385
0.006000205898071602
0.005712431485383993
0.005424634527277145
0.005136790653072835
0.004848863212975379
0.004560817413289805
0.004272629099888077
0.003984288688212573
0.0036958007674195263
0.003407180238914659
0.003118446765841981
0.0028296214262615678
0.0025407342111603273
0.0022518619459349193
0.001963242881299795
0.0016755845602096705
0.00139088574905825
0.0011147436697641017
0.000863194411793056
0.0006802136949150201
0.0030307417079623524
0.00381975617822329
0.004774496221088951
0.005798616469395634
0.006806223954102794
0.0077313375090042455
0.008529900783201896
0.00917840961819582
0.009670453701669475
0.010012228305664925
0.010217995357736282
0.010306180925892226
0.010296429627973324
0.010207639924051234
0.01005683094048102
0.009858627768826145
0.009625158733582566
0.009366197433538205
0.009089429237459524
0.008800763481518462
0.008504644411180337
0.008204335962147064
0.007902169610829856
0.007599752917631926
0.007298140925871212
0.006997974694125046
0.006699591921724035
0.0064031145226432044
0.00610851751190984
0.005815682925114333
0.005524441824576932
0.005234606820354746
0.004945996979766547
0.004658456527206069
0.004371868354119852
0.004086163081601772
0.003801324280132106
0.003517390530482162
0.0032344554717079256
0.0029526681760269173
0.0026722388806308247
0.0023934610488384224
0.0021167742033319976
0.0018429240773967534
0.0015733581532367852
0.0013112152819036399
0.0010638794608138205
0.0008494533957189858
0.0007085264166889571
0.0033662988329072442
0.00426573144468324
0.00534712909243939
0.0064917055674323255
0.007593410280930013
0.008573935894157367
0.009385577991324164
0.01000820156397155
0.010443104078181843
0.010705898021155154
0.010819996370950703
0.010811556514104825
0.010706085630983523
0.010526500351946485
0.010292267203451094
0.010019247261456818
0.009719942018637472
0.00940392852426029
0.009078351141138299
0.008748395680316119
0.008417710247153622
0.00808876040529434
0.0077631190510390954
0.007441697566659383
0.007124927124733385
0.006812899223897476
0.00650547373043568
0.006202361498322037
0.005903187372434542
0.005607538204348157
0.005314999490112103
0.005025183387450746
0.004737750176110227
0.004452424673984428
0.0041690087031495265
0.003887390420109305
0.003607551220136095
0.003329571089978256
0.003053633919218004
0.00278003581585633
0.0025092028254556013
0.002241731683725551
0.0019784831773187327
0.0017207942385706022
0.001470962061591157
0.0012333640500892392
0.0010170360135859744
0.0008409544607878904
0.0007397365695187741
0.003757903559806001
0.004802645009739234
0.006046969006097351
0.007338972007175549
0.008545713996783796
0.009575262767857157
0.010379298448954346
0.010946315866592882
0.011290810080180864
0.011442238375538361
0.011436038698017535
0.01130750616482684
0.011088313932823219
0.010805011481672632
0.010478782285059426
0.010125884993205185
0.009758388314123538
0.009384968523827024
0.009011650261669403
0.008642440712856771
0.008279846091850738
0.007925278551231615
0.007579369413548061
0.007242206286130844
0.0069135103632400816
0.00659276782616326
0.006279326638066379
0.00597246762086781
0.0056714566541842355
0.005375583175937051
0.005084188855261585
0.004796689295338105
0.0045125908509399066
0.004231504067717684
0.003953154840236624
0.0036773941427090174
0.0034042071509153148
0.0031337228579892667
0.002866226135018229
0.002602176106640631
0.002342238757840411
0.0020873501197672746
0.001838844173569203
0.0015987178092953123
0.0013701869269287339
0.00115884811343827
0.0009749546659776867
0.000836814079759805
0.000771393976733696
0.004224837464345299
0.005463642292242552
0.006919231627740299
0.008390258385361053
0.009708376107596417
0.01076867861604594
0.011529087533655126
0.01199573690902443
0.012204318917423507
0.012203594113036011
0.01204380000630088
0.011770065899120784
0.011419642716912717
0.01102150894681065
0.010597195238745898
0.010162073349087893
0.009726691630229309
0.0092979628840793
0.008880139198928065
0.00847557348948647
0.008085295147338314
0.007709435123456742
0.007347534384648226
0.006998764694103897
0.006662084883148905
0.006336350450023448
0.006020389876072962
0.005713057542192131
0.005413270453184595
0.005120033981905719
0.004832460378235204
0.004549782721933516
0.0042713662331906955
0.003996718319208584
0.0037254983889172867
0.003457528306504447
0.0031928044247218007
0.00293151257208381
0.0026740484467440047
0.002421048163340954
0.0021734383350962595
0.0019325242765550106
0.0017001529839024386
0.0014790220428773813
0.0012732649497948826
0.0010895085391232325
0.0009384812574431823
0.0008362399212245126
0.0008015758757653558
0.004795885670698699
0.006298715177652586
0.008030346168676039
0.00971481295607
0.011138799996999398
0.012190224926298709
0.012847240802603863
0.013148288727336515
0.013161058783014747
0.012959369011724271
0.01260988181546524
0.012166644356119838
0.011670409660454094
0.011150253269354699
0.01062593374226053
0.010110209840941022
0.009610798261492887
0.009131901628983866
0.008675344498964899
0.008241390686110744
0.007829317360474718
0.007437810630919212
0.007065233558599733
0.006709804787059076
0.006369715554703802
0.006043204877268193
0.005728606810694236
0.005424379481711509
0.005129122590313128
0.004841588007807032
0.004560686658670961
0.004285493895890312
0.004015254925767847
0.003749391422947286
0.003487510253523812
0.0032294151903742435
0.0029751227140851185
0.0027248835896705966
0.0024792131951167696
0.002238936130620446
0.0020052555050753783
0.001779866228241801
0.0015651469842407515
0.0013644879895271073
0.0011828282926568173
0.001027418314619752
0.0009084776113250124
0.0008385381988129943
0.0008288099185085735
0.005515722075183567
0.007385855012110051
0.009479941407040374
0.011408706257731719
0.012906643057460702
0.013872407157671886
0.01433099837013845
0.014375396441360001
0.014117937000213892
0.013661446353234892
0.013087568461406187
0.012455491185979798
0.011805304295419358
0.011162544541397562
0.010542378179143885
0.009952921124524144
0.009397677148542151
0.008877244626646782
0.00839047239432181
0.007935222575627515
0.007508862467876576
0.0071085740809996335
0.006731543266213437
0.006375070705455611
0.006036633146050403
0.005713913716598943
0.005404813711430178
0.0051074539328894285
0.004820170847948585
0.004541510970164068
0.004270225694206085
0.004005268070473041
0.003745792570358557
0.0034911586727294154
0.0032409390579128386
0.002994933329611016
0.0027531885554269277
0.0025160286637360882
0.0022840961305551958
0.0020584119011891845
0.0018404637906117604
0.0016323402501880547
0.0014369341549005966
0.001258241230176938
0.00110173735552748
0.0009746592856626346
0.0008856609204231349
0.0008430776584118997
0.0008520056570666589
0.006457073960296088
0.008851505157855388
0.011420299264422106
0.01360296079401449
0.015087988856324543
0.015829258826779224
0.015945687507688214
0.015614461327690825
0.015002779221660895
0.014240249318034378
0.013416153064098341
0.012586943867529087
0.011785529466622806
0.011029159620666343
0.010325219776346777
0.009675174782302209
0.00907712876566594
0.008527429992033844
0.008021646434220195
0.007555139069856079
0.007123383891475372
0.006722140226782983
0.0063475272633790325
0.005996047465246627
0.005664580756407041
0.005350364015976536
0.005050964615209445
0.0047642531473712346
0.004488378331245054
0.004221745785900544
0.003963001649867834
0.003711021649077592
0.003464906083112517
0.003223981231634898
0.0029878078563830355
0.002756197799548727
0.002529240207838605
0.0023073397436989924
0.002091270431366187
0.001882250663235204
0.0016820471815377684
0.0014931169830516818
0.0013187900407395947
0.0011634653253597609
0.001032703549161921
0.000932931331632095
0.0008703670952105291
0.0008492192407517308
0.0008703983195540874
0.007745288457967694
0.010909954025893055
0.014086915504989833
0.016466944623400665
0.01774351402554864
0.018024536119132975
0.017597227895244337
0.01675167780784541
0.01570700881330095
0.014604071426916769
0.01352384993634112
0.012507785208810978
0.011573375234209586
0.010724545477277555
0.009958050570178605
0.00926723817188967
0.008644172970785739
0.008080780925391563
0.007569424830252718
0.007103158641848318
0.006675806228658776
0.006281948797224478
0.00591686886043087
0.005576477337082129
0.005257238077330946
0.004956097104521809
0.004670419955023645
0.004397938388824834
0.004136706676094237
0.003885067196943438
0.003641624969419758
0.003405230802247766
0.0031749729794468707
0.002950177691330818
0.002730418826106312
0.0025155382426328074
0.002305678279412435
0.0021013290158775084
0.0019033935718269306
0.0017132750062068256
0.0015329865536585258
0.0013652786643520043
0.0012137517048376003
0.0010828662792318007
0.0009776705166752342
0.0009030151723109142
0.0008622659725221215
0.0008562203404085697
0.000883502736514518
0.00961392292538076
0.013941038115621054
0.017841693288316078
0.02018711154421211
0.020857785068890692
0.020311998917700427
0.019094364092083732
0.01760755247875512
0.01608577695610984
0.014646164344857191
0.013337011694988056
0.012170175148973904
0.011139911440294779
0.010233067683161751
0.009434288094058201
0.008728506421851127
0.00810201465531896
0.007542812310891512
0.007040610713373556
0.006586686818574106
0.006173684861502089
0.005795413325557325
0.005446658368247558
0.005123021488062187
0.004820782734284729
0.004536787860554734
0.004268356753906716
0.004013210309044292
0.003769413181163928
0.0035353302961023017
0.0033095955080614005
0.0030910913254442365
0.0028789391639900057
0.0026725001418519403
0.002471387017588704
0.002275488491264065
0.0020850076924908935
0.0019005170741292234
0.0017230315519210708
0.0015540991358120096
0.0013959001935975777
0.0012513264952302217
0.0011239708259177961
0.0010178987989885764
0.0009370455769772266
0.0008842170244067239
0.0008600953608523269
0.0008631230192790232
0.0008910743264264168
0.012531457057781685
0.018654218099861904
0.02320336365294637
0.024858784564898935
0.02419904285551218
0.022341675566596962
0.020118123224777747
0.01794134890194303
0.01597630526015991
0.014265373716085886
0.01279835840348609
0.011546229580394094
0.010476113997451178
0.00955732956055878
0.008763366281147062
0.008072136741708565
0.007465560046121344
0.0069289498374766135
0.006450402572926242
0.006020258134390314
0.005630650640464278
0.005275145260727318
0.00494844924626245
0.004646184058672541
0.004364706624458113
0.0041009696689161225
0.003852413074935999
0.00361687999736685
0.003392552974043341
0.0031779065259334317
0.0029716737786489858
0.002772825521056973
0.002580560896098786
0.002394309635313791
0.0022137464186672414
0.0020388185256046297
0.0018697882704787798
0.0017072913129287943
0.0015524096800767645
0.0014067518630978505
0.0012725174120788501
0.0011524948319071786
0.0010499004370635042
0.0009679407702533477
0.0009090518545422808
0.0008740180532429683
0.0008615058351885292
0.0008686427505313393
0.0008930772292078658
0.017604796989457147
0.026369275229128235
0.030730172507834844
0.03013446202496293
0.027044443781654253
0.02349269610189092
0.020246136714875223
0.017502473638930628
0.015247149116399947
0.013405104017972447
0.011895467033966331
0.010648181357557185
0.009607008493683195
0.008728157884950178
0.007977908000364195
0.007330333343686604
0.006765435545533171
0.0062676949981734145
0.005824977156330083
0.005427715425488287
0.005068302417195765
0.0047406357971569325
0.004439778226998458
0.00416170155871631
0.003903093524782917
0.0036612111399210263
0.0034337693969425116
0.003218857027693869
0.0030148734444758254
0.002820482726527379
0.002634581853310245
0.0024562814439757184
0.002284898132287967
0.0021199584393252623
0.0019612145957237695
0.0018086730983694049
0.0016626365365170399
0.0015237576374568969
0.0013931000442492778
0.001272190438863619
0.0011630280667699125
0.0010679904740540644
0.0009895523108749216
0.0009297603068483197
0.0008895410968241437
0.0008681417251762138
0.0008631162902221569
0.0008711046837626987
0.0008896736766894403
0.027346014451629007
0.03949356002647858
0.040124994171909636
0.03422648860711881
0.02804379118221339
0.02299157437868454
0.01911060993587093
0.016156305665919496
0.013885092791998725
0.012110129216736388
0.010697298070081135
0.009551957632725623
0.00860716302243477
0.007815085867913301
0.007141103455772731
0.006559794544113296
0.00605222604672819
0.005604100602581308
0.005204478013224642
0.0048448817999313136
0.0045186668340407325
0.0042205660465720555
0.003946361536068074
0.003692643236417109
0.0034566300708270855
0.003236036363990118
0.0030289715865936466
0.0028338651446907595
0.002649410469278389
0.0024745244793771457
0.002308319828345457
0.002150088356015646
0.001999294952186036
0.0018555816219946349
0.0017187818805084391
0.001588945505452654
0.001466372714291595
0.0013516541738860923
0.001245707527311984
0.0011497906569668814
0.0010654562828487824
0.000994397073425965
0.0009381336370090309
0.0008975516752929074
0.0008724162231136328
0.0008611212556352516
0.0008609183193343479
0.0008685740370616633
0.0008813008387294802
0.05119019414661026
0.05951532353045734
0.045707370980676586
0.03384127954077075
0.025824490963059655
0.02044744309803551
0.01673961998810332
0.014081963480166925
0.012106253621437722
0.010588624720990519
0.009389080267147059
0.008417122521531682
0.007612415308708635
0.006933574278301008
0.00635148270922234
0.0058451842905558
0.005399287845944384
0.005002284167431038
0.004645427989339055
0.0043219788904531615
0.004026675444891695
0.0037553642027059386
0.003504733500065681
0.0032721195830809086
0.003055363522097885
0.0028527044505233185
0.002662699287447429
0.0024841621999860722
0.0023161191828514234
0.002157774623614621
0.0020084877975614906
0.0018677580255979547
0.00173521779683201
0.001610633505280949
0.0014939134981513862
0.0013851226837653019
0.0012845016312506836
0.001192485335617795
0.0011097119401643433
0.001037004444764541
0.0009753003551867034
0.0009255011362671679
0.0008882266466250569
0.0008635013358278633
0.0008504655902825469
0.0008472658777619263
0.0008512791079325894
0.000859627305424166
0.0008690961215764008
0.10272248049925813
0.06317953520796174
0.03928672918592366
0.027642508076841404
0.02094518567929788
0.01678136530906168
0.013966632477846817
0.011945701173481593
0.010423623234550561
0.00923335619583033
0.008273855167255567
0.007480832736124529
0.006811611304655789
0.006236847215443472
0.0057357611496483395
0.005293268016038376
0.004898183096419764
0.00454206354083387
0.004218438370280854
0.003922283573243679
0.003649656149226455
0.0033974338053405165
0.0031631264562330475
0.002944737516247228
0.0027406603685511417
0.002549600127824288
0.0023705139097488772
0.0022025648924763283
0.0020450868729236966
0.0018975570128565516
0.0017595751775392116
0.001630848776690046
0.001511182362807106
0.0014004714231564406
0.0012986997683382465
0.001205939562444274
0.0011223521826289092
0.001048186529287892
0.0009837690100152536
0.0009294764565077772
0.0008856808424958103
0.0008526552247924721
0.0008304367841582774
0.0008186562756852855
0.0008163603363166517
0.0008218697108403009
0.0008327352465544811
0.0008458400526066298
0.0008568953473788108

SCALARS STRAIN_XX float 1
LOOKUP_TABLE default
0.0037825033705296074
-0.031597998923797124
0.00023703683193940228
-0.0059563110315276465
0.003781666749254297
0.0037791569779200744
0.0037749743346772308
0.003769119285361014
0.003761592486867989
0.0037523947918789774
0.003741527254925451
0.0037289911397938944
0.0037147879282617554
0.003698919330153856
0.003681387294706292
0.0036621940232219267
0.0036413419829929936
0.003618833922465016
0.0035946728876067174
0.0035688622394440504
0.0035414056727053663
0.0035123072355121385
0.0034815713500445863
0.0034492028340893863
0.0034152069233631017
0.0033795892944894768
0.003342356088485581
0.0033035139345904373
0.0032630699742430894
0.003221031884992717
0.003177407904089831
0.0031322068514753124
0.00308543815184777
0.0030371118554489533
0.0029872386571629245
0.0029358299134771212
0.002882897656803673
0.0028284546065998895
0.0027725141766673685
0.002715090477943157
0.0026561983160232616
0.0025958531825814105
0.002534071239759298
0.0024708692965108303
0.002406264775780098
0.0023402756712810682
0.0022729204925193425
0.002204218196554926
0.002134188104851678
0.002062849803376829
0.0019902230239129126
0.0019163275043105887
0.001841182825138142
0.0017648082198692405
0.0016872223553747248
0.0016084430790407264
0.001528487128302787
0.0014473697977427716
0.0013651045581181687
0.0012817026207391502
0.0011971724394363656
0.00111151914092103
0.0010247438725430186
0.0009368430542137929
0.000847807518460357
0.000757621519049595
0.0006662615841670563
0.0005736951844740462
0.00047987917915033595
0.00038475799377835074
0.00028826147199662033
0.00019030232739854214
9.077310199662875e-05
-1.0457488884056676e-05
-0.00011354898039049599
-0.00021869455230758006
-0.00032612765791288634
-0.00043613023670391327
-0.0005490429764040683
-0.0006652782505231492
-0.0007853365830209971
-0.0009098278111192154
-0.0010394985767386844
-0.0011752684477375624
-0.001318277965477517
-0.0014699534193212127
-0.0016320954670065238
-0.001807002372547016
-0.0019976445296454107
-0.0022079167211817158
-0.002443011284518057
-0.0027099850065034695
-0.003018646868333509
-0.0033830001225548037
-0.0038236788064864163
-0.004372319502335999
-0.0050796695070065186
-0.006033180228605713
-0.007390344473921201
-0.009497640667042933
-0.012978531032829137
-0.02039740225776753
-0.028617902423614727
-0.010367538228629652
0.008688184026191557
0.006258661907560369
0.005427037013165839
0.004473360524603188
0.0038051888748891517
0.0032916168235458225
0.0028934342195182355
0.002574939088687762
0.0023142882297706256
0.0020964749172118578
0.0019111837168566542
0.0017510914558261413
0.0016108891848196322
0.0014866489586284493
0.0013754143497304028
0.0012749267913082832
0.0011834388470778221
0.001099584021940516
0.0010222842731407548
0.000950683166389979
0.0008840968114240434
0.0008219773367331082
0.0007638853469940365
0.0007094689069827263
0.0006584473276743524
0.0006105985249655298
0.0005657490605787789
0.0005237662098753065
0.00048455156568622676
0.0004480358024195677
0.00041417430466484523
0.0003829434183715008
0.0003543371160290576
0.0003283638831326485
0.0003050436323833311
0.0002844044331674206
0.00026647880292624687
0.0002512992366665995
0.00023889253870756216
0.00022927234725633738
0.00022242897766964337
0.00021831531437475904
0.00021682690518490255
0.00021777365490627254
0.00022083947792471414
0.00022552227485814202
0.00023101767262359574
0.00023544045892051613
0.000241278303465417
0.00025228406986295415
0.0002659058324833985
0.00027800825230189785
0.0002857386897888725
0.0002872159634793592
0.00028126134870547215
0.0002671891986928271
0.00024466182185663155
0.00021359056034947477
0.00017406749118373255
0.0001263171410439412
7.066141275774429e-05
7.493402346250844e-06
-6.274265847576455e-05
-0.00013956712571500107
-0.00022247750912844644
-0.00031095866513809745
-0.00040449114775784056
-0.0005025580840626181
-0.0006046508331929296
-0.0007102736174790236
-0.0008189472681824905
-0.0009302121982247002
-0.0010436306945417612
-0.0011587886096708494
-0.0012752965233652491
-0.001392790438791508
-0.00151093207308943
-0.0016294087980758681
-0.0017479332832106703
-0.001866242889364808
-0.001984098858318961
-0.002101285339225545
-0.0022176082894977134
-0.0023328942837921446
-0.0024469892609686877
-0.0025597572352076547
-0.0026710789938908935
-0.002780850801459664
-0.0028889831252829623
-0.0029953993966346376
-0.003100034817209385
-0.0032028352192047943
-0.0033037559848714815
-0.003402761029572751
-0.0034998218507924506
-0.0035949166441665015
-0.0036880294864750918
-0.0037791495846014045
-0.003868270588706646
-0.0039553899672885515
-0.004040508441346111
-0.004123629474553525
-0.0042047588161323035
-0.0042839040929870675
-0.004361074447625332
-0.004436280218387878
-0.00450953265858095
-0.004580843691201736
-0.004650225696072666
-0.004717691326354773
-0.0047832533515754505
-0.004846924524476957
-0.0049087174691739635
-0.004968644588288586
-0.005026717986908832
-0.005082949411390016
-0.005137350201189175
-0.005189931252080317
-0.0052407029892520135
-0.00528967534893407
-0.00533685776733038
-0.005382259175763467
-0.005425888001051142
-0.005467752170241272
-0.005507859118928662
-0.005546215802466718
-0.005582828709470484
-0.005617703877077329
-0.0056508469074993475
-0.005682262985462837
-0.005711956896180509
-0.005739933043552636
-0.005766195468334168
-0.0057907478660414145
-0.005813593604408539
-0.005834735740229625
-0.005854177035447484
-0.005871919972376679
-0.005887966767962086
-0.005902319386994441
-0.005914979554217537
-0.005925948765271763
-0.005935228296432661
-0.005942819213109527
-0.0059487223770755895
-0.00595293845240972
-0.005955467910132918
-0.00584180084987068
-0.005614666281002241
-0.005391224331186545
-0.005171316756974307
-0.004954784729999359
-0.004741468884174356
-0.004531209366333499
-0.004323845889483367
-0.004119217787864178
-0.003917164073068253
-0.0037175234905084055
-0.003520134575575239
-0.0033248357088700026
-0.0031314651699460897
-0.0029398611890387137
-0.002749861996307298
-0.002561305868159104
-0.0023740311702665517
-0.002187876396931978
-0.0020026802064922224
-0.001818281452494319
-0.001634519210413343
-0.0014512327997192728
-0.0012682618011340884
-0.0010854460689554797
-0.0009026257383595507
-0.0007196412276298025
-0.0005363332352930103
-0.0003525427321774244
-0.00016811094844479326
1.7120644314940864e-05
0.00020331035580071742
0.0003906163043665736
0.0005791964488349197
0.0007692086245136487
0.0009608105831317225
0.001154160036366024
0.001349414702589289
0.0015467323564241134
0.001746270880642746
0.0019481883199082175
0.002152642935807571
0.002359793262583124
0.002569798162924356
0.0027828168831410807
0.0029990091069994635
0.0032185350074644785
0.003441555295557983
0.0036682312655115993
0.0036674120162728
0.003440770688078717
0.0032177848435160105
0.0029982932020624145
0.0027821350680740566
0.0025691502853229676
0.002359179187839438
0.0021520625478819617
0.0019476415218269343
0.0017457575947354659
0.0015462525243170192
0.0013489682849698768
0.0011537470125361268
0.00096043095036536
0.0007688623972367408
0.0005788836576438331
0.00039033699490193023
0.00020306458749293243
1.690848901714774e-05
-0.00016828940792096801
-0.0003526874036080163
-0.0005364440186560988
-0.0007197180167740637
-0.0009026684227135561
-0.0010854545352653095
-0.0012682359352165153
-0.0014511724882189084
-0.0016344243425521253
-0.0018181519218010958
-0.0020025159125011955
-0.0021876772468386587
-0.002373797080529296
-0.002561036766034191
-0.002749557821304695
-0.0029395218942855792
-0.0031310907234450565
-0.003324426094637921
-0.0035196897946470603
-0.0037170435617910258
-0.003916649034028347
-0.004118667695033163
-0.004323260818762148
-0.004530589413079327
-0.004740814163052256
-0.004954095374579796
-0.005170592919059557
-0.005390466179849147
-0.005613874001318699
-0.005840974641335357
0.0036649543584952914
0.0034384169497910285
0.0032155344287676055
0.0029961455562323427
0.0027800896828710734
0.0025672067028551207
0.0023573370037839607
0.002150321413791379
0.001946001146611368
0.0017442177453645387
0.0015448130257880322
0.0013476290195906986
0.0011525079185725734
0.0009592920201035721
0.0007678236745113062
0.0005779452348824334
0.0003894990097364697
0.00020232721898600587
1.627195355140804e-05
-0.00016882486104432057
-0.0003531214968165551
-0.0005367764509565759
-0.0007199484687655644
-0.0009027965617229453
-0.001085480020565986
-0.0012681584232943574
-0.001450991638049847
-0.0016341398208560229
-0.0018177634082366468
-0.002002023104767235
-0.0021870798656480244
-0.0023730948744198352
-0.0025602295159801907
-0.002748645345091352
-0.0029385040506078527
-0.0031299674156906885
-0.0033231972743119546
-0.003518355464393181
-0.0037156037779635977
-0.003915103908766659
-0.004117017397787482
-0.004321505577219845
-0.004528729513437968
-0.004738849949585717
-0.004952027248443708
-0.005168421336283183
-0.005388191648461745
-0.005611497077561371
-0.005838495924912956
0.003660858562626732
0.0034344943336886277
0.0032117839949684776
0.0029925663768292235
0.0027766809078260957
0.002563967566757785
0.0023542668311056234
0.002147419622696911
0.0019432672513951764
0.0017416513575842902
0.0015424138541741818
0.0013453968688132592
0.0011504426869484536
0.0009573936963291116
0.0007660923335053036
0.0005763810328244391
0.0003881021783837445
0.00020109805935081726
1.5210829018546782e-05
-0.00016971753208281883
-0.00035384524873525677
-0.0005373307790074032
-0.0007203328374572827
-0.0009030104134027749
-0.001085522784139375
-0.0012680295230227156
-0.0014506905023663808
-0.0016336658911409287
-0.0018171161474946928
-0.0020012020061502185
-0.002186084460764573
-0.0023719247413741757
-0.0025588842870797653
-0.002747124714161596
-0.0029368077798495543
-0.0031280953420123802
-0.0033211493150667824
-0.003516131622446402
-0.0037132041460133146
-0.003912528672836873
-0.004114266839809505
-0.0043185800766153415
-0.0045256295476146955
-0.004735576093255664
-0.004948580171673894
-0.0051648018011895055
-0.005384400504458321
-0.005607535255083307
-0.005834364427535764
0.003655125081516443
0.003429003263237773
0.0032065339298930585
0.002987556010640462
0.0027719090444268475
0.002559433129851369
0.002349968871491504
0.002143357323539408
0.0019394399315611115
0.0017380584731538542
0.0015390549982353965
0.0013422717696549014
0.0011475512047695164
0.0009547358185844938
0.0007636681690075945
0.0005741908047211526
0.00038614621612772604
0.00019937678977864789
1.3724766648604612e-05
-0.00017096779542437866
-0.0003548590548565695
-0.0005381074147612782
-0.0007208715465233906
-0.0009033104083495384
-0.0010855832586777686
-0.0012678496643663995
-0.0014502695036150257
-0.0016330029636058186
-0.0018162105328873518
-0.00200005298855489
-0.0021846913783138706
-0.002370286997546802
-0.0025570013615376095
-0.0027449961730399816
-0.002934433285410828
-0.0031254746615687395
-0.00331828232907401
-0.0035130183316652657
-0.0037098446776298545
-0.003908923285428424
-0.004110415927038645
-0.0043144841695293285
-0.004521289315425058
-0.004730992342471387
-0.0049437538434601285
-0.005159733966824485
-0.005379092358765464
-0.005601988107720418
-0.0058285796920315575
0.003647754553567618
0.0034219443350876023
0.0031997847796242113
0.0029811149457959814
0.002765774516845017
0.002553603747671525
0.0023444434084288787
0.002138134725542166
0.0019345193209758754
0.0017334391505361123
0.001534736441948878
0.0013382536334092744
0.0011438333132503431
0.0009513181613312292
0.0007605508926951281
0.0005713742039996517
0.00038363072317275414
0.00019716296270023368
1.1813276903667283e-05
-0.00017257617647757346
-0.0003561634701275977
-0.0005391069361911536
-0.0007215651903204706
-0.0009036971505804059
-0.001085662051099384
-0.0012676194503905918
-0.0014497292343002238
-0.0016321516135732199
-0.0018150471160600279
-0.001998576573619285
-0.0021829011038024455
-0.002368182086438304
-0.0025545811352691884
-0.002742260064821788
-0.0029313808527285713
-0.0031221055977541335
-0.0033145964738171153
-0.0035090156803362057
-0.003705525389270394
-0.0039042876892671193
-0.004105464527377248
-0.004309217648842576
-0.00451570853551151
-0.004725098343489838
-0.004937547840684519
-0.005153217344951883
-0.005372266663615379
-0.005594855035169874
-0.005821141074040806
0.0036387478071455005
0.0034133183228569996
0.0031915372517394513
0.0029732438143814824
0.002758277874009808
0.0025464798800406523
0.002337690808315686
0.0021317520989037023
0.0019285055923098258
0.0017277934648895015
0.0015294581642174205
0.0013333423451140133
0.0011392888069824425
0.0009471404330572871
0.0007567401321160028
0.0005679307831536781
0.00038055518347045593
0.00019445600057353308
9.475728246778575e-06
-0.00017454335290479833
-0.0003577592101703777
-0.0005403300884878218
-0.0007224145350572003
-0.0009041714186704655
-0.0010857599436504416
-0.00126733965832748
-0.0014490704580163135
-0.0016311125824869104
-0.0018136266079540496
-0.00199677343364149
-0.00218071426300657
-0.0023656105797408905
-0.0025516241186948015
-0.0027389168319039404
-0.002927650849928236
-0.003117988438750845
-0.0033100919525191675
-0.0035041237824479615
-0.003700246302246827
-0.0038986218104763055
-0.004099412470283256
-0.004302780247014668
-0.004508886844258958
-0.004717893638916657
-0.004929961615956982
-0.0051452513035725326
-0.005363922709500581
-0.00558613525933566
-0.00581204773771358
0.0036281058662359427
0.0034031261819892997
0.0031817922193897266
0.0029639433957778416
0.002749419792251743
0.002538062093065742
0.0023297115218664007
0.0021242097756686692
0.0019213989574315088
0.0017211215080443643
0.0015232201384856128
0.0013275377628634997
0.001133917432996913
0.0009422022751396314
0.0007522354293980228
0.0005638599923398741
0.0003769189632404506
0.00019125519436054953
6.711345602319587e-06
-0.0001768701561568955
-0.0003596471527972521
-0.0005417777855439937
-0.0007234205202371662
-0.0009047341671496324
-0.001085877895254921
-0.001267011240879096
-0.0014482941107047881
-0.0016298867791256504
-0.0018119498799783226
-0.0019946443927082945
-0.0021781316230549998
-0.002362573178369899
-0.0025481309377102072
-0.002734967016880257
-0.002923243728624428
-0.003113123538210078
-0.003304769014672438
-0.0034983427780315587
-0.003694007442832241
-0.003891925558400294
-0.004092259546255613
-0.004295171635171418
-0.004500823794420515
-0.004709377665804427
-0.004920994495118578
-0.005135835063765612
-0.005354059621288679
-0.005575827819657293
-0.005801298650199461
0.0036158299573468876
0.0033913690556631347
0.0031705507262558942
0.002953214620710106
0.0027392010784994736
0.002528351061545331
0.0023205060857971866
0.002115508150762401
0.0019131996678640867
0.0017134233884545653
0.0015160223322585298
0.0013208397169640561
0.0011277188896232173
0.000936503260468688
0.0007470362396948932
0.00055916117769683
0.0003727213092074175
0.00018755970172079409
3.51920853760364e-06
-0.00017955757327754892
-0.00036182833978097004
-0.0005434511116770378
-0.0007245842603264508
-0.0009053865281102857
-0.0010860170430609943
-0.0012666353277040663
-0.0014474013020844166
-0.001628475280980573
-0.0018100179653375774
-0.001992190427975861
-0.002175154093660142
-0.0023590707136395186
-0.0025441023347964227
-0.002730411263569258
-0.002918160024843503
-0.003107511316038617
-0.003298627956651562
-0.0034916728335542793
-0.0036868088423818958
-0.0038841988253916033
-0.004084005506219615
-0.004286391422013604
-0.004491518853470542
-0.004699549753367427
-0.004910645674233495
-0.005124967695873862
-0.0053426763535191395
-0.005563931567442017
-0.0057888925749483905
0.003601921517643538
0.0033780482817451505
0.003157813992364488
0.0029410585759847515
0.002727622674007456
0.0025173475717643274
0.0023100751247698763
0.0021056476831698974
0.001903908015287424
0.0017046992311113857
0.0015078647065149046
0.0013132480089302517
0.001120692825147338
0.0009300428918425376
0.0007411419293850115
0.0005538335794087482
0.00036796134658243006
0.00018336854495571502
-1.0175079301616153e-07
-0.00018260674893021657
-0.0003643039788296197
-0.0005453513235365192
-0.0007259070465858328
-0.0009061298129612837
-0.0010861787041178679
-0.0012662132270215222
-0.001446393317188244
-0.0016268793357317338
-0.0018078320604545044
-0.001989412671041584
-0.0021717827284397253
-0.002355104148529242
-0.002539539170220458
-0.0027252503181315556
-0.0029124003600315192
-0.00310115225926258
-0.00329166912238902
-0.003484114142353669
-0.003678650537462729
-0.0038754414865626525
-0.004074650060819232
-0.004276439152561106
-0.004480971401704756
-0.004688409120337277
-0.004898914216097517
-0.005112648115062041
-0.005329771684912003
-0.005550445159229808
-0.005774828063846614
0.0035863822043027795
0.003363165400765195
0.003143583420740341
0.002927476509890599
0.002714685658588054
0.0025050525246491095
0.002298419353568132
0.002094628897235544
0.001893524332066617
0.0016949491774053665
0.0014987472150043714
0.0013047624103168334
0.0011128388362721712
0.0009228206001420058
0.0007345517740401808
0.0005478763295386994
0.0003626380768218851
0.0001786806087447828
-4.152749892046771e-06
-0.00018601898758959887
-0.000367075445703479
-0.000547479852130662
-0.0007273903489978644
-0.0009069655142545773
-0.0010863643771062761
-0.0012657464272533587
-0.0014452716179278824
-0.0016251003627449727
-0.001805393526408405
-0.001986312409331768
-0.0021680187262574867
-0.0023506745789756847
-0.0025344424232681658
-0.0027194850302249846
-0.0029059654421041622
-0.003094046922934172
-0.003283892904088645
-0.0034756669250957783
-0.003669532569983398
-0.003865653399503661
-0.004064192879627429
-0.004265314306750395
-0.004469180730112197
-0.004675954871990439
-0.004885799046298125
-0.005098875076285958
-0.005315344212125075
-0.0055353670492243245
-0.0057591034482175054
0.0035692139050705115
0.0033467221648907875
0.0031278606048678204
0.002912469838232169
0.0027003912553149223
0.0024914669392494624
0.002285539579474512
0.0020824523840564206
0.0018820489917836022
0.0016841733849179167
0.0014886698034184316
0.0012953826613831482
0.0011041564663837938
0.0009148357422993588
0.0007272649561869012
0.0005412884496627187
0.00035675037520409097
0.00017349463772279103
-8.635158294513437e-06
-0.00018979575583510355
-0.0003701442864012025
-0.0005498383048907047
-0.0007290358182036986
-0.0009078953074957391
-0.0010865757440304369
-0.0012652365986101663
-0.001444037844588847
-0.0016231399544932596
-0.0018027038902981257
-0.0019828910874186375
-0.002163863432501676
-0.0023457832351133283
-0.0025288131934397967
-0.0027131163541375164
-0.002898856066487961
-0.0030861959310395292
-0.0032752997429456032
-0.003466331430238518
-0.0036594549873173957
-0.0038548344039687505
-0.004052633590285878
-0.004253016297906703
-0.004456146038048481
-0.004662185996882939
-0.004871298948866379
-0.0050836471687159
-0.005299392342804515
-0.005518695480832977
-0.0057417168287256706
0.0035504187500013853
0.0033287205478726998
0.0031106473369265086
0.002896040150957321
0.0026847408356589072
0.002476591956510158
0.002271436704813002
0.0020691188029358146
0.0018694824097435702
0.001672372027121369
0.0014776324084211276
0.0012851084695856799
0.0010946452036288878
0.0009060875990744002
0.0007192805628844595
0.0005340688483404341
0.0003502969882699895
0.00016780923395450783
-1.3550500008958385e-05
-0.00019393868466907493
-0.00037351221932993437
-0.0005524284676798646
-0.0007308452873481701
-0.0009089210528316562
-0.0010868146717619817
-0.0012646855945100829
-0.001442693817146395
-0.0016209998777933356
-0.0017997648464224687
-0.001979150308163311
-0.0021593183402035874
-0.0023404314823743068
-0.0025226527015272853
-0.0027061453498265224
-0.002891073117092179
-0.0030775999773591523
-0.0032658901298355993
-0.0034561079344743633
-0.0036484178424071095
-0.003842984321531449
-0.0040399717775875515
-0.004239544471115403
-0.004441866430744395
-0.004647101363335435
-0.004855412561570667
-0.00506696280966756
-0.005281914287983474
-0.005500428477369477
-0.0057226660642305405
0.0035299991243532107
0.0033091627559272774
0.003091945616761283
0.002878189219335684
0.0026677359250115665
0.0024604288432876742
0.002256111729614783
0.002054628882858633
0.0018558250434229494
0.0016595452929612136
0.0014656349565222602
0.001273939507891666
0.0010843044788084444
0.0008965753726561264
0.0007105975831494183
0.0005262163184631347
0.00034327653118047807
0.00016162285437195146
-1.890045594525839e-05
-0.00019844957177108296
-0.0003771811373615365
-0.000555252306640581
-0.0007328207737204095
-0.0009100447964966159
-0.0010870832133115945
-0.0012640954527032104
-0.0014412415362741854
-0.001618682074730897
-0.0017965782571528113
-0.001975091833563415
-0.0021543850908816455
-0.002334620822341702
-0.002515962290477867
-0.0026985731837800677
-0.0028826175671398096
-0.003068259826223804
-0.003255664605932333
-0.0034449967431257862
-0.003636421193835152
-0.0038301029552118724
-0.004026206982519319
-0.004224898101521898
-0.0044263409166911075
-0.004630699715719024
-0.004838138370909219
-0.005048820238102769
-0.00526290805389215
-0.005480563831979904
-0.005701948759647038
0.0035079576826034936
0.003288051239512608
0.0030717576615384894
0.0028589190036358127
0.002649378208541285
0.0024429789965567114
0.0022395657543555205
0.0020389834239444237
0.0018410773928231269
0.001645693386293052
0.0014526773627752043
0.0012618754129062847
0.0010731336630916144
0.0008862981841070952
0.0007012149052585462
0.0005177295345269218
0.00033568748505378933
0.00015493380825163072
-2.4686866239948912e-05
-0.00020333038358622593
-0.00038115310966184554
-0.0005583119697581164
-0.0007349644800585236
-0.000911268771877571
-0.0010873836086849587
-0.0012634683959552957
-0.0014396831838971984
-0.0016161886631264012
-0.0017931461533544418
-0.001970717585168827
-0.0021490654749831226
-0.0023283528932376563
-0.0025087434259358707
-0.0026904011296050136
-0.002873490479777149
-0.0030581763130999584
-0.003244623763202159
-0.0034329981904611066
-0.003623465105849824
-0.003816190089077051
-0.004011338701281145
-0.004209076392593308
-0.004409568404948785
-0.00461297967059985
-0.004819474706869057
-0.005029217507773574
-0.005242371433255625
-0.00545909909686818
-0.00567956225288321
0.003484297363548252
0.0032653887059497727
0.003050085916031518
0.002838231661240127
0.002629669537320834
0.00242424394774704
0.002221799982707353
0.0020221832988251472
0.0018252400006850541
0.001630816525140624
0.0014387595292773064
0.0012489157828048827
0.0010611320655557917
0.0008752550706713773
0.0006911313139673495
0.0005086070498846724
0.00032752819435258887
0.00014774025481705872
-3.091173237879494e-05
-0.00020858325713321303
-0.00038543038316485464
-0.000561609787999661
-0.0007372787953678673
-0.0009125954000405655
-0.0010877182851587325
-0.0012628068321231321
-0.001438021123121639
-0.0016135219363764227
-0.001789470734195405
-0.0019660296439096094
-0.0021433614317741393
-0.002321629469907052
-0.0025009976963375844
-0.0026816305682321314
-0.0028636930083674166
-0.0030473503449285075
-0.0032327682447196677
-0.0034201126398928005
-0.0036095496483255756
-0.0038012454878157
-0.003995366384302031
-0.004192078474378449
-0.004391547702431614
-0.004593939712811386
-0.004799419737531346
-0.005008152480096751
-0.005220301996170584
-0.005436031571909956
-0.005655503600937157
0.0034590214064346373
0.0032411781328292475
0.0030269330634681733
0.0028161295551259796
0.002608611934653956
0.0024042253671405812
0.0022028157242402965
0.002004229453888887
0.0018083134525134323
0.0016149149407345344
0.0014238813434477157
0.001235060175061122
0.001048298930560869
0.000863444982972346
0.0006803454876873913
0.000498847294036182
0.00031879686439727304
0.00014004020106171323
-3.757721900281029e-05
-0.00021421050140232265
-0.00039001538354657174
-0.0005651482758690389
-0.0007397662950826788
-0.0009140272895409656
-0.0010880898567929263
-0.0012621133534330988
-0.0014362578973505825
-0.0016106843624806902
-0.001785554366157688
-0.001961030249157614
-0.002137275048509371
-0.0023144524631410097
-0.002492726812416985
-0.002672262987612083
-0.0028532263963619124
-0.003035782900130345
-0.0032200987447388116
-0.0034063404840144994
-0.0035946748966361785
-0.0037852688962883635
-0.003978289435276779
-0.004173903401811551
-0.004372277511232543
-0.004573578191530519
-0.00477797146361101
-0.004985622816856831
-0.0051966970806641595
-0.005411358292759851
-0.005629769565255219
0.0034321333680676237
0.003215422782132228
0.003002302036863867
0.002792615262632141
0.0025862076025167007
0.0023829250682452473
0.0021826143969952
0.0019851229103217457
0.001790298376355413
0.001597988876289288
0.0014080426760539819
0.001220308103959311
0.0010346334349643164
0.0008508667821255675
0.0006688559956682706
0.0004884485700250344
0.0003094915590960046
0.00013183149990244025
-4.4685655268651565e-05
-0.00022021459819392667
-0.0003949107155330879
-0.0005689301312000938
-0.0007424297403810652
-0.0009155672353150328
-0.0010885011229695967
-0.0012613907347490089
-0.0014343962283710977
-0.0016076785820415686
-0.001781399581040535
-0.0019557217968201993
-0.0021308085586924097
-0.0023068239181645474
-0.002483932605962565
-0.0026622999817613657
-0.0028420919766287073
-0.0030234750281806265
-0.003206616008443906
-0.003391682144427142
-0.0035788409314183624
-0.003768260039054584
-0.003960107210248049
-0.004154550153106777
-0.0043517564260556856
-0.0045518933164457025
-0.004755127713036595
-0.0049616259728553595
-0.00517155378305926
-0.00538507601857785
-0.005602356596470157
0.0034036371408203148
0.003188126214986397
0.0029761960307502534
0.0027676915844154363
0.002562458928019295
0.002360345012054341
0.0021611975298419525
0.0019648647648694926
0.0017711954422672885
0.0015800385854675488
0.0013912433789534948
0.0012046590378754197
0.001020134685182313
0.0008375192367957634
0.0006566612952381308
0.0004774090520198559
0.0002996101989926168
0.00012311184878783694
-5.223953561791375e-05
-0.0002265982022342884
-0.00040011916236155735
-0.0005729582339888935
-0.0007452720764384692
-0.0009172182164266982
-0.00108895506572351
-0.0012606419305905897
-0.0014324390131722864
-0.0016045074049966567
-0.0017770090727222462
-0.0019501068362400321
-0.002123964339210721
-0.0022987460120874803
-0.0024746170276437503
-0.002651743248997504
-0.0028302911700999406
-0.003010427848639058
-0.003192320831296916
-0.0033761380712979752
-0.0035620478381971346
-0.0037502186198773452
-0.00394081901676167
-0.004134017628297168
-0.004329982931835655
-0.004528883154120514
-0.004730886135691519
-0.0049361591886401875
-0.0051448689482881515
-0.00535718121951791
-0.005573260818659777
0.003373536971467953
0.0031592923069598076
0.0029486185131929864
0.0027413615534879416
0.0025373684897795554
0.0023364873110864517
0.002138566764525434
0.001943456190231489
0.001751005361394175
0.0015610643304737747
0.0013734832825126322
0.0011881123963120568
0.0010048017141063765
0.0008234010202315403
0.0006437597291606958
0.0004657267831637849
0.0002891505597423461
0.00011387878889740776
-6.024151979361853e-05
-0.00023336414038270677
-0.0004056436841859888
-0.0005772356440372226
-0.0007482964293777322
-0.0009189833924171799
-0.0010894548456035881
-0.0012598700706339823
-0.0014303893192221364
-0.0016011738058151204
-0.0017723856924178358
-0.0019441880656482068
-0.002116744906106043
-0.0022902210500959
-0.00246478214370318
-0.002640594589182816
-0.0028178254835844498
-0.0029966425495108126
-0.003177214057884294
-0.0033597087425864943
-0.003544295706838242
-0.0037311443212029987
-0.0039204241131276865
-0.0041123046479835945
-0.004306955401637188
-0.004504545624667077
-0.004705244198449981
-0.004909219483465135
-0.005116639160317297
-0.0053276700641478325
-0.005542478013293099
0.003341837480745489
0.0031289252637823088
0.0029195732379821964
0.0027136284442112607
0.0025109390640800176
0.0023113542330819078
0.002114723857284768
0.0019208984349860852
0.001729728884579126
0.0015410663797121539
0.0013547621926600336
0.0011706675466692275
0.000988633477883835
0.000808510707314438
0.0006301495231750714
0.0004533996737876259
0.0002781102711401658
0.00010412970508526112
-6.869443192267656e-05
-0.00024051540972193852
-0.00041148741519670816
-0.0005817655971582405
-0.0007515061016486763
-0.0009208660979737691
-0.00109000379576941
-0.0012590784533923782
-0.0014282503779012431
-0.0015976809168580597
-0.001767532442138107
-0.0019379683258870023
-0.0021091529087114355
-0.0022812514601337434
-0.0024544301312871414
-0.002628855899775669
-0.0028046965065731096
-0.0029821203847960887
-0.003161296580155069
-0.003342394662865412
-0.0035255846307929717
-0.0037110368036169846
-0.003898921707820068
-0.004089409952358847
-0.004282672094932957
-0.004478878498858694
-0.004678199180664349
-0.004880803648657495
-0.005086860732873292
-0.005296538406996641
-0.005510003603058155
0.0033085436835141365
0.003097029637365035
0.0028890642568556793
0.0026844957811060412
0.002483173630670797
0.0022849482042216727
0.0020896706799186215
0.0018971928229330817
0.0017073668004052465
0.0015200450049346701
0.0013350798875249891
0.0011523238007288689
0.0009716288525703559
0.0007928467716628758
0.0006158287837918163
0.00044042550009369046
0.0002664868168416665
9.386182673991935e-05
-7.76012584628207e-05
-0.00024805517430359587
-0.0004176536591990219
-0.0005865514996635573
-0.0007549045655357669
-0.0009228698356017195
-0.0010906054139968547
-0.0012582705377451632
-0.0014260255757579123
-0.0015940320195682212
-0.0017624524660223668
-0.0019314505920858451
-0.0021011911218552027
-0.0022718397857962444
-0.0024435632721603344
-0.002616529170462522
-0.002790905906841697
-0.0029668626710694194
-0.0031445693349291
-0.003324196361653802
-0.0035059147060924733
-0.0036898957052735673
-0.0038763109590546525
-0.004065332200585411
-0.004257131156373139
-0.004451879395828036
-0.004649748170278998
-0.004850908241591496
-0.005055529700686474
-0.005263781776456332
-0.005475832635799262
0.0032736610094062264
0.0030636103419712304
0.002857095931597423
0.0026539673473146078
0.0024540753780563597
0.0022572718117133484
0.0020634092201536978
0.001872340751726354
0.0016839199325631602
0.001498000477795752
0.0013144361136051305
0.001133080410828401
0.000953786630663059
0.0007764075828339133
0.000600795496424738
0.00042680190342783795
0.00025427753493157914
8.307222975136461e-05
-8.696514478821919e-05
-0.0002559867602896169
-0.00042414588336320725
-0.0005915969208199457
-0.0007584954544609906
-0.0009249982659488582
-0.0010912633522297895
-0.0012574499319436936
-0.001423718443209931
-0.001590230533117811
-0.0017571490391813755
-0.0019246379629394477
-0.0020928624357977356
-0.0022619886771242303
-0.0024321839445223077
-0.002603616476119972
-0.0027764554246356614
-0.0029508707829108798
-0.0031270333005385
-0.003305114391168441
-0.003485286030042183
-0.003667720641296954
-0.0038525909745884233
-0.004040069970613527
-0.004230330615175465
-0.004423545781518039
-0.004619888060770927
-0.004819529580495793
-0.005022641811500491
-0.0052293953632975496
-0.005439959768826736
0.0032371953237942796
0.00302867267036999
0.002823672945833657
0.0026220471925319563
0.0024236477080806455
0.0022283278055670016
0.0020359415811532985
0.0018463436906519491
0.0016593891364225458
0.001474933065719542
0.0012928305814008771
0.0011129365656955773
0.0009351055175240747
0.0007591914036733827
0.0005850475239500489
0.00041252639027129865
0.00024147961951160826
7.175783979703464e-05
-9.678939016397182e-05
-0.00026431364920459456
-0.000430967709828235
-0.0005969055829298819
-0.0007622825517127154
-0.00092725519539458
-0.0010919814032738341
-0.0012566203796805552
-0.0014213326402777665
-0.0015862800001020068
-0.0017516255536472493
-0.0019175336472004034
-0.002084169843533829
-0.0022517008789553934
-0.0024202946126106305
-0.0025901199678276567
-0.002761346865197279
-0.0029341461469921584
-0.0031086894924512633
-0.0032851493233913877
-0.003463698699563608
-0.0036445112031490267
-0.0038277608117844395
-0.004013621759534005
-0.004202268385277794
-0.004393874968070664
-0.004588615549141037
-0.004786663740351386
-0.004988192519128878
-0.005193374010097352
-0.005402379253903366
0.0031991529489079334
0.0029922223097790385
0.0027888003163213625
0.002588739640198035
0.002391894239608324
0.002198119099365458
0.002007269979981403
0.0018192031773867565
0.0016337752946698515
0.0014508430269733136
0.0012702629604458408
0.0010918913859130227
0.0009155841277051382
0.0007411963878687141
0.0005685826057920584
0.00039759633309774194
0.00022809012349903806
5.991543718251115e-05
-0.00010707744083150747
-0.00027303946898228474
-0.00043812290480701576
-0.0006024813486514996
-0.0007662697761894447
-0.000929644560471211
-0.0010927634841864276
-0.0012557857427683596
-0.0014188719388916454
-0.0015821840688236442
-0.001745885500984561
-0.0019101409469555533
-0.002075116425052098
-0.0022409792164524833
-0.002407897813743857
-0.002576041861622992
-0.002745582089369347
-0.0029166902345987913
-0.0030895389577077787
-0.0032643017463370155
-0.0034411528091223397
-0.003620266957959301
-0.003801819477994654
-0.003985985984572976
-0.004172942266411983
-0.004362864114360036
-0.004555927135206373
-0.00475230655016895
-0.004952176977879247
-0.00515571220192116
-0.005363084923259754
0.0031595406848959184
0.002954265357377358
0.0027524834035001257
0.002554049293717515
0.0023588188110693015
0.002166648769806265
0.001977396744818858
0.001790920813557033
0.0016070793118576421
0.0014257306048260825
0.0012467328736515126
0.0010699439189750552
0.0008952209811831295
0.0007224205777634752
0.0005513983576462733
0.00038200897225874517
0.000214105962850108
4.754166349988662e-05
-0.00011783288089581028
-0.000282167982453826
-0.00044561536480223454
-0.0006083282051339773
-0.0007704611647048501
-0.0009321704086405827
-0.0010936136158694464
-0.0012549499799243227
-0.001416340201265724
-0.0015779464716663087
-0.0017399324510713543
-0.0019024632372116844
-0.0020657053280997194
-0.002229826577388668
-0.0023949961424229354
-0.002561384424657514
-0.002729163001981243
-0.00289850455234617
-0.0030695827679842087
-0.0032425722593910807
-0.0034176484481754973
-0.0035949874478130635
-0.003774765931317649
-0.003957160984844553
-0.004142349946274455
-0.004330510227903293
-0.004521819122477996
-0.004716453591973134
-0.004914590038706975
-0.005116404058645552
-0.005322070177039111
0.003118365830603445
0.0029148083351380125
0.0027147279210462394
0.0025179810414421733
0.002324425481605101
0.002133920054764952
0.001946324310699488
0.0017614982588913574
0.0015793021076945298
0.0013995960206605058
0.0012222398908785966
0.0010470931338973457
0.0008740144995191511
0.000702861902501828
0.0005334922719639273
0.0003657614190772042
0.00019952392244300166
3.463303039271491e-05
-0.00012905942067345546
-0.00029170307288840097
-0.00045344909949938993
-0.00061445024449657
-0.000774860850352293
-0.0009348368748999967
-0.001094535898319397
-0.0012541171211048262
-0.0014137413537816034
-0.0015735709990028846
-0.0017337700265092149
-0.0018945039412709983
-0.002055939744961626
-0.002218245890731005
-0.0023815922310701986
-0.002546149958381271
-0.002712091537695466
-0.0028795906308235145
-0.0030488220110781155
-0.0032199614675810593
-0.003393185698063213
-0.0035686721889892584
-0.003746599081792628
-0.003927145023992586
-0.004110489003990253
-0.0042968101684071405
-0.0044862876209395
-0.004679100201860086
-0.004875426247507544
-0.005075443329363421
-0.005279327972631882
0.0030756362038030765
0.0028738582037002823
0.002675539944135318
0.0024805400601176884
0.002288718530524439
0.0020999363495996133
0.0019140552135050275
0.0017309372237355935
0.0015504446088816714
0.0013724394658885522
0.0011967835216348368
0.0010233379153334835
0.0008519630019538844
0.0006825181765770538
0.0005148617193348158
0.0003488506603491991
0.00018434066388430117
2.1185930752208305e-05
-0.0001407608821202107
-0.00030164872615358893
-0.00046162821085828
-0.0006208516401319465
-0.0007794730363746374
-0.0009376481536367528
-0.0010955344809374652
-0.0012532912367817011
-0.001411079355769139
-0.0015690614680330325
-0.0017274018720691495
-0.0018862665013239409
-0.002045822884711136
-0.002206240101017054
-0.002367688726945384
-0.0025303407783448164
-0.0026943696439620923
-0.0028599500108756736
-0.0030272577805906063
-0.003196469974621278
-0.0033677646282616516
-0.0035413206711413844
-0.003717317793097929
-0.0038959362938649055
-0.004077356915088457
-0.0042617606532375125
-0.0044493285520778945
-0.004640241473538309
-0.004834679846006957
-0.0050328233893685605
-0.0052348508164234385
0.003031360160583604
0.0028314223749645127
0.0026349259160837087
0.002441731816460931
0.002251702454738649
0.0020647012013828778
0.0018805920819317552
0.0016992394596750098
0.0015205077392787866
0.0013442610925020401
0.001170363206786684
0.0009986770571480752
0.0008290647014543686
0.0006613870988667224
0.0004955039509217086
0.00033127356447869814
0.0001685527355321188
7.196652703476042e-06
-0.00015294118091790972
-0.00031200900901750606
-0.00047015686787316396
-0.0006275366182595058
-0.0007843019649281966
-0.0009406084650915437
-0.0010966135272393188
-0.0012524764014891837
-0.0014083581625114793
-0.001564421685883782
-0.0017208316185250358
-0.0018777543436362789
-0.0020353579403405977
-0.0021938121379741814
-0.0023532882647374805
-0.002513959190171963
-0.002675999260694683
-0.002839584227203689
-0.00300489116355962
-0.003172098374565285
-0.0033413852919096654
-0.0035129323564146216
-0.0036869208848307675
-0.003863532919379088
-0.004042951058226888
-0.004225358265128562
-0.004410937656557944
-0.004599872264810033
-0.004792344775764228
-0.004988537240280727
-0.005188630758547391
0.0029855466135632214
0.0027875087230528183
0.0025928926529991403
0.002401562066495253
0.0022133819638106185
0.0020282183007105
0.0018459376271037758
0.0016664067479766845
0.001489492408160883
0.0013150610020734978
0.001142978309162027
0.0009731092553908693
0.0008053177007292371
0.0006394662522490541
0.00047541610211890056
0.00031302688949430297
0.0001521565850601675
-7.3386032203925716e-06
-0.00016560430475286628
-0.0003227880430623695
-0.0004790392764157459
-0.0006345094240949817
-0.000789351880068497
-0.0009437220157281277
-0.0010977771732404431
-0.0012516766509070116
-0.0014055816817409089
-0.0015596554062483475
-0.0017140628401662245
-0.0018689708376493771
-0.002024548050128418
-0.002180964880781889
-0.0023383934342852963
-0.002497007461219617
-0.00265698229625139
-0.002818494788938773
-0.0029817232257773295
-0.0031468472418820434
-0.003314047720512678
-0.0034835066784923777
-0.0036554071354516545
-0.0038299329647542655
-0.004007268723932561
-0.004187599462485394
-0.0043711105049749135
-0.004557987207503243
-0.0047484146858634835
-0.004942577513942798
-0.005140659391315711
0.002938205048551407
0.002742125593235417
0.002549447346026197
0.0023600368522248404
0.0021737619722058
0.001990491470694777
0.0018100946294708929
0.0016324408855303936
0.0014573994962963363
0.0012848392329998732
0.001114628102905326
0.0009466331006107798
0.0007807199882348993
0.0006167531039079346
0.0004545951976279738
0.00029410729322784093
0.00013514857492759737
-2.2423703272152494e-05
-0.00017875428726744645
-0.0003339899736221054
-0.00048827964351339675
-0.0006417742819382153
-0.000794626984217262
-0.0009469929517367153
-0.0010990294787248103
-0.0012508959316767602
-0.0014027537228213103
-0.0015547662787705986
-0.001707099005218286
-0.0018599192482530794
-0.0020133962525435214
-0.0021677011163302087
-0.0023230067428376237
-0.002479487787398059
-0.0026373205992681146
-0.0027966831568194492
-0.0029577549945064754
-0.0031207171197586876
-0.003285751917719796
-0.003453043041566054
-0.0036227752859862624
-0.003795134441301296
-0.003970307125649483
-0.004148480592667907
-0.004329842512165588
-0.004514580721419945
-0.004702882944935927
-0.0048949364807935325
-0.005090927852079718
0.0028893455392401835
0.0026952818083762625
0.0025045975607225993
0.0023171624951796137
0.002132847588284836
0.0019515246527032678
0.0017730659225871958
0.0015973436679318003
0.0014242298395477707
0.0012535957457604175
0.0010853117614365313
0.0009192470694463955
0.0007552694341985298
0.000593245006446278
0.00043303815816723686
0.0002745113459668288
0.00011752500115970904
-3.8062555557591876e-05
-0.00019239517710840142
-0.00034561893309432057
-0.0004978821353472419
-0.0006493353484074435
-0.000800131387295362
-0.0009504253048239039
-0.0011003743705282204
-0.0012501380430730447
-0.0013998779377407278
-0.001549757790312756
-0.0016999434183374478
-0.0018506026804349348
-0.0020019054339346434
-0.002154023490773753
-0.002307130571216464
-0.002461402254587932
-0.0026170159258583764
-0.0027741507165712376
-0.0029329874382874235
-0.0030937085064195215
-0.0032564978520653494
-0.003421540819223856
-0.0035890240445895453
-0.0037591353169853254
-0.003932063413413307
-0.004107997908680879
-0.004287128955605946
-0.004469647032924549
-0.004655742658223341
-0.0048456060635051375
-0.005039426831371242
0.002838978759455454
0.002646986672399104
0.0024583512330495477
0.002272945586310025
0.0020906440995280134
0.0019113218883572564
0.001734854373322093
0.00156111686931182
0.0013899842096655405
0.0012213304059357517
0.0010550283438486626
0.0008909495154240457
0.000728963786691279
0.0005689391999478357
0.00041074180906219035
0.0002542355459337197
9.928211589445594e-05
-5.425908042407923e-05
-0.00020653100142952957
-0.0003576789979041334
-0.0005078508281787771
-0.0006571966579709218
-0.000805869047626721
-0.0009540229293611494
-0.0011018155768876513
-0.0012494065695744811
-0.0013969577529664642
-0.0015446331971751479
-0.0016925991542731285
-0.0018410240154387528
-0.0019900782681900042
-0.00213993445362899
-0.002290767123200461
-0.0024427527940503683
-0.0025960699016625236
-0.00275089874806252
-0.002907421443507833
-0.0030658218392396516
-0.0032262854485640372
-0.0033889993532598955
-0.0035541520920869003
-0.003721933527993153
-0.0038925346905062733
-0.00406614758974096
-0.004242964998477046
-0.004423180198861603
-0.00460698669047253
-0.004794577856761267
-0.004986146587271319
0.0027871159924453322
0.002597249970216998
0.0024107166614007434
0.0022273929716505898
0.0020471569534195842
0.0018698872972452152
0.0016954628580032344
0.0015237622184712607
0.0013546632919080879
0.001188042964709977
0.0010237767795635566
0.0008617386588916287
0.000701800667795854
0.0005438328151495878
0.0003877028909982309
0.0002332763379911157
8.04161542064371e-05
-7.10171755546151e-05
-0.00022116572313678965
-0.0003701741383199382
-0.0005181896513297725
-0.0006653620598403827
-0.0008118437036300228
-0.0009577894298742184
-0.0011033565518207417
-0.0012487048032939789
-0.001393996291130263
-0.0015393954472590803
-0.0016850689817255694
-0.001831185837504857
-0.0019779171474960874
-0.0021254361936116264
-0.002273918367402388
-0.0024235411311874927
-0.002574483978196273
-0.0027269283897880005
-0.0028810577873920797
-0.0030370574764198143
-0.003195114579041926
-0.003355417952409073
-0.0035181580886246497
-0.003683526992563819
-0.003851718033477204
-0.0040229257662328065
-0.004197345718038873
-0.004375174136563329
-0.004556607695530859
-0.004741843154145397
-0.004931076967062197
0.002733769136623281
0.00254608196350597
0.0023617024940276315
0.0021805117331039174
0.0020023917333552507
0.001827225049744717
0.0016548942339344452
0.0014852813708320194
0.0013182676590848368
0.001153733036551253
0.0009915558510536146
0.0008316125760164522
0.0006737775699240671
0.0005179228779124334
0.00036391807325537266
0.00021163013602210805
6.092336578266539e-05
-8.8340675075478e-05
-0.00023630319107874326
-0.0003831081602334042
-0.0005289023212492706
-0.0006738351451943676
-0.0008180587952177011
-0.0009617280777623914
-0.0011050003884085346
-0.0012480356551398796
-0.0013909962814280998
-0.0015340470910848421
-0.0016773552763528366
-0.0018210903502014356
-0.001965424103268911
-0.0021105305653598035
-0.002256585970869111
-0.0024037687269745246
-0.002552259382919371
-0.0027022405982073897
-0.002853897107052864
-0.00300741567598407
-0.0031629850510885467
-0.003320795891020951
-0.0034810406815756825
-0.003643913627365592
-0.0038096105159484694
-0.003978328549615502
-0.004150266140009018
-0.004325622660775446
-0.004504598153599673
-0.004687392983213811
-0.0048742074373386984
0.0026789507071208855
0.0024934933816354067
0.0023113177111460225
0.002132309163622904
0.0019563541288656235
0.0017833393342810266
0.0016131513056726141
0.0014456758756643566
0.001280797741575147
0.0011184000737357825
0.0009583641744214224
0.0008005691867772518
0.0006448918523588427
0.0004912063152122475
0.00033938396979482513
0.00018929334949919704
4.080005209980116e-05
-0.00010623330190160437
-0.00025194708229178697
-0.0003964846379127191
-0.0005399922655942423
-0.0006826191635942408
-0.0008245173737182654
-0.0009658417160329216
-0.001106749719753635
-0.0012474015534854306
-0.001387959957534401
-0.0015285901804994425
-0.0016694599218082173
-0.0018107392812881443
-0.0019526007162726702
-0.0020952190061419677
-0.0022387712235947353
-0.0023834367113531457
-0.0025293970624205193
-0.0026768361014484054
-0.0028259398642329764
-0.0029768965718561854
-0.0031298965955201177
-0.003285132407699764
-0.003442798514868048
-0.0036030913667321786
-0.0037662092366710746
-0.003932352067888591
-0.004101721279704977
-0.004274519528408453
-0.0044509504171937955
-0.004631218149934183
-0.004815527123878224
0.0026226738324343912
0.0024394954069900717
0.0022595716009301235
0.0020827927359891637
0.0019090498993674602
0.0017382343182726565
0.0015702367853772208
0.0014049471379911369
0.0012422537928336195
0.0010820433373535587
0.0009242001776182899
0.0007686062418855574
0.0006151407381181214
0.0004636799629142668
0.00031409715862517826
0.0001662624148288899
2.0042609839105764e-05
-0.00012469861244643468
-0.00026810083530451193
-0.00041030683662800064
-0.0005514625361365507
-0.0006917169273393245
-0.000831221999022197
-0.0009701326507250696
-0.0011086066062815977
-0.0012468043290252287
-0.00138488894173645
-0.0015230261538249157
-0.0016613841976199344
-0.001800133774995296
-0.0019394480148887134
-0.0020795024416027062
-0.0022204749531010565
-0.0023625458078492603
-0.0025058976180969295
-0.002650715346872912
-0.0027971863053630978
-0.002945500146773028
-0.003095848852249193
-0.003248426703949963
-0.003403430239926706
-0.003561058185102637
-0.003721511352330859
-0.0038849925072835557
-0.004051706190778805
-0.0042218584921038076
-0.004395656766953453
-0.004573309293784255
-0.0047550248627014485
0.0025649522453722335
0.0023840996538352244
0.0022064737285114305
0.0020319700642946296
0.001860484830565572
0.001691914101930857
0.0015261532464712988
0.0013630963745069995
0.0012026358498441513
0.0010446618644035935
0.0008890620760713605
0.0007357213085813635
0.0005845213112691027
0.00043534057564485144
0.0002880542049446058
0.00014253383214408132
-1.352418623204823e-06
-0.00014373993270859562
-0.0002847675733831542
-0.00042457762392148304
-0.0005633157091803492
-0.0007011307023786599
-0.0008381746225256856
-0.0009746025275777191
-0.0011105724079409377
-0.0012462450843953518
-0.001381784113905324
-0.001517355706118429
-0.0016531286526523924
-0.0017892742705396415
-0.0019259663604506462
-0.0020633811795652476
-0.002201697428212239
-0.0023410962486567696
-0.002481761233692859
-0.002623878442001357
-0.002767636416565593
-0.0029132262018023228
-0.003060841354472479
-0.0032106779428893277
-0.0033629345284454312
-0.0035178121230439244
-0.003675514115651708
-0.003836246160898109
-0.004000216022436984
-0.004167633363685176
-0.004338709478554269
-0.004513656954926108
-0.004692689263899215
0.0025058002674287153
0.0023273181397845417
0.0021520338969992676
0.001979848857129254
0.001810664682527413
0.0016443826639868323
0.0014809030697711008
0.0013201245627832443
0.0011619436879345179
0.0010062544305558712
0.0008529478454822586
0.0007019117552649846
0.0005530305148609511
0.0004061848391376257
0.0002612516886410731
0.00011810420832112354
-2.3388286693284022e-05
-0.00016336028461727943
-0.0003019500164603607
-0.0004392993681489022
-0.0005755537720263661
-0.0007108620842531804
-0.0008453764543097089
-0.0009792521923657187
-0.0011126476397377901
-0.0012457240470268227
-0.0013786454638263492
-0.001511578643136691
-0.0016446929628247346
-0.0017781603656474142
-0.001912155318520927
-0.0020468547908791424
-0.00218243825113279
-0.0023190876794227325
-0.002456987594062302
-0.002596325088293095
-0.002737289873239932
-0.0028800743222461133
-0.003024873511108677
-0.0031718852481180254
-0.0033213100872402854
-0.0034733513172760556
-0.0036282149193912795
-0.0037861094850508946
-0.003947246086111189
-0.004111838088651565
-0.004280100902064762
-0.004452251654996856
-0.004628508789948253
0.002445232785615538
0.00226916324882547
0.002096262099429619
0.001926436861367493
0.0017595951283431686
0.0015956437983162593
0.0014344883811496217
0.0012760323829549471
0.0011201767693107554
0.0009668195081294368
0.0008158551915581017
0.0006671747349520519
0.0005206651496971202
0.0003762093855094262
0.00023368623683408304
9.297030712087598e-05
-4.6067975908559535e-05
-0.00018356230136607626
-0.00031965038032912783
-0.0004544738227552933
-0.0005881779938581972
-0.0007209118573846345
-0.0008528278128410102
-0.0009840815331920647
-0.0011148318089191566
-0.0012452404035937208
-0.0013754719253170006
-0.001505693717518037
-0.0016360757717009938
-0.001766790663810679
-0.0018980135149541198
-0.0020299219762842796
-0.0021626962369321948
-0.0022965190529727446
-0.0024315757945321745
-0.0025680545072997024
-0.002706145983891647
-0.0028460438397406463
-0.0029879445874500775
-0.0031320477028647722
-0.003278555675471445
-0.0034276740351620004
-0.0035796113468757156
-0.003734579164195513
-0.0038927919326176945
-0.004054466832956762
-0.004219823555207943
-0.004389083993184148
-0.004562471850392748
0.002383265220680811
0.00220964768474282
0.002039168460427423
0.0018717417953187342
0.0017072816821588795
0.0015457010403157542
0.0013869109796987873
0.001230820151006581
0.0010773341846159181
0.0009263552188098385
0.000777781516440439
0.0006315071675758507
0.0004874218742365491
0.00034541081201889525
0.00020535456226555317
6.712910749924993e-05
-6.939411789724993e-05
-0.00020434813028713262
-0.00033787026149823863
-0.0004701019945600152
-0.0006011887792401311
-0.0007312798358513986
-0.0008605279553191266
-0.0009890893028736162
-0.0011171232319844796
-0.0012447921143050123
-0.001372261190472018
-0.0014996984456279207
-0.001627274512516588
-0.0017551626039714677
-0.001883538475578008
-0.0020125804182627213
-0.0021424692795491973
-0.002273388511232934
-0.0024055242402689324
-0.0025390653587426034
-0.002674203627904586
-0.0028111337904020775
-0.0029500536840318912
-0.0030911643495762087
-0.0032346701245684513
-0.0033807787141741444
-0.0035297012297720066
-0.00368165218529155
-0.003836849440915859
-0.003995514083408824
-0.004157870232090688
-0.004324144759386021
-0.004494566914928284
0.0023199134855348465
0.0021487844136537856
0.0019807631662255437
0.001815771269861488
0.0016537296152298753
0.0014945575817573355
0.0013381722552444249
0.0011844877426853192
0.0010334145867608906
0.0008848592806074279
0.0007387238816126632
0.0005949057212121071
0.00045329720600057475
0.00031378570398261224
0.00017625350849877772
4.0577871309182764e-05
-9.336890449213552e-05
-0.0002257193216090534
-0.00035661050589131543
-0.00048618399411302915
-0.0006145855022086939
-0.0007419646835943221
-0.0008684748866134065
-0.0009942729193998688
-0.001119518829570643
-0.0012443757051775013
-0.0013690095022879717
-0.0014935889034520368
-0.0016182852101684596
-0.0017432722713111876
-0.001868726448325345
-0.00199482661686819
-0.0021217542034623147
-0.0022496932546508634
-0.002378830535103505
-0.0025093556501193503
-0.0026414611870099556
-0.0027753428689221114
-0.0029111997137777172
-0.0030492341901682644
-0.003189652361245323
-0.003332664006902849
-0.0034784827138565518
-0.003627325922597794
-0.003779414919651579
-0.003934974763110846
-0.004094234129072328
-0.004257425066387006
-0.004424782647085793
0.0022551939325771257
0.0020865865942219647
0.00192105638152734
0.0017585326960214542
0.001598943858485042
0.001442216172701398
0.0012882730939447733
0.0011370345069785757
0.0009884161162172856
0.0008423289485390726
0.0006986789670905061
0.0005573667923702555
0.0004182875249733567
0.0002813306626742078
0.00014638010307052715
1.3314221829369057e-05
-0.00011799398430913007
-0.0002476767011970438
-0.00037587105932291513
-0.0005027188659392249
-0.0006283663187066873
-0.0007529637117798297
-0.0008766651445384216
-0.000999628242275394
-0.0011220138971182658
-0.0012439860363202904
-0.0013657114238408404
-0.0014873594998707357
-0.0016091022616733456
-0.0017311141878260678
-0.0018535722066744687
-0.001976655708567287
-0.002100546600232246
-0.0022254293984850636
-0.002351491359341063
-0.002478922637517972
-0.0026079164702819367
-0.0027386693785934196
-0.0028713813775523844
-0.003006256187224818
-0.0031435014340552257
-0.003283328832233503
-0.003425954333596541
-0.0035715982339137135
-0.0037204852227408977
-0.003872844363447304
-0.004028908989546019
-0.004188916503111324
-0.004353108060875667
0.0021891232884772398
0.002023067493954353
0.001860058151522799
0.0017000331772704172
0.0015429288899139366
0.0013886790088871517
0.0012372137705694564
0.001088459167994658
0.0009423363169073547
0.0007987609485093057
0.0006576430267444602
0.0005188864855901094
0.00038238907962746945
0.00024804233921824244
0.0001157316199642041
-1.4663765191070058e-05
-0.00014327034382622872
-0.0002702202250885103
-0.0003956507973973968
-0.0005197043962062375
-0.0006425279548432821
-0.0007642726508064065
-0.0008850935590057306
-0.001005149322378181
-0.001124601849082048
-0.0012436160441551417
-0.001362359582123998
-0.001481002725618295
-0.0015997181936021586
-0.001718681081402636
-0.001838068833314459
-0.001958061267202056
-0.002078840649209105
-0.002200591815428943
-0.0023235023361862853
-0.002447762717425606
-0.0025735666325939176
-0.0027011111773422684
-0.002830597138341103
-0.0029622292665108796
-0.0030962165440092324
-0.0032327724333857874
-0.0033721150964262196
-0.003514467569360625
-0.003660057880319499
-0.003809119094203308
-0.003961889269507291
-0.004118611311139008
-0.004279532702912682
0.0021217185748079632
0.0019582403898027855
0.0017977782871635775
0.0016402793846116443
0.0014856886048865616
0.0013339476028388815
0.0011849938259054383
0.0010387597139772404
0.0008951720417725477
0.0007541514038724951
0.0006156118396686838
0.00047946059270828883
0.0003455979963884713
0.00021391747572428212
8.43056530473508e-05
-4.335745597651647e-05
-0.0001691981706708607
-0.0002933488132987291
-0.0004159473321406013
-0.0005371368950308989
-0.0006570654681654518
-0.0007758853941718449
-0.0008937529823586747
-0.001010828122778592
-0.001127273934307148
-0.001243256455401743
-0.0013589443846039285
-0.0014745088762240267
-0.0015901233950293605
-0.0017059636321702203
-0.001822207483040808
-0.0019390350862951884
-0.002056628921826873
-0.002175173964177485
-0.0022948578865598385
-0.002415871309458818
-0.0025384080866025296
-0.002662665619967485
-0.0027888451943873065
-0.0029171523212681086
-0.0030477970798691925
-0.003180994443585366
-0.0033169645776689773
-0.003455933093858294
-0.0035981312464495423
-0.003743796053477761
-0.003893170325875387
-0.004046502586789749
-0.004204046862695394
0.002052997012750926
0.0018921184510766638
0.001734226231568983
0.0015792774122789736
0.001427226167286343
0.0012780226367223087
0.0011316119275750422
0.0009879332720756796
0.0008469193470532141
0.0007084957541771721
0.0005725806576035658
0.000439084572323019
0.00030791029358193545
0.00017895295519493532
5.210020245426583e-05
-7.276753628988907e-05
-0.00019577669643143869
-0.0003170601599733583
-0.0004367567922833126
-0.0005550109502666131
-0.0006719719787862126
-0.0007877937111228084
-0.0009026339879505555
-0.0010166542077706389
-0.001130018920056211
-0.0012428954705751257
-0.0013554537065222812
-0.0014678657472534835
-0.0015803058246030306
-0.0016929501950134224
-0.0018059771240258315
-0.00191956694208293
-0.002033902169086655
-0.0021491677037290356
-0.002265551072265729
-0.0023832427301220937
-0.002502436408496657
-0.0026233294969431054
-0.0027461234517590534
-0.0028710242188763717
-0.0029982426588240282
-0.0031279949602177753
-0.0032605030271200715
-0.0033959948245115626
-0.003534704665033469
-0.0036768734191151113
-0.0038227486296125157
-0.003972584511184082
-0.004126641813856191
0.0019829759098915108
0.0018247146024314587
0.0016694109051678483
0.001517032611603037
0.0013675438390743436
0.0012209037947532794
0.0010770657123690061
0.0009359759673782456
0.0007975733742743157
0.000661788665639141
0.0005285441485500062
0.0003977535301996184
0.00026932190119784323
0.00014314586209794805
1.911377630170333e-05
-0.00010289386930599454
-0.00022300401584344055
-0.00034135051649682895
-0.00045807357366246283
-0.0005733191491914928
-0.0006872383668350985
-0.0007999869246810057
-0.0009117245337606755
-0.0010226143971681662
-0.0011328227420415449
-0.0012425184146811806
-0.0013518725469760795
-0.0014610583002295265
-0.001570250690455778
-0.001679626497286939
-0.0017893642568023813
-0.0018996443368796238
-0.0020106490920634747
-0.002122563093453503
-0.0022355734277070497
-0.0023498700579299876
-0.0024656462379612915
-0.002583098970332171
-0.002702429496980529
-0.0028238438106088608
-0.0029475531733766797
-0.003073774628409586
-0.003202731488380503
-0.0033346537841782223
-0.0034697786554329195
-0.003608350663431268
-0.0037506220057477793
-0.0038968526107790065
-0.004047310089327873
0.0019116725268904927
0.0017560413644185265
0.0016033405268697058
0.0014535494002781701
0.0013066427856020107
0.0011625895727026894
0.001021351607998891
0.0008828827645955863
0.0007471282189080025
0.00061402393296652
0.000483496336891146
0.00035546220163593795
0.00022982868817368607
0.00010649355593578746
-1.4654489371826278e-05
-0.0001337353304403726
-0.0002508768786429517
-0.00036621444361159517
-0.0004798900556765277
-0.000592051764031496
-0.0007028529322683922
-0.0008124515512800867
-0.0009210095875593792
-0.0010286923827180642
-0.0011356681177015103
-0.0012421073527627453
-0.0013481826518518675
-0.001454068297727637
-0.0015599401018506417
-0.0016659753109973113
-0.0017723526105587716
-0.001879252222662697
-0.0019868560955726786
-0.0020953481792658074
-0.0022049147806476026
-0.0023157449905122675
-0.0024280311730674117
-0.002541969507592501
-0.002657760570568341
-0.0027756099453759946
-0.0028957288454014296
-0.003018334735084463
-0.003143651932108603
-0.0032719121725433356
-0.003403355119328412
-0.003538228793043434
-0.003676789902458153
-0.0038193040509427977
-0.003966045793475422
0.001839103921547975
0.0016861106687500842
0.001536022408196282
0.0013888310438962582
0.0012445228536437994
0.0011030770617470025
0.0009644646319593025
0.0008286472906645914
0.0006955767846762509
0.0005651943722763909
0.0004374305405799002
0.0003122049371663098
0.00018942649936013432
6.899376069451763e-05
-4.9204688940108696e-05
-0.00016528961512948673
-0.00027939044971668297
-0.0003916445279528725
-0.0005021962791173848
-0.0006111963966936493
-0.0007188010125928714
-0.0008251708978543348
-0.000930470709838851
-0.0010348683032898884
-0.001138534119866766
-0.001241640667952502
-0.0013443621017854967
-0.0014468739063169134
-0.0015493526917017223
-0.0016519760990179669
-0.0017549228166869723
-0.0018583727051382972
-0.0019625070255151374
-0.002067508766625755
-0.00217356306288978
-0.0022808576946734514
-0.0023895836611211516
-0.0024999358143405898
-0.002612113542552568
-0.0027263214885482126
-0.00284277028848149
-0.0029616773146446604
-0.0030832674044196304
-0.00320777355606381
-0.003335437570377419
-0.003466510615625234
-0.003601253691372319
-0.0037399379651671845
-0.0038828449543159282
0.0017652867674626295
0.0016149336450513516
0.0014674627168807138
0.0013228794061840264
0.0011811823187225477
0.001042361703579511
0.000906398164950013
0.0007732616364277585
0.0006429106224844945
0.0005152917050153701
0.00039033930626797535
0.00026797569343780473
0.0001481112049109062
3.0644673729316504e-05
-8.453597954899547e-05
-0.00019755301477387196
-0.0003085380323866324
-0.00041763105763658676
-0.0005249795799864819
-0.0006307375774482478
-0.0007350645535176763
-0.000838124611793954
-0.0009400855904213995
-0.0010411182753198543
-0.0011413957079050218
-0.0012410925997488227
-0.0013403848634828252
-0.001439449266273752
-0.0015384632094441256
-0.0016376046352994476
-0.0017370520599640765
-0.0018369847290130616
-0.001937582890896638
-0.0020390281815562995
-0.002141504112189982
-0.002245196650797421
-0.0023502948868828408
-0.002456991767468872
-0.0025654848913424996
-0.002675977347175732
-0.0027886785798113753
-0.00290380526755395
-0.003021582191740476
-0.0031422430781783695
-0.0032660313882284554
-0.0033932010353911607
-0.003524017001244807
-0.003658755822517564
-0.003797705918991052
0.0016902371441237692
0.001542520375420648
0.001397666205942269
0.001255694663876471
0.0011166175978386296
0.0009804370133217853
0.0008471436960558083
0.0007167161354386092
0.0005891197530406393
0.0004643064330405655
0.00034221434367367066
0.00022276803167861365
0.0001058787655649103
-8.554901519288935e-06
-0.00012064638234283065
-0.0002305201551099749
-0.0003383107487246784
-0.00044416165063528647
-0.0005482241730752398
-0.0006506563115762493
-0.0007516216269520047
-0.0008512881787222822
-0.0009498275343461414
-0.0010474138748292807
-0.0011442232134220923
-0.0012404327403573567
-0.00133622030298817
-0.0014317640273539458
-0.0015272420841723408
-0.0016228325995476488
-0.0017187137083044188
-0.0018150637457797249
-0.0019120615721061295
-0.002009887021449771
-0.002108721467280611
-0.0022087484934944744
-0.0023101546600234647
-0.0024131303504094682
-0.002517870687627363
-0.0026245765031826344
-0.00273345534313919
-0.0028447224932255516
-0.0029586020034978386
-0.0030753276911971786
-0.0031951440984238737
-0.003318307379066767
-0.0034450860870952234
-0.0035757618358739085
-0.003710629795638267
0.0016139702948352042
0.0014688796125780397
0.0013266359036534538
0.0011872749815697147
0.0010508229231779454
0.0009172942663436771
0.0007866905366013064
0.000658999117850988
0.000534192472331909
0.0004122277053553074
0.00029304646103883725
0.00017657512692519865
6.272531819831364e-05
-4.8605393551601206e-05
-0.00015753254628791263
-0.00026418369013495946
-0.00036869716966886275
-0.0004712208286181695
-0.0005719106781345851
-0.0006709295671762944
-0.0007684458901050881
-0.0008646323625677043
-0.0009596648923353652
-0.0010537215672198914
-0.0011469817776536967
-0.0012396254871585187
-0.0013318326598477995
-0.0014237828503895385
-0.0015156549585430817
-0.0016076271474920936
-0.001699876922715976
-0.0017925813660415388
-0.0018859175177498595
-0.001980062898121627
-0.00207519615852245
-0.0021714978509902692
-0.002269151304221711
-0.002368343592797771
-0.0024692665853815673
-0.002572118056409743
-0.002677102844437361
-0.0027844340387470495
-0.0028943341740709054
-0.003007036411280955
-0.0031227856796736224
-0.0032418397540095595
-0.0033644702367932496
-0.003490963413411291
-0.003621620944739709
0.0015365003483537067
0.0013940184567472445
0.0012543727591165215
0.0011176161411994862
0.0009837899717491261
0.0008529221446105205
0.0007250254992998764
0.0006000966372895263
0.0004781151393332267
0.0003590431774585399
0.00024282550424134346
0.00012938979211887802
1.8647287157348355e-05
-8.950626487915902e-05
-0.00019518946697112184
-0.00029853394333611487
-0.000399682886380179
-0.0004987895276905121
-0.0005960155803550451
-0.0006915296963985315
-0.0007855059787205965
-0.0008781225818995774
-0.0009695604308648693
-0.0010600020809901026
-0.0011496307378318065
-0.0012386294496990018
-0.0013271804816159007
-0.001415464875111995
-0.001503662194678684
-0.00159195045867783
-0.0016805062499466016
-0.0017695049992677812
-0.0018591214331990461
-0.0019495301764002292
-0.0020409064974844897
-0.002133427186458165
-0.0022272715509230566
-0.002322622517315444
-0.002419667822475203
-0.002518601279713737
-0.0026196241022250315
-0.0027229462651163945
-0.0028287878854930427
-0.002937380597888898
-0.00304896889988545
-0.0031638114400038032
-0.003282182216902945
-0.003404371655599755
-0.0035306875228838033
0.0014578399995011683
0.0013179419856454815
0.0011808752373262347
0.0010467111199629134
0.0009155074451694979
0.0007873063376276912
0.0006621325390135414
0.000539992168580335
0.0004208719456150877
0.00030473886488783207
0.00019154030306081735
8.120452238317023e-05
-2.635847170167748e-05
-0.00013125576987355406
-0.00023361015110556337
-0.0003335584863284113
-0.0004312500126970219
-0.0005268445360160827
-0.0006205106156158371
-0.0007124237813415021
-0.0008027648267026747
-0.0008917182159881454
-0.0009794706366246684
-0.0010662097215456108
-0.0011521229600830844
-0.0012373968100953831
-0.001322216018824653
-0.0014067631554250185
-0.0014912183542393608
-0.0015757592647214387
-0.0016605612013536764
-0.001745797484926889
-0.0018316399650370966
-0.001918259712517547
-0.002005827869652907
-0.0020945166453135225
-0.0021845004414991417
-0.0022759570970998164
-0.002369069233880316
-0.002464025688698246
-0.002561023014715544
-0.0026602670328023208
-0.002761974412423724
-0.0028663742590178086
-0.0029737096821988405
-0.0030842393160560345
-0.0031982387593689765
-0.0033160018997554427
-0.0034378420816417662
0.0013780001432575247
0.0012406528310275715
0.0011061388565868253
0.0009745496095199899
0.000845960592968896
0.0007204290924226163
0.000597992351111843
0.0004786662742611997
0.000362444666957824
0.0002492989933681293
0.00013917862929637217
3.2011566315743624e-05
-7.229448556679129e-05
-0.00017385065819612274
-0.0002727852154744976
-0.0003692416430221596
-0.00046337660667213504
-0.0005553578466224365
-0.0006453620695232489
-0.0007335728946985575
-0.0008201789035638609
-0.0009053718335608977
-0.000989344949999406
-0.0010722916214296208
-0.0011544041168525844
-0.0012358726364210502
-0.0013168845814284236
-0.0013976240643993488
-0.0014782716559967237
-0.001559004362207744
-0.0016399958227956528
-0.0017214167201984182
-0.0018034353868042214
-0.001886218597708652
-0.0019699325355222695
-0.00205474391342772
-0.002140821242359533
-0.002228336227784733
-0.0023174652810007447
-0.0024083911290520045
-0.002501304506227195
-0.0025964059085748677
-0.002693907390921374
-0.0027940343834600666
-0.002897027502084329
-0.0030031443232520875
-0.003112661090304055
-0.0032258743138309717
-0.003343102223929438
0.0012969894559322868
0.0011621506941125181
0.0010301556599409296
0.0009011174681383353
0.0007751306717769819
0.0006522687062922635
0.0005325819230962633
0.0004160962379248113
0.0003028123977023636
0.0001927058490871509
8.572717298681743e-05
-1.8196966947556584e-05
-0.00011916242691791716
-0.0002172858112361284
-0.00031270240661414057
-0.00040556390507233723
-0.0004960359969702529
-0.0005842959117341721
-0.0006705299776286163
-0.0007549312639865179
-0.0008376973602733004
-0.0009190283367831679
-0.0009991249221502048
-0.0010781869236198656
-0.0011564119074952669
-0.001233994149576716
-0.0013111238588885254
-0.0013879866725898405
-0.0014647634156843507
-0.001541630115906573
-0.0016187582618574607
-0.0016963152909510778
-0.00177446529286103
-0.001853369913756165
-0.0019331894465285104
-0.0020140840922880585
-0.0020962153784854776
-0.002179747718997184
-0.0022648501012527446
-0.002351697884906582
-0.0024404746955714214
-0.0025313743956756687
-0.0026246031125307795
-0.0027203813011583595
-0.002818945816308604
-0.002920551964389822
-0.0030254755017265107
-0.0031340145406841477
-0.0032464913197720463
0.0012148139158960035
0.0010824317908512265
0.0009529136107981895
0.0008263960960376727
0.0007029943315806728
0.0005827989552457738
0.0004658740348552695
0.0003522556627164903
0.00024195126943725095
0.00013493963407922634
3.117154497857006e-05
-6.942895370897796e-05
-0.00016696280982343237
-0.0002615537960663876
-0.0003533460245882668
-0.000442501241527608
-0.0005291959973103308
-0.0006136187827285439
-0.0006959672123911923
-0.0007764453268423793
-0.0008552610732362087
-0.0009326240126387476
-0.0010087432904003707
-0.0010838258950938906
-0.001158075221610844
-0.0012316899453906714
-0.0013048632075525826
-0.0013777821049345915
-0.0014506274746670534
-0.0015235739598029388
-0.0015967903405308473
-0.0016704401144257836
-0.0017446823088438888
-0.0018196725087367104
-0.001895564083653413
-0.0019725095983304693
-0.0020506623918733306
-0.0021301783109651494
-0.002211217582665525
-0.0022939468120809423
-0.0023785410894083536
-0.0024651861895027757
-0.0025540808451442985
-0.002645439072537399
-0.002739492524238541
-0.002836492840664437
-0.0029367139665784914
-0.0030404543934950123
-0.0031480392828048334
0.0011314762549856916
0.0010014882163227289
0.0008743959011651321
0.0007503617225026876
0.0006295229188553342
0.0005119884501709072
0.0003978367026412511
0.0002871140337595973
0.00017983415682855906
7.597833362668182e-05
-2.4503683349023572e-05
-0.00012169204046257737
-0.0002156946032196112
-0.0003066443178404779
-0.00039469623064155223
-0.0004800242822191079
-0.0005628179891006992
-0.0006432791172389935
-0.0007216184404316244
-0.000798052663452363
-0.0008728015753323472
-0.0009460854836899528
-0.001018122966994767
-0.0010891289687301499
-0.0011593132459875215
-0.0012288791753265228
-0.0012980229108700229
-0.0013669328835551851
-0.0014357896261215641
-0.00150476590560494
-0.0015740271435986612
-0.0016437321040965597
-0.001714033829085547
-0.0017850808029623438
-0.0018570183280736743
-0.0019299900950066479
-0.002004139932494882
-0.002079613722791203
-0.002156561468950609
-0.00223513950054742
-0.0023155128038232532
-0.002397857461055357
-0.0024823631819861185
-0.0025692359074191255
-0.0026587004615402053
-0.002751003225142365
-0.0028464147967131107
-0.002945232602287795
-0.003047783408094168
0.001046975330012783
0.0009193072154895857
0.0007945801586995288
0.0006729845912975974
0.000554681684740585
0.0004397999117546243
0.0003284325616686994
0.00022063624399516583
0.00011643037504557689
1.5797605119522752e-05
-8.13148890958116e-05
-0.00017499334928032084
-0.0002653547398510474
-0.00035254354715788267
-0.00043672821420899445
-0.0005180973504205601
-0.0005968558488853731
-0.0006732210320166637
-0.0007474189314178004
-0.000819680790734027
-0.0008902398622583759
-0.0009593285502374838
-0.0010271759370040542
-0.0010940057128896391
-0.001160034517770238
-0.0012254706912908902
-0.0012905134203592458
-0.0013553522663088628
-0.001420167050018165
-0.0014851280709714445
-0.001550396635460893
-0.0016161258695309919
-0.0016824617935401638
-0.001749544637056552
-0.0018175103749365623
-0.0018864924676092742
-0.00195662379059151
-0.0020280387399038598
-0.0021008755011991224
-0.002175278470924826
-0.002251400817618987
-0.0023294071704101187
-0.0024094764198967222
-0.0024918046137721236
-0.0025766079258088027
-0.002664125672099754
-0.002754623342763704
-0.002848395610651623
-0.002945769270948806
0.0009613054017105771
0.000835870345006158
0.0007134375361427733
0.0005942280284541232
0.00047842888450890485
0.00036618935408745147
0.00025761818216437846
0.00015278208400300308
5.1705375479821694e-05
-4.5629298862021224e-05
-0.00013927923725302362
-0.00022933908078350777
-0.00031593749425818307
-0.00039923329353603806
-0.00047941118956520024
-0.0005566773155697229
-0.0006312546931418488
-0.0007033787769015196
-0.0007732931975784375
-0.0008412458014924961
-0.0009074850619495982
-0.000972256916299684
-0.0010358020623144606
-0.0010983537298410138
-0.0011601359288047081
-0.0012213621627508876
-0.0012822345882074065
-0.0013429435940338942
-0.001403667771300252
-0.00146457424273848
-0.0015258193210344693
-0.001587549466759236
-0.001649902519189117
-0.0017130091762707599
-0.0017769947032237193
-0.0018419808524598007
-0.0019080879804002672
-0.001975437349189327
-0.002044153603076738
-0.002114367410248112
-0.002186218261014866
-0.0022598574124628353
-0.002335450967839818
-0.0024131830760950046
-0.002493259233034905
-0.002575909660509995
-0.002661392733880552
-0.0027499984207184497
-0.0028420516852809066
0.0008744553058551117
0.0007511525076289889
0.0006309316634023725
0.0005140473735232333
0.0004007147523110294
0.0002911051656876943
0.00018534331383233092
8.350569796065563e-05
-1.437955050332014e-05
-0.00010833155611693606
-0.0001984144267407513
-0.00028473398545965714
-0.00036743369661724904
-0.00044668998953914995
-0.0005227071861579364
-0.0005957122312626663
-0.0006659494082996796
-0.0007336752016611701
-0.0007991534404127101
-0.0008626508305246867
-0.0009244329547391074
-0.0009847607927399504
-0.0010438877904400384
-0.0011020574867124933
-0.001159501689179018
-0.0012164391778200622
-0.001273074906049448
-0.0013295996631696155
-0.001386190159352603
-0.0014430094939679675
-0.0015002079696747814
-0.0015579242176961237
-0.0016162866036227262
-0.0016754148875213377
-0.0017354221166841627
-0.0017964167337340235
-0.0018585048867414203
-0.0019217929313102358
-0.001986390117081925
-0.0020524114526701137
-0.0021199807435729884
-0.0021892337970461015
-0.002260321786198418
-0.0023334147626614885
-0.002408705303046696
-0.0024864122690256563
-0.0025667846542278133
-0.0026501054832356874
-0.0027366957187555385
0.0007864074980378777
0.000665120836861495
0.000547017438506707
0.0004323887517589803
0.000321480332520439
0.0002144870754240205
0.00011155005414797275
1.2755010193798641e-05
-8.186754593612379e-05
-0.0001723407262072098
-0.00025873831231238223
-0.00034118066626329796
-0.0004198297410627069
-0.0004948834420709144
-0.0005665695892042768
-0.0006351397172168205
-0.0007008629285633072
-0.0007640199835740316
-0.0008248977787634465
-0.0008837843287075563
-0.00094096433233694
-0.00099671537249966
-0.0010513047695284725
-0.001104987086074486
-0.0011580022619695988
-0.0012105743443083239
-0.001262910768971219
-0.0013152021449251879
-0.0013676224911963325
-0.0014203298777383452
-0.0014734674248356085
-0.001527164620549996
-0.0015815389214731065
-0.0016366976081877913
-0.0016927398729597101
-0.0017497591229348776
-0.0018078454872439524
-0.0018670885207007423
-0.0019275801000723618
-0.0019894175110729308
-0.0020527067252076245
-0.0021175658653019604
-0.0021841288569477563
-0.0022525492601518024
-0.002323004271156663
-0.002395698878699004
-0.0024708701518624254
-0.0025487916281492495
-0.0026297777604201433
0.0006971369494787744
0.0005777334045689309
0.00046163962863568844
0.0003491876602898618
0.00024065614587462023
0.0001362649895338252
3.6171936823386e-05
-5.952886995039264e-05
-0.00015080642136123049
-0.00023769059732436666
-0.00032026836259060453
-0.00039867866556406693
-0.00047310633697935766
-0.0005437752975439862
-0.0006109413782337369
-0.0006748850363472277
-0.0007359042182265399
-0.0007943075795682352
-0.0008504082302261886
-0.0009045181257053016
-0.0009569431849380458
-0.0010079791755126357
-0.0010579083746691904
-0.0011069969878262208
-0.001155493286317668
-0.0012036264121409613
-0.0012516057892523417
-0.001299621077513937
-0.0013478426059175333
-0.0013964222252847332
-0.0014454945264185115
-0.0014951783768875904
-0.0015455787375911155
-0.0015967887284189138
-0.0016488919202405465
-0.0017019648377704678
-0.0017560796642977945
-0.0018113071446374147
-0.0018677196868086485
-0.0019253946657774405
-0.0019844179340392024
-0.002044887543816161
-0.002106917684167018
-0.002170642833334655
-0.0022362221221653503
-0.002303843898411026
-0.0023737304741571347
-0.0024461430294812556
-0.002521386634718112
0.0006066098661078288
0.0004889377181512451
0.00037473124619144885
0.00026436733595072356
0.00015816066496082692
5.6357684713072634e-05
-4.086706157016562e-05
-0.00013341225253396018
-0.00022124881984089337
-0.00030441688847354566
-0.0003830209029549395
-0.00045722327703474896
-0.0005272369391801828
-0.0005933171557513184
-0.0006557530007318582
-0.0007148588094449474
-0.0007709659087219879
-0.000824414862647619
-0.0008755484161336244
-0.000924705262383676
-0.0009722147081412608
-0.001018392264836106
-0.0010635361557873686
-0.0011079247000760385
-0.0011518145124666396
-0.0011954394452310894
-0.0012390101909561056
-0.0012827144642670683
-0.0013267176836848343
-0.0013711640813893443
-0.001416178177438259
-0.0014618665650627943
-0.001508319964268836
-0.0015556155114915433
-0.0016038192630123266
-0.0016529888988909627
-0.0017031766220373806
-0.0017544322535706681
-0.0018068065306652906
-0.0018603546165942703
-0.0019151398345955556
-0.0019712376374802915
-0.0020287398235551736
-0.0020877590064301114
-0.002148433341619835
-0.002210931506513053
-0.0022754579222627885
-0.0023422581964295947
-0.0024116247537533247
0.0005147821965997279
0.0003986689661041945
0.0002862116570867372
0.00017783686587125903
7.389856935693939e-05
-2.5328658769606383e-05
-0.00011965359613343336
-0.00020896946185978288
-0.00029325227696853223
-0.00037255675390030635
-0.0004470100771467207
-0.0005168040073313127
-0.0005821857773372929
-0.0006434482528970358
-0.0007009198056680533
-0.0007549543001661835
-0.0008059215338021739
-0.0008541983985235297
-0.0009001609594641627
-0.0009441775757705372
-0.000986603125350402
-0.0010277743412869635
-0.0010680062244306752
-0.0011075894645204394
-0.001146788780567955
-0.0011858420790588717
-0.001224960324339091
-0.001264328017779601
-0.0013041041893695447
-0.0013444238158126266
-0.0013853995917168706
-0.0014271239939991388
-0.0014696715933199198
-0.0015131015795631607
-0.001557460480600674
-0.0016027850644982668
-0.001649105424705928
-0.0016964482554911939
-0.0017448403308476454
-0.0017943122042978175
-0.001844902149394121
-0.0018966603613012022
-0.0019496534386165103
-0.002003969161553286
-0.0020597215777746827
-0.0021170564005238285
-0.0021761567152367434
-0.00223724898053846
-0.0023006092973790193
0.00042159788670969103
0.00030684796096761696
0.00019598436867199198
8.948899386619115e-05
-1.2241254143631128e-05
-0.00010890210059403757
-0.00020028610437951636
-0.00028628339364553806
-0.0003668791254443724
-0.00044214801971448597
-0.0005122464423337287
-0.0005774025925619174
-0.0006379053858476692
-0.0006940926169704468
-0.0007463389473094961
-0.0007950441922060967
-0.0008406222992795244
-0.0008834913152701489
-0.000924064545528451
-0.0009627430230510206
-0.000999909327533099
-0.0010359227319844799
-0.001071115606130638
-0.0011057909718645573
-0.0011402210852400653
-0.0011746469101021687
-0.0012092783483318402
-0.001244295098681722
-0.0012798480282519963
-0.0013160609559951589
-0.001353032764726255
-0.0013908397757355882
-0.0014295383373331902
-0.0014691675948340956
-0.0015097524241651922
-0.0015513065241578201
-0.0015938356735233604
-0.0016373411674180938
-0.001681823455371042
-0.0017272860071816873
-0.001773739436219328
-0.0018212059103961155
-0.001869723879961569
-0.00191935314819279
-0.0019701803060419854
-0.002022324544853883
-0.002075943852378838
-0.00213124158647951
-0.0021884734081381377
0.00032698682658724096
0.0002133787161383363
0.00010393443244882672
-8.024341907157673e-07
-0.00010038800633970293
-0.00019448677705152448
-0.0002828760217114708
-0.0003654459936747352
-0.00044219617550763854
-0.0005132280603327467
-0.0005787350877506326
-0.000638990449524944
-0.0006943335117254551
-0.0007451555780298102
-0.0007918856532280149
-0.000834976768854094
-0.00087489331713167
-0.0009120997170912826
-0.0009470506179594562
-0.0009801827374433542
-0.0010119083414197854
-0.001042610299385677
-0.00107263859735021
-0.001102308155559931
-0.0011318977803842951
-0.0011616500750908781
-0.0011917721401438729
-0.0012224369071954112
-0.0012537849695253966
-0.001285926793137276
-0.00131894521528215
-0.001352898159535404
-0.0013878215177403688
-0.0014237321685344265
-0.0014606311194042508
-0.0014985067740860072
-0.0015373383395731813
-0.0015770993970330646
-0.0016177616686220801
-0.0016592990176046395
-0.0017016917223887998
-0.0017449310661534385
-0.0017890242826962381
-0.0018339998960028962
-0.0018799134858436123
-0.0019268539044502361
-0.0019749499600215173
-0.0020243775714532397
-0.002075367385287262
0.00023086242400153015
0.00011814557699129508
9.925381217468221e-06
-9.3185454912173e-05
-0.00019069161175834688
-0.00028222494589552095
-0.0003675490403257861
-0.0004465585991612585
-0.0005192740778469547
-0.0005858321929414021
-0.0006464731353130904
-0.0007015254102288628
-0.0007513892492393174
-0.000796519491585227
-0.0008374087318403068
-0.0008745713930495542
-0.0009085292282640849
-0.000939798593895036
-0.0009688796884405422
-0.0009962478189485982
-0.0010223466504418952
-0.0010475833125296015
-0.001072325182018088
-0.0010968981280878552
-0.0011215859939733633
-0.0011466310920182597
-0.00117223550342648
-0.0011985629962701378
-0.001225741402163848
-0.0012538653209035258
-0.0012829990513468486
-0.0013131796745004427
-0.0013444202402661844
-0.0013767130320594748
-0.0014100329033053458
-0.0014443406965930806
-0.0014795867701028302
-0.0015157146669469747
-0.00155266497145274
-0.001590379402300248
-0.0016288051959448997
-0.0016678998349840268
-0.0017076361751315397
-0.001748008021271185
-0.0017890361976807198
-0.0018307751499653455
-0.001873320106520672
-0.001916814815480325
-0.0019614598591131058
0.0001331187186248868
2.1009806118667262e-05
-8.620439934562546e-05
-0.00018783348556772675
-0.0002833257490948461
-0.0003722792508166102
-0.00045444637556888573
-0.0005297320590532152
-0.0005981862422426206
-0.0006599914293763361
-0.0007154464397596313
-0.0007649475487285064
-0.0008089682148976116
-0.0008480385048171579
-0.0008827251744791737
-0.0009136131743875481
-0.0009412891349930202
-0.000966327182716376
-0.0009892772492161774
-0.0010106558783055833
-0.0010309394111839253
-0.00105055934232153
-0.0010698995830997126
-0.0010892953437487262
-0.0011090333407619887
-0.0011293530510615817
-0.0011504487603530324
-0.0011724721866407852
-0.0011955354969595908
-0.001219714573100869
-0.001245052418406823
-0.0012715626312228244
-0.001299232900575386
-0.001328028505745038
-0.0013578958236044568
-0.001388765866052171
-0.0014205578848494847
-0.0014531830929605423
-0.0014865485603805621
-0.001520561348650279
-0.001555132951975631
-0.0015901841142164884
-0.0016256500900392531
-0.001661486415268143
-0.001697675245920266
-0.001734232317562874
-0.0017712145665005757
-0.0018087284419173386
-0.0018469389235193229
3.36269293429621e-05
-7.819450422353116e-05
-0.00018464598970698368
-0.000284949437685934
-0.00037849133579950095
-0.00046483520991407075
-0.0005437259820884853
-0.0006150865145333022
-0.0006790071399940482
-0.000735729373598443
-0.0007856252533364142
-0.0008291738599720587
-0.0008669365340462512
-0.0008995321627521204
-0.000927613685584597
-0.0009518466996038663
-0.0009728907651300916
-0.0009913837470692719
-0.001007929294710861
-0.001023087374828272
-0.0010373676334086276
-0.0010512252690068353
-0.0010650590504341995
-0.0010792110959629685
-0.001093968042365846
-0.001109563262046677
-0.0011261798282702577
-0.0011439539763096526
-0.001162978857776534
-0.0011833084333313006
-0.0012049613933341544
-0.001227925035635423
-0.00125215906412849
-0.0012775993008846721
-0.0013041613289383157
-0.0013317441025366486
-0.0013602335774118915
-0.0013895064258557452
-0.0014194339105006969
-0.001449885997066521
-0.0014807357901433435
-0.001511864377491387
-0.001543166167393823
-0.001574554800297133
-0.0016059697102828382
-0.0016373834037996388
-0.0016688095125414124
-0.0017003116644303748
-0.0017320132014581671
-6.776870383811903e-05
-0.00017966535418280014
-0.00028562510311427175
-0.00038477056996177525
-0.0004764205330861533
-0.0005601039200127406
-0.0006355636301948672
-0.0007027506720153794
-0.0007618097568505306
-0.0008130579852948013
-0.0008569585525618701
-0.0008940914890191807
-0.0009251233599056087
-0.0009507776150818933
-0.0009718069535132686
-0.0009889686970396736
-0.0010030037970014333
-0.0010146197587760145
-0.0010244774851369538
-0.0010331818204457627
-0.0010412754256651337
-0.001049235523881636
-0.0010574730180712725
-0.0010663334859088575
-0.0010760995890121972
-0.0010869944856486992
-0.0010991858978434636
-0.0011127905492054144
-0.0011278787537388826
-0.001144478995237985
-0.0011625823897607156
-0.001182146969388169
-0.0012031017639688515
-0.0012253506892773436
-0.00124877627568842
-0.0012732432918894747
-0.001298602334119131
-0.0013246934636303512
-0.0013513499841102325
-0.0013784024570664098
-0.0014056830569847932
-0.0014330303695105386
-0.0014602947350197404
-0.0014873442366782272
-0.0015140714263257443
-0.0015404008731896845
-0.001566297609482882
-0.001591776533419291
-0.0016169128142475286
-0.00017125596186026368
-0.0002836388002513332
-0.000389408297951116
-0.0004875742310987731
-0.0005773813424945866
-0.0006583249476000332
-0.0007301537059603153
-0.0007928603322823035
-0.0008466618797969222
-0.0008919718407778528
-0.0009293666381826778
-0.0009595491333318248
-0.0009833115867994907
-0.0010015001451726963
-0.0010149824561253087
-0.0010246195067631953
-0.0010312422925481215
-0.0010356334974307292
-0.0010385140241827308
-0.0010405339660289961
-0.0010422674532590314
-0.001044210730222559
-0.0010467828033896
-0.0010503280331889808
-0.0010551201053230312
-0.0010613668976788716
-0.0010692158461892507
-0.0010787594993350441
-0.0010900410313568094
-0.0011030595557557036
-0.0011177751420717516
-0.0011341134901546035
-0.0011519702578630213
-0.0011712150714341778
-0.0011916952739088257
-0.0012132394872372762
-0.0012356610791577453
-0.001258761637581443
-0.0012823345637725178
-0.001306168901582
-0.0013300535236817866
-0.0013537817972531022
-0.001377156850863509
-0.001399997561169035
-0.0014221453723961344
-0.0014434720531041403
-0.001463888483394793
-0.0014833545515438376
-0.001501890222189134
-0.00027706080466797026
-0.0003903962287035677
-0.0004963104868527315
-0.0005936846753637343
-0.000681682866406047
-0.000759769342771369
-0.0008277095297929016
-0.00088555584294241
-0.000933620787577063
-0.0009724404044090598
-0.0010027315092324346
-0.0010253461485277347
-0.0010412263518268252
-0.0010513617033801638
-0.0010567515837593905
-0.0010583732413933092
-0.0010571562190926007
-0.0010539631303907852
-0.0010495763790412927
-0.0010446901453585308
-0.0010399068133387446
-0.0010357369618203124
-0.001032602066958748
-0.001030839138043393
-0.0010307066131660242
-0.0010323909586642099
-0.0010360135342874326
-0.0010416373964877833
-0.0010492738103874341
-0.0010588883247307501
-0.0010704063332670002
-0.0010837181015068316
-0.0010986832812989213
-0.0011151349691076798
-0.0011328833891677756
-0.0011517193016179553
-0.0011714172497856445
-0.0011917387712079945
-0.0012124357046171576
-0.001233253730561653
-0.001253936286874032
-0.001274229001869881
-0.0012938847878154018
-0.0013126697345319238
-0.0013303699376501499
-0.0013467993876372097
-0.001361809034061183
-0.0013752971245961434
-0.0013872209002490227
-0.00038545494898006155
-0.000500273286308757
-0.0006067040621372741
-0.0007034811717151045
-0.0007896812991312844
-0.0008647426575136043
-0.0009284628872558275
-0.000980978005537916
-0.0010227257602268428
-0.0010543976683453048
-0.0010768843725029098
-0.0010912187771296602
-0.0010985208449510748
-0.0010999470915934884
-0.0010966468639014614
-0.0010897265555631385
-0.001080222096712718
-0.0010690794075902785
-0.0010571420494845168
-0.0010451450307522193
-0.0010337136054929677
-0.0010233659025496618
-0.0010145183065492745
-0.0010074926477590344
-0.0010025244167258009
-0.0009997713830101913
-0.000999322151398703
-0.0010012043259073067
-0.0010053920680951622
-0.0010118129311309596
-0.0010203539260859665
-0.0010308668345355154
-0.0010431728246556096
-0.001057066459554109
-0.0010723192092918846
-0.0010886825942619978
-0.001105891099200916
-0.0011236650055492722
-0.0011417132961651123
-0.0011597367911314743
-0.001177431676836562
-0.001194493592572423
-0.0012106224392779245
-0.0012255280732337073
-0.0012389370428959809
-0.0012506005190462965
-0.0012603035565928108
-0.0012678758105209367
-0.0012732038089027786
-0.000496765266629156
-0.0006136709235430894
-0.0007210300460601012
-0.0008174076714457888
-0.0009017866964967577
-0.0009735877625083565
-0.0010326623175269077
-0.0010792617769242712
-0.0011139876121236967
-0.0011377283142360757
-0.0011515894736038737
-0.001156822789783306
-0.0011547588706677988
-0.0011467474228604988
-0.001134107096774142
-0.0011180860049600908
-0.001099832897348986
-0.0010803782088920823
-0.001060623699746576
-0.001041339156642315
-0.0010231645677928588
-0.0010066162676758555
-0.0009920957202165966
-0.0009798998258260996
-0.0009702318664697052
-0.0009632124210981214
-0.0009588897780568074
-0.0009572495352567333
-0.0009582232116935596
-0.00096169579728911
-0.0009675122457144664
-0.0009754829712857807
-0.0009853884506988604
-0.0009969830574253387
-0.0010099982745933218
-0.001024145444023683
-0.0010391182170441972
-0.00105459487839369
-0.0010702407190424472
-0.0010857106376905984
-0.001100652154213056
-0.001114709021176958
-0.0011275256212233617
-0.0011387523377828154
-0.001148052083349789
-0.0011551081624344775
-0.0011596336345658029
-0.0011613823259366274
-0.0011601616166263193
-0.0006113855371168465
-0.0007310691507486054
-0.0008398117902057682
-0.0009359843483263946
-0.0010184705303656373
-0.0010866871196237426
-0.0011405694864004123
-0.0011805268334140508
-0.0012073741658603122
-0.0012222492837054809
-0.0012265232192398426
-0.0012217116812322684
-0.0012093935337240073
-0.0011911404820841992
-0.0011684602743262094
-0.0011427540839170401
-0.001115287456913317
-0.0010871733274783178
-0.0010593651098247305
-0.001032657697371893
-0.001007694259122489
-0.000984976936516173
-0.0009648798399949296
-0.0009476630682236434
-0.0009334867864019929
-0.0009224246804957863
-0.0009144763404649505
-0.000909578315031509
-0.0009076137259194286
-0.0009084204364497028
-0.0009117978447294034
-0.0009175124223426943
-0.0009253021517558122
-0.0009348800349991762
-0.0009459368569837354
-0.0009581433924614746
-0.000971152248680985
-0.000984599537967007
-0.0009981065768619318
-0.0010112818116249402
-0.00102372317380486
-0.0010350210738638566
-0.0010447622445978154
-0.0010525346482205475
-0.0010579336600797379
-0.0010605697365996258
-0.0010600777639251172
-0.0010561282660540919
-0.001048440626924864
-0.0007297912715172328
-0.000853044305679368
-0.0009636718993625039
-0.0010598213759864892
-0.001140273953657872
-0.0012044639525530792
-0.0012524526481725324
-0.0012848636820963766
-0.0013027901935716646
-0.0013076852986976173
-0.001301247298347341
-0.0012853094064077808
-0.001261741372817752
-0.0012323676621036005
-0.0011989042789580088
-0.001162914204186241
-0.0011257798596457946
-0.001088690073131622
-0.0010526385888835572
-0.001018431146397339
-0.0009866983987952826
-0.0009579123441493254
-0.0009324044055011669
-0.0009103837523755688
-0.0008919548682290966
-0.0008771337146654627
-0.000865862118952716
-0.0008580202201184418
-0.0008534369593629042
-0.0008518987033938018
-0.0008531561553087666
-0.0008569297465916559
-0.0008629137239065561
-0.0008707791523097433
-0.0008801760573653138
-0.0008907349262140714
-0.0009020677845616616
-0.0009137690645641058
-0.0009254164786957238
-0.0009365721172626823
-0.0009467839921125688
-0.0009555882556173366
-0.0009625123310168238
-0.000967079196116688
-0.0009688130651856544
-0.0009672467115512118
-0.000961930663827576
-0.0009524444903993359
-0.000938410359186799
-0.0008525585812468352
-0.000980290903287745
-0.0010933532521871688
-0.0011896353520759462
-0.0012678165533154418
-0.0013273814218571125
-0.001368575723196012
-0.0013923134590698022
-0.0014000498228463089
-0.001393636430402698
-0.0013751742034061043
-0.001346876492375706
-0.0013109512676528368
-0.0012695072766479203
-0.0012244855748768714
-0.0011776151443723072
-0.0011303895356017527
-0.0010840605476238043
-0.0010396447293761551
-0.0009979387369775565
-0.0009595401208646959
-0.0009248707815930589
-0.0008942010089414369
-0.0008676726338419875
-0.0008453203402556345
-0.0008270905934093763
-0.0008128579468076342
-0.0008024387067354592
-0.0007956020765662077
-0.0007920789911128358
-0.000791568898815976
-0.0007937447695060759
-0.0007982566079003037
-0.0008047337455264654
-0.0008127861719504879
-0.000822005153879514
-0.0008319633804730921
-0.0008422148665838923
-0.0008522948434591567
-0.0008617198688373358
-0.0008699883950011762
-0.0008765820432831486
-0.0008809678452766229
-0.000882601722510562
-0.0008809334849445016
-0.0008754136312828717
-0.0008655022276682703
-0.0008506801231411495
-0.0008304627289053915
-0.0009803884278515654
-0.0011136495170002252
-0.0012297452471637122
-0.0013262688015308905
-0.001401805106358336
-0.0014559383836556788
-0.0014891808088104454
-0.0015028387819345426
-0.0014988386913542132
-0.0014795352606934101
-0.0014475232148333482
-0.001405468253584626
-0.0013559675426408557
-0.0013014443072138673
-0.0012440764592050082
-0.0011857558951094895
-0.001128073201625577
-0.0010723217938623441
-0.0010195156699607157
-0.0009704156660653041
-0.0009255600555488405
-0.0008852963493570015
-0.0008498120891756202
-0.000819163213813456
-0.0007932991993570507
-0.0007720846317061172
-0.0007553171877669428
-0.0007427422064430929
-0.0007340641501750577
-0.0007289553165648992
-0.0007270621776120784
-0.0007280097168012138
-0.0007314041131891262
-0.0007368340948514344
-0.0007438712570740774
-0.0007520696170728418
-0.000760964658947285
-0.0007700721111911363
-0.0007788866948519046
-0.0007868810832774402
-0.0007935053237373806
-0.0007981869859535681
-0.0008003323209581914
-0.0007993287331660298
-0.0007945488856570954
-0.0007853567691926341
-0.0007711160647508458
-0.0007512011129628127
-0.0007250107686979021
-0.001114138109652489
-0.001254142671574747
-0.0013739167332834402
-0.0014707131599614454
-0.0015430413982259871
-0.0015906594830529426
-0.0016144608857177264
-0.001616281930427248
-0.0015986621845780497
-0.0015645905059996374
-0.0015172645753340915
-0.0014598838335176919
-0.0013954869599173078
-0.001326837097862969
-0.001256351992725079
-0.0011860723929777899
-0.0011176602988711086
-0.0010524184604242307
-0.0009913233756608155
-0.0009350654229306303
-0.0008840912990678183
-0.0008386453825462567
-0.000798807867411596
-0.0007645284736756807
-0.0007356552403973236
-0.0007119583842382701
-0.0006931495047130323
-0.0006788965832185984
-0.0006688352960599418
-0.0006625771741230364
-0.0006597151178307503
-0.0006598267329718521
-0.0006624759028612676
-0.00066721296285693
-0.0006735737993245686
-0.0006810781594502706
-0.0006892274322399528
-0.0006975021451503839
-0.0007053594150699324
-0.0007122305964547375
-0.0007175193826252403
-0.0007206006373672476
-0.0007208202611965475
-0.0007174964270302217
-0.000709922549328397
-0.0006973723733742707
-0.000679107580437828
-0.0006543882930498748
-0.000622486826672479
-0.001254862596525009
-0.0014030214799437002
-0.0015271575062550703
-0.0016241354904734315
-0.0016924273776158186
-0.0017320760275052766
-0.0017445179071928288
-0.0017323050876842131
-0.0016987748480777505
-0.0016477131975210762
-0.001583049323318867
-0.001508605005123469
-0.0014279098524417973
-0.0013440822743967797
-0.001259768560062088
-0.0011771284254126148
-0.0010978542575767083
-0.0010232121538454363
-0.0009540948207479938
-0.0008910787599118817
-0.0008344804511468381
-0.0007844081928850217
-0.00074080777995221
-0.0007035012944540658
-0.000672219016203868
-0.00064662490272583
-0.000626336322696687
-0.0006109388171888809
-0.0005999966625663874
-0.0005930599559016148
-0.0005896688651643237
-0.0005893555998693831
-0.0005916445743472908
-0.0005960511616432303
-0.0006020793745009148
-0.000609218762269062
-0.0006169407791015678
-0.0006246948591732693
-0.0006319044282355468
-0.0006379630870706789
-0.0006422312205687682
-0.000644033315266964
-0.000642656306599862
-0.0006373493218844797
-0.0006273252313714964
-0.0006117644602987304
-0.0005898215401800022
-0.0005606348765241284
-0.0005233401724236142
-0.0014038694392150206
-0.0015618268336333452
-0.0016910307730010812
-0.0017879088035305333
-0.0018509645756184662
-0.0018806920179546844
-0.001879299107922363
-0.0018503052197413042
-0.0017980844856637576
-0.001727420704093618
-0.0016431222252036677
-0.0015497242697304413
-0.0014512866721930536
-0.0013512803746298498
-0.0012525472107699379
-0.0011573140467794412
-0.0010672427609304878
-0.0009835002541985025
-0.0009068363400323472
-0.0008376610354927094
-0.0007761159483378275
-0.0007221369208670215
-0.0006755068474669865
-0.0006358987288497039
-0.0006029096987918998
-0.0005760870933128742
-0.0005549477413398663
-0.0005389916273416031
-0.0005277109725933607
-0.000520595644579392
-0.0005171356599472342
-0.0005168214108313245
-0.000519142125352031
-0.000523582974131985
-0.000529621156482498
-0.0005367212417794753
-0.0005443300021388819
-0.0005518709503937042
-0.0005587387913634188
-0.0005642940036561586
-0.0005678577932523229
-0.0005687076984685728
-0.0005660741776872952
-0.0005591385741541208
-0.0005470329213016073
-0.0005288421187800707
-0.0005036090606214336
-0.0004703433160135051
-0.00042803393233477316
-0.0015627926533949357
-0.0017324705143774988
-0.0018674395993435716
-0.0019636450008672177
-0.0020197424068527214
-0.002036926429242126
-0.002018500865477309
-0.0019692932024891613
-0.0018950225444863628
-0.0018017132239271129
-0.001695215724176258
-0.0015808630985864511
-0.0014632629767035161
-0.001346206517472259
-0.0012326666069837617
-0.0011248562021477144
-0.0010243211633384542
-0.0009320475942537956
-0.0008485697348609607
-0.0007740697474108793
-0.0007084648467652931
-0.0006514801163616324
-0.0006027071935882193
-0.0005616500501691348
-0.0005277595756087335
-0.0005004587946426178
-0.0004791604622878965
-0.0004632785855979548
-0.0004522351859682517
-0.0004454633794119846
-0.00044240763604789027
-0.0004425218939342855
-0.00044526604922710475
-0.0004501012235240756
-0.00045648411746899986
-0.00046386069392554893
-0.00047165939110901944
-0.0004792840433327575
-0.000486106682600098
-0.0004914604071729264
-0.0004946325334051413
-0.0004948582951615835
-0.0004913154217016588
-0.0004831200094062432
-0.00046932420138982855
-0.0004489162925517057
-0.0004208239691752061
-0.00038392144728980476
-0.00033704126352493424
-0.0017336935369647762
-0.001917343869544074
-0.002058710991782854
-0.002153227711753315
-0.0021999059942497366
-0.002201017588932111
-0.002161424250829616
-0.0020877228200650447
-0.001987370288329901
-0.0018679172469922073
-0.0017364243003388665
-0.0015990836286552208
-0.0014610287043297782
-0.0013262931230610842
-0.0011978726311463953
-0.0010778478927208211
-0.000967534267314797
-0.0008676349463745156
-0.0007783828772847685
-0.0006996639647270844
-0.0006311189379805881
-0.0005722243163335753
-0.0005223545537616642
-0.0004808281453202116
-0.00044694059309796814
-0.00041998692093024766
-0.000399276068161189
-0.0003841390899793299
-0.0003739327046315428
-0.00036803938510612463
-0.00036586490524536525
-0.00036683401806056337
-0.00037038476259447853
-0.00037596175837366005
-0.00038300874645838187
-0.0003909605671269384
-0.0003992347211762663
-0.00040722264076771195
-0.00041428079413257865
-0.00041972176519702517
-0.00042280548483363337
-0.0004227308471457837
-0.0004186280251668173
-0.00040955190843265654
-0.0003944772196059626
-0.0003722960207857215
-0.00034181847248372643
-0.0003017778251106912
-0.0002508406576615524
-0.0019192003672235391
-0.0021194650428754264
-0.002267701719169504
-0.00235883878429502
-0.0023925872809392457
-0.002372867123378983
-0.00230675878120158
-0.0022032501483824473
-0.00207202841926626
-0.00192249167441108
-0.0017630619471402159
-0.0016008014454102775
-0.0014412819439581696
-0.0012886354266267303
-0.001145714496459858
-0.0010143040206622338
-0.0008953426071290405
-0.000789128546655637
-0.0006954973934194921
-0.0006139669403879755
-0.0005438505293397927
-0.00048434230789436324
-0.00043457906653572576
-0.0003936833339517557
-0.0003607919511233182
-0.0003350736824469132
-0.00031573872810864573
-0.0003020423642887491
-0.000293284393492162
-0.0002888056443487441
-0.0002879824119531235
-0.00029021946345688873
-0.00029494203503323616
-0.00030158710232046707
-0.00030959410577625565
-0.00031839524599565697
-0.0003274054250074765
-0.0003360118928199575
-0.00034356366083269224
-0.00034936076392777515
-0.00035264349223011054
-0.0003525817756527133
-0.0003482649962746262
-0.0003386926338595081
-0.0003227663249536633
-0.00029928413388716907
-0.00026693807491445093
-0.000224316143438201
-0.00016991023902349772
-0.002122705276466172
-0.002342680707748899
-0.002497929718893689
-0.002582965278652002
-0.0025987712211067437
-0.0025517875532211007
-0.002452259941798334
-0.002312397843343657
-0.0021447173219282904
-0.001960796226706095
-0.0017705119538677593
-0.0015817142119883324
-0.0014002237755955478
-0.0012300353992743933
-0.0010736203889657099
-0.0009322537329297575
-0.0008063199145265975
-0.0006955746370986993
-0.0005993553111730372
-0.0005167422908760513
-0.0004466772928969163
-0.00038804690388095225
-0.00033973889395120735
-0.000300678081814363
-0.00026984726551700783
-0.00024629752315334826
-0.00022915112775953594
-0.00021759945119338361
-0.00021089754908998858
-0.00020835659943351653
-0.00020933498148477045
-0.00021322850138742744
-0.00021946007133571283
-0.00022746901106737022
-0.00023670004850096654
-0.0002465920392528097
-0.0002565663943005225
-0.0002660151953784544
-0.00027428898501616686
-0.0002806842408399242
-0.0002844305831106453
-0.000284677825941191
-0.00028048307729735406
-0.0002707982375299983
-0.00025445845985565957
-0.00023017243077640137
-0.0001965156925948855
-0.0001519286108871351
-9.472088140263096e-05
-0.002348646962236016
-0.00259194558169132
-0.0027537326444763335
-0.0028283602062780192
-0.0028190478769260386
-0.002736096362862917
-0.0025942709503256334
-0.0024100931625485105
-0.0021995983649526355
-0.0019768310625248244
-0.0017530898701704411
-0.0015367719959050597
-0.0013336094948407644
-0.0011471054880990736
-0.0009790287580478505
-0.0008298800803769866
-0.0006992880505043361
-0.0005863218386722717
-0.0004897250662015459
-0.0004080826097629473
-0.0003399342050453948
-0.0002838478897845536
-0.00023846428026569853
-0.00020252035500187976
-0.0001748592804317623
-0.00015443103072275768
-0.00014028715460036312
-0.0001315719874347785
-0.00012751183474943133
-0.00012740310093176457
-0.00013059994935356312
-0.00013650181324059707
-0.00014454089679142093
-0.00015416968844297538
-0.00016484843509006683
-0.00017603248506980335
-0.00018715939020235925
-0.00019763565712856146
-0.00020682305142642743
-0.00021402438209208383
-0.00021846872923395738
-0.00021929612972266047
-0.00021554181846025755
-0.00020612026367015923
-0.00018980947169659063
-0.0001652364098657655
-0.00013086492017533313
-8.498812456377014e-05
-2.572790960755217e-05
-0.0026029252098327474
-0.0028737137252798847
-0.003040447658859637
-0.0030979034009373015
-0.0030531643616525245
-0.002922466129003801
-0.0027270200706314774
-0.002489046611539798
-0.0022288185356632868
-0.00196297548461707
-0.0017039601777638692
-0.0014602312722139345
-0.0012368924473728094
-0.001036459453868622
-0.0008595933107861483
-0.0007057171736671254
-0.0005734936598203221
-0.00046117160591630174
-0.0003668247004114597
-0.000288507110633141
-0.00022434873015217058
-0.0001726083455869231
-0.000131698574806648
-0.00010019258681399218
-7.681957944364812e-05
-6.0453723568179574e-05
-5.0099651162000686e-05
-4.487642365877051e-05
-4.4001137115711256e-05
-4.677279812078522e-05
-5.255676098907605e-05
-6.076979598910667e-05
-7.086572036061473e-05
-8.232144154009594e-05
-9.462321716669636e-05
-0.00010725291727439745
-0.00011967407289946788
-0.00013131750686894844
-0.00014156636262014494
-0.00014974037185259276
-0.00015507922921524642
-0.00015672497426049564
-0.0001537033312614261
-0.00014490406127200955
-0.0001290606021749699
-0.00010472969886114042
-7.027243356994006e-05
-2.3839051274912593e-05
3.6638935232556624e-05
-0.0028935230161446293
-0.003196490766268439
-0.003364586463112197
-0.0033942554394920093
-0.0032992256105730568
-0.0031048900449338734
-0.002841604813996373
-0.0025389483741835627
-0.002222010249014368
-0.001909788847028096
-0.0016151778747188115
-0.0013458558967958515
-0.0011055082834459011
-0.0008950214860879303
-0.0007134786991436111
-0.0005589113637198522
-0.00042882625181664153
-0.00032055257288066174
-0.0002314562567623836
-0.00015906184089317307
-0.00010111310474383156
-5.559490105526421e-05
-2.073161919138866e-05
5.02750456687906e-06
2.3029706093344315e-05
3.444263444974359e-05
4.027857450998075e-05
4.141768813143744e-05
3.8629690520580046e-05
3.259379624918554e-05
2.3917018236129656e-05
1.3151044959604924e-05
8.079966682429662e-07
-1.2624603892612274e-05
-2.6669300974488386e-05
-4.084427629915191e-05
-5.464869784907456e-05
-6.754754812632671e-05
-7.895566077960672e-05
-8.822072126418376e-05
-9.460500596453203e-05
-9.726563869255633e-05
-9.523313769720793e-05
-8.738804374670839e-05
-7.243554883609726e-05
-4.887844350377757e-05
-1.4989565422909856e-05
3.121361320076316e-05
9.198771412265161e-05
-0.0032314648143941718
-0.0035716155721597694
-0.0037339286513000617
-0.003719090011055288
-0.0035522793817645178
-0.003273051630392508
-0.00292456597981395
-0.002545500936047906
-0.0021658413991055532
-0.001805996933120536
-0.0014779695693094004
-0.0011873522583273532
-0.0009353556164795791
-0.0007204829043914164
-0.0005397570165122141
-0.00038954457317679826
-0.0002660694511672128
-0.00016570796110681584
-8.514027407382444e-05
-2.1412326341988322e-05
2.8054939510979877e-05
6.54851492087917e-05
9.27800940930968e-05
0.00011155856245665882
0.00012319545584572704
0.0001288586217188404
0.00012954226510207036
0.00012609663276610776
0.0001192541240384367
0.00010965222046817671
9.785373512250992e-05
8.436491852625849e-05
6.965195646471342e-05
5.4156374793522255e-05
3.830983854454309e-05
2.254880168838999e-05
7.3294312068206136e-06
-6.85680542317213e-06
-1.9466535705489618e-05
-2.9886538413799457e-05
-3.741415388647251e-05
-4.123572048553639e-05
-4.040263171711106e-05
-3.380448151314025e-05
-2.0138677912333314e-05
2.123905509979207e-06
3.477680554320878e-05
7.99169702462646e-05
0.00013997932452185918
-0.0036323363458538316
-0.004014357454735067
-0.004157330284650023
-0.004071471770756325
-0.003801827124973607
-0.0034098051222749256
-0.00295599319613625
-0.0024894167805685243
-0.0020438319823821837
-0.001638879561330844
-0.0012834206444265121
-0.0009791437752883969
-0.0007235255994300861
-0.0005119221789325952
-0.0003388990482003617
-0.00019900311802021893
-8.716531605105831e-05
1.1234850436324384e-06
6.976669752925546e-05
0.0001220853619288047
0.00016087401574210996
0.00018846823987232926
0.00020681270037939403
0.00021752421296133972
0.00022194760401939018
0.0002212039050360909
0.00021623131248705088
0.00020781974967517929
0.0001966400038022481
0.0001832684118615556
0.000168208006790585
0.00015190695158102605
0.00013477500492073413
0.000117198687203484
9.95557533923705e-05
8.222952816205886e-05
6.562361537923445e-05
5.0177453641268854e-05
3.6383148730338016e-05
2.480397416639371e-05
1.609490660409163e-05
1.1025589067435032e-05
1.05062521977492e-05
1.5617433472524256e-05
2.7644795853626336e-05
4.8120695999256946e-05
7.887371378764024e-05
0.00012208510201367623
0.00018034624916458963
-0.0041187714214079175
-0.004545402877360596
-0.0046437303490686425
-0.004444501912885533
-0.004027491733886307
-0.00348743172580899
-0.002907278410970754
-0.002345759141981569
-0.001836860913174396
-0.0013953949942447966
-0.0010237768077835684
-0.0007175829549941903
-0.0004693045407685582
-0.0002705713437275663
-0.00011332564812429377
9.64643534113064e-06
0.00010454355528674098
0.0001765623897144056
0.0002299945495708765
0.00026835238053023354
0.00029449603902565076
0.0003107493307603869
0.0003189998300745147
0.0003207828182468092
0.00031735040783490223
0.00030972789918611195
0.00029875952265627156
0.000285145568461714
0.0002694726588915678
0.0002522386563113613
0.0002338734624964811
0.00021475676488877382
0.00019523362635027325
0.0001756286942421921
0.00015625971677208847
0.00013745099249677997
0.00011954733424624636
0.00010292909188868923
8.802873936492733e-05
7.534948389310153e-05
6.548630618562201e-05
5.914983008719482e-05
5.7193550608014565e-05
6.064539974041938e-05
7.074558107485196e-05
8.899396352146649e-05
0.00011721122110028986
0.00015761631782509194
0.00021291629746284652
-0.004724678567109062
-0.005192651943740741
-0.005199048092485847
-0.004818454511793361
-0.004191656723012997
-0.0034625236032381967
-0.002739142972634251
-0.002084493649285448
-0.0015250827615707436
-0.001064480791855742
-0.0006945527962007286
-0.00040263576520054565
-0.00017540403553790453
-6.542464942049141e-07
0.00013205676192726387
0.00023133978587524823
0.00030414556038952127
0.000356017644278471
0.00039134923621086774
0.00041361247662959587
0.00042555085207624833
0.0004293352615692067
0.00042668818976434805
0.0004189814451880623
0.00040731268215682577
0.0003925652231634713
0.000375454901529456
0.00035656690764513527
0.0003363850002463184
0.0003153149449293645
0.00029370365473636514
0.000271855215524322
0.0002500447651303146
0.00022853104505337826
0.00020756834354747344
0.00018741848802107663
0.0001683635107917504
0.00015071959214580516
0.00013485286181539116
0.00012119759567065166
0.00011027726552082645
0.00010272880428085704
9.933044406247593e-05
0.00010103386922769714
0.00010900274775800523
0.00012466249315211397
0.0001497698754541199
0.000186512717787031
0.00023764314214562432
-0.005502593700560551
-0.0059925622607615355
-0.0058176240818316235
-0.005146913914332411
-0.004227640890547878
-0.0032703159380868974
-0.0024017809338257373
-0.0016739122207713843
-0.0010922574316098582
-0.0006409297472577944
-0.0002974876420464966
-3.991506073101805e-05
0.0001507486345698426
0.00028985891705459436
0.00038946103855886705
0.0004588474138267774
0.0005051291165553526
0.0005337319981918633
0.0005487970968244913
0.0005534920706141413
0.0005502487295947793
0.0005409423978699687
0.0005270267710116225
0.0005096352451459223
0.0004896571936013876
0.0004677956007078845
0.00044461084935279796
0.000420554238537001
0.0003959939011883157
0.0003712351287480202
0.0003465366286087117
0.00032212389802390926
0.00029820065998584916
0.0002749591482991004
0.0002525899328445144
0.00023129192820400823
0.00021128321729244406
0.0001928133325398984
0.00017617765062643773
0.0001617345423750964
0.0001499258348880081
0.0001413009488257684
0.0001365447978623549
0.00013650945822384075
0.00014225064525268116
0.00015507395890771575
0.00017660422357156785
0.00020890136896940803
0.000254646132205473
-0.006537263813706199
-0.006987444627273701
-0.006459705016825074
-0.0053295715331307045
-0.004023295088126824
-0.0028224063965235323
-0.0018412968980398483
-0.0010894568934978269
-0.0005333596023474932
-0.0001308342326058953
0.0001559984784484309
0.00035732977000852697
0.0004959898359811547
0.0005888233244956224
0.0006481295439221945
0.0006828635344586686
0.0006995548606741533
0.0007029831410291679
0.0006966656028857742
0.0006832062828942545
0.0006645457394717476
0.0006421399749742835
0.0006170891647086906
0.0005902307797424674
0.0005622073815018686
0.0005335163291159458
0.0005045465170537104
0.00047560578071341106
0.0004469415772528802
0.00041875683226488825
0.00039122234620151894
0.0003644868137722135
0.00033868528166450945
0.000313946726056856
0.000290401352605215
0.00026818819543785594
0.0002474636090129198
0.0002284112976900718
0.00021125459610744218
0.00019627176595356927
0.00018381504699539059
0.0001743339812094423
0.00016840297526044684
0.0001667521585876977
0.0001703000251030637
0.00018018914819837445
0.00019783881617337767
0.00022505491003888684
0.000264262599068317
-0.007967739782094007
-0.00820512101649228
-0.006992959925501467
-0.00516389917680459
-0.0034076027731071495
-0.002019446561829493
-0.001019705465701186
-0.00032987846971670783
0.00013484763241286687
0.0004424178088315075
0.0006418148690359041
0.0007669913717793771
0.0008411494107969931
0.0008801143951092536
0.0008947231791976815
0.0008924474792847735
0.0008784806673319441
0.000856463250127944
0.0008289687769806988
0.000797831444923465
0.0007643688010097269
0.0007295344965183035
0.0006940240296690308
0.0006583486162761096
0.0006228872598549439
0.0005879237818021289
0.0005536733944837852
0.0005203019570608567
0.0004879400912113658
0.00045669368855192835
0.0004266519087012706
0.00039789347911103196
0.00037049192183069915
0.00034452022117021155
0.000320055393583419
0.00029718341833632686
0.00027600503085131387
0.0002566429680945885
0.00023925138157990938
0.00022402827833199745
0.00021123195457427302
0.00020120230577633236
0.0001943873207049529
0.00019137346160841978
0.0001929155308946634
0.0001999585564655751
0.00021365259782234886
0.00023540657508096946
0.00026711623120788397
-0.010031186518505854
-0.009562828180876053
-0.007052251257773816
-0.004281292618444578
-0.002175969409785191
-0.0008036568073854829
4.7531862104537026e-05
0.0005611469794056237
0.0008634705865069917
0.0010341014974658415
0.001122311351189701
0.001158605390021968
0.0011620505216695005
0.0011447099407591733
0.0011143120374438374
0.0010758658338475605
0.0010326506613692241
0.0009868310933776507
0.0009398446757590377
0.0008926499143190377
0.0008458870300169646
0.0007999834631136687
0.0007552238933996192
0.0007117971737732459
0.0006698280627702655
0.0006293988402232015
0.0005905641270470812
0.000553361106495457
0.0005178166203837088
0.00048395214379698404
0.0004517873359446388
0.0004213426676184205
0.0003926415030707543
0.00036571194577475485
0.0003405887325948452
0.00031731547547793684
0.0002959476055680865
0.00027655647790240934
0.00025923525416815876
0.0002441074006172203
0.00023133889810213887
0.0002211554624938078
0.00021386589994239202
0.0002098913194402835
0.00020979533524192323
0.00021429945491550223
0.00022425227362508904
0.00024055115875953187
0.00026420384366901417
-0.013000720997326208
-0.010519813148733452
-0.005735375243656686
-0.0021900100526633564
-0.0002587310286233085
0.0007456803537163213
0.0012458421002636928
0.001478705008445276
0.0015680903791755576
0.0015797708136581828
0.0015493163335968257
0.0014964024223114453
0.0014321100778773993
0.0013627580274231611
0.0012919661633183613
0.0012217967525470328
0.001153400823076313
0.0010873920720305208
0.0010240670303584259
0.0009635365710614187
0.0009058053008976913
0.0008508198018174241
0.0007984979906944904
0.0007487469030167913
0.000701473318355704
0.0006565899350315374
0.0006140187722052416
0.0005736928497400914
0.0005355568087616683
0.00049956689499445
0.00046569057714796955
0.000433905980853206
0.00040420126549444574
0.0003765740459388822
0.0003510309587882489
0.0003275874933097306
0.00030626825530974747
0.00028710791805100846
0.00027015325483622024
0.0002554668673907662
0.00024313354929222236
0.00023327065631401078
0.00022604426940569383
0.0002216927261052548
0.00022055606187983828
0.00022309716536805108
0.00022986005163896928
0.00024122930748995963
0.00025699869227632094
-0.017033463705487622
-0.008588170475357313
-0.001603835750806225
0.0010375317356639225
0.0020215546239248407
0.0023197066136532076
0.0023462252848708348
0.002263649024501415
0.0021403274289711937
0.0020055703830072803
0.001872059914999322
0.0017450498216486975
0.0016264033574967841
0.0015164322739731249
0.001414762256167723
0.0013207471029492864
0.0012336670708435016
0.0011528215113597302
0.0010775690775661293
0.0010073419301989198
0.0009416472955973559
0.0008800631871718574
0.0008222317634424495
0.0007678520662066993
0.0007166729791199308
0.0006684867750741015
0.0006231233768080446
0.0005804453324494609
0.000540343449397818
0.0005027330056063921
0.0004675504504827871
0.00043475050954867867
0.00040430361323905845
0.0003761935789210226
0.0003504154863254415
0.0003269737017606994
0.00030588002955348956
0.0002871520074204034
0.00027081142907626685
0.0002568832955434745
0.00024539560579531217
0.00023638075847844803
0.0002298799166022547
0.0002259524245595973
0.00022469238574720357
0.0002262488294994744
0.00023081227951551875
0.0002383693171884374
0.0002475759978253153
-0.014845934003930049
0.0011484826258494384
0.0038123266714276023
0.0041399561884606344
0.0038267968780458447
0.0034313958452533433
0.0030641160791933407
0.002746926162770444
0.0024769499650631717
0.00224672228358256
0.0020488290518882275
0.0018770495778063858
0.001726417208387804
0.0015930310124832906
0.001473835866384434
0.0013664325644807806
0.001268927473028421
0.0011798173488295248
0.0010979020806309182
0.0010222186845623114
0.0009519912119969323
0.0008865925158340364
0.00082551486522928
0.0007683471911343245
0.0007147573292956358
0.0006644780530583091
0.0006172959972173698
0.0005730427982582661
0.0005315879390791478
0.0004928329044981694
0.00045670633941122946
0.0004231599627060635
0.0003921650326955649
0.00036370918774952105
0.00033779350140369577
0.0003144295958529726
0.00029363665193270563
0.00027543813752719734
0.0002598580500269808
0.00024691643370845437
0.000236623896098586
0.0002289748263872675
0.0002239390558652632
0.0002214518711997418
0.00022140259461352063
0.00022362128249446556
0.00022785096232675467
0.00023360177524407028
0.00023902607234453643

SCALARS STRAIN_YY float 1
LOOKUP_TABLE default
-0.0012485413189181616
-0.05038960753023222
-0.000712962933749256
0.0013294001362539332
-0.0012482652164524377
-0.0012474369394465668
-0.0012460565792979938
-0.0012441242890793291
-0.00124164028465229
-0.0012386048462267873
-0.0012350183203636012
-0.0012308811224192584
-0.0012261937394297817
-0.0012209567334318105
-0.0012151707452148774
-0.0012088364985011757
-0.0012019548045451023
-0.0011945265671429728
-0.0011865527880417504
-0.001178034572734521
-0.0011689731366251177
-0.001159369811537414
-0.0011492260525514109
-0.001138543445133422
-0.0011273237125237756
-0.0011155687233446177
-0.0011032804993817424
-0.001090461223481165
-0.0010771132475004275
-0.0010632391002456942
-0.001048841495306263
-0.0010339233386999491
-0.0010184877362200973
-0.0010025380003669815
-0.000986077656733364
-0.000969110449691668
-0.0009516403472224488
-0.0009336715446959243
-0.0009152084674041161
-0.0008962557716198916
-0.0008768183439304411
-0.0008569012985712998
-0.000836509972458821
-0.0008156499175836496
-0.0007943268903990441
-0.000772546837801702
-0.0007503158792540043
-0.0007276402845576846
-0.0007045264467390733
-0.0006809808494376846
-0.0006570100281343416
-0.0006326205244765459
-0.0006078188328656475
-0.0005826113383736176
-0.0005570042449327961
-0.0005310034926006846
-0.0005046146625254933
-0.00047784286803359555
-0.00045069263001237814
-0.0004231677344489204
-0.0003952710696078776
-0.0003670044398712824
-0.0003383683526857473
-0.00030936177434184864
-0.0002799818494105544
-0.00025022357753579083
-0.00022007943985477563
-0.00018953896550244487
-0.00015858822636113934
-0.00012720924525994048
-9.537929902975195e-05
-6.307009291484089e-05
-3.0246776438369594e-05
3.133237551355972e-06
3.712169997663328e-05
7.178126277196384e-05
0.00010718760994563037
0.000143432092718776
0.0001806250152674993
0.00021889976759906227
0.0002584180718022966
0.0002993767062791919
0.00034201621320351094
0.00038663229842128555
0.0004335909334520771
0.0004833486193341896
0.0005364799587840863
0.0005937157526769987
0.0006559965375032839
0.0007245492630591904
0.0008009994203095339
0.0008875391483633421
0.0009871850299641854
0.001104191482342906
0.001244703557465865
0.0014180071615962492
0.0016379482931568184
0.0019298345856372523
0.0023171669383669075
0.0029332718475980762
0.0032892654867363313
0.005642124849343226
-0.021176819560220612
-0.04465974279815529
-0.03253712408394733
-0.02291289408711835
-0.01762895166383449
-0.014219618966417366
-0.011895553479359132
-0.010205757764113157
-0.008921725857300888
-0.007910485528123068
-0.0070910862082834425
-0.006411334413782083
-0.005836200682484763
-0.0053413503114699695
-0.0049093974687198505
-0.0045276248993711965
-0.0041865444749182995
-0.0038789581185427052
-0.0035993278114873906
-0.003343342447215486
-0.0031076135343230393
-0.0028894572912984418
-0.0026867359217895292
-0.0024977402142353777
-0.0023211014972560062
-0.0021557247715933703
-0.0020007373280591656
-0.0018554488249290374
-0.0017193199283064703
-0.001591937396387258
-0.0014729940281917875
-0.0013622722729877135
-0.0012596305559496868
-0.0011649915490681007
-0.0010783317225221134
-0.0009996715604039808
-0.0009290658179343381
-0.0008665931294610657
-0.000812344132359713
-0.0007664070226357927
-0.0007288490537290387
-0.0006996918467923052
-0.0006788773585539309
-0.0006662197229153899
-0.000661335593166168
-0.0006635416517744991
-0.000671702781991329
-0.0006840116955369319
-0.0006977034154829614
-0.0007087213476136695
-0.000714561639685557
-0.000718989903069206
-0.0007244791545686635
-0.000729113272020146
-0.0007320539521834812
-0.0007327711896404354
-0.0007309322762876769
-0.0007263450538729649
-0.0007189194956357947
-0.0007086403693976479
-0.0006955476272914735
-0.0006797221400110937
-0.0006612751051879029
-0.0006403400041056495
-0.0006170663550882916
-0.0005916147622516688
-0.0005641529232364717
-0.0005348523680980821
-0.0005038857730586821
-0.0004714247400437188
-0.00043763796408552436
-0.00040268973120419216
-0.0003667387028694624
-0.0003299369519633166
-0.00029242922093805634
-0.00025435237668613997
-0.00021583503922090186
-0.00017699736312165593
-0.00013795095214130804
-9.879888861347164e-05
-5.963586046153768e-05
-2.0548369772777075e-05
1.838499191383902e-05
5.709321523267308e-05
9.55125039032445e-05
0.00013358587603753969
0.00017126274569137512
0.00020849849327470027
0.00024525403224531783
0.0002814953783872587
0.0003171932269147304
0.0003523225416723619
0.0003868621598222821
0.00042079441461478906
0.0004541047781354557
0.000486781525312896
0.0005188154199497474
0.0005501994230826257
0.0005809284236130974
0.0006109989908475999
0.0006404091483364627
0.0006691581682146674
0.0006972463851028787
0.0007246750285299086
0.0007514460727649774
0.0007775621029119384
0.0008030261961070317
0.0008278418166628165
0.0008520127240295161
0.0008755428924754893
0.0008984364414296175
0.0009206975754853519
0.0009423305331217602
0.0009633395432479541
0.0009837287887428103
0.0010035023762240414
0.001022664311333521
0.0010412184788880507
0.0010591686273001555
0.0010765183567248426
0.00109327111043922
0.0011094301690100505
0.00112499864684934
0.0011399794907993033
0.001154375480420189
0.0011681892296973584
0.0011814231899159866
0.0011940796534749554
0.0012061607584420986
0.0012176684936767712
0.0012286047043677528
0.0012389710978532587
0.0012487692496097602
0.0012580006093048102
0.0012666665068337135
0.0012747681582666037
0.0012823066716360354
0.0012892830525198518
0.0012956982093721425
0.0013015529585643226
0.0013068480291046902
0.0013115840670105405
0.0013157616393129623
0.0013193812376758318
0.0013224432816163478
0.0013249481213133407
0.0013268960399971386
0.001328287255913163
0.0013291219238534269
0.0012923605523568193
0.0012196248734564485
0.001149519841041946
0.0010819325447846695
0.0010167495978166685
0.0009538571762379711
0.0008931410616124236
0.0008344866857267763
0.0007777791769341125
0.0007229034074241469
0.0006697440408207078
0.0006181855795415192
0.0005681124113913194
0.0005194088549113074
0.00047195920303622074
0.00042564776466053056
0.00038035890374771286
0.00033597707564936297
0.0002923868603505464
0.00024947299237310094
0.00020712038711728775
0.00016521416344728035
0.0001236396623526259
8.228246155883578e-05
4.102838597974667e-05
-2.3648606556347929e-07
-4.1625820914881206e-05
-8.32530319153646e-05
-0.0001252312860703375
-0.00016767351492791294
-0.00021069242963200896
-0.0002544005400476057
-0.00029891017782002205
-0.0003443335231934075
-0.00039078263538983027
-0.0004383694863080989
-0.00048720599726737035
-0.0005374040784809075
-0.0005890756709107658
-0.000642332790111777
-0.0006972875716296789
-0.0007540523174922598
-0.0008127395432826479
-0.0008734620252445202
-0.0009363328468404708
-0.0010014654441452553
-0.0010689736494171598
-0.0011389717321718673
-0.0012115744370476689
-0.0012113040263305452
-0.0011387126321996122
-0.001068725719485547
-0.0010012285538976984
-0.0009361068776314596
-0.0008732468712510655
-0.0008125351123728086
-0.0007538585318596913
-0.0006971043682069689
-0.0006421601207739214
-0.0005889135024816083
-0.0005372523925572803
-0.00048706478987517454
-0.000438238767401844
-0.00039066242821264585
-0.0003442238635097128
-0.00029881111303556307
-0.0002543121282300165
-0.00021061473844374845
-0.0001676066204855109
-0.00012517527174085719
-8.3207987061934e-05
-4.159183960236734e-05
-2.1366573493830643e-07
4.1039945857468396e-05
8.228266083706859e-05
0.00012362840156723842
0.00016519134516809753
0.00020708591728202386
0.00024942678159758924
0.0002923288252056899
0.000335907139895536
0.00038027699951925786
0.0004255538335877218
0.00047185319729620145
0.0005192907381983691
0.0005679821597942281
0.000618043182316147
0.0006695895010454533
0.000722736742525043
0.0007776004190667429
0.0008342958819992086
0.0008929382741350855
0.0009536424819866496
0.0010165230882912268
0.0010816943254500222
0.0011492700305371917
0.001219363602557172
0.0012920879626773796
-0.0012104928234304424
-0.0011379353587669394
-0.0010679819525067913
-0.0010005179015444565
-0.000935428983346781
-0.0008726014170782337
-0.0008119218215530133
-0.0007532771707290942
-0.000696554747428052
-0.0006416420959370062
-0.0005884269741166792
-0.0005367973055974695
-0.00048664113261448483
-0.0004378465699872436
-0.0003903017607144177
-0.0003438948336125236
-0.0002985138633909701
-0.00025404683351035184
-0.00021038160213543433
-0.00016740587146060748
-0.0001250071606400116
-8.307278252758787e-05
-4.148982439045046e-05
-1.451327329426988e-07
4.107469766934102e-05
8.228333045509628e-05
0.00012359469004141754
0.00016512295965762092
0.00020698257506179818
0.00024928821399144985
0.00029215478142038953
0.00033569739072836224
0.0003800313409126066
0.00042527209000114974
0.00047153522486412247
0.0005189364276458053
0.000567591439074755
0.0006176160189356183
0.0006691259040361996
0.0007222367640295213
0.0007770641554903368
0.0008337234746881306
0.0008923299095371096
0.0009529983912474338
0.0010158435462403748
0.001080979648935665
0.0011485205760607686
0.0012185797631686646
0.001291270164091668
-0.0012091409163099698
-0.0011366399915070657
-0.001066742417082961
-0.00099933354238399
-0.0009342992041236897
-0.0008715256862411591
-0.0008108996766317544
-0.0007523082214716259
-0.0006956386778245727
-0.0006407786651942138
-0.0005876160166489452
-0.0005360387301037439
-0.00048593492031026586
-0.0004371927720638047
-0.00038970049509534643
-0.000343346281078849
-0.00029801826314354574
-0.0002536044782355529
-0.0002099928326400602
-0.00016707107093791307
-0.00012472674862415434
-8.284720859719208e-05
-4.131956167247042e-05
-3.067125592393083e-08
4.11328577182013e-05
8.228468552609614e-05
0.0001235387400272958
0.00016500921466017227
0.00020681056208077253
0.00024905748349021706
0.00029186491372643064
0.0003353480022239841
0.0003796220899699998
0.00042480268261677057
0.00047100541993902456
0.0005183460418622388
0.0005669403513112459
0.0006169041741627135
0.0006683533166301492
0.0007214035204383962
0.0007761704161825811
0.0008327694753127446
0.0008913159612222443
0.0009519248799584323
0.0010147109311246794
0.0010797884595781793
0.001147271408572681
0.0012172732750419246
0.001289907067752838
-0.0012072484522687998
-0.0011348266637434823
-0.0010650072280645462
-0.0009976755690150607
-0.0009327176072232712
-0.0008700197182403557
-0.000809468687554632
-0.0007509516632723812
-0.0006943561071636739
-0.0006395697447429127
-0.0005864805150156693
-0.0005349765204794299
-0.00048494597793102834
-0.0004362771705938573
-0.00038885840202892985
-0.00034257795225861587
-0.00029732403649518346
-0.00025298476681126503
-0.00020944811706188893
-0.0001666018913277223
-0.00012433369610384548
-8.25309164380339e-05
-4.1080696168621644e-05
1.3007760540917346e-07
4.1214785723248104e-05
8.22870837732248e-05
0.00012346090447395985
0.000164850455616955
0.0002065702135949643
0.0002487349125594174
0.00029145952928066876
0.00033485926381573994
0.0003790495161102858
0.00042414585869032795
0.000470264005631299
0.0005175197780231122
0.0005660290661761713
0.0006159077888538145
0.0006672718498451358
0.0007202370922373413
0.0007749192507758573
0.0008314339027477302
0.000889896417864966
0.0009504219076642284
0.0010131251749902204
0.0010781206641648222
0.0011455224124983787
0.0012154440038394942
0.001287998524900441
-0.001204815638984974
-0.0011324955633898737
-0.0010627765473195105
-0.000995544111987684
-0.0009306842875797805
-0.0008680835690272337
-0.000807628868803506
-0.0007492074674831928
-0.0006927069627745142
-0.000638015217703819
-0.0005850203085882577
-0.0005336104733867086
-0.0004836740609899526
-0.00043509948196074344
-0.00038777516118607136
-0.00034158949287294016
-0.00029643079827132435
-0.0002521872864632846
-0.00020874701851983368
-0.00016599787528989718
-0.00012382752904371852
-8.212341916771781e-05
-4.077273205294052e-05
3.3761469250825904e-07
4.1320983612203044e-05
8.229102430079571e-05
0.00012336167579293789
0.0001646471644384806
0.0002062619972862667
0.000248320951023312
0.0002909390565407066
0.0003342315792292938
0.00037831399512971986
0.0004233019630897339
0.0004693112931103416
0.0005164579110934764
0.0005648578202322452
0.0006146270593220537
0.0006658816582999771
0.0007187375913636773
0.0007733107280541718
0.0008297167827306662
0.0008880712629103227
0.0009484894169858316
0.001011086181884141
0.001075976131272527
0.001143273424968394
0.0012130917602529434
0.0012855443258371901
-0.0012018427459719871
-0.0011296469342086668
-0.0010600505848072095
-0.0009929393407129006
-0.000928199368568694
-0.0008657173116548567
-0.0008053802399576315
-0.0007470755981219268
-0.0006906911520135617
-0.000636114934580212
-0.0005832351916499334
-0.0005319403282669777
-0.00048211885612886585
-0.0004336593426330082
-0.0003864503619977755
-0.00034038044888656804
-0.00029533805491002707
-0.0002512115083467825
-0.00020788897737555878
-0.00016525843707543286
-0.00012320764041420795
-8.162409340589649e-05
-4.039503458666549e-05
5.925810789009223e-07
4.1452093771349174e-05
8.229714581406422e-05
0.0001232416840692696
0.0001643999577277122
0.0002058865115160402
0.00024781617436853143
0.0002903040436368354
0.0003334654649371771
0.00037741600775348383
0.0004222714369507552
0.00046814768036848586
0.000515160792702668
0.000563426915912546
0.0006130622364158567
0.0006641829393788934
0.0007169051604379029
0.0007713449352310942
0.000827618147163367
0.0008858404738682213
0.000946127332874136
0.0010085938270364692
0.0010733546903442803
0.001140524234756135
0.0012102162987722154
0.0012825441985021557
-0.0011983301064491247
-0.001126281077425989
-0.0010568295999579813
-0.000989861464630759
-0.0009252630029925601
-0.000862921037116049
-0.0008027228264197162
-0.0007445560125230732
-0.0006883085628766328
-0.0006338687138654209
-0.0005811249140337538
-0.00052996576804068
-0.0004802799819067227
-0.0004319563100663171
-0.00038488350468871
-0.00033895026768770986
-0.00029404520579717763
-0.0002500567890419414
-0.00020687331289076516
-0.0001643828643408396
-0.00012247329214640224
-8.103218135649404e-05
-3.9946832314285974e-05
8.957557841027253e-07
4.160889669374557e-05
8.230622422841782e-05
0.0001231016946576513
0.00016410958439169732
0.00020544448297921125
0.00024722128146545397
0.0002895551561840348
0.00033256154808161686
0.00037635613768599585
0.0004210548158674332
0.000466773650559027
0.0005136288496315755
0.0005617367201529444
0.0006112136242855948
0.0006621759321160658
0.000714739971743289
0.0007690219769966866
0.0008251380331929514
0.0008832040213911929
0.0009433355616448869
0.0010056479558079867
0.0010702561305050151
0.0011372745809189455
0.0012068173161110807
0.0012789978066428676
-0.0011942781196236096
-0.0011223983536993443
-0.0010531139033519155
-0.0009863107346328448
-0.0009218753742855357
-0.0008596948553710737
-0.0007996566603115096
-0.0007416486621478202
-0.0006855590647681098
-0.0006312763428160117
-0.0005786891819420381
-0.0005276864200101372
-0.0004781569898218707
-0.0004299898638751576
-0.0003830740016195211
-0.0003372982996192597
-0.0002925515449992977
-0.0002487223724930432
-0.0002056992253706702
-0.0001633703204886594
-0.0001216236176594665
-8.034679350024665e-05
-3.942721989608211e-05
1.2480528261693546e-06
4.179230794851274e-05
8.231916958803542e-05
0.00012294260508538546
0.00016377692256341891
0.00020493676368060765
0.0002465370916314158
0.0002886931744617294
0.00033152056379809336
0.0003751350690979205
0.000419652727559533
0.00046518976985443494
0.00051186258186256
0.0005597876626309284
0.0006090815787982984
0.0006598609157656976
0.0007122422259264183
0.0007663419743128841
0.0008222764820594586
0.0008801618681283652
0.0009401139897885491
0.0010022483824017048
0.0010666801991192354
0.0011335241511460092
0.001202894449291697
0.0012749047475903719
-0.0011896872533813385
-0.0011179991854345372
-0.0010489038586937172
-0.0009822874447365793
-0.0009180366979336385
-0.0008560388965651589
-0.000796181781543448
-0.0007383534935608005
-0.0006824425094398012
-0.0006283375784076339
-0.0005759276589692441
-0.00052510185699714
-0.0004757493656041001
-0.0004277594073132107
-0.00038102117898664023
-0.0003354237999182996
-0.0002908562634551526
-0.00024720739245781553
-0.00020436579886867756
-0.00016221984761652375
-0.00012065762503982169
-7.956691198138244e-05
-3.88351616705529e-05
1.6505175179371001e-06
4.2003374374099955e-05
8.233702219734296e-05
0.00012276544116474053
0.00016340297573830265
0.00020436432713910602
0.000245764540944271
0.0002877189898730925
0.0003303433518523635
0.00037375358346947163
0.00041806588894227614
0.00046339668475478546
0.0005098625601317741
0.0005575802335553992
0.0006066665055526055
0.0006572382080206607
0.0007094121503848361
0.0007633050629301252
0.0008190335376928592
0.0008767139673448721
0.0009364624825498602
0.0009983948883371951
0.001062626600092209
0.001129272579818319
0.0011984472733984897
0.001270264549647765
-0.0011845580473821282
-0.0011130840594476
-0.0010441998850808376
-0.000977791934007488
-0.000913747223109107
-0.0008519533124384249
-0.000792298239063155
-0.0007346704495826695
-0.0006789587321153756
-0.000625052148494315
-0.0005728399673558537
-0.000522211598746658
-0.0004730565308171397
-0.0004252642691155717
-0.0003787242789370371
-0.00033332593112764264
-0.0002889584516989341
-0.0002455108755478608
-0.00020287200454061072
-0.00016093037017347878
-0.00011957420097458149
-7.869139479044218e-05
-3.8169496053480634e-05
2.1043218951521947e-06
4.22432693804875e-05
8.236094784888626e-05
0.0001225713521990912
0.000162988868011138
0.00020372826370598784
0.0002449046776927255
0.0002866336005741821
0.0003290308524881991
0.0003722125556911704
0.00041629510250532076
0.0004613951187622811
0.0005076294229069411
0.0005551149809437106
0.0006039688574398516
0.0006543081628306302
0.0007062499973053415
0.0007599113915968125
0.0008154092450358141
0.000872860261292796
0.0009323808822723489
0.0009940872206888607
0.0010580949919193894
0.001124519445787786
0.001193475299009511
0.0012650766690991688
-0.0011788911165541982
-0.0011076535299638923
-0.0010390024595561265
-0.0009728245887261344
-0.0009090072345177835
-0.0008474382779256606
-0.000788006092286353
-0.0007305994706313657
-0.000675107552818105
-0.0006214197531970445
-0.0005694256895079908
-0.000519015113639637
-0.0004700778448220311
-0.00042250370576119023
-0.000376182462165614
-0.0003310037660561038
-0.0002868571032005329
-0.00024363174495467543
-0.00020121670475073405
-0.00015950069942863299
-0.00011837211555756899
-7.771898087172158e-05
-3.742894090200122e-05
2.6107591456214774e-06
4.2513287227374796e-05
8.239223201023105e-05
0.00012236160514286776
0.00016253583827416374
0.00020302977486300056
0.00024395865683371487
0.00028543810614761744
0.0003275841013678227
0.00037051294931123024
0.00041434125189934723
0.000459185868328299
0.0005051638727041341
0.0005523925073081803
0.000600989131682883
0.0006510711677624181
0.0007027560413055411
0.0007561611199264628
0.0008114036480686704
0.0008686006793169887
0.0009278690064980222
0.000989325090085702
0.0010530849854902824
0.0011192642698870936
0.0011879779693149406
0.0012593404868497526
-0.0011726871549811446
-0.0011017082219475227
-0.0010333121199396222
-0.0009673858447920569
-0.000903817054454803
-0.0008424939929496666
-0.0007833054127182604
-0.0007261404962631002
-0.0006708887779213468
-0.0006174400665491242
-0.0005656843698178537
-0.0005155118207632592
-0.0004668126071599443
-0.0004194769042219493
-0.00037339481107454
-0.00032845629137823185
-0.0002845511184233207
-0.00024156882496975673
-0.00019939865804577406
-0.00015792953888013606
-0.00011705002810083465
-7.664829629500103e-05
-3.661209999505921e-05
3.171236882620887e-06
4.28148361195646e-05
8.243227281326537e-05
0.00012213757755791255
0.00016204523321727837
0.00020227016634496997
0.00024292773330766848
0.00028413370117591485
0.00032600422346332203
0.0003686558107961757
0.0004122052966062939
0.0004567697979598606
0.00050246667164483
0.0005494134656604255
0.0005977278662735175
0.0006475276408407782
0.0006989305766260667
0.0007520544158805542
0.0008070167875076917
0.0008639351356762581
0.0009229266458128105
0.000984108168473441
0.0010475961416524793
0.001113506512180229
0.0011819546569400707
0.0012530553047138682
-0.0011659469401751887
-0.0010952488347530376
-0.0010271294679285725
-0.0009614761903561919
-0.0008981770450643412
-0.0008371206844100532
-0.0007781962857735802
-0.0007212934669269255
-0.000666302201941471
-0.000613112738428262
-0.000561615516827596
-0.0005117010923896548
-0.00046326006041838563
-0.0004161829852764587
-0.0003703603335833694
-0.0003256824119729773
-0.00028203930971018587
-0.0002393208464227803
-0.00019741652513444174
-0.00015621549075098273
-0.00011560649410963242
-7.547786165684744e-05
-3.5717470795781914e-05
3.787269091393153e-06
4.314942994138038e-05
8.248257266271763e-05
0.000121900749186582
0.00016151849895490455
0.0002014508399084125
0.00024181325403568876
0.00028272166754600425
0.00032429242574028017
0.00036664226265487043
0.0004098882655519942
0.00045414783435629436
0.0004995386361347498
0.0005461785547345166
0.0005941856357229436
0.0006436780267907449
0.0006947739138149778
0.0007475914528232708
0.0008022486981415777
0.0008588635270612988
0.0009175535614305563
0.0009784360866392783
0.0010416279685444563
0.001107245568966575
0.001175404660488072
0.0012462203413689255
-0.001158671337724737
-0.001088276146085726
-0.001020455172454915
-0.0009550961686747572
-0.0008920876107986198
-0.0008313186083630242
-0.0007726788127981332
-0.0007160583259497311
-0.000661347609602625
-0.0006084373968134882
-0.0005572186057843653
-0.0005075822569225175
-0.0004594193936526547
-0.00041262100747563313
-0.00036707796768889467
-0.00032268095611601155
-0.00027932040712805306
-0.00023688645318040158
-0.00019526887602722143
-0.00015435706373786995
-0.00011403997359218931
-7.420610089012292e-05
-3.474345368859044e-05
4.4604665501157825e-06
4.351867842963819e-05
8.254472826171866e-05
0.0001216526919351757
0.00016095717107322827
0.00020057328354544657
0.00024061664840285824
0.0002812033652980772
0.0003224499884555143
0.000364473495257589
0.0004073912495058951
0.0004513209594330103
0.000496380630534643
0.0005426885133104076
0.0005903630460228904
0.0006395227925995728
0.000690286375834237
0.0007427724060936891
0.0007970994057715508
0.0008533857297877145
0.0009117494825051087
0.0009723084314993691
0.001035179918706025
0.0011004807695563779
0.0011683272008237988
0.0012388347279950473
-0.0011508613063029027
-0.0010807910162569934
-0.001013289973287479
-0.0009482463811721631
-0.0008855492010685362
-0.0008250880523933135
-0.0007667531132996841
-0.0007104350217647659
-0.0006560247781988715
-0.0006034136504062537
-0.0005524930816371565
-0.000503154602378042
-0.00045528974644337694
-0.0004087899718529242
-0.0003635465868878085
-0.00031945068165492585
-0.0002763930654150759
-0.00023426420986458196
-0.00019295419850626216
-0.00015235268219565556
-0.00011234884090161046
-7.28313516908663e-05
-3.368836290673638e-05
5.1925255016016525e-06
4.39242755573277e-05
8.262041882478588e-05
0.000121395058037016
0.00016036286286746915
0.0001996390599200426
0.00023933941701098638
0.00027958022180504805
0.00032047825486336556
0.0003621507571572591
0.00040471539208847274
0.000448290202065299
0.0004929935596748036
0.0005389441135079387
0.0005862607287054067
0.0006350624223054602
0.0006854682935118206
0.0007375974490362314
0.0007915689237115164
0.0008475015966338539
0.0009055141031594771
0.0009657247431528182
0.0010282513859800613
0.0010932113728389925
0.0011607214171220626
0.0012308975036255387
-0.0011425179030244148
-0.00107279439271743
-0.0010056346848589248
-0.0009409274906984899
-0.000878562313077369
-0.0008184293381774399
-0.0007604193273979543
-0.0007044235104023966
-0.0006503334802780703
-0.0005980410916553436
-0.0005474383625358736
-0.0004984173804763181
-0.0004508702136833964
-0.00040468882749061796
-0.00035976500658785326
-0.00031599028330656087
-0.00027325587218446357
-0.00023145261096285674
-0.00019047090811716294
-0.00015020069696181082
-0.00011053139632957731
-7.135187779844232e-05
-3.255043939084934e-05
5.985214332399069e-06
4.436798587575952e-05
8.27113922199918e-05
0.00012112956613768988
0.00015973725151602336
0.00019864979277414707
0.00023798311845349418
0.0002778537190451791
0.00031837861910630205
0.0003596753437004607
0.0004018618791862272
0.0004450566283723534
0.0004893783600486701
0.0005349461529065291
0.0005818793338749073
0.0006302974109025083
0.0006803200002546417
0.0007320667484254917
0.0007856572488031954
0.0008412109533005863
0.0008988470792203329
0.0009586845117026399
0.001020841702219888
0.0010854365636658314
0.001152586362711705
0.001222407610241949
-0.001133642289130321
-0.0010642873148470067
-0.0009974902003025976
-0.0009331402249666276
-0.0008711274948246805
-0.0008113428242314258
-0.0007536776184946248
-0.0006980237582614179
-0.0006442734866854427
-0.0005923193002342619
-0.0005420538438942468
-0.0004933698114240881
-0.0004461598511938114
-0.00040031647806243464
-0.00035573199164556923
-0.00031229840123594976
-0.00026990735756621254
-0.00022845009152705487
-0.00018781735989359394
-0.00014789939805368024
-0.00010858587969600486
-6.976588337562206e-05
-3.132786584358893e-05
6.8403579806808334e-06
4.485162853301583e-05
8.281944875682123e-05
0.00012085798501809686
0.0001590820619059019
0.00019760715102101756
0.00023654935383815578
0.00027602537870707877
0.0003161525120388975
0.0003570485836909276
0.00039883192655582045
0.0004416213303405081
0.0004855359895041822
0.000530695445325885
0.0005772195220727916
0.0006252282572483114
0.0006748418259270583
0.0007261804592125498
0.0007793643568955455
0.0008345135944598514
0.0008917480246435072
0.0009511871738500932
0.0010129501338219105
0.0010771554490766888
0.0011439210007519185
0.0012133638876526132
-0.001124235735977086
-0.0010552709189804999
-0.0009888574956748997
-0.0009248853801490098
-0.0008632453482697866
-0.000803828908840537
-0.0007465281761721287
-0.0006912357451787643
-0.0006378445699990187
-0.0005862478470229637
-0.0005363389030854371
-0.00048801108947421623
-0.0004411576822746788
-0.00039567178947932935
-0.00035144626518399114
-0.00030837363109376126
-0.00026634600548339216
-0.0002252550396779074
-0.00018499186205206408
-0.00014544702948923738
-0.00010651048620224923
-6.807152977650333e-05
-3.0018784275720467e-05
7.759819767805265e-06
4.5377058657841696e-05
8.294642230588511e-05
0.00012058211463977786
0.00015839904779615943
0.0001965128302192365
0.00023503974875851985
0.0002740967448339737
0.0003138013847056309
0.0003542718238427611
0.00039562676537249764
0.00043798541255740675
0.00048146741522825387
0.000526192810091558
0.0005722819548196478
0.000619855455844226
0.0006690340897910207
0.000719938718512364
0.0007726901977302969
0.0008274092793556787
0.0008842165076228259
0.0009432321092704976
0.0010045758781048741
0.0010683670544064938
0.0011347241997786417
0.001203765068195889
-0.0011142996313098785
-0.0010457464436403885
-0.000979737634331096
-0.0009161638246074078
-0.00085491653263714
-0.0007958880331644103
-0.0007389712193283382
-0.0006840594678180212
-0.0006310465083900207
-0.0005798262986481673
-0.0005302929048481009
-0.0004823403893619571
-0.0004358627053142605
-0.0003907535987842936
-0.0003469065188563547
-0.0003042145357010917
-0.0002625702667756469
-0.00022186581115304915
-0.0001819926919182091
-0.00014284180650972478
-0.00010430338484382351
-6.626695501657509e-05
-2.862131636938159e-05
8.745480322536192e-06
4.594614576836076e-05
8.309415840296319e-05
0.00012030376416316546
0.00015768996997403417
0.00019536853108778618
0.00023345593238205398
0.0002720693636872329
0.00031132668916716844
0.0003513464107354758
0.00039224762545264635
0.0004341499768129864
0.00047717359980292695
0.0005214390595866814
0.0005670672836628199
0.0006141794873405493
0.0006628970923902577
0.0007133416387440084
0.0007656346891756205
0.0008198977269307239
0.0008762520463709011
0.0009348186367755806
0.0009957180595595583
0.0010590703193094353
0.001124994729172657
0.0011936097713194926
-0.0011038354857836608
-0.0010357152349415866
-0.0009701317714313762
-0.0009069765027333032
-0.0008461417678397309
-0.0007875206845048555
-0.0007310069995467572
-0.0006764949433960554
-0.0006238790899500135
-0.0005730542226406454
-0.0005239152074831277
-0.00047635687372579727
-0.0004302739025891511
-0.0003855607244553638
-0.00034211142474216416
-0.00029981965859260384
-0.0002585785744068092
-0.00021828074615895532
-0.00017881811436543105
-0.00014008193551362513
-0.00010196273971213587
-6.435029628279465e-05
-2.7133587014588345e-05
9.79921322677435e-06
4.6560748826807163e-05
8.326448895470961e-05
0.00012002472655714413
0.00015695657102313132
0.0001941759346867078
0.0002317995132900541
0.0002699447604786187
0.0003087298563403673
0.00034827366995415776
0.0003886957158575066
0.0004301161042973012
0.0004726554850887632
0.0005164349848733873
0.0005615761375461492
0.0006082008076152279
0.0006564311062533801
0.0007063892998281363
0.0007581977107401217
0.0008119786104344717
0.0008678541045536725
0.0009259460102745698
0.0009863757260038797
0.0010492640937453668
0.001114731254604956
0.0011828964981026036
-0.0010928449396941098
-0.0010251787521298183
-0.0009600411585359292
-0.0008973244388661983
-0.0008369218380034349
-0.0007787273997264255
-0.0007226358047050241
-0.0006685422137677755
-0.0006163421175256756
-0.000565931193273167
-0.0005172051699293689
-0.00047005970162608546
-0.00042439025039717193
-0.0003800919782894763
-0.00033705964907818076
-0.00029518753965068756
-0.0002543693610174702
-0.0002144981888143882
-0.0001754664030799713
-0.00013716563703494722
-9.948673453946677e-05
-6.231971586409535e-05
-2.5553751412832337e-05
1.0922856977235718e-05
4.722268752796466e-05
8.345920313107547e-05
0.00011974674938192154
0.00015620054628889823
0.00019293667385514301
0.00023007205167036027
0.00026772441258685054
0.0003060122704853785
0.000345054882068041
0.000384972202554984
0.0004258848350973121
0.0004679139736681326
0.0005111813391486253
0.0005558091082953354
0.0006019198352549548
0.0006496363652813142
0.0006990817403389193
0.0007503790962966883
0.0008036515514719123
0.000859022086370731
0.0009166134145503491
0.0009765478446767117
0.001038947133984891
0.0011039323335258755
0.0011716236257905688
-0.001081329769881234
-0.001014138573211032
-0.0009494671482425943
-0.0008872087412492013
-0.0008272575950618866
-0.0007695087688154301
-0.0007138579628263586
-0.0006602013498894777
-0.0006084354141010495
-0.0005584567981487543
-0.0005101621598159467
-0.0004634480382877948
-0.0004182107306797689
-0.00037434617905351963
-0.00033174986804362927
-0.0002903167330834122
-0.0002499410791068357
-0.000210516509500297
-0.000171935864996281
-0.00013409117213589172
-9.687360087995422e-05
-6.0173430912774384e-05
-2.388002617528806e-05
1.2118182824122359e-05
4.793370937272723e-05
8.368001398886826e-05
0.0001194715012891312
0.00015542351058822623
0.00019165230046139237
0.00022827502742917005
0.00026540971883848297
0.00030317523994027873
0.00034169125507343967
0.0003810781827884302
0.0004214571446711779
0.00046294990755893495
0.0005056788187777772
0.0005497667339963985
0.0005953369372481421
0.0006425130526677147
0.0006914189474990784
0.0007421786259385055
0.0007949161134524207
0.0008497553312734052
0.0009068199608670835
0.0009662332983138011
0.0010281180986975447
0.0010925964107754982
0.0011597894024233668
-0.0010692918967547538
-0.0010025964006194488
-0.0009384111988240407
-0.000876630605981199
-0.0008171499623835787
-0.0007598654385543857
-0.000704673846170234
-0.0006514724566825392
-0.0006001588287761761
-0.0005506306456134202
-0.0005027855625948374
-0.00045652106620347466
-0.0004117343443052479
-0.0003683221681096971
-0.00032618078584098487
-0.00028520582802171734
-0.0002452922241532596
-0.00020633413045853533
-0.00016822486827605676
-0.00013085687261743528
-9.412165035599385e-05
-5.790974748712263e-05
-2.2110724882756783e-05
1.3386858005420832e-05
4.869545203373127e-05
8.392852032770848e-05
0.00011920053374153694
0.00015462696016976807
0.00019032424798004488
0.00022640980375202013
0.0002630019644000725
0.0003002199636697733
0.00033818389289066997
0.00037701465577386073
0.00041683391695346295
0.0004577640438828412
0.0004999280416265184
0.0005434494800290735
0.0005884524126938129
0.0006350612871898476
0.0006834008458934948
0.0007335960168864675
0.0007857717943941245
0.0008400531083071761
0.0008965646824319051
0.0009554308812579348
0.0010167755451919447
0.0010807218144027186
0.0011473919416593592
-0.0010567333913827082
-0.000990554066866628
-0.0009268748788043846
-0.0008655913209135724
-0.0008065999383984057
-0.0007497981162918055
-0.0006950838755556965
-0.0006423556783151929
-0.0005915122433893805
-0.0005424523730696573
-0.0004950747918654463
-0.00044927799774588384
-0.00040496012619906097
-0.0003620188272408509
-0.0003203511553360461
-0.00027985347203751676
-0.0002404213610137651
-0.00020194955501495748
-0.00016433187423953166
-0.00012746117548664837
-9.122931143548674e-05
-5.552709936443301e-05
-2.024429861685606e-05
1.4730403851304086e-05
4.950940047990238e-05
8.420616324200658e-05
0.00011893523741357548
0.0001538122293911759
0.00018895378887129333
0.00022447758560129039
0.00026050228079049775
0.00029714749315801203
0.00033453375947117836
0.0003727824893139664
0.00041201591371312074
0.00045235702714985226
0.0004939295223906348
0.0005368577174955647
0.0005812664743103102
0.0006272811076998008
0.000675027284773283
0.0007246309133610018
0.0007762180190394041
0.0008299146100722021
0.0008858465297389706
0.0009441392956593686
0.0010049179258910523
0.0010683067517942568
0.001134429217904298
-0.0010436564825798411
-0.0009780135401039891
-0.0009148598714114331
-0.0008540922694361686
-0.0007956086001775775
-0.0007393075737797128
-0.0006850885249181649
-0.0006328512039245893
-0.0005824955798287568
-0.0005339216562738891
-0.0004870293010115767
-0.0004417180894501216
-0.00039788716252209255
-0.00035543509891763914
-0.00031425980154523026
-0.00027425839791370143
-0.00023532715397384107
-0.00019736140083828624
-0.00016025547369566406
-0.00012390266215958623
-8.819517124744602e-05
-5.3024092156961355e-05
-1.8279382017177825e-05
1.6150148189036928e-05
5.0376838280158376e-05
8.45141767827906e-05
0.00011867679268737219
0.00015298044153408408
0.000187541986195916
0.00022247937259894934
0.00025791160047911044
0.00029395868914133816
0.0003307416380431971
0.00036838238188482975
0.00040700373975877113
0.00044672935779396794
0.0004876836446032484
0.0005299916987681896
0.000573779227509813
0.0006191724556322831
0.0006662980238157923
0.0007152828753257401
0.0007662541302315973
0.0008193389462992917
0.0008746643658291975
0.0009323571478339066
0.0009925435851407816
0.0010553493062303854
0.0011208990618738757
-0.0010300635639214906
-0.000964976929520911
-0.0009023679788329741
-0.0008421349340883011
-0.0007841771069118375
-0.0007283946510414085
-0.0006746883260849434
-0.0006229592737984346
-0.000573108808091527
-0.0005250382197105885
-0.00047864859628207745
-0.0004338406581388121
-0.0003905146101172985
-0.0003485700092762667
-0.00030790564828273026
-0.0002684194540253926
-0.0002300084008505232
-0.0001925684376789527
-0.00015599442815758535
-0.00012018010292177972
-8.501802299226702e-05
-5.0399553314844914e-05
-1.6214845465406524e-05
1.764717143229455e-05
5.1298792456772047e-05
8.485353209616853e-05
0.00011842611361440047
0.00015213245313255852
0.00018608963885269336
0.0002204159057011823
0.0002552306055022824
0.000290654172639071
0.00032680808498430913
0.00036381481972602714
0.00040179780355967254
0.0004408813565677794
0.00048119062897461484
0.0005228515298581482
0.0005659906467928022
0.0006107351553306384
0.000657212717191269
0.0007055513660082502
0.0007558793795062746
0.0008083251370369082
0.0008630169615062022
0.0009200829448568204
0.0009796507564586998
0.0010418474340007366
0.001106799156738364
-0.0010159572005970507
-0.0009514464904924469
-0.0008894011261894319
-0.0008297208999155925
-0.0007723067032301134
-0.0007170602602344089
-0.0006638838737546282
-0.000612680186030029
-0.0005633519551447863
-0.0005158018481403182
-0.0004699322514585824
-0.00042564509908218917
-0.00038284171846578174
-0.0003414226940986198
-0.00030128774831009175
-0.00026233563872402055
-0.00022446407159087967
-0.00018756963007701688
-0.00015154771647371557
-0.00011629250721670314
-8.169691954815206e-05
-4.765258864333766e-05
-1.4049854049236199e-05
1.922224568448594e-05
5.227597121160166e-05
8.522487435771997e-05
0.00011818378466230128
0.00015126879114385483
0.0001845972197811463
0.00021828760702752303
0.00025245966948819754
0.00028723426970181376
0.00032273337777505295
0.00035908002842602316
0.00039639827281751083
0.00043481312438403696
0.00047445049769884173
0.0005154371392906421
0.0005579005492011846
0.0006019688919842447
0.0006477708957832728
0.0006954357380968001
0.0007450929168523746
0.0007968721054527339
0.0008509029905556242
0.0009073150914828687
0.0009662375603473883
0.0010277989622293482
0.0010921270350169043
-0.0010013401360109697
-0.0009374246293792909
-0.0008759613651285747
-0.0008168518574891703
-0.0007599987222893234
-0.0007053053894601202
-0.0006526758306685809
-0.0006020143036706005
-0.0005532251146435352
-0.000506212399423972
-0.0004608799242644124
-0.00041713090640033146
-0.00037486785441379067
-0.0003339924281099971
-0.0002944053173631056
-0.000256006139155579
-0.00021869335185051297
-0.0001823641855741298
-0.00014691458745258457
-0.00011223918037875369
-7.82312339256408e-05
-4.47826460191203e-05
-1.1783934014131248e-05
2.08757661331882e-05
5.330869379241432e-05
8.562845176657286e-05
0.00011794998951411562
0.00015038958224053434
0.00018306480642832357
0.00021609451216711428
0.0002495987924355514
0.00028369894925842076
0.00031851745645614105
0.0003541779184642324
0.00039080502450059007
0.0004285244971628521
0.00046746303433900516
0.0005077482431564417
0.0005495085645562114
0.0005928731869592474
0.0006379719474059464
0.0006849352185157587
0.00073389377959443
0.0007849786702571471
0.000838321025027372
0.0008940518874940295
0.0009523020028129603
0.0010132015875800038
0.0010768800764116293
-0.0009862152980197603
-0.0009229139078689996
-0.000862050876939302
-0.0008035296054933749
-0.0007472545885560122
-0.0006931311064645729
-0.0006410649329492979
-0.0005909620623956446
-0.0005427284575721114
-0.0004962698187359893
-0.00045149137468075695
-0.00040829769593203613
-0.0003665925299558004
-0.00032627865794523925
-0.0002872577724667147
-0.0002494303749835669
-0.00021269569207713057
-0.00017695160900663143
-0.00014209461911221521
-0.00010801978748645191
-7.462072728359193e-05
-4.17895870470919e-05
-9.417047466125927e-06
2.2607673956065444e-05
5.439681170932298e-05
8.606403581054578e-05
0.00011772443114005382
0.00014949447345455336
0.00018149200272740695
0.0002138361942341238
0.00024664752755459984
0.00028004775340575994
0.0003141598579739502
0.00034910802414883646
0.00038501758882650283
0.00042201499521932195
0.0004602277388838505
0.0004997843059909857
0.0005408141021938095
0.00058344737029975
0.0006278150948531291
0.00067404889167344
0.0007222808803548086
0.000772643537763934
0.0008252695306482372
0.0008802915255911314
0.0009378419747472222
0.0009980528760357432
0.0010610555068000793
-0.0009705858046833993
-0.0009079170467319042
-0.0008476719750608597
-0.0007897560527699576
-0.0007340758201906938
-0.0006805385621733995
-0.0006290519955808038
-0.0005795239786983986
-0.0005318622438750809
-0.00048597415429094126
-0.0004417664853518244
-0.0003991452308172716
-0.000358015433391895
-0.0003182810391672286
-0.00027984477498713134
-0.00024260804753145626
-0.00020647086267849835
-0.0001713317635169409
-0.0001370877852412411
-0.00010363442506999831
-7.086562527927609e-05
-3.8673767459945774e-05
-6.949676151862816e-06
2.4417369896390095e-05
5.553962045357075e-05
8.653083195334088e-05
0.00011750624230230655
0.00014858254335409216
0.00017987785179235383
0.00021151167890404166
0.00024360489943803243
0.00027627971945323737
0.0003096596427704379
0.0003438694353513627
0.0003790350866496872
0.00041528376671221
0.0004527437775556642
0.00049154449712005
0.0005318163138980925
0.0005736905501653178
0.0006172993716116182
0.000662775681078781
0.0007102529940576086
0.0007598652936114392
0.0008117468624450064
0.0008660320899638307
0.0009228552523546929
0.0009823502639689785
0.0010446503986280553
-0.0009544549693982218
-0.0008924369288542122
-0.0008328271068515636
-0.000775533219697172
-0.0007204640309333987
-0.0006675289939865325
-0.000616637917999513
-0.0005677006586295164
-0.0005206268351472532
-0.0004753255747165508
-0.00043170528428512767
-0.0003896734500688781
-0.0003491364642041195
-0.0003099994777563675
-0.0002721662789154644
-0.00023553919490917896
-0.0002000190159078541
-0.0001655049389804597
-0.000131894530021881
-9.908370146988199e-05
-6.696670359088164e-05
-3.5436127132859596e-05
-4.382915209238947e-06
2.630361760291855e-05
5.6735760809500935e-05
8.702737983967701e-05
0.00011729388559789111
0.0001476522028766858
0.00017822073848350328
0.00020911934962836165
0.0002404693127966706
0.00027239329299705295
0.0003050153129449673
0.00033846072141854866
0.0003728561596911817
0.00040832952465136296
0.0004450099269322494
0.00048302764210061966
0.0005225140527287953
0.000563601578966566
0.0006064235950718755
0.000651114329232233
0.000697808743940459
0.0007466423941752953
0.0007977512606733295
0.0008512715556895367
0.0009073394988234895
0.0009660910607436624
0.001027661672974911
-0.0009378263052572944
-0.000876476601393783
-0.000817518854467153
-0.0007608632387668679
-0.0007064209313795977
-0.0006541037287539908
-0.0006038236897585314
-0.000555492807100183
-0.0005090227084628141
-0.00046432438821952804
-0.0004213079700685629
-0.0003798825004355799
-0.0003399557720335511
-0.0003014341765375794
-0.0002642225849306401
-0.00022822425374824373
-0.00019334075516086457
-0.00015947192860760184
-0.00012651585153869438
-9.43688267197873e-05
-6.29253835229826e-05
-3.207829065365875e-05
-1.718577850168268e-06
2.8264435760760875e-05
5.7983108785936155e-05
8.755144205518928e-05
0.00011708504209584358
0.00014670108489883704
0.0001765182809533028
0.00020665684217072156
0.000237238450951055
0.0002683862312697627
0.00030022472128876654
0.0003328798466247229
0.00036647889303534353
0.00040115047694888606
0.0004370245119322269
0.0004742321688785689
0.0005129058274380427
0.0005531790159654382
0.0005951863370695643
0.0006390633756933606
0.0006849465865523818
0.0007329731577194465
0.0007832808471623098
0.0008360077891323425
0.0008912922674666757
0.0009492724531242891
0.0010100861036031195
-0.0009207035284676257
-0.0008600392768797205
-0.0008017499346786028
-0.0007457483542040455
-0.000691948329515274
-0.0006402641853446855
-0.0005906103962269316
-0.0005429012377660414
-0.0004970504714325308
-0.00045297106371086637
-0.0004105749398476133
-0.0003697727718890431
-0.00033047380018783046
-0.00029258568706042043
-0.0002560144008446341
-0.00022066412823565362
-0.00018643721245287237
-0.00015323411455769875
-0.00012095339506704161
-8.949171290104085e-05
-5.87438386853989e-05
-2.8602679467804037e-05
1.0406879858426699e-06
3.029697796919084e-05
5.9278653125993674e-05
8.809988041158512e-05
0.00011687648756450453
0.00014572592157288677
0.00017476721024364816
0.0002041209275788214
0.00023390916324256272
0.00026425549598646514
0.00029528497047204283
0.0003271240765066741
0.0003599007293052514
0.0003937442489960197
0.00042878533721465995
0.000465156048283788
0.0005029897521673932
0.0005424210861051382
0.0005835858915989034
0.0006266211332398852
0.0006716647957253075
0.0007188557553441943
0.0007683336222036319
0.0008202385495377773
0.0008747110065891739
0.0009318915117932369
0.0009919203233316187
-0.0009030905606352002
-0.0008431283330631589
-0.0007855231974409349
-0.0007301909204584789
-0.0006770481303682574
-0.0006260118767034695
-0.0005769992242747046
-0.0005299268835124715
-0.0004847108785849541
-0.00044126625407450715
-0.0003995068203444252
-0.0003593449371109003
-0.00032069133415013606
-0.0002834549675058695
-0.0002475429090991188
-0.00021286026720535034
-0.0001793101349217563
-0.00014679356348704098
-0.00011520955712762682
-8.445508600532503e-05
-5.4425113821671145e-05
-2.5012636702265167e-05
3.891269889866322e-06
3.239739924609797e-05
6.061835928608539e-05
8.866851866945469e-05
0.00011666395522896833
0.00014472240840926465
0.00017296323696031068
0.00020150738267707413
0.00023047734050929414
0.00025999713489049947
0.0002901923016523644
0.0003211898744177599
0.0003531183739206578
0.00038610779824396757
0.0004202896115496346
0.00045579672849005437
0.0004927634911240097
0.0005313256348462858
0.000571620239553039
0.0006137856620487547
0.0006579614455218818
0.0007042882018092611
0.0007529074621346332
0.0008039614920392069
0.0008575930663581588
0.0009139452003117943
0.000973160833114578
-0.0008849915297105826
-0.0008257473113064961
-0.0007688416230010042
-0.0007141933993741467
-0.0006617223346181977
-0.0006113484112866274
-0.0005629914678958181
-0.0005165708075683118
-0.0004720048491846096
-0.0004292108217865409
-0.00038810450223111803
-0.00034859999540298725
-0.00031060955562253745
-0.0002740434472631448
-0.00023880984206331446
-0.0002048147501346187
-0.00017196198129229567
-0.0001401531330456618
-0.00010928760138961824
-7.926261044155503e-05
-4.9973256959184864e-05
-2.131256586240804e-05
6.828446951601119e-06
3.4560707962372206e-05
6.199701870476804e-05
8.925199055032085e-05
0.00011644198395124872
0.00014368505404438459
0.00017110090401833977
0.00019881084713216368
0.00022693777774601687
0.00025560615119166186
0.00028494197177095226
0.00031507278764200675
0.00034612769085287654
0.0003782373202747824
0.00041153386471781683
0.0004461510630789922
0.0004822241979565711
0.0005198900788026262
0.0005592870103574565
0.0006005547418447277
0.0006438343921839063
0.000689268346331845
0.0007370001177913199
0.000787174172321603
0.0008399357079901526
0.0008954303869014024
0.0009538040142509918
-0.0008664107693604206
-0.0008078999132669351
-0.0007517083173098349
-0.0006977583558233913
-0.000645973035987929
-0.0005962754937531844
-0.0005485885337148388
-0.0005028342152773313
-0.0004589334866155481
-0.0004168058671241426
-0.0003763691782115719
-0.0003375393214966327
-0.00030023010270793793
-0.00026435309889824565
-0.00022981756597087455
-0.00019653038299199954
-0.0001643960293420954
-0.00013331659044488187
-0.00010319178760995196
-7.391902742626133e-05
-4.53934661564237e-05
-1.750808469422327e-05
9.846230143106816e-06
3.678060192735533e-05
6.340808210969495e-05
8.984357182512115e-05
0.00011620375067233901
0.00014260701459367642
0.00016917342442954175
0.00019602466613674596
0.00022328402306448503
0.00025107636008855905
0.0002795281188083254
0.0003087673224195231
0.0003389235883096975
0.00037012814587508713
0.0004025138565279529
0.000436215232372833
0.00047136844957115787
0.0005081113519938563
0.0005465834403910186
0.0005869258419853585
0.000629281255129982
0.0006737938634842344
0.0007206092140298881
0.000769874053219155
0.0008217361156026282
0.0008763438594535933
0.0009338461441895096
-0.000847352816506719
-0.0007895899956078811
-0.0007341265054805479
-0.0006808884515696612
-0.0006298024172208816
-0.0005807949247768895
-0.0005337919463206109
-0.0004887184665678668
-0.0004454980994829938
-0.0004040527592406584
-0.00036430238522033864
-0.00032616471980720374
-0.00028955513690934187
-0.0002543865183298466
-0.0002205691744374405
-0.0001880108049930329
-0.00015661649552956014
-0.00012628874434172932
-9.692751492546003e-05
-6.843030861994337e-05
-4.0692252236546045e-05
-1.3606195611776117e-05
1.2937185727840417e-05
3.904928725870227e-05
6.484347553864511e-05
9.043499521046994e-05
0.00011594088591113105
0.00014147991145940786
0.00016717250307790588
0.00019314071774093056
0.00021950821207647464
0.00024640023158717383
0.0002739436142949192
0.00030226680726261335
0.00033149989381292544
0.00036177462865891186
0.0003932244775822491
0.00042598465773871497
0.00046019217416243263
0.0004959858475682144
0.0005335063281241004
0.0005728960894862967
0.0006142993970771615
0.0006578622443442206
0.000703732250547956
0.0007520585135541991
0.0008029914111117031
0.0008566823442197058
0.0009132834164437276
-0.0008278224067506945
-0.0007708215624455395
-0.0007160995230021672
-0.0006635864370936884
-0.0006132127444266333
-0.0005649085998319092
-0.0005186033533731982
-0.00047422508917566164
-0.00043170022461619384
-0.00039095317042933675
-0.00035190605121040996
-0.00031447848475951723
-0.00027858741772665563
-0.00024414701414043893
-0.00021106859262531863
-0.00017926060745540595
-0.0001486286680841553
-0.00011907559142765312
-9.050148094713606e-05
-6.280382650414307e-05
-3.5877619024765606e-05
-9.615474206470243e-06
1.6092240200049623e-05
4.1357278584286394e-05
6.629339767891262e-05
9.101624674695552e-05
0.0001156432710787969
0.00014029363144346663
0.00016508814142932038
0.00019014922387372568
0.0002156008868389181
0.0002415687188544735
0.00026817990241312373
0.0002955632439932132
0.0003238492181867336
0.00035317002283730137
0.0003836596414628357
0.0004154539086176634
0.00044869057328938977
0.0004835093548935798
0.0005200519859424602
0.0005584622350302548
0.0005988859034047056
0.0006414707880893211
0.0006863666042741801
0.000733724859561441
0.000783698672594979
0.0008364425286770671
0.0008921119651829346
-0.000807824467368129
-0.0007515987552018932
-0.0006976308043863955
-0.0006458551410935542
-0.0005962063595609524
-0.0005486185067943017
-0.0005030245304297187
-0.0004593557926954317
-0.00041754165219029526
-0.00037750911395448283
-0.00033918254707948625
-0.00030248346790520686
-0.0002673303857463616
-0.0002336387070815127
-0.0002013206932660605
-0.00017028546610006745
-0.00014043905501606724
-0.0001116844792687921
-8.39218582683321e-05
-5.704854314647623e-05
-3.095926274671035e-05
-5.546277479395734e-06
1.9300465150168256e-05
4.369317903238357e-05
6.774609706006185e-05
9.157534228665387e-05
0.00011529881633723371
0.00013903610800169997
0.0001629084241290546
0.0001870385441274658
0.00021155079854578984
0.00023657107139882227
0.00026222682508972306
0.00028864714599749486
0.000315962808042497
0.0003443063508074551
0.0003738121680915141
0.0004046166021047237
0.0004368580378923126
0.0004706769919795295
0.0005062161886839611
0.0005436206170511826
0.0005830375609216509
0.0006246165942680459
0.0006685095336312341
0.0007148703392792222
0.0007638549565827379
0.0008156210891129834
0.000870327895112516
-0.0007873641075253901
-0.0007319258394991035
-0.000678723868894282
-0.0006276974573373451
-0.0005787856707807071
-0.0005319267221950419
-0.00048705738544424504
-0.00044411248356077127
-0.0004030244532351457
-0.0003637229859007607
-0.00032613474437889756
-0.00029018315267542727
-0.00025578825525759963
-0.00022286664099005482
-0.00019133142592392405
-0.00016109228832342226
-0.00013205554869022418
-0.0001041242871305803
-7.719849018048008e-05
-5.117521917627488e-05
-2.594879240386261e-05
-1.4109735778644605e-06
2.2548840337838216e-05
4.604343837297242e-05
6.918762756452645e-05
9.209808267474084e-05
0.00011489321771379624
0.00013769308248598455
0.00016061928646832202
0.0001837949514219006
0.0002073446932166767
0.00023139463245056002
0.0002560724325638142
0.0002815073632881915
0.00030783038644788263
0.00033517426033433106
0.0003636736581135447
0.0003934652949975914
0.00042468805822851174
0.00045748313326990364
0.0004919941189881205
0.0005283671240511878
0.0005667508362534046
0.0006072965560272314
0.0006501581850211768
0.0006954921603339603
0.0007434573247828979
0.0007942147235118768
0.0008479273173139512
-0.0007664466053342867
-0.0007118071886965394
-0.0006593823029489021
-0.0006091163285111001
-0.0005609531403894807
-0.0005148354059499594
-0.00047070396290840866
-0.00042849728108665386
-0.00038815100986286377
-0.00034959761158434577
-0.0003127660795689824
-0.00027758173775449535
-0.00024396611759802678
-0.00021183690652124
-0.00018110796108555816
-0.00015168937718157416
-0.00012348760882818777
-9.640562673857156e-05
-7.034310759551632e-05
-4.519664498003895e-05
-2.0859973113435126e-05
2.775805032245726e-06
2.5821993129365728e-05
4.8392087580201304e-05
7.060158065780309e-05
9.256778617286465e-05
0.00011440969218240449
0.0001362478442503423
0.00015820426175744418
0.00018040238874025838
0.00020296707972408679
0.00022602462002513368
0.0002497027790382689
0.0002741308940978071
0.0002994399816014237
0.0003257628712296512
0.00035323435828149563
0.00038199136835001535
0.00041217312781752224
0.0004439213329450742
0.0004773803096420892
0.0005126971553813253
0.0005500218541299173
0.0005895073546345608
0.0006313096019356368
0.0006755875115893317
0.0007225028757877339
0.0007722201903798964
0.0008249063917678823
-0.0007450773913253161
-0.0006912472636231293
-0.0006396097387943167
-0.000590114726672808
-0.0005427112700720771
-0.0004973467943864551
-0.00045396644761661054
-0.00041251253475968475
-0.00037292404862065975
-0.00033513629717715765
-0.00029908062572672756
-0.000264684230234874
-0.00023187005663399818
-0.00020055677932792615
-0.000170658850908334
-0.00014208661408207646
-0.00011474646605602601
-8.854106517586224e-05
-6.336956941294103e-05
-3.9127896346080604e-05
-1.5708994592911196e-05
6.9968828655397886e-06
2.9101912325357748e-05
5.072044799331321e-05
7.196879269028011e-05
9.296499666208713e-05
0.00011382868943857205
0.0001346809485426037
0.00015564420772223864
0.00017684220623923053
0.00019839997963258527
0.00022044389129924347
0.0002431017031857552
0.0002665026828880812
0.0002907777434955905
0.00031605961159397733
0.0003424830179698246
0.00037018490471582566
0.00039930464162513113
0.000429984243995013
0.00046236858321513363
0.000496605580810161
0.000532846375934537
0.0005712454556994206
0.0006119607371469216
0.0006551535891791277
0.0007009887823592048
0.0007496343541926326
0.0008012613773395461
-0.0007232620278664476
-0.0006702505880077647
-0.0006194098289184213
-0.0005706956298842797
-0.000524062583089166
-0.00047946319138778004
-0.0004368471680705893
-0.00039616084302199206
-0.0003573466774765277
-0.00032034288733444327
-0.000285083172789774
-0.00025149654992837056
-0.000219507278027678
-0.0001890348745924586
-0.00015999420874632242
-0.00013229566247616176
-0.00010584534841832915
-8.054537240735626e-05
-5.6294128841088975e-05
-3.2986617039182375e-05
-1.0514767188080087e-05
1.1232234916488948e-05
3.236763427219569e-05
5.300681316217082e-05
7.326702557239329e-05
9.326716615985775e-05
0.00011312757914166971
0.0001329699111915078
0.00015291701116208756
0.00017309287818735586
0.00019362265849920401
0.00021463269012232666
0.00023625059347975874
0.0002586054048699937
0.00028182774876517325
0.00030605004389529233
0.00033140673715029156
0.0003580345584529576
0.0003860727888790605
0.0004156635334736092
0.0004469519894052393
0.00048008669931619286
0.0005152197789680957
0.0005525071075691695
0.0005921084684964856
0.0006341876274982422
0.0006789123349373039
0.000726454238196797
0.0007769886900621525
-0.00070100618401224
-0.0006488217190622203
-0.0005987862157030427
-0.0005508619945451959
-0.0005050096030781853
-0.0004611869574806804
-0.00041934859957604154
-0.00037944507387377424
-0.00034142242707627113
-0.00030522182979408896
-0.00027077931764284136
-0.00023802564647193436
-0.00020688625424199192
-0.0001772813201394996
-0.00014912590991705832
-0.00012233019519858335
-9.67997336273202e-05
-7.243579626066421e-05
-4.913572849930825e-05
-2.679333106443693e-05
-5.299248079793095e-06
1.5458649895175314e-05
3.559489900918644e-05
5.5226101378869075e-05
7.447061909586494e-05
9.3448310208466e-05
0.00011228031247310921
0.0001310888792224324
0.0001499972702695973
0.00016912969937991906
0.0001886113385080601
0.00020856837772820214
0.00022912813857771386
0.0002504192373974229
0.00027257179418115063
0.00029571768141374577
0.00031999080640293665
0.0003455274196792202
0.0003724664411135503
0.0004009497945253043
0.0004311227406742224
0.0004631341976689407
0.0004971370369864919
0.0005332883424681994
0.0005717496188689941
0.0006126869357804821
0.0006562709920655552
0.0007026770853455211
0.0007520849706056099
-0.0006783156052088402
-0.0006269652126000003
-0.0005777424957033178
-0.0005306167229124081
-0.0004855548290885331
-0.0004425204967043045
-0.0004014733671423437
-0.00036236838772882307
-0.00032515529706472757
-0.00028977824812952135
-0.0002561755656224629
-0.00022427963118724914
-0.00019401688759564106
-0.00016530795075354876
-0.00013806781659249368
-0.00011220614852514021
-8.762763023258124e-05
-6.423236808933419e-05
-4.1916327488886185e-05
-2.0571787698001054e-05
-8.780057245139083e-08
1.9649360530671345e-05
3.8755774063675696e-05
5.7349476823079226e-05
7.555011316716376e-05
9.34786347507599e-05
0.00011125705697326294
0.00012900827670081494
0.00014685595423011288
0.0001649244609367717
0.00018333889259893044
0.00020222514702224192
0.0002217100633081781
0.00024192161892018504
0.0002629891795715017
0.0002850437958911295
0.00030821853982467007
0.00033264887274409016
0.0003584730362830302
0.0003858324559880555
0.0004148721469348221
0.00044574110951696444
0.00047859270269498544
0.0005135849810432441
0.0005508809810157028
0.0005906489409506777
0.0006330624384754402
0.0006783004281953053
0.0007265471618694147
-0.0006551960772134269
-0.0006046855820081021
-0.0005562821778929833
-0.0005099626252375034
-0.0004657007064585439
-0.0004234662411180673
-0.0003832242483704368
-0.0003449342630959945
-0.000308549808471989
-0.00027401802410850773
-0.00024127944534978185
-0.00021026792604382505
-0.0001809106941227101
-0.00015312852680422762
-0.0001268360301889676
-0.00010194200651640617
-7.834989138397197e-05
-5.595824280218986e-05
-3.466126403744996e-05
-1.4349342725858416e-05
5.090410335639728e-06
2.3773638051297064e-05
4.181824336346729e-05
5.934393718586006e-05
7.647183823658588e-05
9.332413320281563e-05
0.00011002380378552501
0.0001266944253322938
0.00014346004000079238
0.00016044510571495973
0.00017777452060974142
0.00019557372120694583
0.00021396885121027776
0.00023308699657526022
0.000253056481336722
0.0002740072175970998
0.00029607110204986353
0.00031938245040084856
0.00034407846007655785
0.00037029969063080703
0.0003981905502668248
0.00042789977588279793
0.0004595808930279305
0.0004933926410886219
0.0005294993479747628
0.0005680712375020075
0.0006092846516175254
0.0006533221686301077
0.0007003725976851977
-0.0006316533835203503
-0.0005819872503112916
-0.000534408635136957
-0.0004889023758977568
-0.0004454495931236757
-0.00040402663284758167
-0.0003646041766136726
-0.0003271465258306433
-0.00029161106342306953
-0.0002579478914497141
-0.00022609963921689513
-0.0001960014325582543
-0.00016758101152675176
-0.00014075898085312566
-0.00011544917522629539
-9.155911981272025e-05
-6.89905654364803e-05
-4.764007747949661e-05
-2.7399657801963073e-05
-8.157379737097625e-06
1.0201982580559932e-05
2.779634771685191e-05
4.474575859432506e-05
6.117186559558008e-05
7.719747226279938e-05
9.294615257900152e-05
0.0001085419466644727
0.0001241091396494004
0.00013977212652999116
0.00015565536397844915
0.00017188340839736915
0.00018858103796949577
0.0002058734550501179
0.00022388656397868967
0.0002427473181942641
0.0002625841294678216
0.00028352733101562333
0.0003057096852449037
0.0003292669259024744
0.0003543383233791664
0.00038106726088975307
0.000409601808169624
0.00044009527820750016
0.0004727067513519839
0.0005076015499240333
0.0005449516452130515
0.0005849359774752205
0.0006277406683150161
0.000673559103653229
-0.0006076932554957837
-0.0005588744944658719
-0.0005121250480684125
-0.0004674384628431394
-0.00042480372093429974
-0.00038420410361914015
-0.0003456162448371297
-0.0003090093829295065
-0.00027434481374624675
-0.00024157554318744723
-0.00021064613236361496
-0.0001814927240551406
-0.00015404323517212437
-0.00012821769661205962
-0.00010392871934240822
-8.108206375265214e-05
-5.957728832386988e-05
-3.930845342144107e-05
-2.016485646409716e-05
-2.0317757793569813e-06
1.5208797980836852e-05
3.167746203715238e-05
4.749675020912503e-05
6.279054466230838e-05
7.768356265312748e-05
9.230092773038212e-05
0.00010676783240898269
0.00012120929700164262
0.00013575002713299422
0.0001505143704756684
0.00016562637145085823
0.00018120992102677036
0.00019738899731198967
0.00021428799134957932
0.00023203211134603663
0.0002507478575033417
0.0002705635585940197
0.0002916099604326622
0.0003140208554105184
0.0003379337412305061
0.0003634904959149837
0.00039083805501842483
0.00042012907575560143
0.00045152257145895935
0.00048518449840319333
0.0005212882755821213
0.0005600152165370909
0.0006015548508170598
0.0006461051111685129
-0.0005833213143243837
-0.0005353513809178145
-0.0004894343404499707
-0.0004455731296188481
-0.00040376515156173576
-0.00036400105180842135
-0.00032626371077078276
-0.0002905274621332471
-0.0002567575404712613
-0.00022490975538053126
-0.00019493038361123594
-0.00016675626543476152
-0.00014031508685037608
-0.00011552582546360546
-9.229933500319587e-05
-7.053904152852508e-05
-5.014172342239498e-05
-3.0998347197830345e-05
-1.299493188376688e-05
3.986583797785381e-06
2.0067495235837063e-05
3.537152805947741e-05
5.0024095187783946e-05
6.41516304887707e-05
7.788101178796136e-05
9.133908305056226e-05
0.00010465228277767302
0.00011794638305452632
0.00013134634130851364
0.00014497626470054426
0.00015895948517194447
0.00017341874151172165
0.00018847646335891366
0.00020425515077734935
0.00022087784191450466
0.00023846866022719793
0.00025715343178329964
0.00027706036220798147
0.0002983207618788286
0.00032106980695366383
0.0003454473227277044
0.0003715985746288175
0.0003996750508439839
0.0004298352191461352
0.0004622452389456272
0.0004970796079206974
0.0005345217208367337
0.0005747643163445393
0.0006180097857113875
-0.0005585430037626099
-0.0005114216913364306
-0.0004663391049843091
-0.00042330830914952267
-0.00038233572657550563
-0.0003434198171454461
-0.0003065500041927738
-0.0002717058589704613
-0.00023885654671655654
-0.00020796053055480157
-0.00017896552260490695
-0.00015180866548360206
-0.000126416922028888
-0.00010270764676902078
-8.058930947141274e-05
-5.9962339090002814e-05
-4.072005556411684e-05
-2.274965711257515e-05
-5.933231797483618e-06
9.851235915805945e-06
2.4728890297504025e-05
3.8827084860554306e-05
5.2274538566807194e-05
6.520058458472922e-05
7.773452498416322e-05
9.00051013909553e-05
0.00010214008846010092
0.00011426601412539705
0.0001265080079819042
0.00013898977687633318
0.00015183370480073566
0.00016516107250073853
0.00017909239077822103
0.00019374784024775438
0.00020924780925563047
0.00022571352072625617
0.0002432677378123166
0.0002620355373630229
0.0002821451393141272
0.00030372877911560847
0.0003269236092238448
0.0003518726144558365
0.0003787255246041066
0.00040763970616015943
0.0004387810132654574
0.0004723245761146938
0.0005084555030052396
0.0005473694700654091
0.0005892731704767867
-0.0005333635125539943
-0.00048708883727945074
-0.00044284151841536556
-0.0004006455484103777
-0.00036051701130056235
-0.0003224626533634839
-0.00028647873747417174
-0.00025255019334533
-0.00022065006711063928
-0.0001907392650817158
-0.00016276657838271147
-0.0001366689678613392
-0.00011237208247109887
-8.979097941567982e-05
-6.883101083025867e-05
-4.938883969310415e-05
-3.135354695898984e-05
-1.4607792469950587e-05
9.710061385087565e-07
1.5509509721234327e-05
2.91373389971622e-05
4.1986027150331395e-05
5.4188065731958224e-05
6.587606179302152e-05
7.718202010424668e-05
8.823676044143747e-05
9.91694763333717e-05
0.00011010743845503435
0.00012117584302150097
0.0001324978031246038
0.0001441944789283972
0.00015638534096198975
0.00016918855938434507
0.0001827215109704572
0.0001971013946523853
0.0002124459456249589
0.00022887423727402378
0.00024650755944187475
0.00026547036071321306
0.00028589124149071277
0.00030790398355201587
0.0003316486005270347
0.0003572723922629084
0.0003849309843622223
0.0004147893322664492
0.0004470226671178523
0.0004818173582915447
0.0005193716649606328
0.000559896346408878
-0.0005077876852002949
-0.0004623557623756325
-0.0004189432446177338
-0.00037758592303607785
-0.0003383102321066478
-0.0003011316992776736
-0.00026605372090514334
-0.00023306667837194595
-0.00020214739771506895
-0.00017325894572135792
-0.0001463507457876434
-0.00012135898823327496
-9.820730255467869e-05
-7.680765354063646e-05
-5.7061419329151875e-05
-3.886060740015962e-05
-2.2089164071550926e-05
-6.624334150745481e-06
7.661970235522952e-06
2.0901829189526322e-05
3.323003635294364e-05
4.478291068880924e-05
5.569722251214104e-05
6.610925260791545e-05
7.615399850459392e-05
8.596453750855937e-05
9.567155206460787e-05
0.00010540301947042918
0.00011528406492801457
0.00012543697439716672
0.00013598136167961017
0.00014703448254638207
0.00015871168748116116
0.00017112700364195488
0.00018439383591442593
0.00019862577629366218
0.0002139375102632457
0.00023044580825877514
0.00024827058960222304
0.00026753604547656573
0.0002883718064748547
0.000310914138998461
0.00033530715325237603
0.0003617040037634245
0.0003902680612522663
0.0004211740322928731
0.00045460900050785236
0.0004907733601358794
0.0005298816096659248
-0.0004818199195923134
-0.0004372248304067572
-0.00039464532419683507
-0.0003541299408328369
-0.0003157162068518071
-0.0002794289490598012
-0.0002452789848484682
-0.00021326220493031456
-0.00018335905143176956
-0.00015553438182405732
-0.00012973769762542053
-0.00010590370666642424
-8.39531793662418e-05
-6.379405316044029e-05
-4.532273508182916e-05
-2.84255504958697e-05
-1.2980285999858454e-05
1.1422237010533243e-06
1.4076511830315996e-05
2.5960940903263507e-05
3.693624654051153e-05
4.714419506567091e-05
5.672638024957488e-05
6.582317868196463e-05
7.457287767545506e-05
8.311098449360899e-05
9.156972116586282e-05
0.00010007770527410698
0.00010875981386727906
0.00011773722507558981
0.00012712763000252703
0.00013704560598978843
0.00014760314129891317
0.00015891030052644917
0.00017107601957867813
0.0001842090186691403
0.00019841882146784395
0.00021381686816657197
0.0002305177097123995
0.00024864026976435805
0.0002683091599772064
0.0002896560329665593
0.0003128209557385908
0.0003379537844192121
0.00036521551882585934
0.0003947796127591191
0.00042683321285202913
0.0004615782954676406
0.0004992326674712194
-0.0004554640497747148
-0.00041169769741901396
-0.00036994804892570565
-0.0003302774330942032
-0.00029273526832677976
-0.00025735622283797055
-0.00022415881140731841
-0.0001931444463905696
-0.00016429694517962334
-0.0001375824812732268
-0.00011294995230894112
-9.033172644332121e-05
-6.964471879906953e-05
-5.079174260383401e-05
-3.366307525289047e-05
-1.8138177751730877e-05
-4.087506653357997e-06
8.625639613110692e-06
2.014329361087197e-05
3.06110587313807e-05
4.0176457078697214e-05
4.8987419332943705e-05
5.719094330666752e-05
6.49319409173621e-05
7.23522868036619e-05
7.959007598332124e-05
8.677909290477626e-05
9.404849003492866e-05
0.00010152267075297372
0.00010932136872923714
0.00011755991409781452
0.0001263496754655563
0.00013579866602696222
0.00014601230166270962
0.00015709429873508873
0.00016914769927670048
0.00018227601125055115
0.00019658445146721049
0.0002121812784731253
0.00022917920219686638
0.00024769685630178506
0.0002678603179805811
0.0002898046583210828
0.00031367550431465885
0.0003396305910810665
0.00036784127993538807
0.0003984940145177335
0.0004317916833805613
0.00046795485321383945
-0.00042872321183910767
-0.00038577516569762715
-0.0003448508191176425
-0.00030602743254504183
-0.00026936718070902366
-0.00023491513923137863
-0.00020269777914846965
-0.0001727219891941023
-0.00014497462675952533
-0.00011942258024942587
-9.60133090185944e-05
-7.467581294182124e-05
-5.5321972489766336e-05
-3.784819226397562e-05
-2.2137276384615046e-05
-8.060462782871758e-06
4.520454951056907e-06
1.575098541087283e-05
2.5781838052837958e-05
3.476691632162132e-05
4.2861450411962876e-05
5.022030604673322e-05
5.699649694507203e-05
6.33399203740781e-05
6.93963276414411e-05
7.530653477919036e-05
8.120587308843574e-05
8.722387471019055e-05
9.348418492766131e-05
0.00010010469039979653
0.00010719785087945355
0.00011487122103243097
0.00012322814859218323
0.00013236863512944286
0.00014239034599362876
0.00015338975639145325
0.0001654634209540401
0.00017870935439572022
0.00019322851089094428
0.00020912634948670739
0.00022651447218144383
0.0002455123201515197
0.00026624891197853107
0.0002888646055732996
0.0003135128627887729
0.0003403619924761403
0.00036959684394191616
0.00040142041843993503
0.00043605536152178936
-0.00040159969059885836
-0.0003594570170878525
-0.0003193519817664692
-0.00028137803666739014
-0.0002456110492750352
-0.00021210709207399037
-0.00018090082553416653
-0.00015200449657627735
-0.00012540755138960857
-0.00010107683938768985
-7.895736525004304e-05
-5.897352930413213e-05
-4.103078360881418e-05
-2.501762234116689e-05
-1.0807820516309241e-05
1.7371655414571974e-06
1.2765719624954763e-05
2.243358673681417e-05
3.0901463462046364e-05
3.8332717518518855e-05
4.4891285814349646e-05
5.073978952829794e-05
5.603789424019068e-05
6.0940933380423945e-05
6.559880456995237e-05
7.015514097852282e-05
7.474675373168871e-05
7.950333665344977e-05
8.454742117949832e-05
8.999456697787733e-05
9.59537725240267e-05
0.00010252808940666713
0.00010981542429754076
0.0001179095131161878
0.0001269010527664982
0.00013687897676802063
0.00014793186197226138
0.00016014945424001892
0.00017362430133531503
0.00018845348124743588
0.00020474041365833862
0.00022259674121889728
0.00024214426566043779
0.00026351692152058737
0.00028686276735574723
0.0003123459707781995
0.0003401487594455188
0.00037047330529345335
0.0004035435038502039
-0.0003740947442841813
-0.0003327418227140888
-0.00029344864697462836
-0.0002563262551179418
-0.00022146522397137325
-0.00018893323442868704
-0.000158773333134396
-0.00013100291474753278
-0.0001056134205177639
-8.257072203365912e-05
-6.181613515256201e-05
-4.326798941212129e-05
-2.6823663407268827e-05
-1.2361987052095236e-05
2.5409269138743085e-07
1.1174685498036019e-05
2.0560068861419367e-05
2.857782659972108e-05
3.5400093703299995e-05
4.12009740697189e-05
4.615418444804675e-05
5.043096468579367e-05
5.419828177972985e-05
5.761734378807726e-05
6.084242968801279e-05
6.40200329536239e-05
6.728831005743674e-05
7.077682022212095e-05
7.460653943558437e-05
7.889012981630861e-05
8.373244465870178e-05
8.923124965355689e-05
9.54781416439704e-05
0.00010255964757702185
0.00011055848786589717
0.00011955498998188208
0.00012962863954230075
0.0001408597573645115
0.0001533312917576246
0.00016713071560461867
0.00018235201751527763
0.00019909777540572104
0.00021748129923696013
0.00023762882730679613
0.000259681757391772
0.00028379889019028437
0.00031015865788895647
0.00033896130530100543
0.00037043098489566995
-0.00034620840398555397
-0.00030562672562024773
-0.00026713647982368194
-0.00023086783992046223
-0.00019692719792425983
-0.0001653944741221991
-0.00013632124754903163
-0.00010972973345750592
-8.561259883774208e-05
-6.393357424223922e-05
-4.4628791464856876e-05
-2.7608753361524352e-05
-1.2760825162091982e-05
4.787363151737001e-08
1.0967301389774864e-05
2.0161172897478763e-05
2.7803599273387714e-05
3.4075792838719754e-05
3.916292626147955e-05
4.325121937755194e-05
4.6525310593889535e-05
4.9165953643987015e-05
5.134806543737047e-05
5.323913738514152e-05
5.499801124402015e-05
5.677401136237881e-05
5.870641825309053e-05
6.0924263564784975e-05
6.354642354121365e-05
6.668198671735959e-05
7.043087159676331e-05
7.488467107426289e-05
8.012770212426079e-05
8.623824147613313e-05
9.32899304075252e-05
0.00010135333416819159
0.0001104976437065891
0.0001207925091658707
0.00013230999590614634
0.00014512665448060402
0.00015932569597447432
0.00017499926334509086
0.0001922507878147628
0.00021119741694565486
0.00023197249774399575
0.0002547280939706048
0.0002796375117883887
0.00030689780194387284
0.00033673219985565217
-0.00031793924394102335
-0.0002781071922214051
-0.00024040946441869493
-0.00020499709713067693
-0.00017199350263862045
-0.0001414914865227601
-0.00011355123738412964
-8.819931622199018e-05
-6.542862966464613e-05
-4.519933112485941e-05
-2.74405593464061e-05
-1.2052896397218849e-05
1.088592065628946e-06
1.2130882147173838e-05
2.1239233102682276e-05
2.8593290366127344e-05
3.438318490121828e-05
3.880574798967307e-05
4.2060941907631766e-05
4.434858668518615e-05
4.5865442650214194e-05
4.680268885762229e-05
4.734381966151058e-05
4.766296621165622e-05
4.792363689271051e-05
4.827786078132057e-05
4.886571102410975e-05
4.9815180420714755e-05
5.124237912307317e-05
5.325202388015149e-05
5.593818927768224e-05
5.9385293559727215e-05
6.3669294494334e-05
6.885907405707048e-05
7.50179941390039e-05
8.220560878481609e-05
9.047952145455063e-05
9.989737828296208e-05
0.000110518990146663
0.00012240857746471934
0.0001356371319325006
0.0001502848887880298
0.00016644390168275847
0.0001842207097300791
0.00020373908283147224
0.0002251428268983391
0.00024859862510370756
0.00027429888479783837
0.0003024645522008568
-0.0002892841179812089
-0.00025017672767772836
-0.00021325963634181988
-0.0001787066787589664
-0.00014665960257014
-0.00011722475226143281
-9.04709097687556e-05
-6.642831980717412e-05
-4.508887421943164e-05
-2.640738042100632e-05
-1.0303797262051217e-05
3.333710609593199e-06
1.4645070416069439e-05
2.379413223875526e-05
3.09642151149897e-05
3.635354154300774e-05
4.017071794162885e-05
4.263039756188802e-05
4.3949238040186245e-05
4.4342240111058806e-05
4.4019528649061335e-05
4.318361351884903e-05
4.202714666115548e-05
4.073117408573412e-05
3.946386725921236e-05
3.837970781039868e-05
3.7619092343302296e-05
3.7308320088844105e-05
3.7559924714519743e-05
3.847331234274609e-05
4.013567021553255e-05
4.262311399855223e-05
4.6002045995002794e-05
5.033070117281546e-05
5.5660862559231417e-05
6.203973193100176e-05
6.951194563906138e-05
7.8121728673608e-05
8.791518252228292e-05
9.894270396584859e-05
0.00011126153256403593
0.00012493842416921863
0.00014005244634987535
0.0001566978890354398
0.00017498728002871
0.0001950544902464546
0.00021705790761601673
0.00024118365148734222
0.0002676487912010861
-0.00026023785646860087
-0.0002218265493407895
-0.0001856767791763858
-0.00015198735392446538
-0.00012091979303906208
-9.259463023421344e-05
-6.708909901291527e-05
-4.443622814961912e-05
-2.4625307263506646e-05
-7.6036220912067964e-06
6.720691342179674e-06
1.847486225996231e-05
2.7816982948569713e-05
3.49310115185103e-05
4.002149952836431e-05
4.33082506708371e-05
4.502109441859026e-05
4.539493029262487e-05
4.4665166910401455e-05
4.30636475799856e-05
4.0815122998624775e-05
3.813430314500432e-05
3.522349583501283e-05
3.227081925591402e-05
2.944896031244204e-05
2.6914439714989524e-05
2.480733802205648e-05
2.325143380961514e-05
2.235470514283522e-05
2.221014792000431e-05
2.289686882527009e-05
2.448141595562392e-05
2.7019316174853314e-05
3.0556794454669745e-05
3.513265651433617e-05
4.078032168049195e-05
4.75299978334176e-05
5.541099441974673e-05
6.445417264475117e-05
7.469453404466975e-05
8.617394960741542e-05
9.894403139790175e-05
0.00011306914725446593
0.00012862957649156792
0.00014572480068994476
0.00016447691855520086
0.00018503416745313528
0.00020757452659764253
0.00023230936794585433
-0.00023079291684574565
-0.00019304521124396956
-0.0001576480801023794
-0.0001248277585520624
-9.476710722677861e-05
-6.76014797389296e-05
-4.3416251410521856e-05
-2.224603312897533e-05
-4.075510366491342e-06
1.1158227222363148e-05
2.3562061089776876e-05
3.328216355473479e-05
4.0498527679053153e-05
4.541898121858401e-05
4.8272950860836494e-05
4.930522186372133e-05
4.876990707849971e-05
4.6924801730297006e-05
4.4026259680904345e-05
4.03246862219625e-05
3.6060704229498586e-05
3.1462016561303874e-05
2.674095906203544e-05
2.2092716005700508e-05
1.7694153305103377e-05
1.370321401927832e-05
1.0258814954713924e-05
7.481181729690478e-06
5.472561686536981e-06
4.318258650992668e-06
4.087939964467213e-06
4.83717373769843e-06
6.6091623066727445e-06
9.436645913893371e-06
1.3343958287156954e-05
1.8349222777075402e-05
2.4466683789400867e-05
3.170917326979217e-05
4.0090715854507186e-05
4.962927890972413e-05
6.03496750113397e-05
7.228662441474687e-05
8.548798373550492e-05
0.00010001814437229917
0.0001159616001567415
0.00013342667829611965
0.00015254942087691847
0.00017349759600134018
0.00019647480801908423
-0.00020093897937296934
-0.0001638181711526715
-0.0001291577388045917
-9.721412349962544e-05
-6.819324045215236e-05
-4.224585031029071e-05
-1.9464936304336433e-05
1.1489597692704301e-07
1.6516084538897857e-05
2.9815023246948513e-05
4.013747449346794e-05
4.765278748597446e-05
5.256725490729308e-05
5.511694550588975e-05
5.5560334908999476e-05
5.4171025538660156e-05
5.1230803535001757e-05
4.702323078312198e-05
4.1827917949960325e-05
3.5915573618761076e-05
2.954387810993886e-05
2.2954190460319768e-05
1.636906441110364e-05
9.990524555622549e-06
3.99903678095781e-06
-1.4469028714048093e-06
-6.210640767556619e-06
-1.0176778529741304e-05
-1.3250200255957023e-05
-1.535478068906415e-05
-1.6431831656726903e-05
-1.643833392353522e-05
-1.534499116165322e-05
-1.3134132609463056e-05
-9.797481540285702e-06
-5.333798189649519e-06
2.536014963583355e-07
6.959455901220379e-06
1.4779305756648653e-05
2.3712392477573396e-05
3.3764720819770555e-05
4.4952300074035945e-05
5.73045767333219e-05
7.086806880994556e-05
8.571020773910643e-05
0.0001019233880685394
0.00011962921791902614
0.00013898295445320674
0.0001601780983159773
-0.00017066247769703669
-0.00013412728988555778
-0.00010018652308273202
-6.912998192765141e-05
-4.118850332250623e-05
-1.6528764148482367e-05
4.7494770586964385e-06
2.2613700224022315e-05
3.709663399494023e-05
4.829219876165136e-05
5.6349713668996104e-05
6.14667575569855e-05
6.388110154041671e-05
6.386212960024507e-05
6.170213720513296e-05
5.77078522398522e-05
5.219246370580244e-05
4.546837807412052e-05
3.784085648873836e-05
2.9602622903759923e-05
2.1029477124651086e-05
1.2376899816229914e-05
3.877599861271119e-06
-4.260071914938268e-06
-1.1852935346681748e-05
-1.874312076038942e-05
-2.4797638082676987e-05
-2.990747285297468e-05
-3.3986298297733475e-05
-3.696888143508992e-05
-3.8809248432497556e-05
-3.947866110660947e-05
-3.896344325599044e-05
-3.726268302384206e-05
-3.438582609345542e-05
-3.0350164469353236e-05
-2.5178217064672492e-05
-1.8894991388393456e-05
-1.1525110335072752e-05
-3.0897844232047333e-06
6.396392161725495e-06
1.6928843751234934e-05
2.8516634397748875e-05
4.118632604682704e-05
5.498608718484954e-05
6.99900594212377e-05
8.630298183308349e-05
0.00010406506362217738
0.00012345708473440742
-0.00013994605143756444
-0.0001039502503760864
-7.071126361281321e-05
-4.055585816058194e-05
-1.374182006329272e-05
9.54787542087332e-06
2.9207924848020927e-05
4.521060566128887e-05
5.7602917938492926e-05
6.65012852687219e-05
7.208424781128542e-05
7.458364706615372e-05
7.42748277348243e-05
7.146637059662897e-05
6.648982782653245e-05
5.968986665011444e-05
5.141514734068042e-05
4.201017566692056e-05
3.1808285175613515e-05
2.1125826853138352e-05
1.0257576647423883e-05
-5.266827425992604e-07
-1.0984489740031855e-05
-2.0902052452545505e-05
-3.0094744079334212e-05
-3.840687631354034e-05
-4.571087879233493e-05
-5.1906003494125996e-05
-5.691665968673987e-05
-6.069046923722066e-05
-6.31961151482674e-05
-6.442103917853048e-05
-6.436902809177358e-05
-6.305771301867713e-05
-6.05159929663035e-05
-5.6781381846407464e-05
-5.1897268640591077e-05
-4.5910072473315244e-05
-3.886626841471952e-05
-3.080925573541171e-05
-2.1776038056781077e-05
-1.1793684317654152e-05
-8.75540702549582e-07
1.0982833380204782e-05
2.3808027533198106e-05
3.765345672192277e-05
5.2604359609159657e-05
6.878311694846762e-05
8.635487662665697e-05
-0.00010876790484709575
-7.325988115501614e-05
-4.0704279302361535e-05
-1.14689424922515e-05
1.4159205104280481e-05
3.5980704420804366e-05
5.388646741588676e-05
6.785709342567448e-05
7.795885973276018e-05
8.433682645068996e-05
8.720562358070783e-05
8.683856184013572e-05
8.355572914793552e-05
7.771170719401976e-05
6.968347672245412e-05
5.98589874383354e-05
4.86267606478602e-05
3.636678082881428e-05
2.3442825389630162e-05
1.0196286666819265e-05
-3.05853896975794e-06
-1.603778120519428e-05
-2.8490074405695953e-05
-4.019754037148937e-05
-5.097584248585363e-05
-6.0673478364664524e-05
-6.9170468936397e-05
-7.637658638402767e-05
-8.222924392561892e-05
-8.669114897391639e-05
-8.974779932816035e-05
-9.140488085943033e-05
-9.16856054247045e-05
-9.062800998405063e-05
-8.828222235332528e-05
-8.470768580309818e-05
-7.997032381668046e-05
-7.413961766411514e-05
-6.728556293936205e-05
-5.947546674918425e-05
-5.0770544750694535e-05
-4.1222276620983545e-05
-3.086847978438223e-05
-1.972906427988308e-05
-7.801436512411275e-06
4.944473706122721e-06
1.8571579972134766e-05
3.318140684371862e-05
4.892025296304725e-05
-7.71010515973336e-05
-4.202336545293395e-05
-1.0132723669412091e-05
1.8157240269128794e-05
4.2528121490387205e-05
6.276408678357326e-05
7.875473038232439e-05
9.049354569831691e-05
9.80723882137019e-05
0.00010167252417359052
0.00010155301195519106
9.803724223420018e-05
9.149847189128535e-05
8.234513443165781e-05
7.100661054561253e-05
5.792001253222823e-05
4.351839173268035e-05
2.8220633179462662e-05
1.2423167678701774e-05
-3.506483683260453e-06
-1.923440964911316e-05
-3.446339804435983e-05
-4.893460261429228e-05
-6.242799883390826e-05
-7.476184565073651e-05
-8.579136219612205e-05
-9.540681092262693e-05
-0.00010353115483555109
-0.00011011742934573243
-0.00011514594108222309
-0.0001186213784288015
-0.00012056989273734331
-0.00012103618583353404
-0.00012008061894103195
-0.00011777634061062303
-0.00011420641660435382
-0.0001094609328240459
-0.00010363403308510932
-9.682084661639945e-05
-8.91142554791946e-05
-8.060144947757975e-05
-7.136021548857785e-05
-6.145490942990883e-05
-5.0932062260408695e-05
-3.9815576483706594e-05
-2.8101476580014162e-05
-1.5752185640219296e-05
-2.6903111989134976e-06
1.1208064145076801e-05
-4.491242059563583e-05
-1.020131277382208e-05
2.104215824676181e-05
4.835315569763632e-05
7.137932043291273e-05
8.988898847521465e-05
0.00010377384670696987
0.00011304621064539555
0.00011783145664787109
0.00011835641409592423
0.00011493470289897223
0.00010795008248612459
9.783886643800754e-05
8.507236722783695e-05
7.014018898549024e-05
5.353500567086e-05
3.573926931133009e-05
1.7214106504834237e-05
-1.60950499064616e-06
-2.0337325351019175e-05
-3.861635800699037e-05
-5.613749359281717e-05
-7.263655660580404e-05
-8.789403489675718e-05
-0.00010173376788531752
-0.00011402085033516973
-0.00012465897966722206
-0.00013358744042535342
-0.00014077788301304628
-0.00014623101775343428
-0.0001499733113960039
-0.00015205374247112546
-0.00015254064491282415
-0.00015151864629078804
-0.00014908568770635733
-0.00014535009664452814
-0.00014042767153983615
-0.00013443872714928584
-0.00012750504271566432
-0.00011974665014259644
-0.00011127839675736939
-0.00010220621662140883
-9.262304570523128e-05
-8.26043195356202e-05
-7.220299719344625e-05
-6.144406277421022e-05
-5.031846464971512e-05
-3.87764640611965e-05
-2.672037768632063e-05
-1.2161791071954586e-05
2.2253335654032202e-05
5.2865873575627664e-05
7.91535577207153e-05
0.00010072751562137383
0.00011734142475974818
0.00012889373745877952
0.00013542327970166024
0.00013709897842557883
0.0001342048117765754
0.00012712128626730934
0.00011630481967421502
0.00010226636096172248
8.555043261052053e-05
6.67155671436187e-05
4.631686056605355e-05
2.4891110143837603e-05
2.9447659705833518e-06
-1.9055278497062678e-05
-4.068819321909056e-05
-6.158326785733748e-05
-8.142184225445881e-05
-9.99374703878203e-05
-0.00011691468100837044
-0.00013218667921337246
-0.00014563229872847916
-0.00015717247109990617
-0.00016676643049298723
-0.00017440782521070675
-0.00018012086206814493
-0.0001839565690048145
-0.00018598922561999243
-0.00018631298091088822
-0.00018503865220041715
-0.00018229067865778437
-0.00017820418639472035
-0.00017292210932251528
-0.00016659230027370187
-0.00015936455987075604
-0.000151387505966466
-0.00014280520393118723
-0.00013375347751516664
-0.0001243558214311935
-0.00011471884017562328
-0.00010492714302408335
-9.503763261374532e-05
-8.507313410745232e-05
-7.501532360940089e-05
-6.479692815562765e-05
2.1199483487097104e-05
5.53966029671199e-05
8.539163707618758e-05
0.00011059772798226175
0.00013058692625049495
0.0001451003266835782
0.00015404951314966497
0.00015750980385326185
0.00015570636688011508
0.0001489946979397333
0.00013783719117038684
0.00012277758934066407
0.0001044149939440353
8.337888628366652e-05
6.0306302790968935e-05
3.5821966515345305e-05
1.0521840947130823e-05
-1.5039728470972458e-05
-4.0359366942702146e-05
-6.499078391085378e-05
-8.854803749977491e-05
-0.0001107064064667651
-0.00013120134652544468
-0.00014982599251617268
-0.00016642762778074083
-0.00018090348695098957
-0.00019319619610341787
-0.00020328909086744784
-0.00021120159275832273
-0.00021698476933944277
-0.00022071715610885723
-0.00022250087762934467
-0.00022245807215573454
-0.00022072759719478363
-0.00021746197225799846
-0.00021282449864637454
-0.0002069864836217461
-0.00020012448706803465
-0.0001924175021368324
-0.00018404397703704334
-0.00017517858277078802
-0.00016598863115312168
-0.00015663004888134824
-0.00014724281678997475
-0.00013794578889790576
-0.000128830813502942
-0.00011995608849217632
-0.00011133869520649209
-0.00010294626947847385
5.523001431986807e-05
8.929501825170882e-05
0.00011868144843460438
0.00014272960794724232
0.00016097003704881874
0.0001731346148914903
0.0001791567009034878
0.0001791610857785758
0.00017344527112116148
0.00016245411867332749
0.00014675017361404086
0.0001269819792339283
0.00010385250116835831
7.808942694327581e-05
5.041866688526575e-05
2.1541918009279626e-05
-7.881285468233634e-06
-3.724698694000661e-05
-6.60159328021992e-05
-9.37188589362481e-05
-0.00011995851094616372
-0.0001444090218356009
-0.00016681326610180902
-0.00018697876482746956
-0.00020477264697758846
-0.00022011609007634159
-0.00023297857816440004
-0.0002433722330537208
-0.00025134640054189084
-0.0002569826085957738
-0.0002603899602421217
-0.0002617009796711256
-0.00026106789494942384
-0.00025865931347007765
-0.00025465722550710446
-0.00024925425570600235
-0.00024265107089611881
-0.00023505384432880028
-0.00022667167062724591
-0.00021771382192692368
-0.00020838673359310778
-0.00019889060747872722
-0.00018941552199741585
-0.00018013694149725257
-0.00017121052277367654
-0.00016276612425702996
-0.00015490093359964152
-0.00014767164208802364
-0.00014108560935009729
9.00002459901933e-05
0.00012402745826411987
0.00015280729828504036
0.0001755977495522254
0.0001918857560323367
0.00020139918734664308
0.00020410489706912394
0.000200194063291248
0.00019005697359956997
0.00017425005708575358
0.00015345824040402523
0.00012845563609073518
0.00010006722542467428
6.913366558218559e-05
3.648072788943468e-05
2.8942467534959215e-06
-3.089910653122918e-05
-6.424537245454387e-05
-9.657166071315448e-05
-0.00012739001920897275
-0.00015629762520451285
-0.00018297412916881695
-0.00020717693757124622
-0.000228735134886221
-0.00024754263660564657
-0.00026355104916356287
-0.00027676260001961717
-0.00028722339851315615
-0.00029501719909479085
-0.0003002597643950444
-0.000303093865921214
-0.00030368491359940297
-0.00030221717002183734
-0.000298890479061259
-0.00029391741952441985
-0.0002875207809833885
-0.0002799312493806244
-0.00027138518332367467
-0.00026212235735037503
-0.00025238354534277974
-0.00024240781545778467
-0.00023242940743031792
-0.00022267406406670243
-0.00021335469152031217
-0.00020466622790567268
-0.00019677960733445465
-0.0001898347168198672
-0.00018393225677877656
-0.0001791244318788271
0.00012559474113073288
0.0001596873572386609
0.00018785250305890233
0.00020925497160780016
0.0002233367137002562
0.0002298294120188782
0.00022874929823941959
0.00022037603468512412
0.00020521874820077224
0.0001839730803018108
0.00015747337282576157
0.00012664389360977912
9.245243251289337e-05
5.586880356787949e-05
1.782991335033679e-05
-2.078778391338687e-05
-5.918834427363906e-05
-9.666935982501068e-05
-0.00013262878388523025
-0.00016656659756787706
-0.0001980824311764301
-0.00022687022055048467
-0.00025271087494782574
-0.0002754637897002393
-0.0002950578779590679
-0.00031148263882316285
-0.00032477963526317266
-0.0003350346306373736
-0.00034237052949603886
-0.00034694118639885807
-0.00034892608362792343
-0.0003485258321427598
-0.0003459584168035851
-0.00034145608379565484
-0.0003352627526689439
-0.0003276318252147803
-0.00031882425675969217
-0.0003091067510497536
-0.00029874993682059425
-0.0002880263818865747
-0.0002772082989592195
-0.000266564796548005
-0.00025635852853793384
-0.0002468415979265254
-0.00023825057435365726
-0.00023080049206271325
-0.000224677705283019
-0.00022003149192609261
-0.00021696431378005754
0.00016211499434526377
0.00019638536921814942
0.00022391315581500593
0.00024375755052589987
0.00025531533465802947
0.00025833355073430486
0.00025289935887778947
0.00023940985193557363
0.00021852625677853954
0.00019111787134333535
0.00015820126393627232
0.00012087979578716268
8.028760205006091e-05
3.754099319920601e-05
-6.300982103954467e-06
-5.0266183093061745e-05
-9.34895040259065e-05
-0.00013522440182915652
-0.00017484713804707952
-0.00021185522254496547
-0.00024586154807342
-0.00027658558725073
-0.0003038428352399175
-0.0003275334619242537
-0.00034763091576231475
-0.0003641710166729095
-0.0003772418977857628
-0.00038697500984324895
-0.000393537287215473
-0.0003971244879840685
-0.0003979556581051452
-0.00039626862659107587
-0.0003923164104157467
-0.00038636439041181414
-0.0003786881094048483
-0.0003695715385051007
-0.00035930565480817023
-0.0003481871722857133
-0.00033651726645200775
-0.0003246001319978514
-0.0003127412109274613
-0.0003012449270993617
-0.0002904117620210339
-0.00028053450709455974
-0.000271893530187306
-0.000264750900338534
-0.00025934322441882596
-0.00025587306407552635
-0.0002544988202485693
0.00019968292397509746
0.00023425258751080813
0.0002610996567752044
0.00027916368428079763
0.000287798146475407
0.0002867823032325634
0.0002763035361602051
0.0002569144006022983
0.00022947077008632355
0.0001950585101918867
0.00015491610784607035
0.00011035979584936295
6.271624933223974e-05
1.32662143519785e-05
-3.679925719313193e-05
-8.640974279042202e-05
-0.00013463443278306786
-0.00018069076157838093
-0.0002239446571404291
-0.0002639044662634399
-0.0003002104960628249
-0.0003326218687234872
-0.00036100208213951657
-0.0003853043525694072
-0.0004055575193404187
-0.0004218530343601812
-0.00043433334836916193
-0.0004431818417623967
-0.00044861432618774344
-0.000450872057484078
-0.0004502161436660962
-0.00044692319664346725
-0.0004412820570373205
-0.00043359141270124524
-0.00042415812930045316
-0.00041329611247076237
-0.000401325523448251
-0.00038857217212528994
-0.00037536691238439224
-0.00036204486392089896
-0.00034894428267841227
-0.00033640489897035497
-0.0003247655391922649
-0.00031436084489892824
-0.00030551690325487935
-0.0002985456068949066
-0.00029373757032091774
-0.0002913534449612565
-0.00029161349608575193
0.00023844523891107527
0.0002734444500662181
0.00029953824615611135
0.0003155308303184473
0.00032073754339313754
0.00031499431664738786
0.00029862867635614687
0.00027239876444723476
0.00023740961443120823
0.000195017063103875
0.00014672928190213874
9.411433176978456e-05
3.8719867089989646e-05
-1.7991373948353373e-05
-7.46889564192943e-05
-0.0001302055340232644
-0.0001835528529833541
-0.00023392554084118722
-0.0002806955214197937
-0.00032339982027797254
-0.0003617242207287624
-0.0003954848080619383
-0.00042460898280029247
-0.0004491170893031471
-0.000469105426586916
-0.00048473109810838466
-0.0004961989179533832
-0.000503750416187318
-0.0005076548659925656
-0.0005082021783936602
-0.0005056974660871683
-0.0005004570566813915
-0.0004928057297387822
-0.00048307495530000577
-0.00047160191946821195
-0.00045872913187262887
-0.00044480441818881
-0.00043018110694172107
-0.00041521822283635546
-0.000400280498681696
-0.00038573801483521297
-0.0003719652697588144
-0.00035933947887559214
-0.00034823789299055774
-0.00033903392397291454
-0.0003320918662416267
-0.00032776000981446507
-0.0003263619557915265
-0.0003281859687723071
0.0002785789440636066
0.00031414548757881244
0.00033937239075874925
0.00035291130323888975
0.0003540498512425855
0.0003427160030397558
0.0003194320199974149
0.0002852278954889875
0.00024152774185455528
0.0001900236676485867
0.0001325505557085993
7.097244191352214e-05
7.08768906308721e-06
-5.744341974170397e-05
-0.00012114813669027169
-0.00018276953524996864
-0.00024127685915850683
-0.00029586183634962293
-0.000345924917753454
-0.00039105504657858947
-0.00043100598094063247
-0.00046567152733562045
-0.0004950613952465627
-0.0005192788135755799
-0.0005385005845506274
-0.0005529598946805575
-0.0005629319460759424
-0.0005687222991404978
-0.0005706577113977901
-0.0005690792000068307
-0.0005643370325726926
-0.0005567873502109327
-0.0005467901392632313
-0.0005347082868235875
-0.0005209074755538473
-0.0005057566919366013
-0.0004896291371398187
-0.000472903339900535
-0.00045596427579060184
-0.0004392042969764559
-0.0004230236715818264
-0.00040783052300193134
-0.0003940399484292645
-0.0003820720844058545
-0.0003723488779429629
-0.00036528931752820293
-0.0003613028821325831
-0.00036078098072248044
-0.0003640861812585633
0.00032029833995916857
0.0003565751014668883
0.0003807637536347025
0.0003913451805768603
0.0003875979766597426
0.0003695932668954377
0.0003381229794524876
0.00029457681887122555
0.0002407876697029382
0.0001788658644870933
0.00011104027329132682
3.951963647957912e-05
-3.361777272553601e-05
-0.00010650312777929494
-0.00017752571147518215
-0.00024535506803793905
-0.0003089419259044851
-0.00036750357982029414
-0.00042049907344479664
-0.0004675987333174758
-0.0005086516293113519
-0.0005436535583818874
-0.0005727172777100775
-0.00059604600204545
-0.0006139106392119148
-0.0006266308537963422
-0.0006345597964821786
-0.0006380721862698224
-0.0006375553574529402
-0.0006334028591929303
-0.0006260102041572291
-0.0006157723899167661
-0.0006030828525267484
-0.0005883335490828173
-0.000571915900592912
-0.0005542223554961534
-0.0005356483561125142
-0.0005165945045607634
-0.0004974687311103815
-0.00047868826686305044
-0.00046068121478189117
-0.00044388749952897766
-0.0004287589590158958
-0.0004157583214105254
-0.00040535679377294576
-0.00039802997646756766
-0.00039425181540174437
-0.0003944863161676332
-0.00039917677333074775
0.00036386400013435627
0.00040099458722540893
0.0004238922665581596
0.00043084902899584443
0.00042116605981301625
0.0003951316438246255
0.0003539106623970112
0.00029936932087884505
0.00023386420670272468
0.00016002444535109794
8.055084470932894e-05
-1.951536814884247e-06
-8.509899129255372e-05
-0.00016681157363060417
-0.00024535615770007735
-0.0003193570628828163
-0.00038778240488791804
-0.00044991415824456593
-0.0005053088864916955
-0.0005537546611064786
-0.0005952281899406775
-0.0006298548195617787
-0.0006578729651174481
-0.0006796036819935319
-0.0006954255057952802
-0.0007057543090246698
-0.0007110277060041609
-0.0007116934367166761
-0.000708201137126746
-0.0007009969284571954
-0.0006905203090224049
-0.000677202894423648
-0.0006614686152122962
-0.0006437350393910662
-0.0006244155368553411
-0.000603922042332658
-0.0005826682019195728
-0.0005610727059761067
-0.000539562618261602
-0.0005185765083974142
-0.0004985671828368066
-0.00048000378966464585
-0.0004633730464966984
-0.00044917931115960597
-0.0004379431855782434
-0.0004301983195751785
-0.0004264860694343231
-0.0004273476727209846
-0.00043331363158044534
0.0004095943906311378
0.0004477156347005712
0.00046895446399530805
0.0004713981014050489
0.00045442221007895023
0.00041863970305512643
0.00036573141961813993
0.0002981956028281496
0.00021905936114968716
0.0001315926175249199
3.9055960733128114e-05
-5.5498267333628504e-05
-0.00014936423437093838
-0.0002402624124097641
-0.00032636939656513486
-0.0004063093028297132
-0.0004791187723162532
-0.0005441963767902902
-0.0006012451183432382
-0.0006502143839893365
-0.000691245560806894
-0.0007246237436597525
-0.0007507366348275951
-0.0007700408145546733
-0.0007830349830150324
-0.0007902394551240616
-0.0007921810532593998
-0.0007893825258360881
-0.0007823556735131465
-0.0007715974551926325
-0.0007575884498740026
-0.000740793153368377
-0.0007216616824751443
-0.0007006325391728935
-0.0006781361519627993
-0.0006545989605246105
-0.0006304478438700217
-0.0006061147121188826
-0.0005820410887881905
-0.0005586825049439248
-0.0005365125095075918
-0.0005160260723957588
-0.0004977421204991062
-0.00048220490338200805
-0.00046998384033890284
-0.00046167145963699197
-0.00045787901322932867
-0.000459229346187931
-0.00046634662939235016
0.0004578810527713223
0.0004971105177803969
0.0005161586106457866
0.000512898251172067
0.000486863301817117
0.0004391480783792062
0.0003721482605394677
0.0002892014246383273
0.00019419163427726593
9.117495949315102e-05
-1.5933594089301284e-05
-0.00012359058554255176
-0.00022876829219420358
-0.0003290213523246127
-0.00042249180275028
-0.000507870658724513
-0.0005843330309096978
-0.0006514607476770518
-0.0007091627832039871
-0.0007576002959247402
-0.0007971201812330686
-0.0008281988730000217
-0.0008513966520335703
-0.0008673218143600142
-0.0008766035738820149
-0.0008798723891851046
-0.0008777464049220529
-0.0008708228042036553
-0.0008596730245422762
-0.0008448409606549995
-0.0008268434417530446
-0.0008061724175641577
-0.0007832984113359809
-0.0007586748982969516
-0.0007327433454336757
-0.0007059387048458099
-0.0006786951904551586
-0.0006514521884094654
-0.0006246601566576582
-0.0005987863599197368
-0.0005743202632015748
-0.0005517783705267787
-0.0005317082463955486
-0.0005146913975709599
-0.0005013446263825855
-0.0004923194015654109
-0.00048829874053892
-0.0004899910733878327
-0.0004981205801608823
0.0005092086388696487
0.0005496240830990401
0.0005657140552658008
0.0005551414874947203
0.0005177324689489698
0.00045529271329422527
0.0003712104937078631
0.000269938709270931
0.0001564526504260061
3.576272917119039e-05
-8.746746714281828e-05
-0.00020917788913844826
-0.00032604830896590387
-0.0004355346397301729
-0.0005358324742668757
-0.0006257949288986792
-0.0007048277131294356
-0.0007727785321999525
-0.0008298321361590172
-0.000876417459714951
-0.000913129668051918
-0.0009406674911619783
-0.0009597847779961866
-0.0009712544711935611
-0.0009758429547722935
-0.0009742927718154742
-0.0009673119108336015
-0.0009555681279460326
-0.0009396870520528289
-0.0009202530810939052
-0.0008978123047199277
-0.0008728768773890866
-0.0008459304167176968
-0.0008174341181802491
-0.0007878333633029588
-0.0007575646586653884
-0.000727062781119947
-0.0006967680236949908
-0.0006671334387723521
-0.0006386319614355707
-0.0006117632665049166
-0.0005870601671263687
-0.000565094300080976
-0.00054648076346972
-0.0005318812791443167
-0.0005220053532996316
-0.0005176088190361333
-0.0005194890868038676
-0.0005284764294580524
0.0005641816230226165
0.0006057873575474049
0.0006178102879889763
0.000597735195197055
0.0005458945711862562
0.0004651451386471911
0.0003602570044751868
0.00023716440289289764
0.00010222307386417717
-3.84168964577547e-05
-0.00017926405397686307
-0.0003157527387484954
-0.00044434655461732253
-0.0005625178283330673
-0.0006686465610352688
-0.000761877279706405
-0.0008419629813846696
-0.000909115554268522
-0.0009638736497496747
-0.0010069927209183926
-0.0010393578140819593
-0.0010619173101769908
-0.0010756346757454793
-0.0010814549576972782
-0.0010802829017058646
-0.0010729699541451587
-0.0010603078718630782
-0.0010430271261312185
-0.0010217987027052594
-0.0009972382513681322
-0.0009699118229906795
-0.0009403426550749355
-0.0009090186361858515
-0.0008764002045016789
-0.000842928524112399
-0.0008090338416273102
-0.0007751439606113047
-0.000741692786425982
-0.0007091288918174704
-0.0006779240351796889
-0.0006485815283631957
-0.0006216442971625907
-0.0005977024020178967
-0.0005773996860305164
-0.000561439091896862
-0.0005505860452712508
-0.0005456691567804761
-0.0005475773794576533
-0.0005572527155203039
0.0006235602821764649
0.0006662318994038047
0.0006725776419087073
0.0006399883774325446
0.0005696461777960626
0.0004659637817212847
0.0003356397009399298
0.00018657077637589115
2.683972049299932e-05
-0.00013607716875960185
-0.00029582234971776977
-0.00044740047078416917
-0.0005872070461283505
-0.0007129121349847972
-0.0008232646567497212
-0.0009178686186516391
-0.000996965586336919
-0.0010612427468879235
-0.0011116747473547683
-0.001149400244774272
-0.0011756300489235774
-0.0011915819331365096
-0.0011984367874251015
-0.0011973111582307683
-0.0011892419378497082
-0.0011751797796418356
-0.0011559885860616126
-0.0011324490837117812
-0.0011052650449474843
-0.0010750711438280575
-0.0010424417603557001
-0.0010079002888567085
-0.0009719286812393951
-0.0009349770785431477
-0.000897473466677165
-0.0008598333438367828
-0.0008224694146577033
-0.0007858013345794224
-0.0007502655201300917
-0.0007163250180370062
-0.0006844793871537136
-0.0006552744884786299
-0.000629311993569498
-0.0006072583022222189
-0.0005898523995704202
-0.0005779119814845607
-0.0005723369519227417
-0.0005741091869394671
-0.0005842873327658316
0.0006883096642813225
0.0007317024503662797
0.0007300150588130522
0.0006807266855092878
0.0005864222646846454
0.00045382685930361877
0.0002923344359066424
0.00011242706369030131
-7.569181085179122e-05
-0.0002630667439172049
-0.00044252172950478424
-0.0006088149006783505
-0.0007585260259935014
-0.0008897907312690884
-0.0010019742664206174
-0.0010953478810206765
-0.00117080328764467
-0.0012296199926515733
-0.0012732870596885437
-0.00130337375263255
-0.0013214405761126577
-0.0013289818101319198
-0.0013273914995448333
-0.0013179462332970626
-0.0013017994946171174
-0.0012799836678608414
-0.0012534168699538384
-0.0012229126254609535
-0.0011891910486404311
-0.0011528906695471575
-0.0011145803809983132
-0.0010747712212466967
-0.001033927869746168
-0.0009924798406678315
-0.00095083242587439
-0.0009093774767224561
-0.000868504129941175
-0.000828609582101375
-0.0007901100030345415
-0.0007534516522592072
-0.0007191222227556082
-0.0006876623783208663
-0.0006596773641478898
-0.0006358484396317005
-0.0006169436894936375
-0.00060382750156944
-0.0005974676649065785
-0.0005989386861609824
-0.0006094196408855251
0.0007596668703438933
0.0008030619859639432
0.0007898580452999279
0.0007179874445620571
0.0005923380087793431
0.00042308714070179304
0.0002233952570177139
7.111408556331744e-06
-0.00021303680865580182
-0.00042656342774329004
-0.0006256800181843741
-0.0008052481206453563
-0.000962427272704014
-0.001096191778504202
-0.0012068368088570952
-0.001295541832271964
-0.0013640193188488858
-0.0014142514858741448
-0.0014483048564808074
-0.00146820754926702
-0.0014758739929114917
-0.0014730637172001085
-0.001461363542724782
-0.0014421851118640097
-0.0014167719456084985
-0.0013862119862737901
-0.0013514529224851399
-0.0013133185621314533
-0.001272525201729123
-0.0012296974094733529
-0.0011853829534534815
-0.0011400668115513074
-0.0010941843289033124
-0.001048133666282959
-0.0010022877247903295
-0.0009570057498632864
-0.0009126448181383182
-0.0008695713988633585
-0.0008281731605011555
-0.0007888711645438681
-0.000752132551848507
-0.0007184837771633673
-0.0006885243723031842
-0.0006629410936207294
-0.0006425220995270528
-0.0006281704707526217
-0.0006209159121044056
-0.0006219228980013508
-0.0006324929733117629
0.0008392342086096169
0.000881275629150434
0.0008513361757314028
0.0007485087306355331
0.0005814643299645594
0.00036555915684321344
0.00011919596641203623
-0.00013948160432197126
-0.00039490232046787005
-0.0006352229674886287
-0.0008525179142264347
-0.0010423454129487725
-0.0012030226033571192
-0.001334850030631246
-0.0014394227392777181
-0.001519083633959542
-0.0015765243536081663
-0.0016145140625546187
-0.0016357283425392916
-0.0016426510332685634
-0.0016375262835849405
-0.0016223433758974434
-0.0015988417309915279
-0.0015685274154701237
-0.0015326954176091909
-0.0014924540645749607
-0.0014487494074389776
-0.0014023883723209354
-0.0013540601072587755
-0.0013043553521696893
-0.0012537839010768534
-0.0012027903658216668
-0.0011517685255465065
-0.0011010745805453345
-0.0010510396380974812
-0.0010019817511001741
-0.0009542178133204668
-0.0009080755913261976
-0.0008639061451132038
-0.0008220968594142633
-0.0007830852772594266
-0.0007473738947762765
-0.0007155460301721123
-0.0006882827901888225
-0.0006663809669230497
-0.0006507713259638823
-0.000642536118421598
-0.0006429237597239817
-0.0006533576147040032
0.0009291086182630498
0.0009673428140737211
0.0009127222456791345
0.0007668580796173011
0.000544669652787759
0.0002693084478244054
-3.360278420718593e-05
-0.0003406483724784082
-0.0006333780838299677
-0.0008991978519083052
-0.0011309448329646574
-0.0013257951813858762
-0.0014840078324302383
-0.001607796830000563
-0.0017004502525284002
-0.0017657065673690117
-0.0018073491085830104
-0.0018289651772422158
-0.0018338198631576638
-0.0018248047640764264
-0.001804432562701283
-0.0017748575729433017
-0.0017379093095580347
-0.0016951310547907578
-0.0016478187171175135
-0.0015970574342600158
-0.0015437547243793287
-0.0014886698048825336
-0.0014324391679304688
-0.0013755987548589033
-0.0013186031936217937
-0.0012618426088012308
-0.001205657516915086
-0.001150352301246639
-0.0010962077319001673
-0.0010434929642230417
-0.000992477414641757
-0.0009434428782679888
-0.0008966962182984026
-0.0008525829258651044
-0.0008115018256087334
-0.0007739211923532205
-0.0007403965460105605
-0.0007115903789067582
-0.000688293966859474
-0.000671451081480326
-0.0006621826723126403
-0.0006618102958245026
-0.0006718743386471548
0.001032060328384661
0.0010621079595800054
0.000970478178517864
0.0007639181212567084
0.000467751668304886
0.00011686387503557355
-0.00025340413056961636
-0.0006136251453181599
-0.0009431087900892282
-0.0012298746894406215
-0.0014690373853839325
-0.0016607024403384463
-0.0018080398231112502
-0.0019158035687480632
-0.0019893226289091417
-0.0020338797023173316
-0.0020543700259812586
-0.002055144696829443
-0.0020399666639188477
-0.002012030106079518
-0.001974011580149017
-0.001928133799914522
-0.0018762311524691058
-0.0018198112474656636
-0.0017601099197632683
-0.0016981389025669327
-0.001634726361316681
-0.0015705509589184694
-0.0015061703196070989
-0.0014420448004236405
-0.0013785574429502415
-0.0013160309081958962
-0.0012547421190818309
-0.0011949352604139415
-0.0011368337208175275
-0.0010806515056520014
-0.0010266046026596864
-0.0009749227402976457
-0.0009258619404025198
-0.0008797182335597217
-0.0008368428854188606
-0.0007976594917823016
-0.000762683359247382
-0.0007325436964829846
-0.0007080092300867161
-0.0006900177261411691
-0.0006797091824584725
-0.0006784607501614734
-0.0006879186246550317
0.0011517728775684369
0.0011657867879049655
0.0010175974699998327
0.0007242022138711224
0.0003284129504923655
-0.0001173595701154384
-0.0005652978750132695
-0.0009801595074785674
-0.0013410205705619571
-0.0016390832165853603
-0.0018740341390722226
-0.002050583402061032
-0.002175850359180581
-0.002257662477742152
-0.0023035791127041794
-0.0023204094416283336
-0.0023140337276854744
-0.0022893941484131014
-0.002250570190921064
-0.002200888457487643
-0.0021430393270311654
-0.002079186650800674
-0.002011064564081698
-0.001940059795076679
-0.0018672800235431802
-0.001793609808457594
-0.001719755920044648
-0.0016462838985919909
-0.001573647501208586
-0.0015022124857436217
-0.0014322759685015951
-0.001364082402561216
-0.0012978370653140767
-0.0012337178184432945
-0.0011718858080688524
-0.0011124957020520743
-0.00105570600898474
-0.0010016899820718336
-0.0009506475745053866
-0.0009028188784945684
-0.0008584994553134523
-0.0008180579750405731
-0.0007819566839582515
-0.0007507754668097041
-0.0007252406726591665
-0.0007062602212152963
-0.0006949662170054813
-0.0006927644253285625
-0.0007013857066522008
0.0012931355370808806
0.001276815922752611
0.0010402898320603093
0.0006210120050698029
9.139503768967883e-05
-0.00047057301059723333
-0.0010026490659672052
-0.0014663874620843564
-0.0018451051891668416
-0.0021374174177743732
-0.0023506431278583623
-0.002495899398597158
-0.002585091429942149
-0.0026293382419765657
-0.0026383070154710198
-0.002620054998812911
-0.0025811222479329154
-0.002526727316053065
-0.0024609878853229725
-0.00238712919746243
-0.0023076654310578287
-0.00222455052044801
-0.0021393001764468955
-0.002053088924981683
-0.001966826440368226
-0.001881217186062753
-0.001796806837441163
-0.0017140183688242813
-0.0016331801393906428
-0.0015545478467168597
-0.0014783218395859263
-0.0014046609873858626
-0.0013336940811211756
-0.0012655295790883272
-0.0012002643974306018
-0.0011379923715471377
-0.0010788129682157005
-0.0010228407992115204
-0.0009702164633614077
-0.0009211192150377148
-0.0008757819216071924
-0.0008345087547674823
-0.0007976961398460311
-0.0007658578198768279
-0.000739655664625416
-0.0007199390531601596
-0.0007077965878463724
-0.00070462276874559
-0.0007121966372996766
0.0014625028609099797
0.0013890214407883544
0.0010111384881900942
0.00040757276519063496
-0.0002991120974439529
-0.000995808368700557
-0.0016076869977497271
-0.002100966070022983
-0.002471478342125348
-0.002731238623625773
-0.0028985045923531974
-0.0029921341541208762
-0.0030289900495104882
-0.0030230893562503414
-0.002985607986797978
-0.0029252344290936552
-0.0028486176023544627
-0.0027607947245843686
-0.0026655572181762885
-0.0025657464985374898
-0.002463485581393865
-0.0023603570270928284
-0.0022575380931223674
-0.0021559026776320697
-0.0020560979050153125
-0.001958601538070835
-0.0018637649809968154
-0.0017718454982778367
-0.0016830303923705409
-0.0015974552156231767
-0.0015152175959317338
-0.0014363878938367727
-0.0013610176510880853
-0.0012891466140197635
-0.001220809001735032
-0.0011560396251945465
-0.0010948804366349082
-0.0010373880864390228
-0.0009836430708070332
-0.0009337610483664618
-0.0008879068670998719
-0.0008463117727837074
-0.0008092942322659655
-0.0007772850280983179
-0.0007508582516877679
-0.0007307721066411241
-0.0007180268226618935
-0.0007139488890788928
-0.0007203055660282079
0.001667401560844925
0.0014844701991294992
0.0008743774665481638
9.166131874488448e-07
-0.0009304473502765448
-0.0017650823163042062
-0.002428765880450455
-0.0029096059566899174
-0.0032287339068894014
-0.0034180438899582347
-0.003508855779854124
-0.0035276051948789494
-0.0034950270408940914
-0.003426745385539595
-0.0033342617926449686
-0.003225923952816033
-0.0031077357599260946
-0.0029839879420125726
-0.0028577309971785578
-0.0027311226423759535
-0.0026056801691605527
-0.0024824626052056195
-0.0023622017990789917
-0.0022453966181717536
-0.002132380599478574
-0.0020233705139594133
-0.0019185012039453705
-0.0018178505406275663
-0.001721457269310521
-0.001629333744649436
-0.0015414750190508794
-0.0014578653722244414
-0.001378483114640519
-0.001303304332156953
-0.0012323061427967352
-0.0011654699955407702
-0.0011027855444706094
-0.001044255669068038
-0.0009899032678346714
-0.0009397805020712122
-0.0008939811683639637
-0.0008526567796442036
-0.0008160367148116326
-0.0007844526136249128
-0.000758367728523536
-0.0007384148130638243
-0.0007254530716328533
-0.0007206641151274035
-0.0007257083811389314
0.0019141366571636675
0.001513984698271964
0.0005138053382624103
-0.0007469078014208583
-0.0019334221275603483
-0.002866240343741222
-0.0035094023205405334
-0.0039035781419300905
-0.004108934984660022
-0.004180415269672388
-0.0041608904785531975
-0.0040814971359274185
-0.003964026097888505
-0.0038234143468737908
-0.0036697694464735975
-0.0035098652596243785
-0.0033481992152198797
-0.003187723499136458
-0.0030303454214922754
-0.00287726826571489
-0.00272922314211798
-0.0025866266986825925
-0.0024496884259350843
-0.0023184836378075044
-0.0021930030142702783
-0.0020731860865184568
-0.0019589436851275843
-0.001850172780760731
-0.0017467660729726664
-0.001648617956769724
-0.001555628006979802
-0.0014677027933651526
-0.0013847566265363723
-0.0013067117052376759
-0.0012334980705198187
-0.0011650537609458958
-0.0011013255997495836
-0.0010422711261860729
-0.0009878623023420602
-0.0009380917641689385
-0.0008929824937967332
-0.0008526017706566996
-0.0008170799508626786
-0.0007866338882241419
-0.0007615939688501647
-0.000742434940382633
-0.000729819922068442
-0.0007246894825902392
-0.0007284526809760508
0.00219247392039313
0.001343781202707131
-0.00032163761428315174
-0.0020904283114626734
-0.003484085276959835
-0.004378548248990297
-0.004862443882665456
-0.005060825716930534
-0.00507611849490474
-0.004979906349943906
-0.004818979491183865
-0.004622945008017125
-0.004410185418141137
-0.004191940432013638
-0.0039749580324671685
-0.003763178699273298
-0.003558796601694371
-0.0033629270323204813
-0.0031760265317114095
-0.002998157654878278
-0.002829155821692103
-0.0026687341759215055
-0.002516549015837824
-0.002372240047408977
-0.002235454515316808
-0.0021058609982289728
-0.0019831565838472065
-0.0018670698182257292
-0.0017573609761678682
-0.0016538206534774183
-0.0015562673304135369
-0.0014645443320879595
-0.0013785164744444245
-0.001298066609214582
-0.0012230922545072576
-0.001153502514372351
-0.0010892155521329966
-0.0010301569946318534
-0.0009762598157566152
-0.000927466479987378
-0.0008837343978432971
-0.0008450459646646216
-0.0008114243787891787
-0.0007829555506648628
-0.000759813993527321
-0.0007422869527537387
-0.0007307936189607719
-0.000725930017354097
-0.0007286487141702214
0.0024241221221260427
0.0005768395670527303
-0.002157519728430597
-0.004433759021004735
-0.005740109650870712
-0.006306746569986553
-0.006426942708339628
-0.0063032615444021944
-0.00605631340308363
-0.0057537893518502595
-0.005432568830662968
-0.005112197406950854
-0.00480259606727141
-0.004508379107266411
-0.004231264608327921
-0.003971422958370066
-0.003728232967967801
-0.00350070523458796
-0.003287717168456751
-0.003088140757707858
-0.0029009090639213683
-0.0027250477860027156
-0.0025596870907958133
-0.0024040625219594533
-0.0022575100986237454
-0.0021194585531063292
-0.00198942038501726
-0.0018669826578595061
-0.0017517980203509559
-0.0016435761736642504
-0.0015420758544917451
-0.0014470973193851863
-0.0013584752734426067
-0.0012760721728457963
-0.0011997718405688251
-0.0011294733686463415
-0.0010650853457578602
-0.0010065205595534352
-0.0009536915013457145
-0.0009065072765760129
-0.000864872927630489
-0.000828692702637697
-0.0007978793138541662
-0.0007723711619653864
-0.000752157251698457
-0.0007373016835021187
-0.0007279438198455057
-0.0007242553114381184
-0.0007264815477976555
0.0020721327840495275
-0.0018790056265080325
-0.006113982793439686
-0.008119757218147578
-0.008643280750481635
-0.008473755028349059
-0.008023084351339083
-0.007482856470724018
-0.006936658244066751
-0.006418643424581413
-0.005940658017558158
-0.0055046847088550885
-0.005108551855722676
-0.004748559575073939
-0.004420673186925066
-0.004121043397397876
-0.003846208823517619
-0.003593150315709559
-0.00335927873415999
-0.003142395617676756
-0.0029406455685122776
-0.002752469018264099
-0.002576559031142678
-0.0024118233603354564
-0.002257351822095313
-0.00211238854758454
-0.0019763084877569767
-0.001848597514832559
-0.0017288355001806865
-0.0016166818098630673
-0.0015118627247877742
-0.0014141603529131616
-0.0013234026527627549
-0.0012394542306554401
-0.0011622076108890322
-0.001091574713504212
-0.0010274783167439627
-0.0009698433456048136
-0.0009185879393259211
-0.0008736144524868344
-0.0008348009072283447
-0.000801994041789704
-0.0007750061010885836
-0.0007536188162144825
-0.000737598604277627
-0.0007267223295783637
-0.000720788022222571
-0.0007195132308127211
-0.0007222367192033022
-0.0007869238659029588
-0.009958690374628647
-0.012944690129251812
-0.012719660092322421
-0.011638056237519148
-0.010441704634434442
-0.009346900636849231
-0.00839618851938976
-0.007581795960530102
-0.006883746278153413
-0.006281674945438957
-0.0057580103102193025
-0.005298423727378196
-0.004891472537729646
-0.0045280767664535385
-0.004201029806879704
-0.003904593482377025
-0.0036341783676680783
-0.003386096225972822
-0.0031573695389596895
-0.0029455849768099743
-0.0027487802942496586
-0.0025653565679724447
-0.002394009663756337
-0.0022336763410474372
-0.0020834915443408916
-0.0019427542782822285
-0.0018109000893444874
-0.0016874786379280984
-0.0015721351833320463
-0.0014645950514087236
-0.001364650333288163
-0.0012721481892962044
-0.001186980216299087
-0.0011090723869898594
-0.0010383750917235188
-0.0009748528122173888
-0.0009184729378094586
-0.0008691932100987967
-0.0008269472743956327
-0.0007916278784196734
-0.0007630675013953897
-0.000741016847654874
-0.0007251231157383783
-0.0007149127888537096
-0.0007097871822535282
-0.0007090330967094507
-0.0007117737542075217
-0.0007164421280195371
-0.02393300471429473
-0.02436355777740497
-0.01999409156885207
-0.016372618657294485
-0.01363422704571788
-0.01159967597914531
-0.010050806392141814
-0.008840096143683689
-0.00786928048098047
-0.007073117285796404
-0.0064072048769293274
-0.005840589731615921
-0.005351175027660547
-0.004922848121863638
-0.004543636725679735
-0.004204497457820262
-0.0038985010784499743
-0.0036202726261023097
-0.0033655990299378685
-0.00313114909849993
-0.002914270391227304
-0.002712839637850732
-0.0025251510684039732
-0.002349831986580897
-0.0021857781870310497
-0.002032104002191268
-0.001888103247586849
-0.0017532183550577896
-0.0016270156932152585
-0.001509165571898216
-0.001399425776648075
-0.0012976277223393992
-0.0012036644794891152
-0.0011174800296218923
-0.0010390591571131091
-0.0009684173877918464
-0.0009055903372708618
-0.0008506217265946206
-0.0008035491446374624
-0.0007643863630372449
-0.0007331006096023898
-0.0007095826469436725
-0.0006936067740200835
-0.0006847770638003445
-0.0006824557054108601
-0.0006856704702610517
-0.0006930024064633195
-0.0007024472492422953
-0.0007109837736271468

SCALARS STRAIN_XY float 1
LOOKUP_TABLE default
1.1243018784856673e-06
0.11364440704996143
-5.83958863670242e-06
1.1325265732997636e-06
2.2485416093509514e-06
4.496834159650742e-06
6.744626734944692e-06
8.99166470735846e-06
1.1237687880305547e-05
1.348242864090965e-05
1.5725610108985322e-05
1.7966944298841714e-05
2.0206130288247248e-05
2.2442852397608348e-05
2.4676778388743603e-05
2.690755768619546e-05
2.9134819629683673e-05
3.1358171758311126e-05
3.3577198146228504e-05
3.5791457794975834e-05
3.80004830958236e-05
4.020377838398481e-05
4.240081859052669e-05
4.459104801901592e-05
4.677387927065624e-05
4.894869233768029e-05
5.111483389658167e-05
5.3271616830274926e-05
5.5418320017042166e-05
5.755418841957294e-05
5.967843351817326e-05
6.179023413999118e-05
6.388873772072978e-05
6.597306206312936e-05
6.804229765966507e-05
7.009551062509001e-05
7.213174631787167e-05
7.415003373639761e-05
7.614939075711868e-05
7.812883031099727e-05
8.008736759346213e-05
8.202402841372969e-05
8.393785879845517e-05
8.582793596501048e-05
8.769338081854317e-05
8.953337210138024e-05
9.134716237083063e-05
9.313409599542855e-05
9.48936293557745e-05
9.662535350374313e-05
9.832901953432671e-05
0.00010000456697087379
0.0001016521555309291
0.00010327220067218867
0.00010486541341592215
0.00010643284502256933
0.00010797593722294829
0.00010949657885234165
0.00011099716989895758
0.00011248069424368845
0.00011395080263151836
0.00011541190778990851
0.00011686929409052138
0.0001183292447335671
0.00011979919020410623
0.00012128788272428026
0.00012280560268423946
0.00012436440467536447
0.00012597841284667233
0.0001276641780919574
0.0001294411132075346
0.00013133202697757085
0.0001333637845741531
0.0001355681302791234
0.00013798272023413105
0.000140652428902599
0.00014363101499703657
0.00014698326340037426
0.00015078776305380015
0.00015514054283871648
0.00016015987729309233
0.00016599270589759407
0.00017282330634990628
0.00018088516053269
0.00019047741263455986
0.00020198804504439893
0.00021592706756942692
0.00023297494709667577
0.0002540547812962535
0.00028044244971223153
0.00031393934196607964
0.00035715177771653006
0.0004139595988563727
0.0004903362226320873
0.0005958581169945715
0.00074666446151124
0.0009717486867682895
0.0013277810253276429
0.0019409805034056177
0.00314020408790662
0.0061244017633280134
0.015575643559053082
0.06824667112365843
0.07298020785419199
0.023013023779950854
0.010457680701675375
0.005831428245446114
0.0037459553646169916
0.002619076212537201
0.001940339422078538
0.0014996915321413284
0.0011978441189918615
0.0009824124141624702
0.0008235464444515395
0.0007032006352994113
0.0006099400832173807
0.0005362339854677739
0.0004769595614961819
0.00042853451421391575
0.0003883931811419772
0.0003546591063337545
0.00032593415764446687
0.0003011590939504677
0.0002795192099997873
0.00026037915373501586
0.00024323705788879824
0.00022769172508255164
0.0002134188028548173
0.00020015325945986484
0.00018767635013711148
0.00017580583730401889
0.00016438861041585817
0.0001532951115049419
0.0001424151541683516
0.00013165485508563612
0.00012093449690284142
0.0001101872231412393
9.935854069026417e-05
8.840668405372953e-05
7.730399037099434e-05
6.603956288943336e-05
5.462369086678409e-05
4.3094793412218335e-05
3.153014928493347e-05
2.0062525424260902e-05
8.906337410005682e-06
-1.6002138702175817e-06
-1.0925337817824232e-05
-1.8225433773805255e-05
-2.2152527384661225e-05
-2.0648333254755236e-05
-1.2035414934580269e-05
-1.2032374298476256e-05
-2.060482016644216e-05
-2.1972046810592172e-05
-1.7775855617296887e-05
-1.0076251241233902e-05
-2.526569231886544e-07
1.0800006257069561e-05
2.2486447429054257e-05
3.439827994980438e-05
4.624802770676617e-05
5.782955651446875e-05
6.899354995093532e-05
7.963179462558423e-05
8.966678051233745e-05
9.904459419607381e-05
0.00010772989943333422
0.00011570226780377446
0.00012295339944468076
0.0001294849424624267
0.00013530672456021908
0.0001404352768967776
0.0001448925728144701
0.0001487049316126754
0.00015190205530249412
0.0001545161776265458
0.00015658131176463086
0.00015813258748820225
0.0001592056710348344
0.00015983626229440495
0.00016005966448806586
0.00015991042168794767
0.00015942201945229328
0.00015862664369728496
0.00015755499277783636
0.0001562361376301058
0.00015469742480456183
0.00015296441728118726
0.00015106086806829233
0.0001490087218279923
0.00014682814003283418
0.0001445375454643405
0.00014215368224390623
0.00013969168793762088
0.0001371651746588931
0.00013458631647064734
0.0001319659407540419
0.00012931362153867365
0.00012663777312518776
0.00012394574262181157
0.00012124390027165588
0.00011853772669639939
0.00011583189638125768
0.00011313035692783746
0.0001104364037154415
0.00010775274978561122
0.00010508159086908275
0.00010242466552615181
9.97833104926793e-05
9.715851135716491e-05
9.45509487343954e-05
9.19610401469706e-05
8.938897784571687e-05
8.683476280446634e-05
8.429823514677359e-05
8.177910125523047e-05
7.92769578155661e-05
7.679131304155762e-05
7.432160531795073e-05
7.186721949492547e-05
6.942750104088624e-05
6.700176826429649e-05
6.458932279967966e-05
6.218945852259905e-05
5.98014690693649e-05
5.74246541168999e-05
5.5058324546941595e-05
5.270180663052848e-05
5.035444535494982e-05
4.801560698891594e-05
4.568468097965184e-05
4.336108127739324e-05
4.104424715045685e-05
3.873364356726805e-05
3.642876121240368e-05
3.412911616479386e-05
3.1834249318407615e-05
2.954372556934759e-05
2.725713279544406e-05
2.4974080683470845e-05
2.2694199418804573e-05
2.0417138258899126e-05
1.814256401594383e-05
1.5870159463471367e-05
1.3599621678628271e-05
1.1330660346031696e-05
9.062996011999225e-06
6.796358312965989e-06
4.530484186193728e-06
2.2651160530018366e-06
2.231418089915227e-06
4.3841358072782555e-06
6.446494920764323e-06
8.41805566165199e-06
1.0298412342180097e-05
1.20871964640612e-05
1.3784079141321293e-05
1.5388772878155432e-05
1.6901032734106813e-05
1.832065690976492e-05
1.964748679650352e-05
2.0881406528894253e-05
2.2022342073935164e-05
2.3070259896840195e-05
2.4025165244634383e-05
2.4887100075698942e-05
2.5656140673901984e-05
2.6332394982953033e-05
2.691599968801528e-05
2.740711707854837e-05
2.780593172047041e-05
2.8112646964451038e-05
2.8327481322143466e-05
2.8450664734280817e-05
2.8482434754895092e-05
2.842303268163482e-05
2.8272699656328726e-05
2.803167276271834e-05
2.7700181145562386e-05
2.727844217959019e-05
2.6766657720556086e-05
2.6165010462264604e-05
2.5473660426988953e-05
2.469274162841817e-05
2.3822358934721954e-05
2.286258516281947e-05
2.1813458442709877e-05
2.0674979882173705e-05
1.944711157264578e-05
1.8129774967845513e-05
1.672284967468851e-05
1.5226172693894036e-05
1.3639538141430041e-05
1.1962697490597307e-05
1.0195360366171968e-05
8.337195923080465e-06
6.387834840859696e-06
4.346871958993415e-06
2.213869577050165e-06
4.427617074476142e-06
8.693505615109398e-06
1.2775323159103236e-05
1.6673946435674658e-05
2.0390186866753313e-05
2.392478397372777e-05
2.727840011559901e-05
3.045161651127337e-05
3.344493049214914e-05
3.625875392473943e-05
3.889341273974334e-05
4.1349147499841754e-05
4.362611493355373e-05
4.572439036631959e-05
4.764397097417605e-05
4.93847797859992e-05
5.0946670364732105e-05
5.2329432091297035e-05
5.3532795985106185e-05
5.4556440991115895e-05
5.540000066595052e-05
5.606307020211698e-05
5.654521372391863e-05
5.684597179708706e-05
5.6964869097564375e-05
5.6901422179622685e-05
5.665514728872556e-05
5.6225568168505324e-05
5.561222380731645e-05
5.4814676075209956e-05
5.3832517196900076e-05
5.2665377007515835e-05
5.1312929942592955e-05
4.9774901702465124e-05
4.8051075535154864e-05
4.614129808219736e-05
4.404548472239367e-05
4.176362435232006e-05
3.929578353670249e-05
3.664210995737993e-05
3.3802835092383576e-05
3.077827604880401e-05
2.7568836473701452e-05
2.4175006468757365e-05
2.0597361429341987e-05
1.683655972975484e-05
1.289333918289004e-05
8.768512202717016e-06
4.462959599799143e-06
8.85474494249916e-06
1.7386056351376133e-05
2.554925789710616e-05
3.334610834668239e-05
4.077823494233468e-05
4.7847120244304264e-05
5.455409164195624e-05
6.0900313438083664e-05
6.688678139790682e-05
7.251431964164223e-05
7.778357975096739e-05
8.269504195382305e-05
8.724901824508358e-05
9.144565729943266e-05
9.528495102881229e-05
9.876674263770147e-05
0.00010189073603222853
0.00010465650643637359
0.00010706351207689924
0.00010911110680000835
0.00011079855348586354
0.0001121250381334038
0.00011308968448853207
0.00011369156910004397
0.00011392973668863937
0.0001138032157128599
0.00011331103402612008
0.00011245223451961106
0.00011122589064552213
0.00010963112171880063
0.0001076671078921454
0.00010533310470037249
0.00010262845706951462
9.955261267846627e-05
9.610513456259628e-05
9.228571284136677e-05
8.809417544700104e-05
8.353049772799603e-05
7.859481079364183e-05
7.328740846229698e-05
6.760875266861865e-05
6.155947718092247e-05
5.514038947890265e-05
4.835247063655901e-05
4.119687305348396e-05
3.367491588227023e-05
2.578807800102112e-05
1.7537988385413206e-05
8.926413745335982e-06
1.3280890862360506e-05
2.6076690673032532e-05
3.8320406477859725e-05
5.0014689684241276e-05
6.116199213240803e-05
7.176454643326169e-05
8.182435032316748e-05
9.13431548914545e-05
0.00010032245651381277
0.00010876349230762306
0.0001166672389151524
0.00012403441440697605
0.00013086548309085289
0.00013716066300964447
0.0001429199359042621
0.000148143059421596
0.00015282958134865687
0.00015697885565493785
0.00016059006013249832
0.00016366221542657433
0.00016619420525768036
0.0001681847976452433
0.00016963266694347556
0.0001705364165093537
0.00017089460183525307
0.00017070575397706844
0.000169968403115478
0.0001686811020921164
0.0001668424497668075
0.00016445111404245205
0.00016150585440039
0.00015800554379347131
0.00015394918973762883
0.0001493359544370021
0.00014416517377818794
0.00013843637501573247
0.00013214929296462286
0.00012530388451309493
0.0001179003412530022
0.00010993910002138341
0.000101420851137346
9.234654410963938e-05
8.271739058818284e-05
7.253486432498568e-05
6.180069791039688e-05
5.051687605098221e-05
3.868562516001761e-05
2.6309399041218873e-05
1.3390860457540565e-05
1.7705555026337194e-05
3.476443374106353e-05
5.108735255401897e-05
6.667787137940029e-05
8.153927977322395e-05
9.567457085712938e-05
0.00010908642062606999
0.00012177717244082897
0.00013374882647887443
0.0001450030338956687
0.0001555410954331149
0.0001653639641938931
0.00017447225229536012
0.00018286624110672167
0.00019054589477007777
0.00019751087671252
0.00020376056885160199
0.00020929409320361025
0.00021411033561288817
0.00021820797132626746
0.0002215854921462368
0.00022424123490535908
0.00022617341101541233
0.00022738013685358327
0.0002278594647561749
0.00022760941439975424
0.00022662800435502284
0.00022491328360382812
0.0002224633628155337
0.00021927644517893974
0.00021535085658680453
0.0002106850749664102
0.00020527775854686792
0.00019912777284833427
0.00019223421617006742
0.0001845964433456193
0.00017621408752060974
0.00016708707970122805
0.00015721566580734203
0.00014660042095165915
0.0001352422606573367
0.00012314244871461377
0.00011030260136885017
9.672468752675023e-05
8.241102466446937e-05
6.736427012185575e-05
5.15874074728806e-05
3.508372767332957e-05
1.7856804702870432e-05
2.2128227032042203e-05
4.344829077984613e-05
6.384865189937305e-05
8.333379989347578e-05
0.00010190787943223367
0.00011957465798800859
0.00013633750024280578
0.00015219934901133936
0.00016716271239053393
0.00018122965682074166
0.00019440180572030674
0.0002066803433372344
0.0002180660234557541
0.00022855918258138375
0.00023815975722910054
0.0002468673049396408
0.0002546810286510881
0.00026159980406270655
0.0002676222096337777
0.00027274655887202237
0.00027697093457923483
0.0002802932247305545
0.0002827111596804266
0.0002842223504009589
0.0002848243274651552
0.0002845145805028537
0.0002832905978637501
0.00028114990622912783
0.0002780901099198041
0.0002741089296471877
0.00026920424045967506
0.00026337410862900534
0.0002566168272164493
0.00024893095005623644
0.0002403153238775546
0.0002307691182762417
0.00022029185323715894
0.00020888342388919456
0.00019654412216157935
0.00018327465499437534
0.0001690761587396783
0.00015395020937858384
0.00013789882816672705
0.00012092448231057484
0.0001030300802729589
8.421896130866857e-05
6.449487883439242e-05
4.3861977248899064e-05
2.232476184046983e-05
2.6548382367402867e-05
5.21272404693518e-05
7.660282318497358e-05
9.998057583909814e-05
0.00012226551981328604
0.0001434622140540076
0.00016357472476849488
0.00018260660299138087
0.00020056086966471764
0.00021744000784365558
0.00023324596161247713
0.0002479801412770821
0.0002616434343882257
0.0002742362221383188
0.0002857584006758229
0.00029620940688085406
0.0003055882481507455
0.00031389353575456136
0.0003211235213275987
0.00032727613608818373
0.00033234903237505664
0.00033633962712287246
0.00033924514690614194
0.0003410626741938705
0.00034178919447969136
0.0003414216439639739
0.0003399569574692729
0.0003373921162854454
0.0003337241956457293
0.0003289504115351338
0.00032306816653729364
0.0003160750944208035
0.00030796910315683546
0.00029874841605595504
0.0002884116106946222
0.00027695765528881755
0.0002643859421579131
0.00025069631789845226
0.0002358891098706295
0.00021996514858088623
0.00020292578552305596
0.00018477290602347818
0.00016550893662028998
0.00014513684649444802
0.0001236601424626782
0.00010108285704096831
7.740952909371379e-05
5.2645176594645626e-05
2.679526104934493e-05
3.096547890313328e-05
6.0800228372154264e-05
8.93483388255123e-05
0.00011661624271006032
0.00014260986381040008
0.00016733457283088504
0.00019079515261652413
0.000212995772625596
0.0002339399722245672
0.0002536306523396037
0.00027207007496807267
0.00028925987003092235
0.0003052010490353363
0.00031989402500476327
0.00033333863813492237
0.0003455341866379913
0.0003564794622396561
0.000366172789810576
0.0003746120706270284
0.000381794828772819
0.0003877182602136098
0.000392379284092248
0.00039577459581857655
0.000397900721543859
0.00039875407362519044
0.0003983310067069701
0.0003966278740576423
0.00039364108381104157
0.0003893671547698929
0.00038380277143207353
0.00037694483790179367
0.0003687905303438044
0.0003593373476299122
0.0003485831598179223
0.0003365262540849234
0.00032316537772122955
0.00030849977777067106
0.0002925292368759491
0.00027525410486842206
0.0002566753256134924
0.00023679445859986492
0.0002156136947382148
0.0001931358658117388
0.00016936444700862974
0.00014430355195502176
0.00011795791966015545
9.033289279139489e-05
6.143438670863643e-05
3.1268848712018293e-05
3.537895340910424e-05
6.94661604112301e-05
0.00010208361591595994
0.00013323877575086018
0.00016293849575646502
0.00019118898168865583
0.00021799575024855633
0.0002433636007786455
0.00026729659711535736
0.00028979805904782996
0.00031087056279796577
0.00033051594991437283
0.00034873534395676864
0.00036552917434101717
0.00038089720671219407
0.0003948385792196252
0.00040735184407653113
0.00041843501380395276
0.0004280856115766729
0.00043630072510972284
0.0004430770635488468
0.00044841101684992
0.0004522987171606818
0.00045473610173926704
0.0004557189769665293
0.00045524308302877237
0.0004533041588660469
0.00044989800699410387
0.0004450205578149513
0.00043866793304109253
0.00043083650785605276
0.00042152297142677986
0.0004107243853796738
0.000398438239836707
0.0003846625065876408
0.0003693956889546379
0.00035263686788075677
0.00033438574374092256
0.0003146426733514618
0.00029340870162167243
0.0002706855872522118
0.0002464758218684582
0.00022078264194527741
0.00019361003285436884
0.00016496272435717607
0.0001348461768558018
0.00010326655771197846
7.023070695760802e-05
3.5746091748556363e-05
3.978821809205724e-05
7.812389640693418e-05
0.00011480700727731219
0.00014984607099682856
0.00018324890891427414
0.00021502258795377815
0.00024517337779397796
0.00027370672016355235
0.0003006272096562346
0.00032593858542181997
0.00034964373305340635
0.00037174469596851223
0.000392242695564482
0.00041113815942142584
0.00042843075682633125
0.00044411944090150257
0.0004582024966321985
0.0004706775941091257
0.0004815418463246235
0.0004907918708867975
0.0004984238550459208
0.0005044336234552582
0.0005088167081206407
0.0005115684200194537
0.0005126839218969337
0.0005121583017728415
0.0005099866467121461
0.0005061641164295638
0.000500686016306845
0.0004935478694106654
0.00048474548710300547
0.000474275037823102
0.00046213311361562037
0.00044831679396223345
0.00043282370645014723
0.00041565208378957497
0.00039680081665610656
0.00037626950180286167
0.0003540584848532313
0.00033016889714557185
0.0003046026859612194
0.00027736263743691203
0.00024845239142626263
0.00021787644754683866
0.00018564016162955777
0.00015174973177239925
0.00011621217319882082
7.903528112740421e-05
4.0227580887175485e-05
4.419265716540388e-05
8.677224369738057e-05
0.00012751679265249338
0.00016643593453957717
0.00020353849327323092
0.00023883242566449803
0.00027232477515284903
0.0003040216391414774
0.0003339281492452384
0.0003620484637080479
0.00038838577120717255
0.00041294230523702957
0.0004357193682510696
0.00045671736473243407
0.0004759358423672422
0.0004933735405086292
0.0005090284451335636
0.0005228978495225578
0.0005349784199187024
0.0005452662654551466
0.0005537570116753987
0.0005604458770084031
0.0005653277515900446
0.0005683972778624258
0.0005696489324155674
0.0005690771085595792
0.0005666761991446889
0.0005624406791635284
0.0005563651876871745
0.0005484446086908012
0.0005386741503269343
0.0005270494222018585
0.0005135665101967946
0.000498222048353425
0.00048101328732144677
0.00046193815883802114
0.000440995335664357
0.0004181842863718588
0.00039350532432524954
0.0003669596501608696
0.00033854938701910475
0.0003082776077422966
0.00027614835320713405
0.00024216664092771567
0.0002063384630348053
0.00016867077271406905
0.00012917145818422404
8.784930329480689e-05
4.4713933844753306e-05
4.859162346432244e-05
9.540995086379511e-05
0.00014021117008367057
0.00018300607206489516
0.00022380452371897896
0.00026261540280658746
0.0002994465486889919
0.00033430472821652235
0.00036719561595668915
0.0003981237879063515
0.00042709272779536955
0.00045410484506525073
0.00047916150358520704
0.0005022630601694833
0.0005234089119662555
0.0005425975518010273
0.0005598266305827937
0.0005750930259124376
0.000588392916065883
0.0005997218585641895
0.0006090748725839645
0.0006164465245083461
0.0006218310159544216
0.0006252222736581048
0.0006266140406384069
0.0006259999680927331
0.0006233737075063972
0.0006187290024809444
0.0006120597798086325
0.0006033602393251958
0.000592624942074016
0.0005798488963126847
0.0005650276408781241
0.0005481573254028371
0.000529234786845606
0.0005082576217666501
0.00048522425373132005
0.00046013399517930154
0.00043298710304651156
0.00040378482737260524
0.0003725294520689759
0.0003392243269715878
0.0003038738902524374
0.00026648368021262026
0.00022706033544780957
0.00018561158234489672
0.00014214620885261153
9.667402346952292e-05
4.920579840728134e-05
5.298443511445039e-05
0.00010403570158451503
0.00015288824751202856
0.00019955407872254693
0.00024404414865658586
0.0002863682891233732
0.00032653515861616467
0.00036455220734521454
0.0004004256580724952
0.0004341605017706973
0.00046576050709240535
0.0004952282426109456
0.0005225651107775842
0.0005477713925411964
0.0005708463015871856
0.0005917880471708048
0.0006105939045538133
0.0006272602920884829
0.0006417828540343506
0.0006541565482412748
0.0006643757378846649
0.0006724342864864452
0.0006783256555052131
0.0006820430038332326
0.0006835792885775127
0.0006829273665457936
0.000680080095892488
0.0006750304374087968
0.0006677715549618102
0.000658296914596318
0.0006466003818202393
0.0006326763165842852
0.0006165196654532856
0.0005981260504401842
0.0005774918539396823
0.0005546142991576519
0.0005294915253797605
0.0005021226573696247
0.00047250786812405576
0.00044064843415048127
0.00040654678236287656
0.00037020652762900785
0.00033163249994050403
0.0002908307601156568
0.0002478086029005233
0.00020257454629002414
0.00015513830586866284
0.00010551075295942014
5.370385537845079e-05
5.73703722722696e-05
0.00011264810865260766
0.00016554603465634976
0.0002160774294042156
0.00026425437917859673
0.00031008770461751767
0.00035358690722453456
0.00039476013422554135
0.0004336141607234889
0.0004701543880438197
0.0005043848571241738
0.0005363082757753046
0.0005659260586287629
0.0005932383785923756
0.0006182442286485068
0.0006409414928582324
0.0006613270254721415
0.00067939673709147
0.0006951456868792283
0.0007085681798723875
0.0007196578685077226
0.0007284078575376385
0.0007348108115670104
0.0007388590644994697
0.0007405447302412382
0.0007398598140543333
0.0007367963239907349
0.0007313463818780785
0.0007235023333470592
0.0007132568564059694
0.0007006030680745678
0.0006855346285801756
0.0006680458426001623
0.0006481317570077305
0.0006257882545406823
0.0006010121427612036
0.0005738012376136636
0.0005441544408290588
0.0005120718103496236
0.00047755462286935835
0.00044060542750914977
0.00040122808956682965
0.00035942782320708133
0.0003152112118819661
0.0002685862152128071
0.00021956216101032267
0.00016814972107501158
0.00011436086939534129
5.8208821365896e-05
6.174867394645456e-05
0.00012124570818558555
0.0001781824352158623
0.00023257346949637214
0.0002844320788712995
0.000333770108860848
0.000380597928088533
0.00042492439373598145
0.00046675683583219385
0.0005061010591231319
0.0005429613612311368
0.0005773405657869268
0.0006092400692079836
0.0006386598998085191
0.0006655987879473912
0.0006900542459553349
0.000712022656628869
0.000731499369131583
0.0007484788012086518
0.0007629545466856236
0.0007749194872894993
0.0007843659079090348
0.0007912856144774161
0.0007956700537235795
0.0007975104341110817
0.0007967978473348569
0.000793523389793771
0.0007876782834990159
0.000779253995906587
0.0007682423581780728
0.0007546356813841193
0.0007384268701521313
0.0007196095332399899
0.0006981780904923851
0.0006741278755825475
0.0006474552338883166
0.0006181576147867851
0.0005862336575750415
0.0005516832701368268
0.0005145076993896547
0.0004747095924526601
0.00043229304737976704
0.0003872636522138373
0.00033962851102703473
0.00028939625553611736
0.0002365770408122858
0.00018118252355231457
0.00012322582134802196
6.272145137553586e-05
6.611853493043718e-05
0.00012982695407995348
0.0001907952394762935
0.0002490394062120149
0.0003045739543889314
0.00035741179126333456
0.0004075641764192117
0.00045504068870197423
0.0004998492135634969
0.0005419959494021298
0.0005814854314461215
0.0006183205717082974
0.000652502713532177
0.0006840316992678397
0.0007129059496442658
0.0007391225534491841
0.0007626773661852104
0.0007835651164336266
0.0008017795187338916
0.0008173133918664699
0.000830158781506718
0.0008403070863065298
0.0008477491865364062
0.0008524755745051849
0.0008544764860497489
0.0008537420324470912
0.0008502623321635094
0.000844027641900863
0.0008350284864357405
0.0008232557867645651
0.0008087009860797134
0.0007913561730902574
0.0007712142021796264
0.000748268809860092
0.0007225147269254717
0.0006939477856421905
0.0006625650212426781
0.000628364766895595
0.0005913467412274054
0.0005515121273692025
0.0005088636423918325
0.00046340559587759733
0.0004151439362713172
0.0003640862835452008
0.00031024194661083415
0.00025362192383299176
0.0001942388849246468
0.00013210713245348504
6.724254116549644e-05
7.04791028611762e-05
0.0001383902127502501
0.00020338211739157064
0.0002654723006092208
0.000324676546933661
0.0003810088624725816
0.0004344814207723202
0.0004851045322316616
0.0005328866355408524
0.0005778343095530769
0.000619952303964888
0.0006592435871569935
0.0006957094095484395
0.0007293493808480378
0.000760161559616751
0.0007881425536129527
0.0008132876294616731
0.0008355908302642434
0.0008550450998578429
0.0008716424125242428
0.0008853739070432409
0.0008962300240903387
0.0009042006460708851
0.0009092752385732594
0.0009114429927151724
0.0009106929677338005
0.0009070142332344711
0.0009003960105695152
0.0008908278128600955
0.0008782995831966012
0.0008628018305664731
0.0008443257630482426
0.0008228634177843419
0.0007984077872074391
0.0007709529409364313
0.0007404941426807365
0.0007070279614043717
0.000670552375902439
0.0006310668718256807
0.0005885725300679989
0.0005430721053043264
0.0004945700933337849
0.000443072785753007
0.0003885883103544596
0.0003311266555242609
0.0002706996768133685
0.00020732108375673408
0.00014100640494449368
7.177292931476176e-05
7.48294754389367e-05
0.00014693375822039112
0.00021594061222568461
0.0002818690603978713
0.00034473622477229626
0.0004045572470672554
0.000461345236307642
0.0005151112418495807
0.0005658642500836197
0.0006136112030309948
0.0006583570370148617
0.0007001047395706339
0.0007388554227675259
0.0007746084111500406
0.000807361342552021
0.0008371102801066899
0.000863849833856789
0.0008875732904606304
0.0009082727495981768
0.0009259392657870458
0.0009405629944347071
0.0009521333410671962
0.0009606391127882641
0.0009660686711295552
0.0009684100855531785
0.0009676512869606912
0.0009637802206372559
0.0009567849981265697
0.0009466540475777663
0.0009333762621374919
0.0009169411459740429
0.0008973389575094026
0.0008745608494084567
0.0008485990048315017
0.0008194467693876384
0.0007870987781416761
0.0007515510769286193
0.0007128012371105108
0.0006708484627801214
0.0006256936892762022
0.0005773396717244639
0.0005257910621625506
0.0004710544736562794
0.00041313852965632614
0.0003520538967039799
0.000287813298459505
0.0002204315089071318
0.00014992532250354684
7.631349896594641e-05
7.9168697837112e-05
0.0001554557676245738
0.00022846813486587791
0.0002982264337010876
0.0003647491769941391
0.0004280526777771798
0.00048815099985222155
0.0005450559357028928
0.0005987770097773681
0.0006493215051431578
0.0006966945114822432
0.0007408989923866349
0.0007819358699281409
0.0008198041245198739
0.000854500908150535
0.0008860216691515266
0.0009143602867547895
0.0009395092138130001
0.0009614596261733055
0.0009802015773231199
0.0009957241570654474
0.0010080156531080686
0.0010170637145852923
0.0010228555166582887
0.0010253779254520978
0.0010246176626968473
0.001020561469527309
0.001013196268975558
0.0010025093267412855
0.000988488409865096
0.000971121942945713
0.0009503991615300023
0.0009263102622809605
0.0008988465494738362
0.0008680005772966903
0.0008337662873359186
0.0007961391405152118
0.0007551162426173985
0.0007106964623708467
0.000662880540922034
0.0006116711913403683
0.000557073186618906
0.0004990934344535347
0.00043774103690585875
0.0003730273328761968
0.000304965921148842
0.00023357266163137602
0.00015886565228606653
8.086517915492641e-05
8.34957603301767e-05
0.00016395431718366216
0.0002409619588980283
0.00031454100389224915
0.0003847114086769077
0.00045149069144784226
0.0005148938870400133
0.0005749335311593939
0.0006316196717203737
0.0006849599050497146
0.0007349594346909849
0.0007816211505450588
0.0008249457261025606
0.000864931731581503
0.0009015757608614727
0.0009348725701995853
0.0009648152268301735
0.0009913952656856462
0.0010146028526129003
0.0010344269526128547
0.0010508555017864074
0.0010638755818221934
0.0010734735960171438
0.001079635445960958
0.0010823467081568505
0.0010815928099697225
0.001077359204394751
0.0010696315432364156
0.0010583958483421363
0.0010436386805858788
0.0010253473063153717
0.0010035098609635362
0.0009781155095028582
0.0009491546033567888
0.0009166188333005199
0.0008805013777758719
0.0008407970459150815
0.0007975024144154241
0.0007506159572352455
0.0007001381668935713
0.0006460716659569266
0.0005884213070899424
0.00052719425982653
0.0004624000820111773
0.0003940507736493182
0.0003221608107082663
0.0002467471562327128
0.00016782924598102156
8.542894566679338e-05
8.780959619250628e-05
0.00017242737876227432
0.00025341921659713385
0.0003308091856960016
0.00040461873768282697
0.0004748666270122104
0.0005415688718277689
0.0006047387461305953
0.0006643868008192055
0.0007205209111028066
0.0007731463477670675
0.0008222658697766005
0.0008678798357331374
0.0009099863317810486
0.0009485813136415056
0.0009836587605748237
0.0010152108392070536
0.0010432280753107093
0.001067699531796057
0.0010886129913452447
0.0011059551422986647
0.0011197117665844303
0.0011298679286581848
0.0011364081645835744
0.0011393166705471747
0.001138577490236714
0.0011341747006343439
0.0011260925958824497
0.0011143158689480848
0.0010988297908718636
0.0010796203874061105
0.0010566746128402305
0.0010299805207819035
0.0009995274315943992
0.0009653060961002657
0.000927308855038167
0.0008855297936123385
0.0008399648903017753
0.0007906121589032478
0.0007374717825635313
0.0006805462383287497
0.0006198404104992283
0.0005553616908274828
0.00048712006334644675
0.00041512817136957203
0.00033940136397164755
0.0002599577190350588
0.00017681803975660992
9.000582134727209e-05
9.210907990483963e-05
0.00018087281707765412
0.0002658368959646551
0.0003470272227633908
0.00042446679335442217
0.000498175625776115
0.0005681707287341631
0.0006344661035143084
0.0006970727765691631
0.0007559988599935841
0.0008112496370827615
0.0008628276701869164
0.0009107329281202448
0.0009549629304711205
0.000995512906270174
0.001032375964610116
0.0010655432749777372
0.001095004255232207
0.0011207467653596426
0.0011427573053380824
0.0011610212156522581
0.0011755228792066363
0.0011862459235860712
0.0011931734228081137
0.0011962880978906854
0.0011955725157218322
0.0011910092858576082
0.0011825812549930148
0.0011702716989384077
0.001154064511995817
0.001133944393658326
0.0011098970325511548
0.0010819092874974623
0.001049969365517961
0.0010140669964745774
0.0009741936039300569
0.0009303424716288755
0.0008825089048094259
0.0008306903853365355
0.0007748867193998199
0.0007151001762613629
0.000651335616254467
0.0005836006059504184
0.0005119055181225518
0.0004362636138431075
0.0003566911037673204
0.00027320718539911026
0.00018583405289587795
9.459687575472109e-05
9.639302572345132e-05
0.0001892883876770668
0.00027821183896667434
0.000363191186902756
0.00044425101734807404
0.0005214126343322245
0.0005946940381762744
0.0006641099391726524
0.0007296718037762551
0.0007913879302025861
0.0008492635503113133
0.0009033009546935145
0.000953499637931815
0.000999856461111892
0.0010423658287992132
0.0010810198778524183
0.0011158086756403174
0.0011467204254342056
0.0011737416769719011
0.0011968575404252002
0.0012160519022435534
0.001231307641583107
0.0012426068462623452
0.0012499310274136644
0.0012532613322014108
0.0012525787541650402
0.001247864340910343
0.0012390993990058496
0.0012262656960445872
0.0012093456599009955
0.0011883225752534754
0.0011631807774343805
0.0011339058436340144
0.0011004847814061192
0.0010629062143087398
0.001021160564362772
0.0009752402308192409
0.000925139764514249
0.00087085603683279
0.0008123884020306282
0.0007497388513617032
0.0006829121571398367
0.0006119160045371108
0.0005367611085773383
0.0004574613134520067
0.0003740336709516512
0.00028649849449219333
0.00019487938492565582
9.920322406331561e-05
0.00010066018666776699
0.00019767173579723907
0.0002905407411622485
0.0003792969792334455
0.000463966666929716
0.0005445724104747862
0.0006211331953362709
0.0006936644139411141
0.0007621779277642016
0.0008266821603355179
0.0008871822177063671
0.0009436800329559458
0.0009961745313950832
0.0010446618132527175
0.0010891353507896107
0.0011295861969721488
0.001166003203063648
0.0011983732427292282
0.001226681440512578
0.0012509114028126933
0.0012710454497626145
0.0012870648466902501
0.0012989500341070437
0.001306680855424458
0.0013102367818392524
0.0013095971340393309
0.001304741300570067
0.0012956489528567205
0.0012823002569971043
0.0012646760825243686
0.0012427582083805455
0.0012165295263411036
0.0011859742420896047
0.0011510780740584814
0.0011118284500251374
0.001068214701279574
0.0010202282539727436
0.0009678628170122772
0.000911114565581933
0.0008499823190569467
0.0007844677117412879
0.0007145753544904876
0.0006403129849126832
0.0005616916034404673
0.0004787255921825384
0.0003914328130739386
0.000299834681473099
0.00020395621099983385
0.00010382602509348415
0.00010490925399095352
0.0002060203962356011
0.000302820152911637
0.0003953403335190675
0.00048360882105930036
0.0005676495325008246
0.0006474824229976417
0.0007231235301659589
0.0007945850546244304
0.0008618754729574907
0.0009249996792607962
0.000983959151481667
0.0010387521388715293
0.0010893738670109676
0.0011358167570572064
0.0011780706560869936
0.0012161230756659036
0.0012499594360529387
0.0012795633137518692
0.001304916690431368
0.0013260002015484107
0.0013427933833327355
0.001355274917091115
0.0013634228700831197
0.0013672149324967797
0.001366628650290358
0.0013616416538866083
0.0013522318828813606
0.0013383778070664432
0.001320058644167732
0.001297254574743223
0.0012699469546947617
0.0012381185258022176
0.0012017536245948757
0.0011608383897361574
0.0011153609679104837
0.0010653117179649507
0.001010683412784985
0.0009514714380682576
0.0008876739868056704
0.0008192922478940934
0.0007463305868952719
0.0006687967165257269
0.0005867018540101077
0.0005000608619852853
0.00040889236918886795
0.0003132188667250013
0.00021306677528784568
0.00010846647833412382
0.00010913885720406635
0.00021433179438001826
0.00031504648239305544
0.0004113168219798402
0.0005031723896409546
0.0005906384123680886
0.0006737357888979834
0.0007524811533695386
0.000826886977158825
0.0008969617046214184
0.0009627099184823518
0.0010241325306815652
0.0010812269946108288
0.001133987534848585
0.0011824053907203147
0.0012264690702729064
0.001266164611549242
0.0013014758483705924
0.0013323846781833903
0.0013588713298815225
0.001380914629879243
0.0013984922650743803
0.0014115810416873709
0.0014201571393011037
0.0014241963597336482
0.00142367437065552
0.001418566944113353
0.0014088501903205541
0.00139450078723527
0.001375496206561716
0.0013518149368680066
0.0013234367045208695
0.0012903426930948314
0.0012525157618089588
0.0012099406633929721
0.0011626042615769105
0.0011104957481326283
0.0010536068590991932
0.000991932089463493
0.0009254689051690079
0.0008542179508999048
0.0007781832516182419
0.0006973724053427888
0.000611796764148298
0.0005214715998468344
0.00042641625029013475
0.0003266542417157958
0.00022221338207553676
0.00011312581981431924
0.00011334756473074803
0.00022260324855188918
0.0003272160006605185
0.00042722186390842243
0.0005226521263487771
0.0006135333131905563
0.0006998872281647195
0.0007817310397065236
0.0008590774072485818
0.00093193464287325
0.0010003069036075007
0.0010641944097232459
0.0011235936845498673
0.0011784978115187417
0.0012288967044155052
0.001274777387114151
0.0013161242794146044
0.0013529194859761284
0.001385143085737589
0.001412773419625396
0.00143578737476599
0.0014541606638338589
0.001467868098566999
0.001476883856863176
0.001481181743221066
0.0014807354426166486
0.0014755187681799176
0.0014655059032704643
0.0014506716387332752
0.0014309916062452133
0.00140644250873595
0.001377002348875389
0.0013426506565749619
0.0013033687163375718
0.0012591397951252914
0.0012099493711845155
0.0011557853639752314
0.0010966383650168332
0.001032501869064395
0.0009633725045855857
0.0008892502620283516
0.0008101387178401365
0.0007260452516463234
0.00063698125342182
0.0005429623168904663
0.0004440084147875889
0.0003401440510296394
0.00023139838425578763
0.00011780531665109284
0.00011753388527652175
0.0002308319738365816
0.0003393248490140832
0.0004430507374545145
0.0005420426454854077
0.0006363283716152857
0.0007259305714477915
0.0008108668698870725
0.0008911500154003271
0.0009667880710616805
0.0010377846371419364
0.001104139100113588
0.001165846903113693
0.0012228998331520191
0.0012752863206483278
0.0013229917472347419
0.0013659987581547128
0.001404287576019042
0.0014378363131369587
0.001466621280109548
0.001490617288848195
0.0015097979486524138
0.001524135954443201
0.001533603366677988
0.0015381718828747781
0.0015378131010441998
0.001532498775637492
0.0015222010668873576
0.0015068927846307312
0.0014865476278439205
0.0014611404212081514
0.001430647350039782
0.0013950461948690762
0.0013543165668352952
0.0013084401448781313
0.001257400915453455
0.0012011854151852963
0.0011397829764851763
0.001073185975733526
0.0010013900831230549
0.0009243945127236919
0.0008422022707405274
0.0007548203993112679
0.0006622602125343768
0.0005645375207471992
0.0004616728383852464
0.0003536915700647625
0.0002406241688589772
0.000122506260090971
0.0001216962700124058
0.00023901508759857637
0.0003513690489779231
0.00045879859496847364
0.0005613384433659219
0.0006590176256895119
0.000751859579470715
0.0008398822903772085
0.000923098478349621
0.0010015158218937004
0.0010751372147181915
0.0011439610490385221
0.0012079815200733424
0.0012671889465434572
0.0013215701023269744
0.0013711085548319402
0.001415785006105702
0.0014555776331902914
0.0014904624247578935
0.0015204135115980122
0.0015454034890727275
0.0015654037301938428
0.0015803846884974437
0.0015903161903849106
0.0015951677170561451
0.0015949086765788822
0.0015895086669895087
0.00157893773162604
0.0015631666081375173
0.0015421669727737897
0.0015159116816602092
0.0014843750107880471
0.001447532896393433
0.0014053631772769637
0.001357845840408406
0.0013049632708825032
0.0012467005069486392
0.0011830455004130935
0.0011139893822297575
0.001039526732546675
0.000959655853871727
0.0008743790453648315
0.0007837028755667275
0.0006876384501331156
0.0005862016703802042
0.00047941347766594644
0.0003673000778431912
0.0002498931392379833
0.00012722995685182648
0.0001258331156681336
0.00024714961688840353
0.00036334451520436684
0.0004744604823425369
0.0005805339247796637
0.0006815950488644751
0.0007776679847427692
0.0008687709627326901
0.0009549165356771139
0.0010361118407625491
0.0011123588943596219
0.0011836549135976204
0.0012499926586207466
0.001311360789806787
0.0013677442346327617
0.001419124559334184
0.001465480341032832
0.0015067875365744887
0.001543019844917587
0.001574149060527219
0.0016001454158488804
0.0016209779115550216
0.0016366146338439302
0.0016470230586335677
0.0016521703430127932
0.0016520236047794234
0.0016465501913004998
0.0016357179392731958
0.0016194954272338025
0.0015978522228543568
0.0015707591271753585
0.0015381884179594685
0.001500114094292987
0.0014565121244203838
0.0014073606985826326
0.0013526404883238419
0.0012923349133460438
0.001226430416529728
0.0011549167472058863
0.0010777872521572918
0.0009950391731551878
0.0009066739491097875
0.0008126975201317443
0.0007131206299733628
0.0006079591224562308
0.0004972342266063301
0.0003809728243187316
0.00025920769347162476
0.00013197771853054596
0.00012994276864755627
0.0002552325079664963
0.0003752470716593126
0.0004900313628344866
0.00059962343514533
0.0007040545908863494
0.0008033495413005964
0.0008975266220269396
0.000986598056488347
0.0010705702599879963
0.0011494441773570174
0.0012232156471841393
0.0012918757859389507
0.0013554113856785455
0.0014138053194979183
0.001467036949419992
0.0015150825320227879
0.0015579156177559506
0.0015955074405815672
0.0016278272952788275
0.001654842900457254
0.0016765207460227582
0.0016928264245155977
0.00170372494637136
0.0017091810397441842
0.0017091594360617857
0.0017036251429390359
0.0016925437064641002
0.0016758814651722798
0.001653605798244584
0.0016256853705907404
0.0015920903775158701
0.00155279279161602
0.0015077666143939739
0.00145698813485029
0.0014004361969693901
0.001338092477602304
0.001269941775737582
0.0011959723135665234
0.001116176049079931
0.001030548999191916
0.0009390915715793424
0.0008418089025516717
0.0007387111973473082
0.000629814068284329
0.0005151388651909727
0.0003947129915196357
0.0002685701985202793
0.00013675084882980304
0.00013402353030242398
0.00026326063821047185
0.00038707247147967694
0.0005055061458921206
0.0006186012990085643
0.0007263902263567601
0.0008288980834007809
0.0009261431454248015
0.0010181371173174913
0.0011048854852173384
0.0011863879020701795
0.001262638599364957
0.001333626817649619
0.0013993372488635136
0.0014597504840604958
0.0015148434607220596
0.001564589904548802
0.0016089607613669343
0.0016479246155692573
0.0016814480923147412
0.0017094962415157289
0.0017320329024340664
0.001749021048472743
0.0017604231124680458
0.0017662012934482885
0.001766317846424309
0.001760735357292681
0.0017494170053639901
0.0017323268163716432
0.0017094299090626153
0.0016806927386136539
0.0016460833401618913
0.0016055715756815025
0.001559129387273983
0.00150673105968116
0.0014483534944639553
0.0013839764978339497
0.0013135830835649398
0.0012371597917706367
0.0011546970236002985
0.001066189391084743
0.0009716360804768454
0.0008710412264649192
0.0007644142936103215
0.0006517704602808649
0.000533130999229775
0.00040852364780680217
0.0002779829596267491
0.00014155062834617094
0.00013807366347859396
0.00027123083066485365
0.00039881642092021163
0.000520879721562173
0.0006374618656286024
0.0007485960118555346
0.0008543075941848943
0.0009546146320508209
0.001049528092522456
0.0011390522953549642
0.0012231853521138814
0.001301919630788212
0.0013752422376931417
0.0014431355089701003
0.0015055775046148023
0.0015625424986787373
0.001614001460082587
0.0016599225193429101
0.0017002714174032263
0.0017350119336799197
0.0017641062913513195
0.0017875155388192288
0.0018051999071365121
0.0018171191440039536
0.0018232328256923835
0.0018235006489107364
0.0018178827052251767
0.001806339741116686
0.0017888334071457512
0.0017653264999715756
0.0017357832011284102
0.0017001693165175358
0.0016584525205151635
0.0016106026084127256
0.0015565917606293334
0.0014963948217366352
0.0014299895968361565
0.001357357167223544
0.0012784822265680673
0.0011933534380360045
0.0011019638118852926
0.0010043111020811568
0.0009003982194220328
0.000790233657523981
0.0006738319268091153
0.0005512139903940949
0.00042240769446560966
0.000287448184409983
0.00014637829662486612
0.00014209140048754287
0.0002791398715415727
0.00041047460786050594
0.0005361470011143732
0.0006561995624513595
0.0007706661526014347
0.0008795722854668953
0.000982935495452475
0.0010807657585978347
0.0011730659575479585
0.0012598323805247114
0.0013410552447623292
0.001416719235311753
0.001486804050706031
0.0015512849476993495
0.0016101332781145727
0.0016633170117478502
0.0017108012402645423
0.001752548658041836
0.0017885200169598658
0.0018186745531902637
0.0018429703850508794
0.0018613648819729434
0.001873815005543289
0.0018802776244278563
0.0018807098057305183
0.0018750690859921093
0.0018633137255740784
0.0018454029505971803
0.001821297186910431
0.0017909582907429944
0.0017543497807543107
0.0017114370761310838
0.0016621877451848122
0.0016065717686001013
0.001544561821050644
0.0014761335743541382
0.0014012660246805475
0.0013199418455544232
0.001232147767523506
0.0011378749843839742
0.0010371195847773407
0.0009298830068072417
0.0008161725120733321
0.0006960016741863195
0.0005693908754314247
0.0004363678037926644
0.0002969679410517456
0.00015123503115879733
0.0001460749526690508
0.00028698453099990084
0.0004220427353770484
0.0005513029645773659
0.0006748089573534732
0.0007925950797130765
0.0009046866898770878
0.0010111005700534637
0.0011118454139479872
0.0012069223588991318
0.0012963255516761085
0.0013800427373277524
0.0014580558609812444
0.0015303416731714536
0.0015968723301115206
0.0016576159812639046
0.0017125373376253583
0.001761598215261423
0.0018047580498027904
0.0018419743788084253
0.001873203290083919
0.00189839983520812
0.001917518408622143
0.0019305130936674575
0.0019373379779048239
0.0019379474408854624
0.0019322964182681424
0.001920340646776042
0.001902036894959075
0.001877343185061775
0.0018462190114949262
0.0018086255614755131
0.0017645259433267113
0.001713885427717804
0.0016566717067925396
0.0015928551756656806
0.0015224092401717182
0.0014453106540398275
0.001361539887830554
0.00127108153101968
0.0011739247275519837
0.0010700636440160727
0.0009594979683133498
0.000842233435318307
0.0007182823745651157
0.0005876642734455872
0.0004504063477787923
0.0003065441099377175
0.0001561219230014621
0.00015002252170423502
0.00029476158755811777
0.0004335165609378189
0.0005663427159557088
0.0006932848306462069
0.0008143775392685793
0.0009296457667517799
0.001039105233164861
0.0011427630158414304
0.0012406181567500008
0.0013326623028827866
0.0014188803678313877
0.0014992512033206173
0.001573748270255415
0.001642340299797762
0.0017049919360866417
0.0017616643534219822
0.0018123158420281782
0.0018569023578532962
0.0018953780332243708
0.0019276956465252015
0.0019538070503772875
0.001973663559053318
0.0019872162970108465
0.0019944165114917922
0.0019952158530691377
0.001989566628824352
0.0019774220335042614
0.0019587363645221234
0.0019334652270339703
0.001901565735538735
0.001862996718515475
0.0018177189325331577
0.0017656952920402647
0.0017068911206718773
0.001641274429405648
0.0015688162262575966
0.0014894908614336566
0.0014032764109504214
0.0013101551007093093
0.0012101137718543709
0.0011031443869758684
0.0009892445753326429
0.000868418213758354
0.0007406760383156241
0.0006060362800550667
0.00046452531643204065
0.00031617832807115387
0.0001610399486285663
0.00015393231287263998
0.0003024678565360095
0.0004448919418388042
0.00058126154697144
0.0007116222579053866
0.0008360086944607936
0.000954445023296141
0.0010669455442857967
0.0011735153364531015
0.0012741509495809988
0.001368841127835918
0.001457567552198502
0.0015403055891930473
0.001617025034324815
0.0016876908397388257
0.0017522638168849247
0.0018107013063668187
0.001862957808636101
0.0019089855707289105
0.0019487351257979624
0.001982155783727041
0.0020091960725977798
0.002029804132186175
0.002043928061971373
0.002051516227314837
0.0020525175285097674
0.0020468816382922528
0.0020345592141281788
0.0020155020921583944
0.0019896634700811155
0.0019569980864821146
0.0019174624041894683
0.0018710148051352682
0.0018176158039604207
0.0017572282871940181
0.001689817784287645
0.001615352776093315
0.0015338050455369623
0.0014451500742647394
0.0013493674879362372
0.0012464415515913985
0.0011363617151447514
0.0010191232075606738
0.0008947276766236023
0.0007631838694710236
0.0006245083471824731
0.0004787262247307189
0.0003258719255315179
0.00016598993765595815
0.00015780255045408365
0.00031010022294988837
0.00045616488754623985
0.000596055010257196
0.0007298167048274407
0.0008574842423100248
0.0009790806527181506
0.0010946184036076667
0.0012041001400987517
0.0013075194707862503
0.00140486178424018
0.0014961050813324939
0.0015812208094341251
0.0016601746855981203
0.001732927497125697
0.0017994358693782242
0.0018596529923085858
0.0019135292988908814
0.0019610130903871814
0.0020020511051636325
0.0020365890295115374
0.0020645719506096893
0.0020859447533453923
0.002100652464174374
0.0021086405465094438
0.0021098551532814647
0.0021042433432969243
0.0020917532688052853
0.002072334342304749
0.002045937391040059
0.0020125148078863897
0.001972020707379646
0.0019244110955414506
0.0018696440618668209
0.001807680001407519
0.0017384818742844643
0.0016620155092097189
0.0015782499567054686
0.0014871578966607069
0.0013887161036779672
0.0012829059723271918
0.001169714102950109
0.0010491329470374289
0.000921161509435664
0.0007858061027392615
0.0006430811471801745
0.0004930100071538768
0.00033562585322011174
0.00017097253601261464
0.00016163149549813793
0.00031765567933142447
0.0004673316196917021
0.0006107190030386622
0.0007478641354418392
0.0008788005465499571
0.0010035496912245423
0.0011221217318602983
0.001234516384004819
0.0013407238078262662
0.0014407255282621878
0.001534495367310179
0.001622000372872412
0.001703201729804149
0.0017780556403124703
0.0018465141625501336
0.0019085259981080072
0.001964037221074605
0.002012991943347392
0.0020553329129055498
0.0020910020437356625
0.0021199408779994378
0.002142090982812511
0.002157394285635411
0.0021657933537362617
0.002167231624455035
0.0021616535940666703
0.0021490049739063544
0.0021292328230752
0.0021022856674902946
0.0020681136152931046
0.002026668478684296
0.0019779039121207154
0.00192177557649309
0.0018582413384241325
0.001787261513178845
0.0017087991588678464
0.0016228204286645453
0.0015292949866377026
0.0014281964915343615
0.0013195031514197375
0.001203198350509388
0.0010792713477900118
0.0009477180451305522
0.0008085418205303618
0.0006617544199342962
0.0005073768986771643
0.00034544060108923635
0.00017598816413549878
0.00016541746620601927
0.0003251313689943691
0.00047838864054963737
0.0006252498624531311
0.0007657611351496729
0.000899954788479429
0.0010278501959778141
0.001149454673872452
0.0012647644452195295
0.0013737656495458328
0.001476435378696267
0.001572742720324316
0.001662649791577292
0.0017461127469778626
0.001823082746242627
0.001893506869754702
0.001957328971559036
0.0020144904620094106
0.0020649310145163524
0.002108589193151239
0.0021454030001159252
0.0021753103442319066
0.002198249433599697
0.002214159097398166
0.0022229790434080132
0.0022246500592399965
0.002219114166408409
0.0022063147373201086
0.0021861965859450994
0.002158706043397185
0.002123791029902178
0.0020814011346635963
0.0020314877149724964
0.0019740040255549485
0.001908905388616211
0.0018361494143386836
0.0017556962807193932
0.0016675090806068937
0.0015715542426032736
0.001467802031153903
0.0013562271296325146
0.0012368093085562137
0.0011095341792180524
0.0009743940309978327
0.0008313887484106275
0.0006805268015612209
0.0005218263011025348
0.00035531610603342645
0.00018103696974086647
0.00016915886118534784
0.00033252463531599497
0.0004893328109033535
0.0006396444737802598
0.0007835050502487673
0.0009209451378106581
0.0010519814463822164
0.0011766178285170792
0.0012948463765840301
0.001406648564755364
0.0015119964140597464
0.0016108536596244338
0.001703176900539699
0.0017889167144799767
0.0018680187212515853
0.0019404245817335464
0.0020060729211735795
0.002064900168414485
0.002116841305285805
0.0021618305230321766
0.0021998017852115637
0.002230689298914429
0.0022544278983934185
0.002270953347216692
0.0022802025668381964
0.0022821138010021558
0.0022766267266524642
0.0022636825230088753
0.0022432239111964125
0.0022151951772844125
0.002179542191829198
0.002136212439017793
0.00208515506829976
0.002026320980996227
0.0019596629637833596
0.001885135880179023
0.001802696930229969
0.0017123059875047142
0.0016139260212284512
0.0015075236099793832
0.0013930695517703207
0.0012705395735682357
0.0011399151413578057
0.0010011843697000922
0.0008543430273965369
0.0006993956333044005
0.0005363566335762071
0.0003652516486013224
0.00018611877471363947
0.00017285418588378065
0.0003398330776710201
0.000500161438320379
0.0006539003930171594
0.0008010941457925191
0.000941770945771081
0.0010759441713456552
0.0012036135080253085
0.0013247661950219758
0.0014393783155378648
0.001547416106192162
0.00164883726205739
0.0017435922153258843
0.0018316253676249339
0.0019128762583879577
0.001987280654367679
0.002054771548279377
0.0021152800575828246
0.0021687362174630798
0.0022150696650940493
0.002254210215171748
0.002286088329428282
0.0023106354853474897
0.002327784451541942
0.002337469479208626
0.002339626420734847
0.002334192787864342
0.002321107762879887
0.0023003121770031054
0.002271748470674795
0.002235360650585466
0.002191094258288895
0.0021388963649654757
0.0020787156064410173
0.00201050227190791
0.001934208458961556
0.001849788306566208
0.0017571983164001992
0.0016563977716997913
0.001547349261227987
0.0014300193143265694
0.0013043791511533065
0.0011704055501629562
0.0010280818326254548
0.000877398961496495
0.000718356749226795
0.0005509651661264325
0.00037524573767258596
0.00019123301564932804
0.00017650208251190902
0.0003470546147248954
0.0005108723769873535
0.000668015985414161
0.0008185277838753113
0.0009624329630147643
0.001099740805499877
0.0012304460300269215
0.0013545302058088071
0.0014719632091578227
0.0015827046943517054
0.0016867055522025998
0.0017839093315923649
0.0018742536015964317
0.001957671234624342
0.002034091594147913
0.0021034416139597
0.002165646759402784
0.0022206318645298095
0.0022683218426030882
0.0023086422706412313
0.0023415198517897917
0.0023668827620949018
0.0023846608907300004
0.002394785984864589
0.002397191712150054
0.002391813655215236
0.002378589253645147
0.0023574577096678595
0.0023283598742114553
0.0022912381301483375
0.002246036289447001
0.00219269952061546
0.0021311743222776347
0.002061408557990224
0.0019833515665060586
0.0018969543606106865
0.0018021699264286206
0.0016989536337081723
0.0015872637660304945
0.0014670621781578408
0.0013383150858084503
0.001200993991020527
0.0010550767439016229
0.0009005487389590339
0.0007374042413323401
0.0005656478350850869
0.0003852959822549379
0.0001963786775816545
0.00018010136382839992
0.00035418755588373374
0.0005214641403853415
0.0006819905817855576
0.0008358066247120544
0.0009829335852497983
0.00112337577777738
0.0012571220461353172
0.0013841473669628096
0.001504414492923975
0.0016178756042517367
0.00172447393851681
0.00182414537072359
0.001916819918640053
0.0020024231515768515
0.002080877484518698
0.002152103343445108
0.0022160201917352934
0.002272547411606471
0.0023216050384827908
0.002363114349930015
0.002396998314248805
0.0024231819069352734
0.002441592305939766
0.0024521589789806703
0.0024548136780726537
0.0024494903579135585
0.0024361250358788944
0.0024146556121000806
0.0023850216684864756
0.002347164265639634
0.0023010257564212433
0.0022465496345068225
0.002183680435623808
0.0021123637083462904
0.0020325460703364967
0.0019441753647678889
0.0018472009303706072
0.0017415739970931265
0.0016272482177577957
0.0015041803443094082
0.001372331055268572
0.0012316659388163093
0.0010821566334904692
0.0009237821257694762
0.0007565302008134683
0.0005803990392956593
0.00039539894957897614
0.0002015542204345938
0.00018365105119727554
0.00036123068179960693
0.0005319360282765445
0.0006958246546825697
0.0008529328532210501
0.0010032771298874449
0.0011468558361979464
0.0012836509113967332
0.0014136296984358504
0.0015367467969141096
0.0016529459170321475
0.0017621617004186796
0.0018643214763090499
0.001959346924898936
0.002047155623615904
0.0021276624563871666
0.0022007808705874626
0.002266423971060999
0.002324505445291253
0.0023749403183078444
0.0024176455401595937
0.002452540412667084
0.0024795468656240854
0.002498589595605505
0.002509596083043214
0.0025124965052429338
0.0025072235645476892
0.0024937122519494564
0.0024718995671231675
0.0024417242161586805
0.0024031263082539833
0.0023560470723255206
0.0023004286139439445
0.0022362137322596842
0.002163345815650211
0.002081768833742087
0.001991427442233462
0.0018922672155859965
0.0017842350211581537
0.001667279546694378
0.0015413519912776258
0.001406406927830131
0.0012624033430171655
0.001109305857920781
0.0009470861300606287
0.000775724434223371
0.0005952114160835825
0.0004055500087147973
0.00020675749776576102
0.00018715041736372395
0.00036818333495072797
0.0005422882696770603
0.0007095200168028004
0.0008699104342009267
0.0010234701475001218
0.0011701904132764562
0.0013100450995307544
0.001442992741416918
0.0015689786301077285
0.001687936893766978
0.0017997925317899954
0.0019044633666414207
0.002001861881614511
0.002091896917492786
0.0021744752062141937
0.0022495027250337835
0.002316885860163709
0.002376532374272919
0.002428352177393886
0.0024722579055941746
0.002508165316119665
0.002535993511541601
0.0025556650086983046
0.0025671056708928136
0.002570244523913065
0.002565013477990194
0.002551346978852287
0.0025291816116149723
0.0024984556814292985
0.0024591087946452816
0.0024110814637921807
0.0023543147589821234
0.0022887500274536843
0.0022143287019237984
0.0021309922172343954
0.0020386820534699784
0.001937339922309933
0.0018269081118467007
0.001707330003422089
0.0015785507722119174
0.0014405182812675943
0.0012931841764834695
0.0011365051874461102
0.0009704446362937269
0.0007949741535224764
0.0006100755960767312
0.00041574315900465286
0.0002119856673944015
0.0001905990344879538
0.00037504552146570835
0.0005525221837246186
0.0007230800443630003
0.0008867453996619784
0.00104352177244256
0.0011933920371212936
0.0013363206696200974
0.001472256073818179
0.0016011329362102672
0.0017228745618079189
0.001837395147002846
0.0019446019489490901
0.002044397315823704
0.0021366805478714446
0.0022213495652031318
0.0022983023646517137
0.0023674382543852346
0.002428658861218666
0.0024818689114764897
0.0025269767917085323
0.0025638949004198053
0.002592539806192576
0.0026128322311064905
0.0026246968811864807
0.002628062147769436
0.0026228597052011526
0.0026090240312180435
0.002586491876809996
0.00255520171235972
0.002515093176495564
0.0024661065534433563
0.002408182303780898
0.002341260672441059
0.002265281396614055
0.002180183534908356
0.0020859054377430214
0.0019823848774747632
0.0018695593552072454
0.001747366599559208
0.001615745270861682
0.0014746358822630146
0.0013239819470098613
0.0011637313586796566
0.0009938380083108905
0.000814263639157986
0.0006249799361213448
0.00042597084269999086
0.00021723509354736048
0.00019399682802585805
0.0003818180255364678
0.0005626403606744379
0.000736509928621884
0.0009034461724634069
0.0010634441176985004
0.0012164767940827104
0.0013624977907506636
0.001501443888895268
0.0016332377163401218
0.0017577903700975034
0.0018750039563131121
0.001984774001668882
0.002086991696109486
0.0021815459333896364
0.002268325123136808
0.0023472187555877017
0.0024181187076158794
0.0024809202858910584
0.0025355230097754144
0.0025818311427188434
0.0026197539863398733
0.002649205955997616
0.002670106460445118
0.002682379611108593
0.002685953788700887
0.002680761096310935
0.0026667367288952665
0.00264381828932074
0.002611945080865624
0.0025710574054714636
0.002521095896134473
0.002462000910712525
0.00239371201316331
0.0023161675668707388
0.0022293044633001635
0.0021330580077534855
0.002027361982487416
0.0019121489059022445
0.001787350504864199
0.0016528984154750154
0.0015087251256840628
0.0013547651709999026
0.0011909565921410653
0.0010172426606881724
0.0008335738755983618
0.0006399102297443837
0.00043622374134774655
0.00022250124024586482
0.00019734413715430388
0.00038850253799556367
0.0005726468656186284
0.0007498169592483617
0.0009200239310669794
0.0010832527198263442
0.0012394648497530553
0.0013886013321242757
0.0015305856449934485
0.0016653267267587035
0.0017927219215198575
0.0019126598182748061
0.002025022931716844
0.0021296901794114337
0.002226539118094145
0.0023154479103917186
0.00239629700207801
0.002468970498698292
0.0025333572387490344
0.002589351568342682
0.002636853829232927
0.0026757705781061403
0.0027060145600737995
0.0027275044633194856
0.002740164484888563
0.0027439237397120925
0.002738715546224818
0.0027244766224718414
0.002701146226522691
0.002668665274446161
0.002626975468148468
0.002576018464160598
0.0025157351130666583
0.002446064797758163
0.0023669448971565255
0.0022783104004911875
0.002180093695668517
0.002072224553740107
0.0019546303299432244
0.0018272364002080432
0.001689966850375299
0.001542745433571066
0.001385496809185774
0.0012181480746126377
0.0010406305982450237
0.0008528821591142349
0.0006548493948883016
0.00044649055563696083
0.0002277785557320694
0.00020064178255728427
0.0003951018008845203
0.000582547467959646
0.0007630108438806404
0.000936493021066423
0.001102967040881711
0.0012623810362500237
0.0014146615273842034
0.0015597167956478836
0.0016974402610067801
0.0018277137914311514
0.0019504108777427531
0.002065399614414029
0.0021725454353485607
0.002271713563267247
0.0023627711415409175
0.0024455890277201298
0.002520043238225647
0.0025860160433322787
0.0026433967204291114
0.002692081981360256
0.00273197609631802
0.00276299074219645
0.0027850446075289303
0.0027980627891717874
0.0028019760178478736
0.0027967197506675867
0.0027822331689194846
0.0027584581189417923
0.0027253380328915305
0.0026828168648582174
0.0026308380761593114
0.002569343701915347
0.0024982735292156666
0.002417564415419071
0.0023271497734348445
0.002226959249209237
0.0021169186151052954
0.001996949901380357
0.0018669717865027191
0.0017269002655486698
0.0015766496143064385
0.0014161336649157474
0.0012452674067852249
0.0010639689240662387
0.0008721616780072855
0.0006697771389728296
0.00045675776864213813
0.00023306034783358853
0.0002038911425138734
0.00040161977017331985
0.0005923499002322696
0.0007761040690129617
0.0009528714201773036
0.001122611035428711
0.0012852555150796446
0.0014407147233245349
0.0015888796107278308
0.001729626027238293
0.0018628184428053363
0.0019883134991007523
0.0021059633245127246
0.0022156185549742913
0.0023171310147726
0.002410356023708801
0.0024951543093136297
0.002571393514785414
0.002638949304512375
0.002697706079147058
0.0027475573209773535
0.002788405597672891
0.0028201622583035463
0.0028427468598670874
0.0028560863655098245
0.0028601141573033617
0.002854768907038341
0.002839993348181427
0.0028157329911186607
0.002781934822261911
0.002738546025698854
0.0026855127639771326
0.0026227790524593064
0.0025502857595626482
0.0024679697631906083
0.0023757632918086635
0.002273593476930222
0.0021613821422618446
0.0020390458533713907
0.0019064962504417998
0.0017636406853872855
0.0016103831832531834
0.001446625746300348
0.0012722700173824347
0.0010872193170408107
0.0008913810660449301
0.0006846696017741155
0.00046700939271768216
0.0002383386503548024
0.00020709423842757424
0.0004080617992143626
0.0006020641505536939
0.0007891123083021978
0.000969181264574917
0.001142213792187069
0.0013081245265325059
0.0014668042249484786
0.0016181241010952002
0.0017619401331951945
0.0018980972498879867
0.0020264333055447364
0.002146782767617844
0.002258980051334167
0.002362862451072298
0.002458272632417907
0.002545060663528359
0.002623085578467216
0.0026922164781250507
0.002752333185854855
0.0028033264847710793
0.002845097971666044
0.0028775595686452576
0.002900632737943748
0.0029142474480998715
0.002918340940918085
0.0029128563486646303
0.0028977412099607247
0.0028729459311166022
0.0028384222374019247
0.002794121656195775
0.0027399940712888593
0.0026759863849633025
0.0026020413219692146
0.0025180964072365197
0.0024240831471447205
0.0023199264424423327
0.0022055442594447333
0.0020808475848984043
0.001945740688827649
0.0018001217186839197
0.001643883647103786
0.0014769155944397983
0.0012991045458200928
0.0011103374806962912
0.0009105039305130624
0.0006994989771099552
0.0004772267006125791
0.00024360408072110484
0.00021025383113523755
0.000414434845985745
0.0006117027937866115
0.0008020548855724591
0.000985449446027853
0.0011618102617125675
0.0013310312385696604
0.0014929812508942958
0.001647509061289909
0.001794448193187026
0.0019336216439150844
0.002064846336560247
0.0021879372221810522
0.0023027109595866874
0.0024089891169349897
0.0025066008570205772
0.0025953850855101324
0.002675192057841169
0.0027458844554867773
0.002807337955373135
0.002859441327167006
0.0029020961018035724
0.0029352158610115725
0.002958725201830076
0.002972558432401587
0.0029766580559399403
0.0029709730989871813
0.0029554573382170185
0.0029300674774167673
0.0028947613231608826
0.0028494960043350392
0.0027942262772961274
0.0027289029552291233
0.0026534714973206197
0.0025678707907851456
0.002472032156609044
0.0023658786081235395
0.0022493243901512278
0.002122274825443138
0.0019846264943544634
0.001836267773091857
0.0016770797552918687
0.00150693758103089
0.0013257121964629776
0.0011332725659916332
0.0009294883570412776
0.0007142331149211367
0.00048738794180884504
0.0002488456893228047
0.00021337352962305656
0.0004207477078337213
0.0006212813675771783
0.0008149553012860578
0.0010017082911354946
0.0011814420836859657
0.0013540267105806858
0.0015193060157961263
0.001677103247262321
0.001827226573767049
0.0019694743964591976
0.002103640337268231
0.002229517803206904
0.0023469040447853112
0.002455603647532334
0.0025554314168304004
0.002646214636950986
0.002727794704493469
0.0028000281537378796
0.0028627871062451293
0.002915959189124462
0.0029594469756315384
0.00299316700823557
0.0030170484681999177
0.0030310315573372493
0.0030350656572953882
0.00302910732987742
0.003013118218902211
0.0029870629103416757
0.0029509068032748526
0.0029046140398725634
0.0028481455384222892
0.0027814571695105317
0.002704498112042708
0.002617209422882391
0.0025195228515710183
0.0024113599298480892
0.002292631364484432
0.002163236761199866
0.0020230647070630103
0.001871993238645342
0.0017098907231846011
0.001536617179950961
0.0013520260687479163
0.0011559665718298001
0.0009482863942988778
0.0007288351060760478
0.0004974680455983732
0.0002540508012914
0.00021645791411489812
0.0004270112881969712
0.0006308188007013854
0.0008278418330376347
0.0010179963362558497
0.0012011585300768235
0.0013771709903783458
0.001545848959251292
0.0017069867091851348
0.0018603637975045245
0.0020057510582162097
0.0021429161949803738
0.0022716288597719875
0.0023916651256009475
0.0025028112870143088
0.0026048669476904235
0.0026976473790528144
0.0027809851564929156
0.0028547310997436154
0.0029187545606651905
0.0029729431149490837
0.003017201723964094
0.0030514514393146924
0.003075627725961025
0.0030896784803619293
0.0030935618185307934
0.0030872437056290863
0.0030706954942597703
0.0030438914334317974
0.00300680620464705
0.0029594125360723617
0.00290167894058542
0.0028335676188265824
0.002755032564405402
0.002666017905186349
0.002566456512130097
0.0024562689054914433
0.002335362487202078
0.002203631127907127
0.0020609551372548773
0.0019072016465223052
0.0017422254333353815
0.0015658702189180196
0.0013779704688273858
0.001178353728275211
0.0009668435227006139
0.0007432628530510688
0.0005074383129824167
0.00025920485171508634
0.00021951267590653023
0.00043323890074924154
0.0006403379027454942
0.0008407482228921515
0.0010343592145970332
0.0012210175838103937
0.0014005343664091618
0.0015726921447228037
0.0017372523029011433
0.0018939621274316198
0.0020425615736363034
0.0021827895401291125
0.002314389519409557
0.0024371145222632923
0.0025507312046646052
0.002655023156785355
0.0027497933430398608
0.002834865708657236
0.002910085991204639
0.002975321794240704
0.0030304619946273648
0.0030754155650149495
0.0031101098989165105
0.0031344887280431166
0.0031485097207438473
0.0031521418471131823
0.0031453625912253314
0.0031281550846421896
0.0031005052283919338
0.003062398863501181
0.0030138190432991846
0.0029547434544160006
0.002885142027883522
0.002804974777179517
0.0027141898965049177
0.0026127221500534398
0.0025004915814921536
0.0023774025722271275
0.0022433432771717526
0.002098185467498445
0.001941784811085659
0.0017739816228903443
0.001594602119051644
0.0014034602099938093
0.0012003598689031558
0.000985098112482874
0.0007574686306093398
0.0005172661001654477
0.00026429121566769187
0.0002225447768922778
0.0004394466176531747
0.0006498659261802292
0.0008537144672013108
0.0010508506754527552
0.001241087176632169
0.0014241988016054086
0.0015999308562501813
0.001768007407864619
0.0019281393585113688
0.002080032094804271
0.0022233925307535846
0.0023579353932812464
0.0024833886366652513
0.0025994979102132443
0.0027060300408459914
0.0028027755272071325
0.0028895500730029833
0.0029661952135343617
0.003032578110254036
0.0030885906034987115
0.0031341476234788
0.0031691850646106273
0.0031936572289774506
0.003207533941876589
0.0032107974368609654
0.003203439100219141
0.0031854561562179584
0.0031568483653313384
0.0031176147986624325
0.00306775074330036
0.0030072447857737578
0.0029360761143132214
0.0028542120754574962
0.0027616060166796574
0.002658195444165637
0.002543900523569134
0.002418622951373489
0.0022822452252703046
0.0021346303435188507
0.001975621965392943
0.001805045067342595
0.0016227071321550102
0.001428399910979511
0.001221901800333991
0.0010029808778906774
0.0007713986416875845
0.0005269144971669082
0.0002692910348137123
0.0002255626323807297
0.00044565367013511825
0.0006594352143995674
0.0008667877280442299
0.0010675337599682366
0.0012614466149449277
0.0014482595807431276
0.0016276754263027382
0.0017993758845628455
0.001963030846897293
0.002118307021369087
0.00226487584185342
0.002402420456767071
0.0025306416717806035
0.0026492627676166502
0.0027580331592883117
0.0028567309047280304
0.0029451641070606244
0.003023171284686821
0.003090620806330241
0.00314740950420786
0.0031934605878790184
0.003228720984801911
0.0032531582320760727
0.003266757038290949
0.0032695156258887026
0.0032614419539968575
0.0032425499102122918
0.003212855548125504
0.0031723734361139427
0.0031211131726246177
0.0030590761141608275
0.0029862523547315722
0.0029026179897307103
0.002808132693109061
0.0027027376342392273
0.002586353759924165
0.0024588804674134934
0.0023201946958695957
0.0021701504662511584
0.0020085789028199685
0.001835288773188934
0.0016500675877553633
0.001452683303261787
0.0012428866788212062
0.001020414335775932
0.0007849925749555536
0.000536342005971871
0.0002741830428296954
0.00022857632165811104
0.00045188291153450133
0.0006690839524645803
0.0008800233898395987
0.0010844821633139434
0.001282188228685005
0.001472827209871505
0.0016560533347565742
0.0018315003105316002
0.001998791812935524
0.002157551297164606
0.0023074108831222517
0.002448019120492209
0.002579047496081621
0.002700195603363681
0.002811194948950199
0.002911811420204788
0.0030018464804613537
0.003081137192152958
0.003149555193118714
0.003207004767590227
0.0032534201615061625
0.0032887622928926413
0.0033130150033189726
0.0033261809872310033
0.0033282775236352924
0.0033193321204096765
0.003299378166554512
0.0032684506729163537
0.0032265821680531326
0.0031737988035145243
0.003110116712251587
0.0030355386553677227
0.002950050986057315
0.002853620955330108
0.0027461943818641033
0.0026276937079146995
0.0024980164644141656
0.00235703417097205
0.002204591700186845
0.0020405071402218172
0.001864572194709549
0.0016765531644523518
0.0014761925608090254
0.0012632114058082067
0.0010373122786317968
0.000798183171871622
0.0005455022235889423
0.00027894339237266585
0.00023159783185851268
0.0004581613554491132
0.0006788570412995382
0.0008934862902094387
0.0011017818199936247
0.0013034192861008792
0.0014980296146251681
0.0016852116270901774
0.0018645445414447182
0.002035599959899423
0.0021979529984247903
0.002351192270740779
0.0024949285067030758
0.002628801656239216
0.00275248640079348
0.0028656960606044807
0.0029681849448955633
0.003059749241012086
0.003140226576470187
0.0032094944144736015
0.003267467459170559
0.00331409425281827
0.003349353144565484
0.0033732478014525946
0.003385802418223144
0.003387056765345786
0.0033770611958069546
0.0033558717120690806
0.003323545176173018
0.003280134729121073
0.0032256854709739324
0.0031602304408857723
0.003083786926768542
0.0029963531274273952
0.0028979051857558336
0.0027883946097370937
0.0026677460983258183
0.0025358557915075297
0.0023925899676508766
0.002237784216370442
0.0020712431211966364
0.0018927404930858538
0.0017020202029092713
0.0014987976682297455
0.0012827620565958736
0.0010535792739821553
0.0008108958125656734
0.0005543435364486621
0.000283545486887804
0.00023464134206781229
0.00046452080470972545
0.0006888071211655356
0.0009072521611701023
0.0011195327576320607
0.0013252642270322745
0.0015240146944110744
0.0017153197097649203
0.0018986966525599835
0.002073658457490149
0.0022397262532058287
0.002396440580894124
0.0025433709449935588
0.0026801235376103516
0.0028063470654949157
0.002921736688764609
0.0030260361501438238
0.0031190382298641045
0.0032005837033383527
0.0032705590062835216
0.0033288928260443024
0.0033755518400945816
0.0034105358151436393
0.0034338722652383635
0.0034456108470067165
0.0034458176468680213
0.0034345694905146273
0.0034119483807938805
0.003378036147501165
0.0033329093724034364
0.0032766346356221804
0.0032092641156160756
0.0031308315645149215
0.00304134867338815
0.002940801837995513
0.0028291493343904767
0.0027063189150883515
0.002572205840027833
0.0024266713618816826
0.00226954169204599
0.0021006074814997333
0.0019196238593408993
0.0017263110808462268
0.0015203558460414185
0.0013014133586996546
0.0010691102041063133
0.0008230481315230354
0.0005628088337484294
0.0002879598211762563
0.00023772355636757225
0.0004709985909157194
0.0006989957766979776
0.000921409325585737
0.001137851275455043
0.0013478672794744045
0.0015509533020757887
0.0017465725928038217
0.0019341723263095884
0.002113199347244049
0.002283114536668421
0.0024434054142190575
0.002593596699265524
0.0027332586663725705
0.002862013238044969
0.0029795378548525125
0.0030855672451204907
0.003179893280741808
0.0032623631513097884
0.003332876116167019
0.0033913791047511244
0.003437861432221634
0.0034723488826712418
0.003494897389291471
0.0035055865126074615
0.003504512886954303
0.003491783773977117
0.0034675108318820425
0.0034318041817619493
0.003384766828467292
0.0033264894737048273
0.003257045743533679
0.003176487841162659
0.003084842628730544
0.002982108138239112
0.0028682505116188056
0.0027432013726067656
0.0026068556382483343
0.0024590697849802973
0.002299660592991845
0.0021284044024808546
0.001945036926174315
0.0017492536736984088
0.0015407110547330516
0.001319028239057815
0.0010837898622640951
0.0008345496757740795
0.0005708352485590401
0.00029215383527432526
0.0002408640967810488
0.0004776384493531127
0.0007094949640364528
0.0009360607050774017
0.0011568725173843192
0.001371395539455228
0.001579042734265984
0.0017791946642758266
0.001971218764347471
0.0021544874362456473
0.002328394392063643
0.002492368801070427
0.002645886933903746
0.0027884811389158604
0.002919746118290392
0.003039342588725652
0.003146998507805421
0.003242508119847373
0.0033257291234328745
0.003396578288255972
0.0034550258540396867
0.0035010890325977984
0.003534824909640119
0.003556323009610035
0.0035656977484281455
0.0035630809587042928
0.0035486146324040097
0.003522443989113652
0.00348471094531895
0.003435548032368979
0.0033750727884235415
0.003303382632735094
0.0032205502188904778
0.003126619256733784
0.003021600790122661
0.002905469918893913
0.0027781629578659123
0.002639575032836003
0.002489558122851468
0.00232791956904653
0.002154421082613503
0.0019687782976318263
0.0017706609281169516
0.0015596936024536157
0.0013354574620143694
0.0010974926239020744
0.0008453016201276642
0.0005783539368119095
0.00029609178688948246
0.00024408597001066012
0.0004844915606969369
0.0007203887111747742
0.0009513262099897363
0.001176753527099006
0.0013960426134491666
0.0016085108370976209
0.00181344409931887
0.0020101192172206905
0.0021978247560003605
0.0023758796323766207
0.0025436489767760306
0.002700556920602365
0.002846096152215205
0.0029798342489846114
0.0031014169337364034
0.003210568516106793
0.0033070898600780496
0.003390854268449317
0.0034618016957088382
0.0035199316968481803
0.003565295496145704
0.0035979875222187374
0.0036181367088867766
0.0036258978102405304
0.0036214429266398923
0.0036049533891874125
0.0035766121057057565
0.0035365964327639804
0.0034850716065830123
0.0034221847408851536
0.00334805938175059
0.003262790597836296
0.003166440578264068
0.0030590347094037185
0.0029405581049277985
0.00281095257019863
0.0026701139916177757
0.0025178901534384235
0.002354078998171402
0.0021784273616486938
0.0019906302296342354
0.0017903305791826113
0.0015771198844334589
0.0013505393828459195
0.0011100822137126848
0.0008551965558800945
0.000585289905626854
0.00029973464835147956
0.00024741612564166404
0.0004916177994010729
0.000731775156323583
0.0009673456004959391
0.0011976768946226346
0.0014220329467824339
0.001639620855903981
0.001849618028203534
0.0020511982423691427
0.0022435556748788277
0.0024259260820724687
0.002597604553034691
0.002757959476974131
0.0029064425920818926
0.003042595184472238
0.00316605067460482
0.0032765339579704095
0.003373857954574455
0.0034579178694015694
0.003528683677933478
0.0035861913331462075
0.0036305331503154598
0.003661847770593571
0.0036803100403448724
0.003686121076341975
0.0036794987216899194
0.0036606685371258635
0.0036298554193687355
0.003587275893715769
0.0035331310925652837
0.003467600404837859
0.0033908357628296554
0.0033029565220442786
0.0032040448850830516
0.0030941418217579203
0.0029732434433032418
0.00284129779803817
0.0026982020683112007
0.002543800163393714
0.0023778807195837387
0.002200175536673857
0.002010358498691897
0.001808045046050144
0.00159279228562495
0.0013640998444980484
0.0011214115918293383
0.0008641183713293671
0.0005915619037787923
0.0003030400347526774
0.0002508861283835595
0.0004990872397027946
0.0007437690067629704
0.0009842819317417012
0.001219855132403816
0.0014496269921396299
0.001672677187927768
0.0018880586145729183
0.002094827821703657
0.0022920727649684697
0.002478936921471192
0.002654639105024198
0.002818488612335024
0.002969895612555562
0.0031083769403594114
0.003233557653594038
0.0033451688636725457
0.0034430424391379416
0.003527103223963768
0.0035973594092707506
0.003653891659333122
0.00369684152985314
0.0037263996379650194
0.003742793957692031
0.003746278528537067
0.0037371227837564164
0.0037156016322489743
0.0036819863660239177
0.003636536414821437
0.0035794919306664508
0.003511067157288217
0.0034314445213989853
0.0033407693735333227
0.0032391453041952095
0.0031266299651614704
0.003003231334801737
0.002868904379165718
0.0027235480764972037
0.0025670027910495302
0.00239904800198823
0.0022194004142964963
0.002027712500527884
0.0018235715446169865
0.0016064992814386614
0.0013759522481085612
0.0011313229848450984
0.0008719422443051877
0.0005970823884171583
0.0003059621706336946
0.0002545329733807805
0.0005069819846474505
0.0007565045237874768
0.0010023257268675645
0.001243535955421246
0.0014791274112458813
0.0017080322343945575
0.00192916022735444
0.0021414344938252144
0.0023438235369750426
0.002535368696750237
0.0027152061818121465
0.002882583332664432
0.003036869106830653
0.003177559080319803
0.0033042754966112753
0.0034167630583775283
0.003514881249270435
0.003598594000482555
0.003667957490606638
0.003723106800657655
0.0037642420523842923
0.0037916145494976267
0.003805513328632798
0.0038062524178892193
0.0037941590014516913
0.003769562602697743
0.0037327853271154343
0.003684133150636884
0.003623888197947664
0.003552301927605389
0.003469589124697206
0.003375922595465694
0.003271428460058484
0.0031561819476962627
0.00303020361170471
0.0028934558988411435
0.002745840027217547
0.002587193149122688
0.0024172857985897134
0.002235819648177123
0.0020424256247408845
0.0018366624596631576
0.0016180157747654883
0.0013858978306933584
0.0011396480896523203
0.0008785347687295247
0.0006017575834265931
0.000308451903263951
0.00025840008208286025
0.0005153984025280528
0.0007701391696075532
0.001021700062019959
0.0012690086870360273
0.0015108865524533638
0.0017460945953780976
0.0019733779290623116
0.0021915076831332675
0.00239931816901566
0.0025957380544620046
0.002779814727576213
0.0029507315224962943
0.003107817924647871
0.0032505532431452155
0.003378564514118998
0.0034916195762892815
0.003589616344014654
0.003672569305810988
0.003740594214864071
0.0037938918309356334
0.003832731438238854
0.003857434717116151
0.003868360401411905
0.003865890017612811
0.0038504148822250117
0.00382232443373956
0.003781995895913298
0.0037297852093377826
0.003666019126677064
0.0035909883412014593
0.003504941505794043
0.0034080799979517157
0.003300553293140371
0.0031824548222156718
0.003053818206842418
0.002914613788623191
0.002764745391991258
0.00260404728708441
0.0024322813462439447
0.0022491344160854992
0.002054215955942046
0.001847056022627025
0.0016271037106547342
0.0013937261860318684
0.0011462084802489475
0.000883754238873477
0.0006054876459606895
0.0003104567711603029
0.00026253852740563965
0.0005244498803354675
0.0007848580920755549
0.0010426668003467587
0.0012966120736358777
0.0015453155104945132
0.0017873389096164927
0.0020212375504766594
0.0022456094384321057
0.002459138365123445
0.002660629247881477
0.00284903486912598
0.003023473772067936
0.0031832396286421566
0.0033278028428057327
0.003456805468676938
0.003570050706704242
0.003667488303710109
0.0037491971447795452
0.003815366211655763
0.0038662749194300905
0.0039022736546115433
0.003923765142948954
0.003931187089705537
0.003924996368676312
0.0039056548949894243
0.0038736172029765065
0.0038293196638246874
0.0037731712162236974
0.0037055454436647345
0.0036267738108473474
0.003537139865223124
0.0034368742147461023
0.0033261501065332544
0.003205079451011103
0.003073709160386448
0.002932017697531819
0.0027799117606447515
0.0026172230596346047
0.002443705171668656
0.0022590304953950674
0.0020627873558300286
0.0018544773445907103
0.0016335130128803804
0.0013992160671656845
0.0011508162495805496
0.0008874511164485427
0.0006081669586840421
0.00031192113699873847
0.0002670085519259485
0.0005342702374448588
0.0008008796762860731
0.0010655342817384589
0.0013267438711010715
0.0015828951561696891
0.0018323177148876352
0.002073347678194934
0.002304385826355393
0.002523947484261796
0.002730702439058874
0.0029235039757530557
0.0031014069474332717
0.0032636754968330683
0.0034097815814294746
0.003539395807449955
0.0036523722541521586
0.003748728990684666
0.0038286258862009342
0.003892341126181989
0.00394024760956907
0.00397279014312725
0.003990464095728952
0.0039937959431328995
0.003983325933825402
0.0039595929434454585
0.003923121459771847
0.003874410549781257
0.00381392460065591
0.0037420855927838004
0.0036592666495792042
0.003565786611529967
0.003461905396061754
0.0033478199271387843
0.0032236604463016794
0.0030894870480960984
0.002945286316168083
0.0027909679708100626
0.0026263614739052005
0.0024512125727681466
0.0022651798002158025
0.0020678309842596387
0.0018586398570637347
0.001636982889139535
0.0014021365109681966
0.001153274920094316
0.0008894687068637386
0.0006096845660682748
0.000312786394509601
0.00027188146304740757
0.0005450179879840644
0.0008184624633160442
0.0010906668677976433
0.0013598726711145787
0.0016241896287055163
0.0018816757963476677
0.0021304139483891427
0.0023685802582182197
0.0025945020761266313
0.002806702778504505
0.00300393282258804
0.0031851872011341986
0.003349710362486241
0.003496990293149621
0.003626743839128768
0.0037388954864697177
0.00383355176949339
0.00391097327699412
0.003971545934340265
0.004015752900640254
0.004044148074045045
0.004057331873637757
0.004055929681759204
0.004040573095599395
0.004011883953963319
0.00397046097179507
0.003916868725725428
0.0038516286814499895
0.0037752119306381227
0.003688033304230634
0.003590446544177145
0.0034827402417927367
0.0033651342839769866
0.003237776585604979
0.003100739925478213
0.0029540187430249915
0.0027975257927991826
0.0026310885934801576
0.0024544456475163595
0.0022672424469303426
0.0020690273202895876
0.001859247215572929
0.0016372435536153307
0.0014022483268544272
0.0011533806579354933
0.0008896440718928339
0.0006099247736693625
0.00031299125920949966
0.00027724201651352365
0.0005568817016938926
0.0008379138325490809
0.0011184968656027944
0.0013965525738614815
0.0016698629190447928
0.0019361676046224796
0.002193256117744749
0.002439049059249146
0.0026716649389003644
0.0028894701742172846
0.003091111577247202
0.0032755319802122707
0.00344197072590742
0.0035899514776539104
0.0037192601848869272
0.0038299161131692128
0.003922138676064918
0.003996312465785856
0.00405295244290739
0.004092670775600701
0.004116146364008644
0.004124097678225594
0.0041172591971468525
0.004096361466906381
0.004062114599928002
0.004015194901546296
0.003956234230648337
0.0038858116628665423
0.003804447018985732
0.003712595838141902
0.003610645407380958
0.0034989115002573984
0.0033776355229970384
0.003246981814331404
0.0031070348925888724
0.002957796490031306
0.002799182259442784
0.0026310180817297607
0.002453035946174159
0.0022648694174686734
0.002066048746235477
0.0018559957227318319
0.001634018417007832
0.0013993059928000817
0.0011509238265554472
0.000887809206574372
0.0006087679296420678
0.0003124721529604302
0.0002831914372291161
0.0005700867970767493
0.0008596009749653744
0.0011495395210687487
0.0014374414974166194
0.0017206993476896054
0.001996678467319518
0.0022628284703414686
0.0025167796101288054
0.0027564197650806754
0.002979949548694294
0.0031859151657261664
0.003373220391559434
0.00354112036227594
0.0036892006762352797
0.0038173456462471805
0.003925699479523009
0.004014623803913889
0.004084654413579511
0.004136459475561544
0.0041708008015262366
0.004188499203465007
0.0041904044528525974
0.0041773699648219725
0.0041502320330215475
0.004109793238101678
0.004056809529075445
0.003991980416024901
0.003915941698997408
0.0038292601774189833
0.0037324298253257893
0.0036258689710946673
0.0035099180795336166
0.003384837794664655
0.0032508069605060586
0.0031079203932078553
0.002956186230581734
0.0027955227346136424
0.002625754469635186
0.0024466078243566003
0.0022577058908473113
0.0020585627586587607
0.001848577328230544
0.0016270267948251954
0.0013930600024366635
0.001145690915946268
0.0008837925084274195
0.0006060914078505897
0.00031116369235294206
0.00028985127837799496
0.0005849042167150736
0.0008839648646957604
0.0011844119999628588
0.0014833241593681101
0.001777628968119352
0.0020642504923248234
0.0023402442141692015
0.0026029113912715424
0.0028498873469646746
0.003079201205155535
0.003289307334883307
0.003479091011417648
0.0036478523689809084
0.003795273578944311
0.003921374403260874
0.004026460978648727
0.004111072043789243
0.004175925988022022
0.0042218712103659906
0.004249841432506826
0.004260816872853013
0.004255791592953487
0.004235746879637847
0.004201630216323221
0.004154339205349772
0.004094709706195673
0.004023507428146347
0.003941422238995726
0.003849064505805147
0.0037469628557635776
0.0036355628246568517
0.0035152259405112074
0.003386228866421162
0.0032487622972163788
0.0031029293687945964
0.002948743396990236
0.0027861248157519253
0.002614897233575872
0.002434782574090147
0.002245395312909862
0.0020462358697141553
0.0018366832628936847
0.0016159871846455481
0.001383259707045753
0.001137466883820104
0.0008774205671062824
0.000601770811850949
0.0003089992907774064
0.0002973683925818066
0.0006016615967414513
0.0009115381856681093
0.001223857585836527
0.001535141095243317
0.0018417592217268575
0.0021401142736073436
0.002426804615627942
0.0026987602214734174
0.0029533431460327664
0.003188410651029955
0.003402342384317608
0.003594035849251123
0.0037628762248645975
0.003908687416873849
0.004031671179903745
0.004132340476966659
0.004211452178194894
0.004269942970058754
0.004308871124156025
0.004329365679990149
0.004332583694406533
0.0043196755236380585
0.004291757623768475
0.004249892055035509
0.00419507171955269
0.004128210314316413
0.004050136008587085
0.003961587929182719
0.003863214637383122
0.0037555738913983006
0.0036391330981927345
0.003514269961460023
0.0033812729254279333
0.003240341095875371
0.0030915833907302764
0.00293501673432682
0.002770563163825651
0.0025980457657085176
0.0024171834069326714
0.0022275842714376687
0.002028738260113405
0.0018200083625032892
0.001600621162275731
0.0013696566959655737
0.0011260379449528485
0.0008685203025263905
0.0005956814188478876
0.0003059118838628222
0.00030592139179896893
0.0006207577713372159
0.0009429685198313886
0.0012687767539934502
0.0015940255221539162
0.001914414552382726
0.002225727763287555
0.0025240336993852946
0.0028058458729973423
0.0030682357482096634
0.00330889681178545
0.0035261630468682442
0.0037189886612573886
0.0038868979485562755
0.004029914776947738
0.004148480689322914
0.004243369325677565
0.004315603207973334
0.004366377164203017
0.004396991031543507
0.004408792898994748
0.004403133082907643
0.004381328273852805
0.004344634815186071
0.004294229820222886
0.004231198749886617
0.004156528103944207
0.00407110198281041
0.00397570141952934
0.0038710055385274694
0.0037575937528025044
0.003635948354572552
0.003506456981094766
0.0033694145458049996
0.003225024315820571
0.003073397892260077
0.0029145539126014253
0.0027484153476211304
0.0025748053126120884
0.002393441356724313
0.0022039282383343045
0.0020057492408584315
0.0017982561343979075
0.0015806579452920522
0.0013520087583970275
0.0011111948448972453
0.0008569214796006613
0.0005876998827141905
0.0003018347878304267
0.00031572912012683974
0.0006426817802057117
0.0009790485986908848
0.0013202673795516817
0.0016613504578031624
0.0019971861822199732
0.002322823965245857
0.0026337193748858234
0.002925923013200313
0.0031962052652449308
0.0034421169449092848
0.00366199229560539
0.003854905111415452
0.00402059081758728
0.00415934746941686
0.00427192730601951
0.0043594283096127645
0.004423192698056938
0.004464716821908035
0.00448557480563154
0.004487356591838548
0.004471619841392216
0.004439854368491411
0.004393457371186016
0.004333717566369272
0.0042618063710850446
0.004178774418927042
0.00408555190723657
0.00398295149899007
0.00387167272722215
0.003752307054480805
0.0036253429177351276
0.003491170238157912
0.0033500839964532153
0.0032022865710258502
0.00304788861242343
0.002886908287659376
0.0027192687767875617
0.0025447939458206753
0.0023632021588695373
0.002174098231957411
0.0019769635746283987
0.001771144615942452
0.0015558396705703664
0.001330084469217771
0.001092736654732654
0.0008424596283866936
0.0005777062155676027
0.00029670270037453206
0.0003270618776980566
0.0006680380202667702
0.001020756129357328
0.0013796771796720508
0.0017387893242348795
0.0020919948828165003
0.0024334694219364517
0.002757961785503499
0.0030610149841254486
0.0033391000028341195
0.0035896656368239743
0.0038111158676036316
0.004002731345202168
0.0041645533191143475
0.004297247480823926
0.004401962524941003
0.004480194696943704
0.0045336659109879995
0.004564219698904637
0.0045737365673441804
0.004564068381266245
0.004536990116998305
0.004494166624221349
0.004437131764884236
0.004367277323590005
0.004285849293966082
0.004193949450585793
0.004092540453576821
0.003982453062593802
0.0038643943349300353
0.0037389559381206805
0.0036066219175943243
0.0034677754269740874
0.0033227040575253275
0.0031716035002650744
0.00301457934597274
0.0028516468811891488
0.0026827287782146686
0.002507650609570186
0.0023261341473948954
0.0021377884403635805
0.001942098699053471
0.001738413068881478
0.0015259274304376402
0.0013036684417357947
0.001070475125116363
0.0008249794003082345
0.0005655860687613368
0.00029045285424719736
0.00034025644900069485
0.0006975798771619163
0.0010693067350795865
0.0014486726847246223
0.0018283943846591488
0.0022011703761113666
0.00256013577023409
0.002899229414865215
0.003213449149455927
0.00349898854957878
0.0037532638997353485
0.003974850919253384
0.004163356313830954
0.00431925003006127
0.004443681375613628
0.0045382974008395666
0.004605076453290877
0.0046461846068794055
0.004663858324144662
0.004660313473871719
0.004637678684847241
0.004597949810140459
0.004542961784530328
0.004474374158483382
0.004393666894387263
0.00430214346737752
0.0042009388208245485
0.004091030219688638
0.003973249486661029
0.003848295479749103
0.0037167459724024715
0.0035790683328308787
0.003435628576249683
0.0032866984923321657
0.0031324606401451627
0.002973011063584774
0.0028083596201086136
0.00263842784164961
0.0024630442654047235
0.0022819371895012597
0.0020947248296499105
0.0019009028828297914
0.0016998295474742048
0.0014907081104476722
0.0012725672920251702
0.001044239641497538
0.0008043383950496336
0.0005512333371388151
0.0002830263351499829
0.00035573646018254024
0.0007322552058499077
0.001126225061235983
0.001529330743936283
0.0019326988922018368
0.0023275519879033812
0.0027057868509263727
0.0030604228567500252
0.0033858911930719215
0.0036781626241447346
0.003934732393846757
0.004154494338711651
0.004337541608427142
0.004484929974693477
0.004598433819216249
0.004680316893285366
0.004733131758946324
0.004759554709952735
0.004762257530269889
0.004743813777699182
0.004706635169005782
0.0046529327388203645
0.004584697374463195
0.0045036947666172444
0.004411470510227153
0.0043093618667937456
0.004198513449658187
0.004079894758951805
0.003954318047946104
0.0038224554444183517
0.0036848545883015754
0.0035419522949379917
0.0033940859280002234
0.0032415022832879004
0.0030843638581572602
0.002922752423247202
0.0027566698333894996
0.0025860360214110395
0.0024106841189867056
0.0022303526490275866
0.0020446747401578896
0.0018531643315177343
0.0016551993713335017
0.0014500020711088746
0.0012366163635981198
0.0010138828291827023
0.0007804114999848538
0.0005345531160803468
0.0002743695784179073
0.00037404030644909436
0.0007732685929317529
0.001193441347316776
0.001624261043180128
0.0020548509199463244
0.0024746163467421894
0.002873983798182128
0.003244944863429758
0.003581373493931117
0.003879123220778602
0.004135939931902297
0.004351241695433786
0.00452582059939291
0.004661515733821092
0.004760895293206807
0.0048269730069091105
0.004862972350888103
0.004872142689690384
0.004857625072386795
0.004822361627523988
0.004769040810675362
0.004700070515796406
0.004617571697868916
0.004523386228950904
0.004419093920491432
0.004306034807271625
0.004185333806388553
0.004057925701374254
0.003924579055821165
0.0037859181508064638
0.0036424423920471682
0.0034945428735552453
0.003342515939986565
0.0031865736816855394
0.0030268513424464016
0.0028634116344161686
0.00269624594844238
0.0025252724302610857
0.0023503308703389514
0.002171174334154022
0.0019874574462995093
0.0017987212425435856
0.0016043745261974385
0.0014036717168855323
0.0011956872689099646
0.000979286868616716
0.0007530957962957607
0.0005154650506511843
0.00026443606414405796
0.00039586000029896706
0.0008221677384891157
0.0012734241628979404
0.0017367717160205048
0.0021987896802727613
0.0026466391940791756
0.0030690098712917585
0.003456772820777304
0.003803308972190958
0.004104538337310837
0.0043587143570871095
0.004566064468010014
0.004728356353516566
0.0048484553248824835
0.0049299187619286505
0.004976654027119637
0.004992650093867748
0.004981781630181384
0.004947677348817861
0.0048936412043332905
0.004822614376485054
0.004737166904007689
0.004639509528286054
0.004531518233275328
0.004414765804905463
0.004290556319708913
0.00415995975332073
0.004023844880793964
0.0038829093587056662
0.003737706381128303
0.0035886676350555674
0.003436122487780552
0.003280313453695796
0.003121408038339435
0.002959507064040634
0.002794649559674761
0.0026268142581611226
0.0024559176977977937
0.002281808873780114
0.002104260339817282
0.001922955622311151
0.0017374727878396723
0.0015472640074103011
0.0013516309991201403
0.0011496963170145452
0.0009403705998351913
0.0007223161055813498
0.0004939071320786137
0.00025318823902600873
0.0004220960442404831
0.0008809650643549494
0.0013693652147392654
0.0018710954225497206
0.0023694789433412605
0.002848899503398783
0.003296014869493477
0.0037005252817113587
0.004055475733061309
0.004357154184126674
0.00460469724871887
0.004799528987641091
0.004944745283163632
0.005044527938017046
0.00510364037785635
0.005127028333594935
0.0051195278288968665
0.005085669749144567
0.005029563945945351
0.004954844281841342
0.004864657352391943
0.004761680356538359
0.004648156725691924
0.004525941089975172
0.004396547682252394
0.004261198275127595
0.004120867237666179
0.0039763223606525955
0.0038281608191733513
0.003676840102270887
0.003522704011993588
0.0033660039745128795
0.003206915956613432
0.003045553272872245
0.002881975524284569
0.0027161938432333638
0.0025481725428893737
0.002377827188355164
0.0022050190270070796
0.0020295456404980233
0.0018511276151035733
0.0016693909766957171
0.001483845111242707
0.0012938559056686477
0.0010986139161854314
0.0008970975231671618
0.000688031280912077
0.00046984002174860207
0.0002405997070769328
0.00045393626172353374
0.0009523116818223737
0.0014854402461651345
0.002032701094062256
0.0025732171165008116
0.0030879344889080534
0.003561174558562502
0.003981506139489346
0.004341948099225626
0.004639632366492508
0.0048751163480354465
0.005051535581600944
0.0051737511970685185
0.0052475945651680594
0.005279260838411362
0.005274863690406625
0.005240138284580351
0.005180266780185613
0.005099797053967847
0.00500262718806313
0.00489203279015657
0.0047707194657812535
0.004640887680847167
0.004504301353330423
0.004362354677800134
0.004216133986485973
0.004066473035528054
0.003914001139301612
0.0037591842075632292
0.003602359090370752
0.0034437617963658518
0.003283550188025758
0.0031218217197257897
0.0029586267025999424
0.0027939774749958374
0.002627853741920802
0.002460204229167609
0.00229094468228469
0.0021199521295629797
0.0019470552231356936
0.0017720203749575086
0.0015945333190391514
0.001414175667098172
0.0012303959988955865
0.0010424750679894068
0.0008494848440350894
0.0006502413910386834
0.0004432520208467877
0.0002266577529008995
0.0004929712003505018
0.001039750698415061
0.0016271828979196323
0.0022287281400932904
0.002818049640125761
0.0033718523353713503
0.0038718513281320865
0.0043056959578507
0.004666934253563411
0.004954272037336456
0.005170439962397827
0.005320951244297226
0.005412953278523543
0.005454286369593504
0.005452787567697452
0.005415827174092454
0.005350039042488562
0.0052611973258432365
0.005154194777093765
0.005033085372096256
0.004901163084998959
0.004761057032529312
0.004614830041800563
0.004464072823741033
0.0043099895361082
0.004153472905420799
0.0039951685610616905
0.0038355290866876057
0.0036748587232675323
0.003513349817173911
0.003351112101762921
0.003188195802443894
0.0030246094085948083
0.002860332788610878
0.0026953261530575645
0.0025295352040508035
0.0023628926505760706
0.0021953161204674165
0.0020267023592353967
0.0018569174717524284
0.001685782832894625
0.0015130561676967441
0.0013384071865259195
0.001161387073911918
0.000981391106067639
0.0007976137666649286
0.0006089960113998261
0.0004141648605349574
0.00021136629429691078
0.0005413666699507907
0.0011480933192058451
0.0018020290877359194
0.00246859706835581
0.003114315944759062
0.003710702590673312
0.004236724020175352
0.00467963582757655
0.005034456965555677
0.005302557424495868
0.005489866394397636
0.005605105213787424
0.005658293221912858
0.005659628861785358
0.005618744651984156
0.005544277729553702
0.005443677565811586
0.005323175098492665
0.005187850899998993
0.0050417561771959815
0.004888055169010877
0.004729169238912569
0.004566911460506973
0.004402606227539775
0.004237192035760687
0.004071307699900821
0.0039053633826818465
0.003739598291986279
0.0035741270018917193
0.003408976241150434
0.003244113774579692
0.0030794707420569306
0.0029149585520830967
0.0027504811705828525
0.002585943408756411
0.0024212555984500367
0.0022563348484447993
0.0020911028971213746
0.0019254804115403368
0.001759377424005018
0.0015926794373683911
0.0014252285629187816
0.0012567988779851325
0.0010870650169302054
0.000915562878145218
0.0007416413182004672
0.0005644039277562657
0.00038264057132167406
0.0001947494111524256
0.0006021278821091922
0.001283989489839786
0.0020201233387951364
0.0027648755212212606
0.0034753679039858723
0.0041168857453013075
0.004665819713141242
0.005110108441383376
0.00544777832539884
0.005684447205018775
0.005830590669119277
0.005899117089905495
0.0059035142449092096
0.005856610841900686
0.005769868836690138
0.005653073425739473
0.005514288285725512
0.005359967728304868
0.005195147461454809
0.005023662641911633
0.0048483626793992055
0.004671306707290268
0.004493932911384051
0.004317200414192611
0.004141705381277831
0.003967774386849247
0.003795538501116018
0.0036249914685921453
0.00345603499901527
0.003288513745743807
0.0031222420854855465
0.0029570243801997007
0.0027926700141978136
0.0026290041602827705
0.002465874934742762
0.0023031573458068416
0.0021407542165816362
0.001978594064246296
0.0018166257345936312
0.0016548094152823503
0.0014931034694974227
0.0013314463275951524
0.0011697324315606689
0.0010077809418883588
0.0008452956197440575
0.0006818140835702785
0.000516644686525361
0.0003487898127718103
0.0001768556735000787
0.000679514798246704
0.0014568148101427036
0.0022955348227058636
0.0031345141266492377
0.003918492635781076
0.004605540238040197
0.005170314212268497
0.005603454266741303
0.005908418875819263
0.0060972951806218395
0.0061867856847286976
0.006195037258492568
0.00613950254366831
0.006035726581323168
0.005896827322213687
0.005733429152797322
0.005553853387126849
0.005364427943732306
0.005169829882953128
0.004973412619658786
0.004777494879032632
0.004583603710837464
0.00439267224395385
0.004205196883532249
0.004021360125183886
0.0038411252537963736
0.0036643086212844594
0.0034906343659855538
0.003319775564209683
0.0031513849962483895
0.002985118005698534
0.0028206493391690415
0.0026576853638713843
0.0024959726573171373
0.002335303629232975
0.0021755195551940304
0.00201651116123424
0.00185821668813662
0.0017006171737129136
0.0015437285100399073
0.001387589643376208
0.0012322460600251994
0.0010777274034412393
0.0009240176584290119
0.0007710158127482852
0.0006184843517027874
0.00046598260061968266
0.0003127822230466759
0.00015776360684365692
0.0007797154863253067
0.0016800865093583098
0.002648125811077248
0.0036006126288720477
0.004466041702418787
0.005194749502137656
0.00576184681810004
0.006164255183309965
0.006414556136983655
0.006534270075881775
0.006548246488972988
0.006480808979486302
0.0063535762921875655
0.0061845509382769046
0.005988017320286088
0.005774877161662931
0.005553169084967925
0.0053286221831743835
0.0051051663309301595
0.004885367395113645
0.004670780882223405
0.004462230084702666
0.004260019803631825
0.00406409772900649
0.003874174650119161
0.0036898130185286093
0.0035104915988741076
0.003335652297341063
0.0031647338572677944
0.0029971959712192728
0.0028325364539813214
0.0026703034121379338
0.0025101037922067443
0.002351609253636089
0.0021945599642423028
0.0020387666293066944
0.001884110823261738
0.001730543481893082
0.0015780812242925032
0.0014267999985620103
0.0012768253675714755
0.0011283185367138293
0.0009814569103617984
0.0008364074534174676
0.0006932903400942575
0.0005521293062759197
0.00041278405071347446
0.0002748596061177902
0.0001375888088748986
0.0009119767020587671
0.0019737929828630707
0.0031064761781002537
0.00419492403021144
0.005146666313085045
0.0059052081447663815
0.006450879314512596
0.0067929623251873
0.006958518910731515
0.0069821478533247106
0.006898695531116862
0.0067391247773003204
0.006528825534747436
0.006287451753940736
0.006029537114340136
0.0057654001046886436
0.005502067358982031
0.00524409000651152
0.004994211925380937
0.0047538912505317235
0.00452369442997981
0.004303587106934639
0.004093145010126496
0.0038917045921411444
0.0036984692171057806
0.003512583078803394
0.00333318201027661
0.003159427957402615
0.0029905320594347945
0.0028257699055939944
0.002664491516262253
0.0025061278417480085
0.0023501950091571883
0.0021962971224623526
0.0020441280896072306
0.0018934726817641453
0.0017442068015917842
0.0015962967359720581
0.0014497969880931452
0.0013048461221362023
0.0011616599055631338
0.0010205208712395705
0.0008817631639232021
0.0007457510184723237
0.0006128481992490054
0.00048337401204332636
0.00035753921337109557
0.00023535314625567488
0.00011649350318360813
0.0010905811540599178
0.0023683565745634683
0.003712538731657368
0.004961308648205501
0.00599627426554674
0.006758566571227094
0.007243263892247644
0.007481845479236013
0.007523063614524268
0.0074184297022159215
0.007213867173634814
0.0069463636630893305
0.006643692428530579
0.0063255992272143804
0.006005448514736063
0.005691818920001597
0.005389845184588196
0.005102264138801597
0.004830192498529083
0.004573687029919914
0.004332138521272941
0.004104543552865936
0.00388968868164076
0.0036862730218435585
0.00349298815471559
0.0033085688983342867
0.0031318244785367502
0.0029616567622044176
0.002797070166863272
0.00263717641842684
0.0024811963174960067
0.0023284599642708903
0.002178406388095959
0.0020305831612599037
0.0018846462982377785
0.0017403605155533255
0.0015975997296454603
0.0014563474868306558
0.0013166968480277444
0.0011788491001810952
0.001043110552000348
0.0009098865968399233
0.000779672130699148
0.0006530370879864605
0.000530604852971274
0.00041301898681973814
0.00030088968263036753
0.00019470636693552645
9.469973910872925e-05
0.0013384740781518453
0.002911632359491184
0.00452913556895624
0.0059601558680041355
0.007057596972343719
0.007772838960828192
0.00813362439446088
0.008208468986651847
0.008076236739379572
0.007807977436930978
0.0074597250955102876
0.007071970699819664
0.006672088765465899
0.00627748605935563
0.005898469775736437
0.005540517441259572
0.0052059436058477515
0.004895068252849778
0.004607010099374531
0.004340211893077338
0.004092780426780636
0.0038627013455814485
0.003647970827027544
0.003446672944714818
0.0032570221390147217
0.0030773837454430436
0.0029062811395407784
0.0027423951105226343
0.002584559114443108
0.0024317527593529023
0.002283095018580192
0.0021378381030081953
0.001995362546151569
0.0018551737962050965
0.001716900417557704
0.001580293845324765
0.001445229485630438
0.001311708797094857
0.0011798618235774327
0.0010499494920988284
0.0009223648856819672
0.0007976327108612027
0.0006764063368494139
0.0005594619428670594
0.0004476888739350787
0.0003420729745018253
0.00024366375565631343
0.0001535062756964009
7.25081143595277e-05
0.001694310593933497
0.003681770700359438
0.005652015371646273
0.007272895603288386
0.008375473740734593
0.008951716479020967
0.009093467616828839
0.008926014424897481
0.008565118623879507
0.00809987800628549
0.007591544220459191
0.007078859572326478
0.006584447061119027
0.006120198799461615
0.005691227756615597
0.005298560722691074
0.00494089147285607
0.004615684896619454
0.004319852402680881
0.004050152151449514
0.003803416397977384
0.003576672254521046
0.003367198103968558
0.0031725422121552105
0.0029905200422732717
0.0028192004133766463
0.002656886651339202
0.002502096393461904
0.002353542172939614
0.0022101139729284666
0.0020708643771714316
0.0019349966119473067
0.0018018555806037437
0.0016709218768253611
0.0015418086848237311
0.0014142614037448917
0.0012881597465901964
0.0011635219438201408
0.0010405105218295185
0.0009194389417545856
0.0008007782329676194
0.0006851627670943633
0.0005733946942839269
0.0004664474524842116
0.0003654697734944909
0.0002717908912872949
0.00018692120582538413
0.00011252605376162184
5.032495319155089e-05
0.0022270819775017103
0.004811937981887025
0.007228516826415753
0.009002575818386808
0.009980859625371097
0.010262119593939023
0.010051739180095762
0.009550804898135194
0.008909993769492273
0.008226125934907458
0.007555060610119707
0.0069256036191906595
0.006350128687531223
0.005831638523607095
0.005368135437772328
0.00495520390069204
0.004587479308403163
0.0042594487157828625
0.003965861493349099
0.0037019176552849087
0.003463333034431887
0.003246339029323031
0.0030476500148815394
0.0028644170348451
0.0026941779708200622
0.002534809532661386
0.00238448366275245
0.00224162942055265
0.002104900599572204
0.0019731489245090467
0.001845402504050582
0.001720849170285109
0.0015988243566421728
0.0014788032145847813
0.0013603967193067112
0.0012433515462536154
0.0011275534941562332
0.0010130341663095593
0.0008999804816060553
0.000788746365457664
0.0006798657081236309
0.0005740655243106213
0.00047227856946675806
0.0003756561206193221
0.0002855848376425718
0.00020371540392627452
0.00013200860950811355
7.27835580945635e-05
2.8702521045392837e-05
0.0030693951783548126
0.0065392481853409345
0.009482567857598961
0.011256575933019201
0.011847711952362193
0.011592116852365872
0.010867629008265343
0.009950749921450092
0.00900270335096278
0.008104789015842079
0.007291229905544677
0.00657116511387304
0.005941471069859677
0.005393731033741224
0.004917827616002263
0.004503688840039641
0.004142059361533265
0.0038247739170721926
0.0035447877924706384
0.0032960976790356172
0.003073621080243047
0.0028730678484216593
0.0026908193320829416
0.0025238213243101784
0.002369492387880791
0.002225646976303043
0.0020904318858038784
0.001962274330017562
0.0018398399931813664
0.0017219996155337994
0.0016078029083440165
0.0014964588428106051
0.0013873215873508593
0.0012798815728255197
0.0011737613398708838
0.001068715960312168
0.0009646379139125333
0.0008615663219567957
0.0007597003589850312
0.0006594164449887085
0.0005612884404080989
0.0004661095943781571
0.00037491478680261314
0.0002890026968422471
0.00020996216075958724
0.00013971787539097946
8.062347014801963e-05
3.561992001484271e-05
8.39926136010638e-06
0.004498800414689731
0.009304802513421292
0.01272782052943068
0.014067744004054139
0.01379429637506329
0.012684201291593401
0.011306019230430314
0.009944531704915646
0.008715535241265462
0.007650865913082554
0.006745881921641293
0.005982466417557265
0.005339353758863866
0.004796368118171662
0.0043358861666896314
0.0039430976862619635
0.00360578979507218
0.003313979012026659
0.0030595289348680638
0.002835806290384303
0.002637390478252552
0.0024598360081698398
0.002299481472487659
0.00215329731891898
0.002018765103937656
0.0018937819438373735
0.0017765850266954486
0.0016656921020494764
0.0015598547625815043
0.001458022070064284
0.0013593126758063914
0.0012629940697447273
0.0011684679872173628
0.0010752613295136257
0.0009830222294314322
0.0008915211254591146
0.0008006568978458153
0.0007104682530490111
0.0006211505851905844
0.0005330784291212032
0.0004468332493920077
0.00036323557675985163
0.00028337945275452164
0.0002086665143331487
0.00014083979044786366
8.20315521159673e-05
3.487821795560703e-05
2.798629434287714e-06
-9.530297888950268e-06
0.007174326185626443
0.013929007152148534
0.017266118021923724
0.017145483141955478
0.015290820172230185
0.013079922252538574
0.01104440455225282
0.009327890879886766
0.00792739771722005
0.00679675053532796
0.005884168755396137
0.005144071181873239
0.0045394921500713226
0.0040414189276011606
0.00362735720530169
0.0032799078474301316
0.00298557648498788
0.0027338408244576284
0.002516440291421493
0.002326841307129811
0.0021598360926744845
0.002011241279865926
0.0018776706578251812
0.0017563629701527403
0.0016450507257022642
0.0015418597405565601
0.0014452318837447284
0.0013538655121722379
0.0012666695538132988
0.0011827282844429354
0.0011012746536623527
0.0010216706320589422
0.000943393532506491
0.0008660276486569529
0.0007892608849736985
0.0007128863485207082
0.0006368091474788576
0.0005610588971623684
0.00048580865233996406
0.0004114011067452711
0.0003383827955197802
0.00026754644991705545
0.00019998018145219593
0.0001371194685547486
8.079505331477083e-05
3.327478589969929e-05
-2.6575360503808265e-06
-2.3391291039752404e-05
-2.3607815229094442e-05
0.012755992604674297
0.02180305084640983
0.022740496665860914
0.019191849765936738
0.01533578848644938
0.012171506930468819
0.00975618890729392
0.007940222430031063
0.00656843251858729
0.0055198803486655595
0.004707037131860867
0.004067763566041542
0.0035578994651590326
0.003145774106645745
0.0028083904871323215
0.0025288230655471713
0.002294444695136677
0.0020957101361215313
0.0019253126131666479
0.001777591956392502
0.0016481140825059457
0.0015333685154389695
0.0014305482246084744
0.001337387586481921
0.0012520419000894567
0.0011729969842621882
0.0010990008318858546
0.0010290116579007372
0.0009621583178173465
0.0008977102307227147
0.0008350547733525435
0.0007736807265899051
0.000713166826566046
0.000653174852232756
0.0005934470095540489
0.0005338076810369671
0.0004741699248360723
0.0004145474521490902
0.000355073198318151
0.0002960260223902056
0.00023786745258265463
0.00018129052380040644
0.0001272820675178657
7.719704658906007e-05
3.283637280217244e-05
-3.493130978311776e-06
-2.8958929605554795e-05
-4.0094158931539003e-05
-3.1785627948144324e-05
0.026424563296195924
0.03335177911772137
0.025075684633734198
0.01772129138434677
0.012755576408950777
0.009485059107112306
0.007286742940570919
0.005761734018852334
0.004670802422586107
0.003868484001069171
0.0032639109742421332
0.0027985277826561156
0.0024334718015212933
0.0021422428236953367
0.0019063248989304102
0.0017124947473318095
0.001551121548299686
0.0014150656104082657
0.0012989483784510772
0.0011986583160657274
0.001111009995430061
0.001033504762092137
0.000964160030743004
0.0009013857741161715
0.0008438940013727955
0.0007906316604069721
0.0007407304277397275
0.0006934688638891434
0.0006482437757478615
0.0006045485687232732
0.000561957036057957
0.0005201115163919745
0.00047871471794574266
0.00043752480473276123
0.000396353602400111
0.00035506803927858044
0.0003135952224367494
0.000271931893232262
0.00023015945352018036
0.00018846635161248043
0.00014718041383271485
0.00010681470472469895
6.813149857017031e-05
3.222905806918308e-05
6.520962385486717e-07
-2.449001858942368e-05
-4.0463339565761924e-05
-4.405225712569155e-05
-3.1466235695332134e-05
0.054629174277360346
0.03147462548531667
0.017508635188290333
0.010786576132965381
0.0072081620114513335
0.005139514064567127
0.0038476391579916752
0.002992054458387877
0.0023985408551877863
0.001971347718451137
0.0016544420438703092
0.001413338030202979
0.001225900234775902
0.001077410500790764
0.0009577835730580214
0.0008599268640616595
0.0007787379152110127
0.0007104717031972269
0.0006523299876784044
0.0006021880817889957
0.000558409000399343
0.0005197145225616581
0.000485094140457408
0.0004537397323246331
0.0004249980220690647
0.0003983355485648529
0.0003733125783207114
0.00034956351740753067
0.0003267821294113474
0.0003047103791816094
0.0002831300813448817
0.0002618567923517723
0.0002407355818086418
0.00021963847917196022
0.00019846353620721346
0.0001771355929328089
0.00015560900601341993
0.00013387282086015778
0.00011195918151650497
8.995623683080711e-05
6.802751418361758e-05
4.644084346475119e-05
2.561163358441587e-05
6.1678013068416915e-06
-1.095357637227734e-05
-2.436922678263065e-05
-3.209192943094685e-05
-3.1535454263507956e-05
-2.0432144065440916e-05

