# vtk DataFile Version 2.0
mesh vtk view
ASCII
DATASET UNSTRUCTURED_GRID
POINTS 231 double
0.0 -4.239444526901416 0.0
200.0 0.0 0.0
198.69288592723032 99.02599141226787 0.0
0.0 95.77460178901654 0.0
10.072864279104556 -4.228030305973341 0.0
20.144851437246952 -4.193877522418292 0.0
30.215087167933667 -4.13725548960684 0.0
40.282703249789535 -4.058611815273613 0.0
50.346841698443285 -3.95856992350967 0.0
60.406660138897685 -3.8379242943600387 0.0
70.46133854835183 -3.697631950704184 0.0
80.51008715184457 -3.5387980532632373 0.0
90.55215460436682 -3.3626526085259503 0.0
100.58683453259333 -3.1705141224610696 0.0
110.613466806017 -2.963734358894473 0.0
120.63142737384504 -2.7436147131105733 0.0
130.64009519442172 -2.5112801578558335 0.0
140.63877918420928 -2.267466081007005 0.0
150.62654243149677 -2.012201765665776 0.0
160.60189356702566 -1.7438172961929839 0.0
170.5613243506572 -1.4586792417066272 0.0
180.49729849486764 -1.1373440056819764 0.0
190.36482702271582 -0.7840352698328799 0.0
200.17382257742094 9.542305552142182 0.0
200.05813237906432 19.348564402634185 0.0
199.9348070751825 29.24414320922683 0.0
199.7874633029378 39.17432657472183 0.0
199.62883764605428 49.126139161490975 0.0
199.45987582441546 59.09280205571955 0.0
199.2809359219933 69.06997931773556 0.0
199.09207769477288 79.05373203382575 0.0
198.89466153682844 89.0401071157105 0.0
188.6873760396414 98.82389716213429 0.0
178.6814759554013 98.61747821555396 0.0
168.6784605522234 98.40298481998614 0.0
158.68216124732842 98.18038515305534 0.0
148.6955061853534 97.95197007536505 0.0
138.72023907246881 97.72115956953911 0.0
128.75704844560164 97.49170915704292 0.0
118.80583726498378 97.26723478776537 0.0
108.8660024245642 97.05098138860411 0.0
98.93666066142991 96.84575235068961 0.0
89.01680308242051 96.65392648726416 0.0
79.10538643612524 96.47751009144083 0.0
69.20137899198781 96.31819386127978 0.0
59.303778366102634 96.17740115556774 0.0
49.41161426741869 96.05632385979878 0.0
39.52394441927489 95.95594681019365 0.0
29.639848292871836 95.87706331305509 0.0
19.758420918243086 95.82028440638108 0.0
9.87876764757847 95.78604404433901 0.0
0.0 85.75113863192973 0.0
0.0 75.73394601161735 0.0
0.0 65.72199367309203 0.0
0.0 55.714547550993956 0.0
0.0 45.71117056739938 0.0
0.0 35.711721069132125 0.0
0.0 25.71634997012383 0.0
0.0 15.72549791475807 0.0
0.0 5.739893768421738 0.0
10.051013676301135 5.751438447894269 0.0
10.030794055577703 15.737145104609887 0.0
10.01179712486751 25.72807265264981 0.0
9.993617488748807 35.72349220502106 0.0
9.975849241238086 45.722962316093536 0.0
9.958083596828464 55.72633083856963 0.0
9.939908030594154 65.73373818788454 0.0
9.920907083868352 75.74562062821282 0.0
9.900664700025851 85.76271218742225 0.0
20.1013270306457 5.785982285051806 0.0
20.06106040643755 15.77199648858204 0.0
20.023237634643163 25.76315092859831 0.0
19.987050379417596 35.75871657564907 0.0
19.951688513627712 45.758249430707906 0.0
19.916335069525243 55.761593471740966 0.0
19.880164422887443 65.76888522992117 0.0
19.84234399514587 75.78055838497819 0.0
19.802039216603898 85.797346775623 0.0
30.150241446061436 5.84325494548108 0.0
30.09027155688742 15.829781747708333 0.0
30.03396375938698 25.821315678001575 0.0
29.98011200482842 35.8171271894461 0.0
29.927505464536534 45.816767530624645 0.0
29.87492022987398 55.82007366161207 0.0
29.82111638115678 65.82717509745785 0.0
29.764840756056067 75.83850074754817 0.0
29.704835068106448 85.85478386706832 0.0
40.19706187636319 5.92280694030963 0.0
40.11790041403733 15.910051307887642 0.0
40.0436153448869 25.902119155161035 0.0
39.97261149670381 35.898279544467364 0.0
39.90328293696401 45.89807604085053 0.0
39.834000730350375 55.90133469439205 0.0
39.763108757653804 65.90817417294491 0.0
39.6889277769066 75.9190157998567 0.0
39.60976732452269 85.93459140972104 0.0
50.24109898433359 6.024011851260285 0.0
50.14342042805855 16.01217837940078 0.0
50.051828504157925 26.004936675651216 0.0
49.96435161378242 36.00155266936965 0.0
49.87899659502332 46.001558332276886 0.0
49.793732020759556 56.0047640967774 0.0
49.706482851052655 66.01127326700517 0.0
49.61513604341994 76.02149606632226 0.0
49.51755669322102 86.0361613879924 0.0
60.2816715462883 6.14607078155346 0.0
60.166305585475904 16.13536311499205 0.0
60.05823417119963 26.128970076557597 0.0
59.95512674599215 36.12615127145814 0.0
59.854612949138534 46.126422040491875 0.0
59.754261700820365 56.129571968561685 0.0
59.65157538642176 66.1356842628549 0.0
59.543997291453515 76.14515408653428 0.0
59.428931785234205 86.15870492967217 0.0
70.31810888976595 6.288020577905737 0.0
70.18603005377003 16.27864041144346 0.0
70.06245669154325 26.273254248255 0.0
69.94472165497535 36.27110981774881 0.0
69.8300886211746 46.27169972628398 0.0
69.7157290865788 56.27478792158522 0.0
69.59871816071114 66.28043387357371 0.0
69.47604416786494 76.28901415921416 0.0
69.3446312311449 86.30124327051064 0.0
80.34975272372128 6.448748104123119 0.0
80.20206707803638 16.440893628819904 0.0
80.0641127672387 26.436668677447397 0.0
79.93291208377693 36.43529977512136 0.0
79.80537249438285 46.436250113455245 0.0
79.67826759000322 56.439255806089065 0.0
79.54823933380084 66.44435280049316 0.0
79.41181039798502 76.4518979913904 0.0
79.26540483310504 86.4625921825016 0.0
90.37595702078009 6.627013814735696 0.0
90.2138863910997 16.620877484080438 0.0
90.06281138154378 26.617956746087327 0.0
89.91946930569597 36.61744165838262 0.0
89.7804136627372 46.6187601205842 0.0
89.64201270583337 56.621625019213496 0.0
89.50046809309524 66.62605797833824 0.0
89.35183101540446 76.6324013012503 0.0
89.19201215286738 86.64133682269195 0.0
100.39608342648035 6.8214891834250775 0.0
100.22094885272965 16.817254694908495 0.0
100.05815591321958 26.815756427498954 0.0
99.90417224523192 36.81612376053699 0.0
99.75518002849603 46.817747479543485 0.0
99.60712005315631 56.82033649487142 0.0
99.45574537024159 66.82392496106232 0.0
99.29664269409464 76.8288580228187 0.0
99.12521574401211 86.83579377656196 0.0
110.40948765561113 7.030814604253886 0.0
110.22269626315284 17.028652706572867 0.0
110.04975095393239 27.02864687077093 0.0
109.88683357170704 37.02982872641455 0.0
109.72969522914427 47.031562155370636 0.0
109.57379985667926 57.03359995593576 0.0
109.41444406629029 67.0360469748031 0.0
109.24678392996783 77.0392892741691 0.0
109.06576458759027 87.04395825924023 0.0
120.41548874438234 7.253687608596508 0.0
120.21853349446889 17.253749973912264 0.0
120.0372197137016 27.255215049697465 0.0
119.86735132130232 37.25696605358159 0.0
119.70410553928275 47.2583798913873 0.0
119.54237553003519 57.25935583493984 0.0
119.37700174605253 67.26017690078774 0.0
119.20279360459598 77.26133697954415 0.0
119.01436132124833 87.26343862518763 0.0
130.41330627115823 7.489000788083985 0.0
130.2078006282498 17.491404217294363 0.0
130.02024670208382 27.49414522694938 0.0
129.84580811634007 37.495896851341186 0.0
129.67879257122613 47.4961701586877 0.0
129.51337221322805 57.49520807015229 0.0
129.34396410862058 67.49364981449986 0.0
129.16520330769623 77.49218899601578 0.0
128.97160506236796 87.49139009526745 0.0
140.40193638381635 7.736056428084133 0.0
140.189738755256 17.740853326690104 0.0
139.99868660652328 27.744312287211102 0.0
139.82265812728164 37.74491395392586 0.0
139.6545499209967 47.74259007345454 0.0
139.48762751554406 57.738305555602786 0.0
139.31602487319702 67.7332882637739 0.0
139.1345119377552 77.72851819572935 0.0
138.93790195407524 87.72447732010411 0.0
150.37990650584103 7.994990827933549 0.0
150.1634929737086 18.001977028088923 0.0
149.9728387782464 28.004852270985133 0.0
149.79908214261195 38.00203336770803 0.0
149.63281407680896 47.994723171490705 0.0
149.4663832173423 57.98513360610461 0.0
149.29401711811641 67.97531644491018 0.0
149.11112439410087 77.96648467552318 0.0
148.91334097257274 87.95892144740722 0.0
160.34478676301003 8.267336608996224 0.0
160.12830519072708 18.275880537641978 0.0
159.944211062594 28.27477714709167 0.0
159.7775468730814 38.26440848005607 0.0
159.61588190986544 48.248444039843804 0.0
159.45120322825215 58.231244455328955 0.0
159.27878834569375 68.21535559518392 0.0
159.09523335558285 78.20188899176844 0.0
158.89754946499227 88.19071482733776 0.0
170.2921977691037 8.55886260069531 0.0
170.0849416318575 18.56420553787457 0.0
169.91707154182848 28.552143874274478 0.0
169.76267961644893 38.52618969500912 0.0
169.606521291593 48.497555942234506 0.0
169.44355975646218 58.47107566682423 0.0
169.27087568129048 68.44865361626765 0.0
169.08664463892254 78.43059127380504 0.0
168.88957211881973 88.41610167492101 0.0
180.21547486700027 8.876529542721508 0.0
180.03973464414742 18.87211013124361 0.0
179.90321235503086 28.825285554206218 0.0
179.75937077911064 38.77614269989603 0.0
179.6068186988665 48.73322634844959 0.0
179.44390716923584 58.698281840010836 0.0
179.27000372711097 68.67070416708273 0.0
179.08456509460126 78.64928353241135 0.0
178.88785257193973 88.63241158588002 0.0
190.10936277357078 9.275255767524794 0.0
190.034679832815 19.16106515423664 0.0
189.90985471436042 29.067364321512226 0.0
189.76980139174543 38.99723106241565 0.0
189.61583590582558 48.945353079808385 0.0
189.4506947453221 58.90687470497983 0.0
189.2745119314574 68.87822975742318 0.0
189.0873559953829 78.85653581829187 0.0
188.89036466383382 88.83927198914938 0.0

CELLS 200 1000
4 0 4 60 59
4 59 60 61 58
4 58 61 62 57
4 57 62 63 56
4 56 63 64 55
4 55 64 65 54
4 54 65 66 53
4 53 66 67 52
4 52 67 68 51
4 51 68 50 3
4 4 5 69 60
4 60 69 70 61
4 61 70 71 62
4 62 71 72 63
4 63 72 73 64
4 64 73 74 65
4 65 74 75 66
4 66 75 76 67
4 67 76 77 68
4 68 77 49 50
4 5 6 78 69
4 69 78 79 70
4 70 79 80 71
4 71 80 81 72
4 72 81 82 73
4 73 82 83 74
4 74 83 84 75
4 75 84 85 76
4 76 85 86 77
4 77 86 48 49
4 6 7 87 78
4 78 87 88 79
4 79 88 89 80
4 80 89 90 81
4 81 90 91 82
4 82 91 92 83
4 83 92 93 84
4 84 93 94 85
4 85 94 95 86
4 86 95 47 48
4 7 8 96 87
4 87 96 97 88
4 88 97 98 89
4 89 98 99 90
4 90 99 100 91
4 91 100 101 92
4 92 101 102 93
4 93 102 103 94
4 94 103 104 95
4 95 104 46 47
4 8 9 105 96
4 96 105 106 97
4 97 106 107 98
4 98 107 108 99
4 99 108 109 100
4 100 109 110 101
4 101 110 111 102
4 102 111 112 103
4 103 112 113 104
4 104 113 45 46
4 9 10 114 105
4 105 114 115 106
4 106 115 116 107
4 107 116 117 108
4 108 117 118 109
4 109 118 119 110
4 110 119 120 111
4 111 120 121 112
4 112 121 122 113
4 113 122 44 45
4 10 11 123 114
4 114 123 124 115
4 115 124 125 116
4 116 125 126 117
4 117 126 127 118
4 118 127 128 119
4 119 128 129 120
4 120 129 130 121
4 121 130 131 122
4 122 131 43 44
4 11 12 132 123
4 123 132 133 124
4 124 133 134 125
4 125 134 135 126
4 126 135 136 127
4 127 136 137 128
4 128 137 138 129
4 129 138 139 130
4 130 139 140 131
4 131 140 42 43
4 12 13 141 132
4 132 141 142 133
4 133 142 143 134
4 134 143 144 135
4 135 144 145 136
4 136 145 146 137
4 137 146 147 138
4 138 147 148 139
4 139 148 149 140
4 140 149 41 42
4 13 14 150 141
4 141 150 151 142
4 142 151 152 143
4 143 152 153 144
4 144 153 154 145
4 145 154 155 146
4 146 155 156 147
4 147 156 157 148
4 148 157 158 149
4 149 158 40 41
4 14 15 159 150
4 150 159 160 151
4 151 160 161 152
4 152 161 162 153
4 153 162 163 154
4 154 163 164 155
4 155 164 165 156
4 156 165 166 157
4 157 166 167 158
4 158 167 39 40
4 15 16 168 159
4 159 168 169 160
4 160 169 170 161
4 161 170 171 162
4 162 171 172 163
4 163 172 173 164
4 164 173 174 165
4 165 174 175 166
4 166 175 176 167
4 167 176 38 39
4 16 17 177 168
4 168 177 178 169
4 169 178 179 170
4 170 179 180 171
4 171 180 181 172
4 172 181 182 173
4 173 182 183 174
4 174 183 184 175
4 175 184 185 176
4 176 185 37 38
4 17 18 186 177
4 177 186 187 178
4 178 187 188 179
4 179 188 189 180
4 180 189 190 181
4 181 190 191 182
4 182 191 192 183
4 183 192 193 184
4 184 193 194 185
4 185 194 36 37
4 18 19 195 186
4 186 195 196 187
4 187 196 197 188
4 188 197 198 189
4 189 198 199 190
4 190 199 200 191
4 191 200 201 192
4 192 201 202 193
4 193 202 203 194
4 194 203 35 36
4 19 20 204 195
4 195 204 205 196
4 196 205 206 197
4 197 206 207 198
4 198 207 208 199
4 199 208 209 200
4 200 209 210 201
4 201 210 211 202
4 202 211 212 203
4 203 212 34 35
4 20 21 213 204
4 204 213 214 205
4 205 214 215 206
4 206 215 216 207
4 207 216 217 208
4 208 217 218 209
4 209 218 219 210
4 210 219 220 211
4 211 220 221 212
4 212 221 33 34
4 21 22 222 213
4 213 222 223 214
4 214 223 224 215
4 215 224 225 216
4 216 225 226 217
4 217 226 227 218
4 218 227 228 219
4 219 228 229 220
4 220 229 230 221
4 221 230 32 33
4 22 1 23 222
4 222 23 24 223
4 223 24 25 224
4 224 25 26 225
4 225 26 27 226
4 226 27 28 227
4 227 28 29 228
4 228 29 30 229
4 229 30 31 230
4 230 31 2 32

CELL_TYPES 200
9
9
9
9
9
9
9
9
9
9
9
9
9
9
9
9
9
9
9
9
9
9
9
9
9
9
9
9
9
9
9
9
9
9
9
9
9
9
9
9
9
9
9
9
9
9
9
9
9
9
9
9
9
9
9
9
9
9
9
9
9
9
9
9
9
9
9
9
9
9
9
9
9
9
9
9
9
9
9
9
9
9
9
9
9
9
9
9
9
9
9
9
9
9
9
9
9
9
9
9
9
9
9
9
9
9
9
9
9
9
9
9
9
9
9
9
9
9
9
9
9
9
9
9
9
9
9
9
9
9
9
9
9
9
9
9
9
9
9
9
9
9
9
9
9
9
9
9
9
9
9
9
9
9
9
9
9
9
9
9
9
9
9
9
9
9
9
9
9
9
9
9
9
9
9
9
9
9
9
9
9
9
9
9
9
9
9
9
9
9
9
9
9
9
9
9
9
9
9
9

CELL_DATA 200
SCALARS STRESS_EQV float 1
LOOKUP_TABLE default
1301.3719541523917
862.7841078612179
458.5055848291373
110.45904814134587
321.68992906716755
682.2581527117903
1051.7208837286046
1435.3229734234765
1841.5266442562538
2279.391773787391
1284.9855505277058
851.8230406510912
457.12787976959277
148.12238598756147
342.401038477605
689.8508746867991
1051.5079883791736
1428.783880641972
1829.5617597866099
2262.858819627467
1252.2717054923849
830.0653956121358
454.85274950510956
203.84343734737743
380.4951511639644
704.8610154312736
1051.2243590107678
1415.8261972114842
1805.666010445892
2229.756533151091
1203.3566375716166
797.8670901482036
452.6523541634262
267.03097395374857
431.4641589946188
726.9662584274312
1051.1556528403296
1396.7014052373852
1769.9131389762422
2180.0075438555596
1138.450319444018
755.8383437270113
452.00092161872266
334.0817329671095
491.4213139577147
755.7424419743586
1051.7296150996817
1371.8118031584524
1722.429494032705
2113.485822352503
1057.8710791035858
704.9656897252124
454.85713164070796
403.78499490525746
557.6137422808295
790.7079944595829
1053.5030007467644
1341.7362398619032
1663.4170763748134
2030.0098930756687
962.0788628644821
646.8441820607665
463.58519294539354
475.81383856656896
628.260961367366
831.3502294355122
1057.1218593421306
1307.2531655161706
1593.1910864442357
1929.3449876352267
851.7215180721427
584.127246216849
480.7978651654321
550.2944715718705
702.27762188063
877.1197998708689
1063.233441870044
1269.342514473086
1512.236752699859
1811.229292961419
727.7148379684816
521.4000834272836
509.16160844292006
627.7245158527583
779.0653025838386
927.382750055834
1072.3224073428187
1229.1315006228756
1421.2878376388624
1675.4509398024086
591.4459633476562
466.739830130449
551.280968364756
709.0390431774989
858.3861665468015
981.3191906207807
1084.4434621555247
1187.7277688182141
1321.4202596693856
1522.0196343225182
445.51354561423904
433.6078985454858
609.8087504327948
795.7636151127966
940.2826856580681
1037.7522870423588
1098.8323127071565
1145.8678389209947
1214.1332612895867
1351.5003578236428
297.3891067086988
439.92907553426255
687.8758532786107
890.2249516668701
1024.9867237539556
1094.8789610232743
1113.4045280096739
1103.3300715595137
1101.3553770757383
1165.605049753791
183.71246783903075
500.1415082138924
789.8673928684489
995.783030131351
1112.7122495626725
1149.8620973651994
1124.2039519150155
1058.1781428693973
985.2790008296842
968.1709491796086
228.549545134727
619.1494641172972
922.6289486364205
1116.9371083745193
1203.1502535201018
1198.1970276163443
1124.9967240335307
1006.1551774301097
867.9770925508998
766.7051334102546
415.6361290105933
800.804333732088
1097.1749340404733
1259.0761419546454
1293.9931531500142
1232.92407532696
1107.3428696980775
941.0194093180456
751.0165102361728
574.8160974640818
674.1944729702326
1062.6826549109926
1331.8376704624043
1425.261583487535
1378.360625478207
1242.9988232911676
1062.349194912851
856.8423263827999
635.954629230416
415.815080146753
1033.4975981191255
1454.8968487692089
1648.8774806601039
1612.9540659702711
1432.7320729206929
1214.7496289479993
984.1751416948107
753.0778930630706
527.1884546549687
322.1906678580234
1575.4158271487884
2086.9086645386988
2105.2311804332558
1744.4510206502064
1422.6652407840675
1133.2789945189543
874.0123790159327
639.5888618796748
436.84317278908975
304.1284179279599
2894.624057219907
3490.240571989208
2351.4101928328582
1735.7179186633482
1307.2962056830183
988.6413926608758
735.4254399736892
529.8539917930782
378.4470815335541
316.60231355902164
8623.327830026825
3682.281813438028
2201.737079023284
1531.7625608522083
1091.1018256182124
783.5745044043905
559.501708302645
405.63031059246265
323.15301502747377
310.0554122741827

SCALARS STRESS_XX float 1
LOOKUP_TABLE default
1299.5005694881452
852.3994134578619
431.01079594853076
27.991302582904638
-363.98034898055704
-752.2522973858452
-1144.2269487001622
-1547.3614519643975
-1969.1410478365492
-2417.030218292621
1282.9411360874599
839.5238305395054
421.76649653004375
22.370576096611536
-365.94883905957596
-750.519744700101
-1138.744260533001
-1538.0991751679119
-1956.1059162701163
-2400.274335198782
1249.8703006723256
813.79533912391
403.2730249947723
11.102267554949528
-369.9246143470676
-747.093464422009
-1127.8059001411918
-1519.5798331111655
-1930.013228240877
-2366.714123751708
1200.3905554205708
775.2604892506135
375.5188050604474
-5.870330497320719
-375.98836575630304
-742.0539854456775
-1111.4684364891125
-1491.815411899455
-1890.8170711927503
-2316.2464801103197
1134.6708370194501
723.991173795307
338.48154754448274
-28.639244950949205
-384.26762334710173
-735.5278115548326
-1089.8220204091085
-1454.8277237012946
-1838.4468671476473
-2248.7024988979015
1052.9618601612337
660.0841759725664
292.1212830555767
-57.338513413094944
-394.9405868737077
-727.6895597613927
-1062.993338395666
-1408.652604854484
-1772.8082362240086
-2163.8347113062587
955.6103194826455
583.6546764886559
236.3690348054884
-92.14970682708727
-408.23325310725994
-718.7552420678803
-1031.1424046221975
-1353.344225807413
-1693.789781702284
-2061.3096482711267
843.0636744158256
494.8164938248108
171.1087842194137
-133.30198755652103
-424.4000375457541
-708.9549138118721
-994.4440437464633
-1288.977095895174
-1601.2821461618857
-1940.7189593606342
715.8511532852498
393.63681267152464
96.14905603021293
-181.0590786782606
-443.67131416682446
-698.4652868936147
-953.0389653421686
-1215.6411670549257
-1495.2190612000418
-1801.6323802606223
574.5170215589064
280.04513378176784
11.178965485628535
-235.6789609267208
-466.140316793079
-687.2721362243917
-906.9321110788985
-1133.4230621632755
-1375.6544698717453
-1643.730295369775
419.4668266706165
153.66259382455019
-84.29579228591876
-297.3181524055737
-491.542977539926
-674.9192446860473
-855.810569663748
-1042.3668369756738
-1242.895012566658
-1467.0710659660595
250.65884476626553
13.497342077309332
-191.03448190630405
-365.81673577685046
-518.853207534886
-660.0881491899158
-798.7609455762478
-942.417841599565
-1097.7134749674046
-1272.5615818806418
67.02072666808053
-142.59576490100045
-310.10844030789923
-440.2240680664931
-545.5547733679192
-639.965192674915
-733.9068364640876
-833.391733170496
-941.6730157920374
-1062.6911335069785
-134.69077954001293
-318.80187223478805
-442.76486767455776
-517.6767310688562
-566.4099969748171
-609.41156308379
-658.1366503622298
-715.0840280940868
-777.5915672860245
-842.5221752643291
-362.10503015715335
-523.0232167489498
-589.1986182181647
-590.9917639383428
-571.3795069318874
-560.3918675163675
-567.3301971752144
-587.7914967416061
-610.1085542272456
-620.7699799326805
-632.9253274587649
-768.058719959497
-745.0603384736115
-642.3591917257535
-543.7714039905155
-482.5519497095999
-458.26883554907283
-453.3967859990765
-446.18089811303264
-410.51678061514593
-986.1187783294006
-1076.6286776324937
-881.9428224542443
-636.2134724244803
-458.8995904864417
-370.20947134345
-332.2710528191013
-317.0377040105768
-294.99337759184925
-228.77528451074807
-1536.312007161641
-1433.1318898189838
-924.9642648249686
-494.3053247753386
-313.7034302320097
-231.24931562220567
-200.6023187220364
-188.30574511902924
-166.71328881305845
-93.80264652425907
-2526.778307420858
-1771.1101293955217
-527.7199989406641
-262.6254375976217
-139.44592259773694
-99.27064094666679
-85.5186679815233
-81.64223305136484
-70.24917387099967
-18.72971982245427
-5088.456532638024
-161.49016103567055
-200.02389906448116
-42.05647544406196
-27.783926063893546
-17.866723141807142
-16.25215903595577
-16.200867632291505
-13.841879110457356
0.882391530190759

SCALARS STRESS_YY float 1
LOOKUP_TABLE default
-3.6907969976880963
-19.94476294152662
-49.08060300369121
-87.46103157129264
-131.45761708799284
-177.41544438666716
-221.63344232840535
-260.36409975797744
-289.8326593782607
-306.2723235700124
-3.6795323634391366
-19.888104645366298
-48.95618285369437
-87.27311679649895
-131.23197248622523
-177.18959888016607
-221.44497644949118
-260.23897496534084
-289.7754776043044
-306.26090873413045
-3.6552551246314238
-19.76697881826135
-48.69201467377272
-86.87608827758467
-130.75656220243891
-176.71403700432205
-221.04740902550643
-259.97388971959157
-289.65350742662014
-306.2363538559034
-3.6146157582782052
-19.56675665384131
-48.26013092666943
-86.23225188415368
-129.98936624844563
-175.94757758940332
-220.40498218763778
-259.5426763807862
-289.4529739309352
-306.1954495874078
-3.5530560590091795
-19.26850854538054
-47.62658323189808
-85.29892971177415
-128.8856430893204
-174.84778830543422
-219.48045395214285
-258.91667253117964
-289.15768415822123
-306.1341648178719
-3.4656548452460356
-18.854176172200283
-46.764770322105534
-84.05122950015021
-127.42785821026352
-173.40278265494015
-218.26242369719657
-258.08281738938433
-288.75698671936095
-306.04912810918677
-3.348747840919714
-18.31620421270867
-45.679836230078294
-82.52337762100811
-125.67985896302754
-171.6889343975104
-216.81540714800244
-257.07744604618745
-288.26110578904974
-305.9406083371959
-3.202785138476827
-17.67429616178731
-44.45080464941637
-80.879651075624
-123.8794201643828
-169.9692981392462
-215.36559697718724
-256.0449375251676
-287.72843247841905
-305.8180091758706
-3.0370231577052778
-17.0033148484369
-43.30055027575895
-79.53139166382667
-122.58912793887215
-168.85233629860016
-214.43834625412254
-255.33218979283458
-287.31030805229784
-305.70916327719357
-2.877227268472268
-16.47870750155613
-42.7104984189326
-79.32548141618935
-122.93340172953845
-169.53370827589274
-215.06263066662788
-255.62757129393918
-287.3175854127884
-305.67449092036776
-2.7771226596708516
-16.453399337034305
-43.610695350719496
-81.8485093796586
-126.9591288398637
-174.14178372821624
-219.04489478326693
-258.13976435062835
-288.3055965284673
-305.8255650397042
-2.844090456671836
-17.59096705296762
-47.71935925491599
-89.92449794101715
-138.1752573324253
-186.18477584217302
-229.27622251622896
-264.7729175106413
-291.153824303354
-306.34275670095207
-3.2588500061174805
-21.165759873873405
-58.171888102424205
-108.49634567236993
-162.31805094277897
-211.04303573245318
-249.92974904569164
-278.1770392887327
-297.0732740132265
-307.4782185494483
-4.511679405648508
-29.601175620780225
-81.01271927657132
-146.12376466911573
-208.44631662282632
-256.19518269286925
-286.2283433129669
-301.40203815318756
-307.4228694569388
-309.51855045742394
-6.986081564694899
-48.87512425852819
-127.9264077893845
-218.30826596375374
-289.7130423062503
-330.6071900652465
-342.9807220231475
-336.79048741382644
-323.1789126330332
-312.6798812092878
-16.227120524169806
-90.39302477034931
-227.26546158779445
-350.44802143604977
-423.8282455919258
-440.5282171281441
-421.14194007651827
-383.7538543883958
-343.98231869827305
-316.92152459254584
-24.113846763284585
-209.475371921516
-429.2741993779205
-591.3403318662433
-619.7178909633194
-580.8076544968754
-511.91401014856615
-435.6763747502039
-366.8173301161913
-321.68440137659684
-177.12135840725813
-463.2365031111274
-923.5437333406193
-951.6396094474105
-854.7982260140736
-721.2725042858413
-591.19586218867
-476.71215662782646
-384.31161300093396
-325.482239424183
-65.60869033489053
-1829.8716019527512
-1649.6644012701327
-1339.0655848292201
-1041.357661713317
-803.6995855110172
-618.5586760153201
-479.6449627923799
-381.6078729091869
-324.4168805806468
-5862.4264652945885
-3286.575261584568
-2146.289160062146
-1483.3525192876723
-1059.855351570468
-759.9585646051712
-545.7739112214979
-403.72912933386374
-328.89966739557013
-309.35938168496654

SCALARS STRESS_XY float 1
LOOKUP_TABLE default
4.374858914394258
11.732560289831751
17.261611916451127
20.977035487764283
22.87356751520516
22.93181010521479
21.127248016085908
17.44020269345573
11.86495363052136
4.416151431300024
13.111623476569939
35.1670112459242
51.74983189062734
62.90429699126012
68.61067875507884
68.80523401887956
63.40840398920118
52.35562236552489
35.62572065938416
13.261576608034503
21.80749230878526
58.505550535734315
86.12936529885461
104.74876342011977
114.31700376080938
114.70899083611482
105.7719554155947
87.3796470001238
59.48284534220372
22.148386082593138
30.4285807532391
81.6718557113478
120.31646304775114
146.44827394409697
159.97012570749607
160.6661909014205
148.280079534192
122.595481182266
83.51232065881871
31.11062856056118
38.93177005974924
104.57354122636524
154.21420609997088
187.9338425111717
205.54672803529374
206.70360345425544
191.00271307717702
158.09831081449087
107.80437658612055
40.190908136892325
47.26283922049174
127.10190271190748
187.71630877364194
229.13560785395887
251.02695238947862
252.8516736848329
234.0133556893084
193.98992117077748
132.46067906579646
49.44075944174195
55.357455272259976
149.1406415633179
220.72378233556708
270.001010926078
296.40553152805285
299.14285182341007
277.3749606566856
230.35892946448922
157.57883070943797
58.91600572341247
63.14738207228706
170.59050697443945
253.18410556712433
310.5342095160044
341.71468905805136
345.6072338703477
321.10906275414027
267.2361722422603
183.21411482538628
68.66252312322605
70.57556635742402
191.42088298664203
285.1681713468352
350.8704965612557
387.0657549142101
392.2632586022238
365.1375864559087
304.50976603212985
209.30337822577366
78.6851385208791
77.62565087635868
211.76595762587087
317.008985650229
391.4054194650493
432.71684719718775
439.0969825513969
409.1809049964939
341.77875124219213
235.53103684017134
88.88946355813694
84.3747146346968
232.0952610251804
349.5402870795923
433.00404789707665
479.16743002823046
486.0110090372253
452.58553171636703
378.1202071527044
261.1162161039072
98.98529532757551
91.08501349587864
253.51432558840784
384.4987741944183
477.3147289329694
527.2537044701958
532.6903941090094
494.0377518970539
411.7474477676982
284.51228462536994
108.34557492098673
98.36913885549454
278.3152495514472
425.197553493436
527.186829195161
578.1305439131803
578.258428160427
531.0918165737943
439.5631091751721
303.05114888600446
115.83618219663278
107.51839354782716
311.05846491533464
477.67142614316685
587.0411752731386
632.8155230203602
620.4261972957999
559.441530196916
456.686496680018
312.66392921379503
119.67686371264547
121.26311449878081
360.97476486271995
552.4631876332712
662.6616417631196
690.3009459261781
653.7153297051457
571.9243025137376
456.27237382379815
307.96263857740007
117.46170069261503
146.00337139462684
447.45073461186894
667.4212972826987
757.4177496014427
742.7484932029341
666.0085911672786
558.0355959628411
430.24639071246236
283.1462524994236
106.52152355923009
199.06839683003554
616.2366407705896
843.6612204955351
860.888791553087
762.1177469453492
636.7219622300513
505.3826637004916
371.89843653117254
234.20810076729873
84.81604017009712
347.5735601392839
957.533586501056
1092.0548452062878
887.6099348426374
698.3408130838657
540.8033471902701
405.2731842849333
280.5518467711176
162.69918458167894
52.55969739403788
847.6858563274203
1726.0187532769096
1064.5515107231943
707.6535445657362
500.12181994219867
365.79041921121177
260.65341838961785
166.5130564485873
80.56119049098082
15.45043062582064
3826.7501949225993
1042.7995812003055
458.39887022265236
262.4104152067663
178.77809690019606
128.725461756217
89.02971629945466
51.0458391064909
14.304681362880661
-7.242856964213182

SCALARS STRAIN_EQV float 1
LOOKUP_TABLE default
0.007441302065889076
0.004972191660091204
0.0027291883286075726
0.0007885379041136642
0.0015820820305898079
0.003520396031819576
0.005528890362462805
0.007634875757112831
0.009893988405303396
0.012365787881115598
0.007351669609221152
0.004952179564461851
0.0028824617797381267
0.0015089684235219726
0.002133596505756086
0.0037891265838461024
0.005653022537702628
0.00765984011836988
0.009847733606436641
0.012273476318340033
0.00717299255366503
0.004914741125932112
0.0031679337054137404
0.002363205330163668
0.002940915486516261
0.00427695219224704
0.0058949009261090235
0.007711313880552898
0.009756466628066432
0.012088780193861752
0.006906529310450415
0.004865084591948696
0.0035556956110769774
0.003246393244794967
0.0038457170509307525
0.004920418354589184
0.006243654032328956
0.00779238091343922
0.00962281163841722
0.01181154993676525
0.006554386893419706
0.004811090586149601
0.0040183538564584
0.004138826820594857
0.004792516508076222
0.005668488891388443
0.00668658608063372
0.007907595868971893
0.00945105099955663
0.01144156509524433
0.00611982845094466
0.004763336501990253
0.004535308132063202
0.005034267027726333
0.005760055716273991
0.006487098755067411
0.007211312661422046
0.008062732230920045
0.009247520510118722
0.01097857977568161
0.005607793258437067
0.004735067287316959
0.005092718684516609
0.005930421030025708
0.006739087960971892
0.0073548577201604315
0.00780670469417792
0.008264141491158764
0.009021043933521674
0.01042246594402402
0.005025838675752183
0.004742150218631581
0.005682710244652954
0.006827525465655713
0.007725714957569469
0.008258195412256947
0.008462558703419372
0.008517424379500564
0.008783183378119952
0.009773555492706034
0.004386065031575914
0.004803206263369603
0.006303536062700663
0.007729159216367382
0.008719558641302371
0.009187782226263787
0.009168092686643427
0.00882503081714345
0.008547802323555703
0.009033342583163502
0.0037096172819319176
0.004940364880264378
0.0069614180909761975
0.008644497920933934
0.009723853235611533
0.01013588326677086
0.009909243922447021
0.009182367657726436
0.008329013521644136
0.008205779258632598
0.003038431227019503
0.005181415768381222
0.007674631688600475
0.009592128728385765
0.010746489297828954
0.011093824670646185
0.0106644831534667
0.00957205481798508
0.008136198063074246
0.0072994469465199165
0.0024663577145549887
0.005564546408482964
0.008480739136783424
0.010605670722686564
0.011801146693644866
0.012048296902306526
0.011398530996297786
0.00995621384381351
0.007965032253840341
0.006330830395238097
0.0021946640196743384
0.006147813631433236
0.009448612496803609
0.011741026941858163
0.01290627414817628
0.012974094237528357
0.01205296167798228
0.010267378302566882
0.007785274294944137
0.005328597677340947
0.002474557184586534
0.007028337332783109
0.010698635900507528
0.013082437747696619
0.0140760536587723
0.013818067620488038
0.012532985247409183
0.01040027587811368
0.007529978756508775
0.004337950491312636
0.003349380186358325
0.008385381078911616
0.012434630034090162
0.014737992519045551
0.015285167418158822
0.014467324044886565
0.012691171616771102
0.010211603125930039
0.007095309707092316
0.003422559831470839
0.004772225688344522
0.010585808017511923
0.014996068739212151
0.01676913452220039
0.016381546466108562
0.014687589166643325
0.012324711100569532
0.009540959199904676
0.0063633657075560564
0.002659277493558569
0.007036493649222186
0.014478111792618806
0.01879189789461857
0.018990145342910783
0.016831766556875755
0.014098777146021558
0.0112126048834753
0.00827270892830277
0.005260472947737629
0.002119755627311323
0.011008890090364735
0.02188084226442379
0.024139715653560417
0.01976946467039066
0.015716842323004337
0.012259987443937387
0.009232675475978148
0.006443068802426458
0.0038650319778444023
0.001841684676435426
0.023349516694341647
0.038302245556208966
0.024401087935171442
0.016805525435444422
0.012182417365531639
0.009022556484627913
0.006520047955984763
0.0043488893864992205
0.0025612283775696652
0.001796016557602968
0.08585947583283846
0.0291113493950452
0.01513624690966985
0.010077637127445955
0.007102004697079936
0.0051070869789374964
0.00361305715045986
0.002494155038378994
0.0018394419627088584
0.0017784618541476377

SCALARS STRAIN_XX float 1
LOOKUP_TABLE default
0.006193897773797058
0.0040903865963265035
0.0021295590235226136
0.00027073068095919626
-0.001526663501626283
-0.003303358098753548
-0.0051004186320561355
-0.006959244281163166
-0.008921410810674872
-0.011028382626259606
0.006115025627463785
0.004028985262249887
0.0020853430327226804
0.00024367002209264854
-0.0015363918482815316
-0.003295462747950696
-0.005074606753831755
-0.006915334825854045
-0.00885942861266998
-0.010948610644364377
0.00595750730887359
0.003906278295875887
0.00199686376112913
0.00018938750803120224
-0.0015560711848583938
-0.003279894439098013
-0.005023144072203689
-0.006827564045255715
-0.008735369384714725
-0.01078883869990124
0.005721825612480013
0.0037224643759351484
0.0018640221346011825
0.00010755386964023811
-0.0015861517852110286
-0.0032571013563865454
-0.004946356154129486
-0.006696030136637122
-0.008549036141883532
-0.010548580865459406
0.005408777835804396
0.003477856102929917
0.0016866586667190911
-2.336181647922533e-06
-0.0016273112434648856
-0.0032277525781620924
-0.004844730812404292
-0.0065208820084095495
-0.008300118244644925
-0.010227039164323829
0.005019550125048405
0.003172885971949488
0.0014645412250565313
-0.00014096003656212082
-0.0016804256841158128
-0.003192698292786964
-0.004718889231312338
-0.0063023108338856534
-0.007988183002888664
-0.009823040471572508
0.004555787648905471
0.002808090589899285
0.0011973494321972106
-0.00030912853434359334
-0.0017464709507117185
-0.003152847112936676
-0.00456949200125408
-0.006040517469581768
-0.007612683889485227
-0.0093349964167612
0.004019621873864395
0.0023840429121819075
0.0008846549988272435
-0.0005076747747693577
-0.0018262848994833707
-0.003108881168694861
-0.004397016174971388
-0.0057356298405327084
-0.007173008397352416
-0.00876094769682189
0.0034135874806061547
0.0019011805074833753
0.0005258963696248256
-0.0007372081877580847
-0.0019200804854618888
-0.003060685790071793
-0.004201306243230039
-0.00538753116392043
-0.006668603140679921
-0.008098801697043564
0.002740316697892868
0.001359443367891816
0.00012034966649464903
-0.000997626438377992
-0.002026534734392054
-0.003006314345206415
-0.003980768775994816
-0.004995552207791788
-0.0060992365080263095
-0.007346941492219303
0.0020018251292776568
0.0007575819790751025
-0.0003328774420008635
-0.0012871816395727924
-0.0021411736429655763
-0.0029402497907415996
-0.0037310750208822373
-0.00455800340352365
-0.005465496027201255
-0.0065054696642997956
0.001198082831509368
9.19160057370888e-05
-0.000834700444534199
-0.0016006745307443563
-0.0022535970124532654
-0.0028507008245809463
-0.003443332343551868
-0.004071632280100254
-0.0047696795854633225
-0.005578421296044418
0.0003242673674766633
-0.0006457669721077249
-0.001385293891590949
-0.0019258108285457667
-0.002342808650270487
-0.0027158142423009783
-0.0031020477108524257
-0.0035313967152629244
-0.004017327787465108
-0.004577253911360289
-0.0006342948825530902
-0.001471588020380622
-0.001981098430063282
-0.0022355042320383236
-0.0023696319642346874
-0.0024993673942625867
-0.002684196652709289
-0.0029315302643025468
-0.003219723906501118
-0.003525624064825615
-0.001713331539241924
-0.0024137829797315977
-0.0026046804935603227
-0.0024711906484300196
-0.0022655914427182136
-0.0021490071180706484
-0.0021626026614646465
-0.00226976493283354
-0.002397426252658784
-0.002464693424445788
-0.002988430369932328
-0.0035153762942156273
-0.0031907749340459018
-0.002508149260246938
-0.001923371823548476
-0.0016056078002729159
-0.00152043807297058
-0.0015559905430995516
-0.0015841272997266787
-0.0014568222738076467
-0.004657910518559603
-0.004797627642373302
-0.003525153984093002
-0.0021003388709934286
-0.0012113937450883155
-0.0008502045017118147
-0.0007778068070003544
-0.0008250690492524262
-0.0008283031364452673
-0.000583902057411767
-0.007037437899463076
-0.0060964944942491035
-0.0029533087277264967
-0.0008584012078937768
-0.0001505715030826922
3.224100377200931e-05
-2.6227067617977384e-05
-0.00014757492110403087
-0.00018995455487023916
6.479282136057779e-05
-0.011929178283858782
-0.00555834524167197
7.937739751657027e-05
0.0008536485971239096
0.0009723909798459891
0.0007902391536760422
0.0005647890243025352
0.00036495526033390735
0.00026514963899539057
0.0004206088131864724
-0.015018360948051476
0.0043956175013677955
0.0024202453512191776
0.0021307135996231907
0.0015331825712112425
0.0011091409675138067
0.0007802534841292313
0.0005572845002280169
0.0004509286244289562
0.000490338035648713

SCALARS STRAIN_YY float 1
LOOKUP_TABLE default
-0.002059647547279886
-0.0014344598542029574
-0.0009110198365081257
-0.0004604674353507199
-5.401953297337614e-05
0.00033727530357458013
0.0007426735749649915
0.0011917389494774944
0.0017142089828942886
0.0023397507069835843
-0.0020335719393919094
-0.0014139569939209673
-0.0008959006033743278
-0.0004507400328970512
-4.985169331697681e-05
0.0003356281755755586
0.0007349553786971386
0.0011777797754289054
0.001693997498880162
0.0023134743899117516
-0.001981487877840471
-0.0013729497177578653
-0.0008655814901049885
-0.000431142078908181
-4.1340187942412454e-05
0.0003325086012140044
0.0007196597048623188
0.0011499402628909194
0.001653575513775568
0.0022608538427721925
-0.0019035404716526982
-0.0013114415147930658
-0.0008199111266505577
-0.0004014049658097041
-2.8158121661264746e-05
0.00032823922670319194
0.0006970457231131877
0.0011083638549811148
0.0015929364741079644
0.0021817423278523707
-0.0017999734870258466
-0.001229455218561104
-0.0007586928281979877
-0.00036118085179981385
-9.892035165603996e-06
0.0003232209024174315
0.000667432441823157
0.001053221315667846
0.0015120465809547734
0.002075893618183028
-0.0016711574699926346
-0.0011270569249673679
-0.0006817371130021233
-0.00031014057178013754
1.382159741933342e-05
0.00031778462888723547
0.0006310732284446341
0.0009846311533933116
0.0014108082439741043
0.0019429348886756126
-0.0015176197774771083
-0.0010043916545426912
-0.0005889600843613785
-0.0002481617827050919
4.303387886842036e-05
0.0003119061689756675
0.0005879123160824895
0.0009025054689059953
0.001288997724631924
0.0017823408361536952
-0.0013400657033128538
-0.0008617320910665471
-0.0004805557306753472
-0.00017566664372367646
7.701234393198142e-05
0.0003046943972317695
0.0005371473212340272
0.0008062738291439997
0.0011461651226428726
0.0015934249876816131
-0.0011393709701992272
-0.0006995403001430478
-0.00035728447031299626
-9.419950333333649e-05
0.00011344002731514258
0.00029352956369663175
0.00047649767766091977
0.0006944256920728142
0.0009814856292557905
0.0013753786771848187
-0.0009165135446805306
-0.0005185409602359026
-0.00022095027156757152
-7.387734811292734e-06
0.0001471090610103698
0.00027269569846741226
0.00040107126661623194
0.0005638192343806747
0.0007935637602137502
0.0011274119359602763
-0.0006723865498141635
-0.0003198193109482661
-7.52051614112681e-05
7.745943292467028e-05
0.00016785739880148531
0.00023134079532466378
0.0003017742533608092
0.0004087680564349716
0.0005802369410406183
0.0008490851749004547
-0.0004074357582359023
-0.00010497661875466524
7.296199892459221e-05
0.00014664297554925487
0.00015736333882898634
0.00015068720662142487
0.0001634042358282517
0.0002201189057962627
0.00033853153540899794
0.000540964596760285
-0.00012083661812659074
0.0001232897263974131
0.00021030427237705984
0.0001751314132836801
8.435725842206865e-05
6.927516679466894e-07
-3.685949053591764e-05
-1.5036987345090624e-05
6.513724380069474e-05
0.0002057612167040701
0.00019017275163121794
0.0003600163915080945
0.00030999850979063215
0.00011766455516003249
-0.00010252865533874611
-0.0002623303184534215
-0.00032877737473062385
-0.0003115443280101854
-0.00024198882025024127
-0.00014993444104854925
0.0005357551351769796
0.0005891549393744061
0.00031671017248861844
-0.00011086182792428845
-0.00048170383342251155
-0.0006937041608802152
-0.0007417226521682224
-0.0006800918737576017
-0.0005802051892287718
-0.0005134561325309678
0.0009173249406534412
0.0007765064419823081
8.859261956427333e-05
-0.0006593785150788151
-0.0011637318203574082
-0.0013394574939236958
-0.0012853010683110677
-0.0011149186428985741
-0.000936869630099868
-0.0008640523189978461
0.0014347873813591316
0.0006943432937962235
-0.0006582527046096187
-0.0018161423141245941
-0.002229909648108541
-0.0021839929950168424
-0.0019155455367536323
-0.0015764472972700644
-0.0012831881690994335
-0.0011723264642288095
0.0015707695426480164
4.617628823398723e-05
-0.002944312028325617
-0.003754851677483566
-0.0035775052097024307
-0.0030712391910976827
-0.0024999861762399905
-0.001974148860659747
-0.001568077274726784
-0.0014025112670056072
0.0036582292910190134
-0.005930501234534424
-0.007026270483903398
-0.005963805668676214
-0.004739716701219351
-0.0036711441618981766
-0.0028111310265781786
-0.0021557286946925214
-0.001706788788246462
-0.001515409871615414
-0.01992017052154305
-0.01539658813544189
-0.009906101301766036
-0.0069974946780530095
-0.005003269790330396
-0.003590774028420833
-0.002573384279712536
-0.001897061157215274
-0.0015444373680434248
-0.0014745265280472833

SCALARS STRAIN_XY float 1
LOOKUP_TABLE default
5.541487958232727e-05
0.00014861243033786886
0.00021864708427504764
0.0002657091161783476
0.0002897318551925987
0.00029046959466605404
0.00026761180820375485
0.00022090923411710595
0.00015028941265327056
5.593791812980031e-05
0.00016608056403655258
0.0004454488091150399
0.0006554978706146131
0.0007967877618892949
0.000869068597564332
0.0008715329642391412
0.0008031731171965484
0.0006631712166299819
0.0004512591283521994
0.00016797997036843704
0.00027622823591128
0.0007410703067859681
0.0010909719604521584
0.001326817669988184
0.0014480153809702523
0.0014529805505907878
0.0013397781019308663
0.0011068088620015681
0.0007534493743345805
0.00028054622371284643
0.0003854286895410286
0.0010345101723437389
0.0015240085319381813
0.0018550114699585618
0.002026288258961617
0.0020351050847513263
0.001878214340766432
0.0015528760949753695
0.001057822728345037
0.00039406796176710834
0.0004931357540901571
0.001324598188867293
0.0019533799439329647
0.0023804953384748417
0.0026035918884470544
0.0026182456437539026
0.002419367698977576
0.002002578603650218
0.0013655221034241938
0.0005090848364006362
0.0005986626301262288
0.0016099574343508283
0.002377739911132798
0.002902384366150146
0.0031796747302667294
0.00320278786667455
0.0029641691720645735
0.0024572056681631815
0.0016778352681667552
0.0006262496195953982
0.0007011944334486264
0.0018891147931353602
0.0027958345762505166
0.0034200128050636547
0.003754470066022003
0.0037891427897631946
0.0035134161683180176
0.0029178797732168638
0.0019959985223195476
0.0007462694058298913
0.0007998668395823028
0.0021608130883429
0.0032069986705169085
0.003933433320536056
0.004328386061401984
0.004377691629024405
0.004067381461552444
0.0033849915150686305
0.0023207121211215598
0.0008697252928941968
0.0008939571738607044
0.002424664517830799
0.0036121301703932462
0.00444435962310924
0.004902832895579995
0.0049686679422948354
0.004625076095108177
0.003857123703073645
0.002651176124193133
0.0009966784212644686
0.0009832582444338767
0.0026823687965943643
0.004015447151569568
0.004957801979890625
0.005481080064497712
0.005561895112317694
0.005182958129955589
0.004329197515734434
0.002983393133308837
0.0011259332050697346
0.0010687463853728263
0.002939873306318952
0.00442751030300817
0.0054847179400296375
0.00606945411369092
0.006156139447804854
0.005732750068407316
0.004789522623934256
0.003307472070649492
0.0012538137408159566
0.0011537435042811295
0.003211181457453166
0.004870317806462632
0.006045986566484279
0.006678546923289147
0.00674741165871412
0.00625781152402935
0.005215467671724178
0.003603822271921353
0.0013723772823324987
0.0012460090921695977
0.0035253264943183316
0.0053858356775835226
0.00667769983647204
0.007322986889566951
0.007324606756698743
0.006727163009934728
0.005567799382885513
0.00383864788588939
0.0014672583078240153
0.0013618996516058107
0.003940073888927573
0.00605050473114678
0.007435854886793089
0.00801566329159123
0.007858731832413465
0.00708625938249427
0.005784695624613562
0.003960409770041404
0.001515906940360176
0.0015359994503178903
0.004572347021594453
0.006997867043354769
0.008393714128999516
0.008743811981731589
0.00828039417626518
0.007244374498507344
0.005779450068434777
0.003900860088647068
0.0014878482087731237
0.0018493760376652735
0.0056677093050836735
0.008454003098914184
0.009593958161618274
0.0094081475805705
0.008436108821452196
0.007068450882195987
0.00544978761569119
0.0035865191983260325
0.001349272631750248
0.0025215330265137836
0.007805664116427469
0.010686375459610112
0.010904591359672436
0.009653491461307756
0.008065144854913983
0.006401513740206227
0.004710713529394853
0.002966635943052451
0.0010743365088212303
0.00440259842843093
0.01212875876234671
0.013832694705946315
0.011243059174673407
0.0088456502990623
0.006850175731076755
0.005133460334275822
0.00355365672576749
0.0020608563380346
0.0006657561669911466
0.010737354180147325
0.02186290420817419
0.013484319135827129
0.008963611564499326
0.006334876385934517
0.0046333453100086824
0.003301609966268493
0.0021091653816821057
0.0010204417462190904
0.00019570545459372812
0.04847216913568626
0.01320879469520387
0.00580638568948693
0.0033238652592857063
0.002264522560735817
0.0016305225155787487
0.0011277097397930924
0.0006465806286822182
0.00018119263059648838
-9.174285488003364e-05

