# vtk DataFile Version 2.0
mesh vtk view
ASCII
DATASET UNSTRUCTURED_GRID
POINTS 5151 double
0.0 -1.1245803961655643 0.0
200.0 0.0 0.0
199.69085751496024 99.66228738173916 0.0
0.0 98.87731129250383 0.0
2.003637881170696 -1.1244719309690414 0.0
4.0072741681224295 -1.124146568007374 0.0
6.01090726681262 -1.123604405160954 0.0
8.014535583553306 -1.1228456055526244 0.0
10.018157525192718 -1.1218703975306812 0.0
12.021771499299733 -1.1206790746444721 0.0
14.02537591435391 -1.1192719956120085 0.0
16.02896917994138 -1.1176495842788194 0.0
18.032549706960236 -1.1158123295670737 0.0
20.036115907835928 -1.1137607854138443 0.0
22.039666196745657 -1.111495570697169 0.0
24.043198989855238 -1.109017369148357 0.0
26.046712705568723 -1.1063269292487838 0.0
28.05020576479567 -1.103425064109195 0.0
30.053676591232126 -1.1003126513292927 0.0
32.057123611656294 -1.0969906328351529 0.0
34.0605452562456 -1.0934600146917135 0.0
36.06393995891275 -1.0897218668873532 0.0
38.06730615766198 -1.0857773230872125 0.0
40.07064229496696 -1.0816275803516893 0.0
42.07394681817111 -1.0772738988161188 0.0
44.07721817991135 -1.0727176013273636 0.0
46.080454838565835 -1.0679600730326257 0.0
48.083655258726424 -1.0630027609154218 0.0
50.08681791169619 -1.0578471732732444 0.0
52.0899412760123 -1.0524948791309585 0.0
54.09302383799438 -1.0469475075835728 0.0
56.09606409231794 -1.041206747061457 0.0
58.09906054261281 -1.0352743445105927 0.0
60.10201170208535 -1.0291521044798944 0.0
62.104916094163706 -1.0228418881069774 0.0
64.10777225316728 -1.0163456119931749 0.0
66.1105787249893 -1.0096652469579215 0.0
68.11333406779534 -1.0028028166618839 0.0
70.11603685275122 -0.9957603960873536 0.0
72.11868566474755 -0.9885401098637929 0.0
74.121279103135 -0.9811441304253127 0.0
76.12381578246136 -0.9735746759860033 0.0
78.12629433320535 -0.9658340083179122 0.0
80.1287134024997 -0.9579244303153381 0.0
82.13107165483711 -0.9498482833278131 0.0
84.13336777275012 -0.9416079442426827 0.0
86.1356004574554 -0.9332058222966948 0.0
88.13776842945194 -0.9246443555941196 0.0
90.13987042906072 -0.9159260073069857 0.0
92.14190521689244 -0.907053261530707 0.0
94.14387157422804 -0.898028618765723 0.0
96.14576830329494 -0.8888545909927947 0.0
98.14759422741999 -0.8795336963060887 0.0
100.14934819103775 -0.8700684530640654 0.0
102.15102905953066 -0.8604613735134914 0.0
104.15263571887432 -0.8507149568361774 0.0
106.15416707505837 -0.8408316815615191 0.0
108.15562205324966 -0.8308139972799223 0.0
110.15699959665993 -0.8206643155829105 0.0
112.1582986650775 -0.8103850001444302 0.0
114.15951823301303 -0.7999783558444633 0.0
116.16065728740718 -0.7894466168198452 0.0
118.16171482483742 -0.7787919333076807 0.0
120.16268984815312 -0.7680163571230836 0.0
122.16358136245799 -0.7571218255842695 0.0
124.16438837034298 -0.7461101436630231 0.0
126.16510986625903 -0.7349829640957857 0.0
128.16574482990376 -0.7237417651380662 0.0
130.16629221844772 -0.7123878255803061 0.0
132.1667509574221 -0.7009221965631827 0.0
134.16711993007627 -0.6893456696307005 0.0
136.16739796487283 -0.6776587403357335 0.0
138.16758382082102 -0.6658615665561857 0.0
140.1676761702252 -0.6539539204831919 0.0
142.16767357833695 -0.6419351329923627 0.0
144.16757447926287 -0.6298040287886826 0.0
146.1673771473188 -0.617558850302512 0.0
148.16707966279307 -0.6051971677771266 0.0
150.16667987079254 -0.5927157722839387 0.0
152.16617533145654 -0.5801105474690282 0.0
154.165563259297 -0.5673763145870686 0.0
156.16484044871245 -0.5545066436907493 0.0
158.16400318174712 -0.5414936215317285 0.0
160.16304711280438 -0.5283275635197912 0.0
162.1619671231048 -0.5149966525667128 0.0
164.16075713493834 -0.5014864811727734 0.0
166.15940987176188 -0.4877794636941639 0.0
168.1579165442828 -0.47385407174534444 0.0
170.15626643371746 -0.4596838244836527 0.0
172.1544463295818 -0.44523593258368643 0.0
174.1524397573903 -0.43046944219976957 0.0
176.15022589577973 -0.41533263874721826 0.0
178.1477780216932 -0.3997593240642856 0.0
180.1450612166631 -0.38366331707521695 0.0
182.1420288654448 -0.36693006441392967 0.0
184.13861712592316 -0.34940320272206904 0.0
186.13473558958498 -0.330862485736542 0.0
188.13025137780681 -0.3109819636923877 0.0
190.12495425174185 -0.28926286480611435 0.0
192.11850006218015 -0.2648081651496526 0.0
194.11011575439474 -0.23624807775393547 0.0
196.09825357265004 -0.19853481305257126 0.0
198.07339022564182 -0.15154769563762252 0.0
200.05801025935892 1.8933786178716734 0.0
200.06199796191402 3.8465838717163563 0.0
200.06548482227817 5.820255544946067 0.0
200.06436771587485 7.8014523281255785 0.0
200.06146284222405 9.786863865131776 0.0
200.05731742396236 11.774902116311512 0.0
200.05236202690955 13.764772368606298 0.0
200.04682181848537 15.755994634612872 0.0
200.04084468027233 17.74826081825939 0.0
200.03452902131457 19.741360403322254 0.0
200.02794393722183 21.735143553978027 0.0
200.02113926928953 23.72949993997198 0.0
200.01415179574477 25.724346071918358 0.0
200.0070090683848 27.71961729501582 0.0
199.99973193066674 29.715262533265108 0.0
199.99233622483706 31.711240721072922 0.0
199.9848339871227 33.70751831175175 0.0
199.97723430714458 35.70406749504759 0.0
199.9695439608914 37.70086489457884 0.0
199.96176788708675 39.69789059785066 0.0
199.95390955292135 41.695127421662434 0.0
199.9459712401945 43.69256034721152 0.0
199.93795427333052 45.690176079561056 0.0
199.92985920443763 47.68796269959938 0.0
199.9216859663537 49.68590938570287 0.0
199.91343400173872 51.68400618856383 0.0
199.90510237427753 53.682243847021596 0.0
199.89668986665802 55.68061363585054 0.0
199.88819506900802 57.67910723871513 0.0
199.8796164607829 59.677716641164174 0.0
199.87095248861885 61.67643403978643 0.0
199.86220164234805 63.67525176461534 0.0
199.85336253117566 65.67416221263635 0.0
199.84443396192438 67.67315779086182 0.0
199.8354150212392 69.67223086813594 0.0
199.8263051637108 71.67137373520298 0.0
199.81710430800788 73.6705785733291 0.0
199.80781294330285 75.6698374324183 0.0
199.7984322485171 77.66914222049768 0.0
199.78896422717136 79.66848470772584 0.0
199.7794118608277 81.66785654995276 0.0
199.7697792840802 83.66724933973306 0.0
199.76007198338138 85.66665469729729 0.0
199.75029701969282 87.66606442168799 0.0
199.74046326848332 89.66547073580105 0.0
199.73058165308603 91.66486668408814 0.0
199.72066529737316 93.66424679018941 0.0
199.71072936549308 95.66360817161464 0.0
199.70078981211307 97.66295240052936 0.0
197.69063586699835 99.65235970799921 0.0
195.69040497210815 99.64243927970145 0.0
193.69015695344547 99.63251517023942 0.0
191.68989034177548 99.62257135505175 0.0
189.68960822828652 99.61259264261444 0.0
187.68931640408493 99.60256600146171 0.0
185.68902222234124 99.5924807918237 0.0
183.68873390240668 99.5823286719683 0.0
181.68846008495655 99.57210341008626 0.0
179.68820953512912 99.56180067634556 0.0
177.6879909377671 99.55141784050144 0.0
175.68781275291087 99.54095378324408 0.0
173.68768311252265 99.53040872309155 0.0
171.68760974659014 99.5197840583257 0.0
169.687599930934 99.50908222274195 0.0
167.68766045156727 99.49830655387987 0.0
165.6877975820156 99.4874611725239 0.0
163.68801707100283 99.47655087244961 0.0
161.6883241385484 99.46558101957083 0.0
159.68872347895214 99.45455745979532 0.0
157.6892192694329 99.44348643501388 0.0
155.689815183389 99.43237450673324 0.0
153.69051440740284 99.4212284869206 0.0
151.69131966121836 99.4100553756652 0.0
149.69223322001915 99.39886230528302 0.0
147.69325693840796 99.38765649050167 0.0
145.69439227555932 99.37644518436583 0.0
143.69564032107849 99.36523563950439 0.0
141.69700182115815 99.35403507439868 0.0
139.69847720468098 99.34285064429125 0.0
137.70006660896345 99.33168941637564 0.0
135.7017699048892 99.32055834891112 0.0
133.70358672122146 99.30946427391248 0.0
131.70551646792845 99.2984138830746 0.0
129.7075583583911 99.28741371660234 0.0
127.70971143039853 99.27647015463118 0.0
125.71197456585925 99.2655894109392 0.0
123.71434650922505 99.25477752866944 0.0
121.71682588455553 99.24404037779935 0.0
119.71941121126267 99.2333836541142 0.0
117.72210091856513 99.22281287946069 0.0
115.72489335867134 99.21233340307677 0.0
113.72778681874198 99.20195040381286 0.0
111.73077953168827 99.19166889307861 0.0
109.73386968586503 99.18149371836742 0.0
107.73705543372479 99.17142956722749 0.0
105.74033489950037 99.16148097156497 0.0
103.74370618598469 99.15165231217892 0.0
101.74716738047664 99.14194782344208 0.0
99.7507165599607 99.1323715980535 0.0
97.75435179558626 99.12292759180106 0.0
95.75807115651038 99.11361962828163 0.0
93.7618727131644 99.1044514035361 0.0
91.76575454000209 99.0954264905647 0.0
89.76971471778334 99.086548343695 0.0
87.77375133544356 99.07782030278136 0.0
85.7778624915966 99.06924559722036 0.0
83.78204629571302 99.06082734977085 0.0
81.78630086901528 99.0525685801719 0.0
79.79062434512457 99.04447220855496 0.0
77.79501487049356 99.03654105864955 0.0
75.79947060465416 99.02877786078407 0.0
73.8039897203082 99.02118525468558 0.0
71.80857040327926 99.01376579208323 0.0
69.81321085236486 99.00652193912232 0.0
67.81790927909962 98.99945607859594 0.0
65.82266390741346 98.99257051200208 0.0
63.82747297325629 98.98586746143518 0.0
61.83233472416879 98.97934907132063 0.0
59.837247418816816 98.97301741000103 0.0
57.8422093265005 98.96687447118369 0.0
55.84721872664589 98.96092217525774 0.0
53.85227390828698 98.95516237048992 0.0
51.85737316954432 98.94959683410758 0.0
49.86251481710483 98.94422727327702 0.0
47.86769716570814 98.93905532598512 0.0
45.87291853764228 98.9340825618319 0.0
43.878177262251654 98.92931048274127 0.0
41.88347167545989 98.92474052359667 0.0
39.888800119309124 98.92037405280817 0.0
37.89416094151665 98.91621237281706 0.0
35.89955249505035 98.91225672054351 0.0
33.90497313772304 98.90850826778284 0.0
31.91042123180581 98.904968121555 0.0
29.915895143660563 98.9016373244121 0.0
27.921393243391496 98.89851685470808 0.0
25.92691390451473 98.89560762683433 0.0
23.932455503645507 98.89291049142506 0.0
21.938016420202448 98.89042623553529 0.0
19.94359503612784 98.88815558279495 0.0
17.94918973562263 98.8860991935411 0.0
15.954798904895691 98.88425766493133 0.0
13.960420931925741 98.88263153104 0.0
11.966054206234878 98.88122126293955 0.0
9.971697118672576 98.88002726876837 0.0
7.977348061209034 98.87904989378677 0.0
5.983005426735943 98.87828942042229 0.0
3.988667608874493 98.8777460683054 0.0
1.994333001788192 98.87741999429632 0.0
0.0 96.87607038922867 0.0
0.0 94.87489863175772 0.0
0.0 92.87379351231337 0.0
0.0 90.8727526282651 0.0
0.0 88.87177368259115 0.0
0.0 86.8708544843052 0.0
0.0 84.8699929488445 0.0
0.0 82.86918709841747 0.0
0.0 80.86843506230852 0.0
0.0 78.86773507713927 0.0
0.0 76.86708548708542 0.0
0.0 74.86648474404919 0.0
0.0 72.86593140778803 0.0
0.0 70.86542414600024 0.0
0.0 68.8649617343691 0.0
0.0 66.86454305656717 0.0
0.0 64.8641671042229 0.0
0.0 62.86383297685182 0.0
0.0 60.86353988174465 0.0
0.0 58.86328713386786 0.0
0.0 56.863074155680394 0.0
0.0 54.86290047695769 0.0
0.0 52.86276573459537 0.0
0.0 50.86266967239471 0.0
0.0 48.862612140836376 0.0
0.0 46.86259309684659 0.0
0.0 44.86261260355921 0.0
0.0 42.86267083007822 0.0
0.0 40.86276805124432 0.0
0.0 38.86290464740971 0.0
0.0 36.86308110422501 0.0
0.0 34.863298012439614 0.0
0.0 32.86355606772041 0.0
0.0 30.863856070524207 0.0
0.0 28.864198925939107 0.0
0.0 26.86458564359782 0.0
0.0 24.86501733761327 0.0
0.0 22.86549522654965 0.0
0.0 20.866020633431383 0.0
0.0 18.866594985792073 0.0
0.0 16.86721981576527 0.0
0.0 14.867896760218098 0.0
0.0 12.868627560928445 0.0
0.0 10.869414064806431 0.0
0.0 8.870258224159349 0.0
0.0 6.871162096999795 0.0
0.0 4.8721278473951815 0.0
0.0 2.8731577458568838 0.0
0.0 0.874254169766306 0.0
2.003422791772217 0.8743628926653206 0.0
2.0032112653128498 2.873266715833263 0.0
2.003003150677346 4.872237053959367 0.0
2.002798297333948 6.871271529788901 0.0
2.0025965552962863 8.870367872926812 0.0
2.002397775081044 10.869523919410515 0.0
2.0022018076621557 12.868737611319878 0.0
2.0020085044223412 14.868006996426951 0.0
2.00181771710267 16.86733022788741 0.0
2.0016292977509083 18.866705563975238 0.0
2.001443098669284 20.866131367861264 0.0
2.0012589723623178 22.865606107435955 0.0
2.00107677148533 24.86512835517609 0.0
2.0008963487941434 26.864696788054374 0.0
2.000717557096535 28.86431018749107 0.0
2.0005402492058693 30.86396743934555 0.0
2.0003642778973796 32.8636675339463 0.0
2.0001894958674464 34.863409566155724 0.0
2.0000157556962597 36.86319273545837 0.0
1.9998429098141228 38.86301634611997 0.0
1.9996708104717158 40.86287980731657 0.0
1.9994993097145 42.862782633316705 0.0
1.9993282593614772 44.86272444368243 0.0
1.999157510988451 46.86270496348351 0.0
1.9989869159159028 48.86272402352387 0.0
1.9988163252015676 50.86278156057629 0.0
1.9986455896377537 52.862877617621244 0.0
1.9984745597534321 54.86301234408599 0.0
1.9983030858210644 56.863185996079714 0.0
1.9981310178681195 58.863398936620975 0.0
1.997958205693218 60.863651635853564 0.0
1.997784498886758 62.863944671243864 0.0
1.9976097468558975 64.86427872775822 0.0
1.997433798853711 66.86465459804658 0.0
1.9972565040122883 68.86507318254372 0.0
1.9970777113795548 70.86553548958182 0.0
1.9968972699594902 72.86604263546012 0.0
1.9967150287554676 74.86659584447906 0.0
1.9965308368163073 76.86719644893665 0.0
1.9963445432846638 78.86784588908495 0.0
1.9961559974473162 80.86854571304488 0.0
1.995965048786845 82.86929757667761 0.0
1.9957715470341872 84.87010324341256 0.0
1.995575342221497 86.87096458403022 0.0
1.99537628473469 88.87188357640083 0.0
1.9951742253650078 90.87286230517913 0.0
1.9949690153589013 92.87390296145611 0.0
1.9947605064654974 94.87500784237002 0.0
1.9945485509808585 96.87617935067865 0.0
4.006844054377569 0.8746890287065936 0.0
4.00642106611794 2.8735935930808747 0.0
4.006004901135086 4.872564640947696 0.0
4.005595258391229 6.871599795433061 0.0
4.005191837942484 8.870696786491532 0.0
4.004794340853593 10.869853450475619 0.0
4.004402469105787 12.869067729742879 0.0
4.004015925499287 14.868337672303786 0.0
4.003634413551949 16.867661431511447 0.0
4.003257637395451 18.867037265795663 0.0
4.002885301670372 20.86646353844097 0.0
4.002517111421441 22.865938717409854 0.0
4.002152771994127 24.8654613752101 0.0
4.001791988933714 26.86503018880558 0.0
4.001434467887845 28.864643939569458 0.0
4.001079914513505 30.86430151327792 0.0
4.000728034389295 32.864001900142235 0.0
4.000378532933779 34.86374419487635 0.0
4.0000311153305645 36.863527596787975 0.0
3.9996854864607565 38.86335140994047 0.0
3.999341350843314 40.863215043285656 0.0
3.9989984125837394 42.86311801084919 0.0
3.9986563753315005 44.863059931935304 0.0
3.9983149422464677 46.86304053134457 0.0
3.9979738159746194 48.863059639604145 0.0
3.997632698633157 50.86311719320631 0.0
3.997291291805153 52.863213234850946 0.0
3.9969492965437303 54.86334791368862 0.0
3.9966064133857517 56.86352148555934 0.0
3.9962623423749317 58.86373431322387 0.0
3.99591678309418 60.86398686658303 0.0
3.995569434706974 62.86427972287877 0.0
3.995219996007438 64.86461356687485 0.0
3.994868165478802 66.86498919104353 0.0
3.9945136413597786 68.86540749567004 0.0
3.994156121718392 70.86586948896804 0.0
3.9937953045326524 72.86637628715184 0.0
3.993430887777465 74.86692911447275 0.0
3.99306256951703 76.86752930321765 0.0
3.9926900480019305 78.86817829366684 0.0
3.9923130217700407 80.86887763401053 0.0
3.9919311897502663 82.86962898022065 0.0
3.991544251368047 84.87043409587969 0.0
3.9911519066515413 86.8712948519629 0.0
3.990753856337155 88.8722132265769 0.0
3.990349801973207 90.87319130465268 0.0
3.989939446020219 92.87423127759578 0.0
3.989522491946427 94.87533544289457 0.0
3.9890986443168717 96.87650620368937 0.0
6.010262258817412 0.8752324799245843 0.0
6.009627938064839 2.8741382795554284 0.0
6.009003851297688 4.873110510246234 0.0
6.008389547024019 6.87214679576014 0.0
6.007784575400488 8.871244866636555 0.0
6.0071884881030275 10.870402559754812 0.0
6.006600838187197 12.869617817936728 0.0
6.006021179940625 14.86888868959095 0.0
6.0054490687296695 16.868213328400333 0.0
6.004884060842492 18.867589993054505 0.0
6.004325713330538 20.86701704702761 0.0
6.0037735838503385 22.866492958401768 0.0
6.003227230507406 24.86601629973584 0.0
6.002686211703939 26.865585747978226 0.0
6.002150085991797 28.865200084422703 0.0
6.001618411932251 30.864858194705512 0.0
6.00109074796369 32.86455906884136 0.0
6.000566652278554 34.864301801295255 0.0
6.000045682710436 36.86408559107866 0.0
5.999527396632314 38.86390974191623 0.0
5.99901135086669 40.86377366238429 0.0
5.9984971016083195 42.86367686610206 0.0
5.997984204360097 44.86361897194228 0.0
5.9974722138825065 46.86359970425518 0.0
5.996960684157066 48.863618893104885 0.0
5.996449168363912 50.863676474514264 0.0
5.9959372188737765 52.863772490714005 0.0
5.995424387254265 54.863907090391656 0.0
5.994910224290504 56.864080528936995 0.0
5.9943942800199475 58.86429316867936 0.0
5.993876103781087 60.86454547911305 0.0
5.993355244275764 62.864838037104384 0.0
5.99283124964461 64.86517152707806 0.0
5.992303667555076 66.8655467412087 0.0
5.991772045301463 68.86596457953115 0.0
5.991235929916117 70.86642605006034 0.0
5.99069486829103 72.86693226886793 0.0
5.9901484073088085 74.86748446012247 0.0
5.989596093981979 76.86808395609147 0.0
5.989037475599397 78.86873219710203 0.0
5.9884720998784475 80.8694307314592 0.0
5.987899515121606 82.87018121531975 0.0
5.987319270375706 84.87098541252115 0.0
5.986730915592287 86.87184519436418 0.0
5.98613400178712 88.87276253934995 0.0
5.9855280811969225 90.87373953287126 0.0
5.98491270743118 92.8747783668593 0.0
5.984287435616806 94.87588133938813 0.0
5.9836518225333055 96.87705085423814 0.0
8.013675876431247 0.8759930830538409 0.0
8.012830417119297 2.8749006118596045 0.0
8.011998601379128 4.873874498341079 0.0
8.011179827343362 6.872912367158791 0.0
8.010373495357225 8.872011949675413 0.0
8.00957900780338 10.871171083511467 0.0
8.00879576891314 12.870387712141447 0.0
8.00802318456717 14.86965988453342 0.0
8.007260662088667 16.8689857548331 0.0
8.006507610031834 18.868363582094435 0.0
8.005763437968383 20.867791730056798 0.0
8.00502755627464 22.867268666969224 0.0
8.004299375921534 24.8667929654609 0.0
8.003578308269836 26.866363302456808 0.0
8.002863764872611 28.865978459137576 0.0
8.002155157286754 30.865637320941087 0.0
8.00145189689542 32.865338877604195 0.0
8.000753394742754 34.86508222324039 0.0
8.000059061382427 36.86486655644318 0.0
7.999368306741081 38.86469118045966 0.0
7.998680539997834 40.86455550333706 0.0
7.997995169480638 42.86445903812208 0.0
7.997311602580321 44.864401403079654 0.0
7.9966292456828745 46.864382321925824 0.0
7.995947504120437 48.8644016240728 0.0
7.995265782141301 50.864459244882696 0.0
7.994583482899139 52.864555225925464 0.0
7.993900008461504 54.864689715236985 0.0
7.993214759837489 56.864862967573075 0.0
7.992527137024411 58.86507534465566 0.0
7.991836539073148 60.86532731540655 0.0
7.991142364171666 62.8656194561629 0.0
7.990444009746204 64.86595245087156 0.0
7.989740872579323 66.86632709128764 0.0
7.989032348944065 68.86674427709274 0.0
7.988317834753149 70.86720501602109 0.0
7.987596725722114 72.86771042394237 0.0
7.986868417545131 74.86826172490757 0.0
7.986132306082037 76.8688602511555 0.0
7.985387787554977 78.86950744307744 0.0
7.984634258752943 80.87020484913874 0.0
7.9838711172422405 82.87095412575468 0.0
7.9830977615807575 84.87175703712029 0.0
7.982313591533804 86.87261545499301 0.0
7.9815180082890125 88.87353135842805 0.0
7.980710414667683 90.87450683346712 0.0
7.979890215329699 92.87554407278098 0.0
7.97905681696909 94.87664537526773 0.0
7.978209628497043 96.87781314560898 0.0
10.01708337906961 0.8769706095449616 0.0
10.016027039724719 2.8758803612581216 0.0
10.0149877520306 4.874856376332646 0.0
10.013964763851181 6.8738962805920805 0.0
10.012957325839333 8.872997806465257 0.0
10.011964691213503 10.872158792531803 0.0
10.010986115517538 12.871377183110045 0.0
10.010020856367492 14.870651027890665 0.0
10.009068173189215 16.869978481616478 0.0
10.008127326950344 18.86935780381073 0.0
10.007197579889956 20.868787358553654 0.0
10.00627819524923 22.868265614307635 0.0
10.005368437006016 24.86779114379016 0.0
10.004467569616125 26.86736262389335 0.0
10.003574857763898 28.86697883564869 0.0
10.002689566124406 30.866638664235015 0.0
10.001810959139444 32.86634109902709 0.0
10.000938300809183 34.86608523368149 0.0
10.00007085450127 36.86587026624884 0.0
9.999207882778785 38.86569549935661 0.0
9.998348647248493 40.86556034036573 0.0
9.997492408430354 42.86546430158062 0.0
9.996638425649342 44.86540700047868 0.0
9.99578595695024 46.86538815995419 0.0
9.994934259035936 48.86540760857489 0.0
9.994082587229851 50.86546528084701 0.0
9.993230195462266 52.86556121748478 0.0
9.992376336281161 54.86569556568003 0.0
9.991520260887054 56.865868579367465 0.0
9.990661219191765 58.86608061948203 0.0
9.989798459900683 60.86633215420384 0.0
9.988931230617952 62.86662375918408 0.0
9.988058777973855 64.86695611774996 0.0
9.987180347773451 66.86733002111228 0.0
9.986295185165593 68.86774636849375 0.0
9.98540253483085 70.86820616726358 0.0
9.984501641187101 72.86871053302802 0.0
9.98359174861117 74.86926068968353 0.0
9.982672101674682 76.86985796942935 0.0
9.9817419453922 78.87050381273743 0.0
9.980800525479424 80.87119976827812 0.0
9.979847088619058 82.87194749279865 0.0
9.978880882731708 84.87274875095447 0.0
9.97790115724897 86.87360541509194 0.0
9.976907163385572 88.87451946498173 0.0
9.975898154407393 90.8754929875042 0.0
9.97487338589166 92.87652817628657 0.0
9.973832115975688 94.87762733129367 0.0
9.972773605590115 96.87879285837472 0.0
12.020483239269359 0.8781647655875351 0.0
12.019216342965574 2.877077233699418 0.0
12.017969904489725 4.876055849956254 0.0
12.016743021573346 6.875098241617163 0.0
12.015534795328515 8.87420214242573 0.0
12.014344329973477 10.873365392143116 0.0
12.013170732538118 12.872585936126166 0.0
12.012013112554207 14.871861824953761 0.0
12.010870581734798 16.871191214101582 0.0
12.009742253647262 18.870572363667744 0.0
12.008627243383813 20.870003638148635 0.0
12.007524667233625 22.869483506265585 0.0
12.006433642359937 24.869010540840804 0.0
12.005353286485628 26.868583418721773 0.0
12.004282717590192 28.868200920752276 0.0
12.003221053621184 30.867861931788056 0.0
12.0021674122224 32.867565440754326 0.0
12.00112091048125 34.8673105407413 0.0
12.00008066469744 36.86709642912783 0.0
11.99904579017456 38.86692240777519 0.0
11.99801540103626 40.86678788319662 0.0
11.996988610068412 42.86669236677987 0.0
11.995964528588136 44.8666354750303 0.0
11.99494226634073 46.86661692982832 0.0
11.993920931425189 48.86663655869982 0.0
11.992899630248624 50.86669429509545 0.0
11.991877467510005 52.86679017867403 0.0
11.990853546213158 54.86692435558634 0.0
11.989826967709087 56.867097078754256 0.0
11.988796831767063 58.86730870814203 0.0
11.98776223667426 60.867559711014366 0.0
11.986722279363047 62.8678506621757 0.0
11.985676055565195 64.86818224418774 0.0
11.984622659991853 66.8685552475886 0.0
11.9835611865382 68.86897057103306 0.0
11.982490728511113 70.86942922143754 0.0
11.981410378878248 72.86993231408078 0.0
11.980319230536788 74.8704810726652 0.0
11.979216376599432 76.87107682933768 0.0
11.978100910695611 78.87172102466587 0.0
11.976971927285 80.8724152075687 0.0
11.975828521980617 82.87316103519863 0.0
11.974669791878409 84.87396027277505 0.0
11.973494835889731 86.8748147933665 0.0
11.97230275507315 88.87572657762271 0.0
11.971092652961675 90.87669771345556 0.0
11.969863635880863 92.87773039566989 0.0
11.968614813253662 94.87882692554538 0.0
11.967345297886963 96.87998971037177 0.0
14.023873930433883 0.8795751921406667 0.0
14.02239686473501 2.878490869844531 0.0
14.020943660733304 4.877472559609632 0.0
14.019513266195592 6.876517890411595 0.0
14.018104632879215 8.875624597564265 0.0
14.016716716202847 10.874790522238303 0.0
14.01534847489439 12.874013611027898 0.0
14.0139988706212 14.873291915568606 0.0
14.012666867608308 16.872623592206512 0.0
14.011351432249459 18.872006901720756 0.0
14.010051532715798 20.871440209099017 0.0
14.008766138566799 22.87092198336577 0.0
14.007494220367638 24.87045079746238 0.0
14.006234749316747 26.870025328177235 0.0
14.004986696887386 28.869644356124482 0.0
14.00374903448636 30.869306765768926 0.0
14.002520733132897 32.86901154549428 0.0
14.001300763160408 34.86875778771048 0.0
14.000088093943358 36.8685446889905 0.0
13.998881693651539 38.86837155027781 0.0
13.997680529033335 40.86823777707091 0.0
13.99648356522966 42.86814287966109 0.0
13.995289765619752 44.86808647339152 0.0
13.99409809169981 46.868068278930814 0.0
13.992907502995308 48.86808812256011 0.0
13.99171695700748 50.86814593646896 0.0
13.990525409194191 52.86824175905551 0.0
13.989331812985425 54.86837573522691 0.0
13.988135119833165 56.86854811669519 0.0
13.986934279295232 58.86875926226456 0.0
13.985728239152678 60.86900963810569 0.0
13.984515945559819 62.86929981801045 0.0
13.983296343226021 64.86963048362442 0.0
13.982068375627803 66.8700024246801 0.0
13.980830985250169 68.87041653915095 0.0
13.979583113855083 70.87087383340938 0.0
13.978323702775468 72.87137542233852 0.0
13.977051693232358 74.87192252940466 0.0
13.97576602667284 76.87251648668699 0.0
13.974465645125967 78.87315873486176 0.0
13.973149491573746 80.87385082313911 0.0
13.971816510333628 82.87459440914974 0.0
13.97046564744917 84.87539125878048 0.0
13.96909585108451 86.87624324595735 0.0
13.967706071918798 88.87715235237516 0.0
13.966295263535454 90.87812066717383 0.0
13.9648623828017 92.87915038656215 0.0
13.96340639023286 94.88024381338919 0.0
13.961926250335802 96.88140335666603 0.0
16.02725392701825 0.8812014649718309 0.0
16.025567143906713 2.880120845104004 0.0
16.023907623633495 4.879106080388118 0.0
16.022274164202273 6.8781548018070895 0.0
16.020665568238282 8.877264746508637 0.0
16.019080642600198 10.876433757307332 0.0
16.017518197966286 12.875659782238325 0.0
16.015977048401 14.874940874165702 0.0
16.01445601090805 16.874275190445413 0.0
16.01295390497622 18.87366099264452 0.0
16.01146955212289 20.8730966463165 0.0
16.01000177544082 22.87258062083182 0.0
16.00854939915291 24.87211148926286 0.0
16.007111248179346 26.871687928321172 0.0
16.005686147721374 28.87130871834533 0.0
16.004272922865248 30.870972743336765 0.0
16.00287039820997 32.87067899104061 0.0
16.001477397521736 34.87042655306692 0.0
16.00009274341771 36.870214625042884 0.0
15.998715257081697 38.87004250683636 0.0
15.997343758013491 40.869909602757645 0.0
15.995977063813775 42.86981542181528 0.0
15.994613990006048 44.86975957799338 0.0
15.993253349896435 46.86974179054428 0.0
15.991893954472566 48.869761884294725 0.0
15.990534612341783 50.86981978996098 0.0
15.989174129709353 52.8699155444687 0.0
15.987811310396387 54.870049291272394 0.0
15.98644495589757 56.87022128067071 0.0
15.985073865478201 58.87043187011245 0.0
15.98369683630986 60.87068152448942 0.0
15.982312663643892 62.870970816409276 0.0
15.98092014102148 64.8713004264454 0.0
15.979518060519014 66.87167114338622 0.0
15.97810521302712 68.87208386440592 0.0
15.976680388561372 70.87253959523665 0.0
15.975242376602566 72.87303945029414 0.0
15.973789966464116 74.87358465276263 0.0
15.97232194768366 76.87417653463532 0.0
15.970837110435935 78.87481653670787 0.0
15.969334245963406 80.87550620852275 0.0
15.967812147020847 82.8762472082611 0.0
15.966269608329752 84.87704130258182 0.0
15.964705427038036 86.87789036640477 0.0
15.963118403180147 88.87879638263884 0.0
15.96150734013219 90.87976144185315 0.0
15.959871045056484 92.8807877418924 0.0
15.958208329329436 94.88187758743713 0.0
15.956518008946249 96.88303338951006 0.0
18.030621704722922 0.8830430947050718 0.0
18.028725720514093 2.8819666696837265 0.0
18.02686039712039 4.8809559221285 0.0
18.025024383020423 6.880008485331684 0.0
18.023216331969195 8.879122098547718 0.0
18.021434902546332 10.878294606476755 0.0
18.019678757675834 12.877523958804023 0.0
18.017946564124337 14.876808209797703 0.0
18.01623699198522 16.876145517965135 0.0
18.014548714154877 18.87553414576892 0.0
18.012880405807547 20.874972459402137 0.0
18.01123074387449 22.874458928622136 0.0
18.00959840653297 24.873992126641312 0.0
18.007982072710085 26.87357073007271 0.0
18.006380421606075 28.87319351892868 0.0
18.00479213224126 30.87285937666944 0.0
18.00321588303047 32.87256729029851 0.0
18.001650351388406 34.872316350499986 0.0
18.000094213368648 36.87210575180861 0.0
17.998546143339425 38.87193479285156 0.0
17.997004813697888 40.871802876570236 0.0
17.995468894625102 42.871709510496515 0.0
17.99393705388328 44.8716543070512 0.0
17.992407956656365 46.871636983858124 0.0
17.99088026543497 48.87165736407231 0.0
17.98935263994632 50.87171537671718 0.0
17.987823737129602 52.87181105702638 0.0
17.98629221115651 54.87194454678552 0.0
17.98475671349727 56.872116094668996 0.0
17.983215893031115 58.87232605656781 0.0
17.981668396200973 60.872574895903206 0.0
17.980112867211094 62.87286318392029 0.0
17.97854794826645 64.87319159995779 0.0
17.976972279852344 66.87356093171574 0.0
17.975384501052527 68.87397207544508 0.0
17.97378324990353 70.87442603613638 0.0
17.972167163783006 72.87492392766148 0.0
17.970534879829074 74.87546697287246 0.0
17.968885035387917 76.87605650365474 0.0
17.96721626848591 78.87669396093162 0.0
17.965527218322496 80.87738089461706 0.0
17.963816525779748 82.87811896351444 0.0
17.96208283394383 84.87890993515926 0.0
17.960324788633198 86.8797556856039 0.0
17.95854103892835 88.88065819914331 0.0
17.956730237696796 90.88161956798162 0.0
17.95489104210703 92.88264199183831 0.0
17.953022114124693 94.8837277774959 0.0
17.95112212098336 96.88487933828955 0.0
20.033975740696043 0.8850995268796189 0.0
20.031871135937006 2.8840277886408936 0.0
20.02980058635089 4.883021529462692 0.0
20.02776259116898 6.882078385261444 0.0
20.025755655580344 8.881196097681496 0.0
20.023778290210835 10.880372513558399 0.0
20.021829010571032 12.87960558444248 0.0
20.01990633648143 14.878893366185691 0.0
20.018008791482426 16.878234018590547 0.0
20.01613490223688 18.87762580512326 0.0
20.0142831979319 20.87706709268943 0.0
20.012452209686558 22.87655635147192 0.0
20.010640469971577 24.876092154828534 0.0
20.00884651204656 26.87567317924769 0.0
20.00706886941995 28.87529820435942 0.0
20.005306075336247 30.874966112998663 0.0
20.003556662294955 32.874675891317466 0.0
20.00181916160459 34.87442662894063 0.0
20.000092102975405 36.87421751915587 0.0
19.998374014153626 38.87404785917671 0.0
19.996663420599386 40.87391705038663 0.0
19.994958845210935 42.87382459863857 0.0
19.993258808096268 44.87377011457708 0.0
19.99156182639388 46.873753313976856 0.0
19.98986641414358 48.873774018095354 0.0
19.988171082207813 50.87383215403506 0.0
19.98647433824415 52.87392775510989 0.0
19.984774686728777 54.87406096121186 0.0
19.98307062903091 56.874232019172396 0.0
19.981360663537473 58.87444128311418 0.0
19.979643285827304 60.87468921478869 0.0
19.97791698889385 62.874976383892786 0.0
19.97618026341492 64.87530346836071 0.0
19.97443159806771 66.8756712546532 0.0
19.972669479887436 68.87608063796748 0.0
19.97089239466702 70.87653262244555 0.0
19.969098827395047 72.87702832133326 0.0
19.96728726272962 74.87756895709565 0.0
19.965456185503896 76.87815586148477 0.0
19.963604081260215 78.87879047555637 0.0
19.961729436808266 80.87947434963334 0.0
19.959830740802737 82.8802091432118 0.0
19.95790648433534 84.88099662480899 0.0
19.955955161535606 86.88183867174982 0.0
19.953975270174304 88.88273726989125 0.0
19.951965312262878 90.88369451328326 0.0
19.94992379464192 92.88471260376613 0.0
19.947849229550634 94.88579385050444 0.0
19.945740135169615 96.88694066945845 0.0
22.037314513743556 0.8873701420203437 0.0
22.035001933094854 2.886303581951412 0.0
22.032726797882674 4.885302281882561 0.0
22.030487458412065 6.884363880683126 0.0
22.02828227165628 8.883486122681921 0.0
22.026109600660167 10.8826668571085 0.0
22.02396781391069 12.881904037599947 0.0
22.021855284683024 14.88119572177579 0.0
22.01977039037133 16.88054007087982 0.0
22.017711511812443 18.87993534949032 0.0
22.015677032610007 20.879379925297087 0.0
22.013665338466467 22.878872268944267 0.0
22.01167481652938 24.878410953936523 0.0
22.009703854758612 26.877994656606194 0.0
22.00775084131954 28.877622156138706 0.0
22.005814164007873 30.877292334652672 0.0
22.003892209710276 32.87700417733111 0.0
22.001983363905104 34.87675677259781 0.0
22.000086010206765 36.87654931233042 0.0
21.99819852995671 38.87638109214671 0.0
21.996319301863963 40.876251511674056 0.0
21.99444670169717 42.87616007487482 0.0
21.992579102029953 44.876106390395066 0.0
21.990714872041284 46.87609017193019 0.0
21.98885237737158 48.87611123860499 0.0
21.986989980035368 50.87616951536352 0.0
21.985126038390995 52.87626503336312 0.0
21.983258907167084 54.8763979303686 0.0
21.981386937545867 56.87656845114064 0.0
21.979508477302492 58.876776947814704 0.0
21.977621870999634 60.87702388026472 0.0
21.97572546023607 62.8773098164453 0.0
21.973817583947913 64.87763543270906 0.0
21.971896578760482 66.87800151411854 0.0
21.9699607793889 68.87840895468007 0.0
21.96800851908475 70.87885875757313 0.0
21.966038130126126 72.87935203532965 0.0
21.964047944347616 74.87989000996765 0.0
21.962036293706888 76.88047401307539 0.0
21.96000151088346 78.88110548584258 0.0
21.957941929905367 80.88178597903557 0.0
21.955855886798485 82.88251715291263 0.0
21.953741720253028 84.88330077707805 0.0
21.951597772301177 86.88413873027122 0.0
21.94942238899896 88.88503300009017 0.0
21.94721392110522 90.8859856826475 0.0
21.944970724749954 92.88699898215818 0.0
21.942691162083207 94.88807521045914 0.0
21.940373601895875 96.8892167864613 0.0
24.04063650454995 0.8898542557215374 0.0
24.038116656648747 2.8887933645903496 0.0
24.03563763985578 4.887797493817508 0.0
24.033197655918315 6.886864285569309 0.0
24.030794913993493 8.885991487165919 0.0
24.028427629969514 10.885176950499092 0.0
24.026094025751615 12.884418631521097 0.0
24.023792328523097 14.88371458980739 0.0
24.02152076999095 16.883062988191284 0.0
24.019277585625026 18.882462092471773 0.0
24.017061013899422 20.88191027119282 0.0
24.014869295543903 22.881405995492344 0.0
24.012700672812752 24.880947839018507 0.0
24.01055338877765 26.880534477910228 0.0
24.008425686650934 28.88016469083898 0.0
24.006315809144603 30.8798373591081 0.0
24.004221997870037 32.87955146680538 0.0
24.002142492782955 34.879306101002896 0.0
24.000075531677325 36.87910045199542 0.0
23.998019349731607 38.87893381361305 0.0
23.99597217911011 40.87880558351882 0.0
23.993932248621952 42.87871526356262 0.0
23.99189778343929 44.87866246015955 0.0
23.989867004876572 46.87864688468535 0.0
23.987838130231612 48.878668353886894 0.0
23.985809372689427 50.87872679030227 0.0
23.983778941289092 52.87882222268551 0.0
23.981745040953538 54.87895478643076 0.0
23.97970587258214 56.879124723990856 0.0
23.97765963320533 58.879332385285615 0.0
23.975604516200328 60.87957822809462 0.0
23.973538711566686 62.87986281842762 0.0
23.97146040626018 64.88018683086955 0.0
23.969367784582843 66.88055104891805 0.0
23.967259028627247 68.88095636524345 0.0
23.965132318772106 70.88140378194184 0.0
23.962985834226277 72.88189441073655 0.0
23.96081775361775 74.8824294731324 0.0
23.958626255623663 76.88301030051863 0.0
23.956409519636995 78.88363833421617 0.0
23.954165726465106 80.88431512546653 0.0
23.951893059054655 82.88504233535791 0.0
23.949589703236843 84.88582173468656 0.0
23.9472538484865 86.88665520375007 0.0
23.944883688687565 88.88754473207038 0.0
23.942477422897248 90.88849241804516 0.0
23.940033256100207 92.88950046852625 0.0
23.93754939994349 94.89057119832425 0.0
23.935024073442175 96.89170702964033 0.0
26.043940195910004 0.8925511187458188 0.0
26.041213853212966 2.8914963866271415 0.0
26.038531722181713 4.890506414726538 0.0
26.03589185642609 6.889578848867831 0.0
26.03329231774105 8.888711439682641 0.0
26.03073117533774 10.887902042003166 0.0
26.02820650503783 12.887148614332528 0.0
26.025716388442465 14.886449218394974 0.0
26.023258912086103 16.885802018763606 0.0
26.020832166585247 18.885205282566638 0.0
26.018434245791372 20.884657379269903 0.0
26.01606324595661 22.884156780533726 0.0
26.01371726492032 24.883702060140916 0.0
26.01139440132357 26.88329189399279 0.0
26.009092753858514 28.88292506016971 0.0
26.006810420558125 30.882600439051956 0.0
26.004545498132238 32.88231701349641 0.0
26.00229608135403 34.88207386906254 0.0
26.000060262501353 36.88187019427908 0.0
25.99783613085627 38.881705280985734 0.0
25.995621772265995 40.8815785246619 0.0
25.993415268767368 42.881489424812216 0.0
25.991214698277183 44.88143758537719 0.0
25.9890181343496 46.881422715161634 0.0
25.986823646001934 48.881444628278246 0.0
25.98462929760941 50.881503244601085 0.0
25.982433148869305 52.88159859022336 0.0
25.98023325483434 54.88173079791493 0.0
25.97802766601499 56.88190010757339 0.0
25.975814428550045 58.88210686666466 0.0
25.973591584444332 60.882351530647426 0.0
25.971357171872334 62.88263466337461 0.0
25.96910922554588 64.88295693746825 0.0
25.96684577714399 66.88331913468568 0.0
25.964564855802497 68.88372214620792 0.0
25.962264488660562 70.88416697291873 0.0
25.95994270146095 72.88465472563098 0.0
25.95759751920055 74.88518662526386 0.0
25.955226966826796 76.88576400296643 0.0
25.9528290699756 78.88638830018341 0.0
25.95040185574546 80.88706106865968 0.0
25.947943353502062 82.88778397037898 0.0
25.945451595706846 84.8885587774343 0.0
25.942924618762653 86.88938737182625 0.0
25.940360463868387 88.89027174518712 0.0
25.937757177874435 90.8912139984282 0.0
25.93511281412937 92.89221634130882 0.0
25.932425433307873 94.8932810919264 0.0
25.929693104209267 96.8944106761265 0.0
28.047224072976135 0.8954599171401671 0.0
28.044292071579896 2.894411833337619 0.0
28.04140765674412 4.893428229206899 0.0
28.03856873441864 6.892506754607533 0.0
28.03577321954897 8.891645163816666 0.0
28.03301903520886 10.890841314895802 0.0
28.030304111694996 12.890093169141977 0.0
28.02762638559624 14.889398790625503 0.0
28.024983798848552 16.888756345811373 0.0
28.022374297786623 18.8881641032648 0.0
28.019795832202224 20.887620433438563 0.0
28.017246354418653 22.88712380853925 0.0
28.01472381838974 24.886672802469214 0.0
28.01222617883151 26.88626609084038 0.0
28.009751390393333 28.88590245105594 0.0
28.007297406875182 30.885580762455607 0.0
28.004862180496477 32.88530000651931 0.0
28.002443661221537 34.885059267121946 0.0
28.000039796146044 36.884857730831556 0.0
27.99764852894801 38.88469468728318 0.0
27.995267799406612 40.884569529541515 0.0
27.99289554299124 42.88448175452126 0.0
27.990529690522727 44.88443096343303 0.0
27.988168167908526 46.884416862247704 0.0
27.985808895952765 48.88443926217614 0.0
27.983449790241878 50.88449808015881 0.0
27.981088761106065 52.884593339359746 0.0
27.978723713656613 54.88472516965976 0.0
27.976352547898454 56.88489380814318 0.0
27.973973158917406 58.88509959957338 0.0
27.971583437140847 60.88534299685147 0.0
27.969181268670336 62.88562456145154 0.0
27.96676453568467 64.88594496382807 0.0
27.964331116910884 66.88630498381332 0.0
27.961878888161102 68.88670551093672 0.0
27.959405722932086 70.88714754473243 0.0
27.956909493064117 72.88763219499323 0.0
27.954388069455703 74.8881606819728 0.0
27.951839322829603 76.88873433653286 0.0
27.949261124545313 78.88935460022913 0.0
27.946651347452804 80.89002302533405 0.0
27.944007866781067 82.89074127478987 0.0
27.941328561055002 84.89151112209007 0.0
27.938611313032965 86.89233445108437 0.0
27.93585401065668 88.89321325570509 0.0
27.933054548004403 90.89414963961147 0.0
27.93021082623734 92.89514581575011 0.0
27.927320754528484 94.89620410583004 0.0
27.924382250962147 96.89732693971148 0.0
30.050486623517035 0.8985797723712652 0.0
30.04734986295404 2.897538825335057 0.0
30.044264057606593 4.896562057121483 0.0
30.04122696630435 6.895647122022577 0.0
30.03823635772033 8.894791778309768 0.0
30.035290009395524 10.893993887573606 0.0
30.032385706725375 12.893251414155559 0.0
30.029521241920794 14.892562424673631 0.0
30.026694412956612 16.8919250876381 0.0
30.023903022518837 18.891337673157892 0.0
30.02114487696179 20.890798552734175 0.0
30.018417785285273 22.890306199138273 0.0
30.01571955814057 24.889859186369744 0.0
30.01304800687438 26.88945618969065 0.0
30.010400942617462 28.889095985731274 0.0
30.00777617542541 30.888777452662566 0.0
30.005171513477162 32.88849957042978 0.0
30.00258476233655 34.88826142103951 0.0
30.00001372428151 36.888062188892185 0.0
29.997456197704587 38.88790116119126 0.0
29.994909976588072 40.88777772834322 0.0
29.992372850056313 42.887691384415525 0.0
29.989842602007176 44.88764172762124 0.0
29.98731701082432 46.88762846082207 0.0
29.984793849171158 48.88765139204725 0.0
29.982270883867308 50.887710435022406 0.0
29.979745875847637 52.88780560970229 0.0
29.97721658020376 54.88793704280277 0.0
29.974680746307488 56.8881049683258 0.0
29.9721361180155 58.888309728072635 0.0
29.969580433953798 60.88855177213963 0.0
29.96701142788076 62.88883165938962 0.0
29.96442682912664 64.88915005789487 0.0
29.961824363107556 66.88950774536805 0.0
29.95920175191132 68.88990560951531 0.0
29.95655671495204 70.89034464837509 0.0
29.953886969690288 72.89082597060182 0.0
29.951190232414653 74.89135079569643 0.0
29.94846421908053 76.89192045417867 0.0
29.945706646200954 78.89253638769686 0.0
29.94291523178376 80.89320014907041 0.0
29.94008769630898 82.89391340225986 0.0
29.937221763739025 84.89467792226137 0.0
29.934315162553997 86.89549559492048 0.0
29.931365626803153 88.89636841666231 0.0
29.92837089716293 90.89729849413408 0.0
29.925328721990798 92.89828804375813 0.0
29.922236858363338 94.8993393911926 0.0
29.919093073085975 96.90045497069836 0.0
32.053726338188646 0.9019097414826893 0.0
32.05038578119618 2.900876418722757 0.0
32.04709954122817 4.899906953747524 0.0
32.04386523060262 6.898999005697874 0.0
32.040680472366866 8.898150337203445 0.0
32.03754289920436 10.897358813694762 0.0
32.034450152303144 12.896622402815634 0.0
32.0313998801998 14.895939173937252 0.0
32.02838973761295 16.89530729776953 0.0
32.025417384278434 18.894725046069798 0.0
32.02248048379825 20.894190791444824 0.0
32.01957670251368 22.89370300724265 0.0
32.01670370841284 24.893260267529577 0.0
32.01385917008127 26.89286124714766 0.0
32.011040755703824 28.892504721847587 0.0
32.00824613212478 30.892189568491567 0.0
32.005472963972615 32.89191476532019 0.0
32.002718912854796 34.89167939227496 0.0
31.99998163662724 36.89148263136854 0.0
31.9972587887424 38.89132376713277 0.0
31.994548017679133 40.8912021870589 0.0
31.991846966457235 42.89111738209691 0.0
31.989153272238145 44.891068947181466 0.0
31.986464566013847 46.89105658177717 0.0
31.983778472384554 48.891080090439495 0.0
31.981092609425886 50.89113938338562 0.0
31.97840458864577 52.89123447706913 0.0
31.97571201503051 54.89136549475339 0.0
31.973012487179883 56.89153266707759 0.0
31.9703035975298 58.89173633261023 0.0
31.96758293266186 60.891976938384786 0.0
31.96484807369769 62.8922550404099 0.0
31.962096596776593 64.89257130415054 0.0
31.959326073613898 66.89292650499516 0.0
31.956534072137803 68.89332152864505 0.0
31.95371815720125 70.89375737148733 0.0
31.95087589136561 72.89423514091106 0.0
31.948004835752222 74.89475605556835 0.0
31.945102550957035 76.89532144557532 0.0
31.942166598023515 78.89593275264761 0.0
31.93919453946763 80.89659153016542 0.0
31.936183940348705 82.89729944316358 0.0
31.93313236937839 84.89805826824106 0.0
31.930037400059806 86.89886989338585 0.0
31.926896611847276 88.89973631771089 0.0
31.923707591316713 90.90065965109699 0.0
31.92046793333522 92.90164211373944 0.0
31.917175242217407 94.90268603559515 0.0
31.91382713285515 96.90379385572862 0.0
34.05694171082356 0.9054488172766364 0.0
34.05339838308303 2.9044236052709236 0.0
34.049912726691964 4.903461909949394 0.0
34.04648220814054 6.902561395738426 0.0
34.04310430557351 8.901719830005378 0.0
34.03977650756832 10.900935082342826 0.0
34.03649631187509 12.900205123961982 0.0
34.033261224133994 14.89952802719623 0.0
34.0300687565846 16.898901965109584 0.0
34.0269164267808 18.89832521120975 0.0
34.02380175632369 20.897796139260937 0.0
34.02072226962417 22.897313223192395 0.0
34.01767549270548 24.896875037097328 0.0
34.014658952055264 26.896480255316888 0.0
34.01167017353568 28.896127652603507 0.0
34.00870668135881 30.89581610435779 0.0
34.00576599713421 32.895544586932175 0.0
34.00284563899375 34.89531217799242 0.0
33.99994312079911 36.89511805692935 0.0
33.99705595143534 38.89496150534884 0.0
33.99418163419415 40.89484190755615 0.0
33.99131766624921 42.89475875109958 0.0
33.9884615382257 44.89471162734127 0.0
33.9856107338652 46.894700232047626 0.0
33.98276272978698 48.89472436599541 0.0
33.97991499534602 50.89478393558743 0.0
33.977064992588 52.89487895347217 0.0
33.97421017630061 54.895009539161194 0.0
33.97134799416065 56.89517591963898 0.0
33.968475886976 58.89537842995957 0.0
33.96559128902086 60.89561751382446 0.0
33.96269162846285 62.89589372413438 0.0
33.95977432788012 64.89620772351124 0.0
33.95683680486586 66.89656028480424 0.0
33.953876472717695 68.8969522915182 0.0
33.95089074120933 70.89738473822332 0.0
33.94787701744012 72.8978587309067 0.0
33.94483270675935 74.89837548726692 0.0
33.94175521376031 76.89893633694615 0.0
33.93864194333876 78.8995427216946 0.0
33.93549030181029 80.90019619546139 0.0
33.93229769807948 82.90089842440649 0.0
33.9290615448533 84.90165118682879 0.0
33.92577925989032 86.90245637300451 0.0
33.92244826727596 88.90331598493157 0.0
33.9190659987131 90.90423213597457 0.0
33.9156298948161 92.90520705040711 0.0
33.91213740639515 94.90624306284701 0.0
33.90858599571654 96.90734261758195 0.0
36.06013123873633 0.9091959285232947 0.0
36.056386228579974 2.9081793126209163 0.0
36.05270223594415 4.907225852378572 0.0
36.04907658225741 6.906333217965658 0.0
36.045506601568206 8.905499181882574 0.0
36.04198963918222 10.90472161821712 0.0
36.03852305026282 12.90399850201963 0.0
36.035104198411275 14.903327908797465 0.0
36.03173045424242 16.902708014122506 0.0
36.028399193970394 18.902137093350948 0.0
36.025107798017366 20.901613521449864 0.0
36.02185364965822 22.90113577292545 0.0
36.018634133711686 24.90070242184741 0.0
36.01544663528818 26.900312141962974 0.0
36.01228853860303 28.89996370689455 0.0
36.00915722586305 30.899655990414214 0.0
36.00605007623294 32.899387966788154 0.0
36.00296446488763 34.89915871118103 0.0
35.99989776215497 36.89896740011261 0.0
35.99684733275314 38.89881331199392 0.0
35.993810535125704 40.898695827658806 0.0
35.99078472087693 42.8986144309555 0.0
35.98776723430936 44.898568709365705 0.0
35.984755412064295 46.89855835464313 0.0
35.98174658286679 48.89858316346799 0.0
35.97873806737475 50.898643038110436 0.0
35.97572717813224 52.89873798709778 0.0
35.97271121962669 54.89886812587887 0.0
35.969687488448876 56.89903367748024 0.0
35.96665327355483 58.8992349731485 0.0
35.96360585662811 60.899472452973086 0.0
35.96054251254078 62.89974666648244 0.0
35.95746050991132 64.90005827320894 0.0
35.954357111756856 66.90040804323691 0.0
35.95122957623729 68.90079685767266 0.0
35.94807515748837 70.90122570909372 0.0
35.944891106539934 72.90169570193862 0.0
35.94167467231577 74.90220805283795 0.0
35.93842310271016 76.90276409088086 0.0
35.935133645736 78.90336525781129 0.0
35.93180355073872 80.90401310814781 0.0
35.92843006966888 82.90470930922099 0.0
35.92501045840571 84.90545564112283 0.0
35.921541978123 86.90625399656186 0.0
35.91802189668723 88.90710638061866 0.0
35.91444749007664 90.90801491039596 0.0
35.910816043809064 92.9089818145588 0.0
35.9071248543645 94.91000943275989 0.0
35.903371230587176 96.91110021494612 0.0
38.063293423045806 0.9131499402011145 0.0
38.05934788112768 2.912142404520182 0.0
38.05546669404367 4.911197643704119 0.0
38.051647039017396 6.910313334144199 0.0
38.04788610689766 8.909487253884963 0.0
38.044181100642255 10.908717281853301 0.0
38.0405292337669 12.908001397216523 0.0
38.03692772877703 14.907337678869597 0.0
38.033373815599454 16.906724305044214 0.0
38.029864730029296 18.906159553038155 0.0
38.02639771220627 20.905641799058873 0.0
38.02297000513363 22.905169518175242 0.0
38.01957885325103 24.904741284371053 0.0
38.01622150107225 26.904355770693183 0.0
38.012895191896355 28.904011749487577 0.0
38.00959716660097 30.903708092715775 0.0
38.00632466252426 32.903443772344005 0.0
38.0030749124412 34.90321786079451 0.0
37.99984514363964 36.90302953145132 0.0
37.99663257709939 38.902878059246035 0.0
37.99343442677795 40.90276282124067 0.0
37.990247899004935 42.9026832972705 0.0
37.98707019198694 44.902639070614725 0.0
37.98389849542383 46.90262982868663 0.0
37.98072999023732 48.90265536373904 0.0
37.97756184841137 50.902715573578945 0.0
37.974391232944555 52.90281046228456 0.0
37.971215297913744 54.90294014091965 0.0
37.96803118864774 56.90310482823843 0.0
37.964836042010184 58.90330485137633 0.0
37.96162698678989 60.90354064652008 0.0
37.95840114419684 62.90381275955059 0.0
37.955155628462464 64.9041218466538 0.0
37.95188754754099 66.90446867491303 0.0
37.948594003910074 68.9048541228234 0.0
37.94527209546747 70.90527918078337 0.0
37.94191891652031 72.90574495152603 0.0
37.93853155886305 74.90625265048938 0.0
37.935107112940145 76.90680360612073 0.0
37.9316426690872 78.90739926010788 0.0
37.92813531884609 80.90804116753128 0.0
37.92458215634582 82.90873099693081 0.0
37.92098027974233 84.90947053027958 0.0
37.91732679270759 86.91026166285947 0.0
37.91361880595826 88.91110640303128 0.0
37.909853438811965 90.91200687189311 0.0
37.906027820758695 92.91296530282123 0.0
37.902139093032275 94.91398404088822 0.0
37.8981844101663 96.91506554215272 0.0
40.066426769015045 0.917309653771655 0.0
40.062281907942804 2.916311681091581 0.0
40.058204729423196 4.915376082877438 0.0
40.05419226743036 6.914500542242758 0.0
40.0502415706086 8.913682843202933 0.0
40.04634970058878 10.9129208698779 0.0
40.042513730272674 12.912212605834995 0.0
40.03873074210464 14.911556133571208 0.0
40.03499782634802 16.91094963412679 0.0
40.03131207938335 18.910391386827722 0.0
40.02767060204311 20.909879769150074 0.0
40.024070497996824 22.90941325669932 0.0
40.02050887219876 24.90899042329739 0.0
40.01698282940897 26.90860994116945 0.0
40.01348947279761 28.908270581222755 0.0
40.01002590264026 30.907971213409663 0.0
40.006589215111575 32.90771080716592 0.0
40.00317650118316 34.90748843191335 0.0
39.99978484563025 36.90730325761897 0.0
39.99641132615109 38.90715455543443 0.0
39.9930530126021 40.90704169833397 0.0
39.989706966350624 42.906964161812205 0.0
39.98637023974706 44.90692152460989 0.0
39.98303987571675 46.90691346945855 0.0
39.97971290747231 48.90693978384052 0.0
39.97638635834619 50.90700036075684 0.0
39.97305724174249 52.907095199497505 0.0
39.96972256120789 54.907224406407856 0.0
39.96637931062008 56.90738819564493 0.0
39.96302447449239 58.90758688991874 0.0
39.95965502839342 60.9078209212124 0.0
39.956267939479375 62.908090831473984 0.0
39.9528601671377 64.9083972732757 0.0
39.94942866373936 66.90874101045331 0.0
39.94597037549745 68.90912291866748 0.0
39.942482243429495 70.90954398594069 0.0
39.93896120441982 72.9100053131328 0.0
39.93540419237859 74.91050811435406 0.0
39.93180813949318 76.9110537173105 0.0
39.92816997756651 78.91164356357388 0.0
39.92448663943735 80.91227920877023 0.0
39.92075506047467 82.91296232267888 0.0
39.916972180139396 84.91369468923584 0.0
39.9131349436037 86.91447820643307 0.0
39.909240303417974 88.91531488610744 0.0
39.90528522121328 90.91620685361099 0.0
39.90126666942632 92.91715634735672 0.0
39.8971816330314 94.91816571823222 0.0
39.89302711126285 96.91923742887556 0.0
42.06952978641002 0.9216738074930009 0.0
42.06518688033381 2.9206858791411157 0.0
42.0609149741615 4.919759905435328 0.0
42.05671095968125 6.918893576733265 0.0
42.05257174443491 8.918084683463007 0.0
42.0484942498523 10.917331115300824 0.0
42.04447540935712 12.9166308605011 0.0
42.04051216646543 14.915982005376627 0.0
42.03660147289544 16.915382733920268 0.0
42.03274028670618 18.914831327564553 0.0
42.02892557048134 20.91432616507123 0.0
42.025154289572015 22.913865722542923 0.0
42.02142341041182 24.91344857354846 0.0
42.017729898915285 26.91307338935334 0.0
42.01407071896949 28.912738939246456 0.0
42.01044283102734 30.912444090954427 0.0
42.00684319080929 32.91218781113413 0.0
42.00326874811987 34.91196916593126 0.0
41.99971644578309 36.91178732159721 0.0
41.99618321870057 38.91164154518663 0.0
41.992665993035246 40.911531205254285 0.0
41.98916168552201 42.91145577261166 0.0
41.98566720290696 44.911414821110974 0.0
41.98217944151524 46.911408028448 0.0
41.97869528694774 48.911435176979026 0.0
41.97521161390611 50.911496154545276 0.0
41.97172528614529 52.911590955298564 0.0
41.96823315655242 54.91171968052234 0.0
41.964732067350944 56.91188253944173 0.0
41.96121885042827 58.91207985001773 0.0
41.95769032778562 60.91231203971929 0.0
41.95414331210787 62.91257964626669 0.0
41.95057460745189 64.91288331834149 0.0
41.94698101005097 66.91322381627506 0.0
41.943359309233074 68.9136020126601 0.0
41.93970628845039 70.91401889293545 0.0
41.93601872641692 72.91447555590888 0.0
41.93229339835095 74.91497321421649 0.0
41.92852707731814 76.9155131947125 0.0
41.92471653567044 78.91609693878189 0.0
41.92085854657558 80.91672600256918 0.0
41.9169498856301 82.91740205711434 0.0
41.91298733254879 84.91812688838989 0.0
41.90896767292093 86.91890239722856 0.0
41.90488770002359 88.91973059913565 0.0
41.90074421667951 90.92061362397585 0.0
41.896534037146054 92.9215537155279 0.0
41.89225398901957 94.92255323089819 0.0
41.88790091513772 96.92361463978649 0.0
44.072600989877266 0.9262410767760583 0.0
44.06806137403163 2.9252636725084438 0.0
44.06359606426701 4.924347783845731 0.0
44.05920181136709 6.923491108932697 0.0
44.054875382989565 8.922691445066262 0.0
44.05061356160237 10.921946687850483 0.0
44.046413142396545 12.921254830516343 0.0
44.04227093119784 14.92061396340386 0.0
44.038183742397436 16.92002227359594 0.0
44.034148396920074 18.919478044699826 0.0
44.030161720246745 20.918979656766908 0.0
44.02622054050661 22.918525586341936 0.0
44.02232168665186 24.918114406632245 0.0
44.01846198672696 26.917744787787313 0.0
44.01463826624235 28.917415497278892 0.0
44.010847346661144 30.917125400372093 0.0
44.00708604400576 32.91687346067729 0.0
44.00335116759025 34.91665874076962 0.0
43.999639518882724 36.916480402868515 0.0
43.99594789050097 38.91633770959745 0.0
43.99227306534411 40.91623002474417 0.0
43.98861181586104 42.916156814079706 0.0
43.98496090345703 44.916117646204356 0.0
43.981317078037954 46.916112193411394 0.0
43.977677077692256 48.91614023256435 0.0
43.97403762850934 50.916201645980145 0.0
43.97039544453373 52.91629642231293 0.0
43.96674722785315 54.91642465743164 0.0
43.963089668819386 56.916586555286095 0.0
43.95941944640003 58.91678242875606 0.0
43.955733228659675 60.91701270047735 0.0
43.95202767336837 62.917277903638954 0.0
43.94829942873579 64.91757868274554 0.0
43.944545134268964 66.91791579435812 0.0
43.940761421751525 68.91829010775761 0.0
43.93694491634206 70.91870260558079 0.0
43.93309223778863 72.91915438439356 0.0
43.92920000175687 74.91964665519977 0.0
43.92526482126731 76.92018074387931 0.0
43.921283308238216 78.92075809154771 0.0
43.917252075128104 80.92138025482906 0.0
43.91316773667212 82.9220489060344 0.0
43.90902691170487 84.9227658332364 0.0
43.90482622506048 86.9235329402315 0.0
43.90056230954013 88.92435224638024 0.0
43.89623180793472 90.92522588631635 0.0
43.89183137508858 92.92615610951532 0.0
43.88735767998872 94.92714527971285 0.0
43.88280740786074 96.92819587416504 0.0
46.075638899340746 0.9310100745884773 0.0
46.070903969535244 2.930043672464915 0.0
46.06624663997265 4.929138327901063 0.0
46.06166352174205 6.928291747392436 0.0
46.05715124396131 8.927501735574221 0.0
46.052706451498054 10.926766194356315 0.0
46.048325802673865 12.926083122236669 0.0
46.04400596697451 14.92545061378949 0.0
46.039743622788535 16.924866859316367 0.0
46.03553545519307 18.92433014465493 0.0
46.031378153804994 20.92383885113463 0.0
46.02726841071301 22.923391455669673 0.0
46.023202918504545 24.922986530978147 0.0
46.01917836839925 26.922622745916772 0.0
46.01519144849946 28.922298865920546 0.0
46.011238842166165 30.92201375353646 0.0
46.00731722652725 32.92176636904041 0.0
46.00342327112319 34.921555771123 0.0
45.99955363669514 36.921381117636635 0.0
45.995704974117174 38.92124166642234 0.0
45.991873923475545 40.92113677613736 0.0
45.98805711329533 42.921065907140616 0.0
45.9842511599148 44.92102862240385 0.0
45.980452667007114 46.921024588439806 0.0
45.97665822524852 48.921053576241974 0.0
45.97286441213145 50.92111546222948 0.0
45.969067791921375 52.92121022919074 0.0
45.96526491575558 54.92133796722006 0.0
45.96145232188179 56.92149887464132 0.0
45.95762653603531 58.92169325891368 0.0
45.95378407195248 60.92192153751385 0.0
45.94992143201884 62.92218423878828 0.0
45.946035108050175 64.92248200277086 0.0
45.942121582204535 66.9228155819773 0.0
45.938177328023414 68.92318584212362 0.0
45.93419881160022 70.92359376281588 0.0
45.93018249287313 72.92404043817685 0.0
45.92612482704056 74.9245270774079 0.0
45.92202226609514 76.92505500527963 0.0
45.917871260472936 78.92562566254215 0.0
45.9136682608129 80.9262406062475 0.0
45.909409719820935 82.92690150997504 0.0
45.905092094231364 84.92761016394986 0.0
45.90071184685769 86.92836847504452 0.0
45.89626544872215 88.92917846665397 0.0
45.89174938125249 90.93004227843271 0.0
45.88716013853171 92.93096216588302 0.0
45.882494229584516 94.931940499785 0.0
45.87774818068188 96.93297976545618 0.0
48.078642040418565 0.9359793519112714 0.0
48.07371325247234 2.935024428164333 0.0
48.06886534604111 4.934130085164256 0.0
48.06409479396909 6.933294038340463 0.0
48.05939808831496 8.93251410014762 0.0
48.05477173783975 10.931788179184256 0.0
48.050212265485065 12.93111427950421 0.0
48.04571620586709 14.930490500116056 0.0
48.04128010280895 16.92991503465725 0.0
48.036900506932064 18.92938617123632 0.0
48.03257397332492 20.928902292431246 0.0
48.028297059306276 22.928461875432685 0.0
48.024066322295695 24.928063492319907 0.0
48.019878317805244 26.92770581045769 0.0
48.0157295975614 28.927387593001924 0.0
48.01161670776621 30.92710769950243 0.0
48.00753618750385 32.92686508659098 0.0
48.00348456729855 34.92665880873919 0.0
47.99945836782633 36.926488019078334 0.0
47.99545409878401 38.92635197029822 0.0
47.991468257916075 40.92625001554647 0.0
47.987497330200306 42.92618160938424 0.0
47.983537787190876 44.92614630876619 0.0
47.97958608651902 46.926143774035836 0.0
47.9756386715487 48.92617376993058 0.0
47.971691971186225 50.92623616659045 0.0
47.96774239984117 52.926330940563666 0.0
47.96378635753722 54.92645817580382 0.0
47.95982023017019 56.926618064652736 0.0
47.95584038991151 58.92681090880456 0.0
47.95184319575517 60.927037120245295 0.0
47.94782499420649 62.92729722216196 0.0
47.94378212011074 64.9275918498169 0.0
47.93971089762024 66.92792175139824 0.0
47.93560764129829 68.92828778879519 0.0
47.93146865735841 70.92869093834443 0.0
47.92729024503684 72.92913229151331 0.0
47.9230686980963 74.9296130555184 0.0
47.918800306458685 76.93013455387228 0.0
47.91448135796297 78.93069822684954 0.0
47.910108140244624 80.93130563186394 0.0
47.90567694273116 82.93195844374584 0.0
47.90118405874783 84.9326584549108 0.0
47.89662578772477 86.93340757540737 0.0
47.89199843749687 88.93420783283342 0.0
47.88729832668381 90.93506137210777 0.0
47.882521787136774 92.93597045508649 0.0
47.87766516643543 94.93693746001017 0.0
47.87272483041597 96.9379648807707 0.0
50.08160894485895 0.9411473982537439 0.0
50.07648781397445 2.9402044271520387 0.0
50.071450832080416 4.939321541473257 0.0
50.066494335377854 6.938496466182086 0.0
50.061614680494735 8.937727022043756 0.0
50.05680824172106 10.937011124730713 0.0
50.05207140824355 12.936346784137482 0.0
50.04740058140712 14.93573210389749 0.0
50.042792172026516 16.935165281086928 0.0
50.03824259777039 18.934644606107558 0.0
50.033748280636765 20.934168462735194 0.0
50.02930564453711 22.933735328320893 0.0
50.024911113003654 24.93334377413126 0.0
50.020561107032 26.932992465814923 0.0
50.01625204306972 28.9326801639815 0.0
50.01198033115885 30.932405724880546 0.0
50.00774237323873 32.93216810116709 0.0
50.003534561613606 34.93196634273792 0.0
49.99935327758837 36.931799597629606 0.0
49.99519489027394 38.93166711299449 0.0
49.991055755562826 40.93156823607619 0.0
49.986932215274514 42.931502415239386 0.0
49.98282059646955 44.93146920102221 0.0
49.97871721093046 46.93146824720123 0.0
49.974618354807085 48.931499311864684 0.0
49.97052030842448 50.931562258486515 0.0
49.966419336250084 52.931657056995775 0.0
49.962311687018044 54.93178378483574 0.0
49.958193594008186 56.93194262800708 0.0
49.95406127547721 58.93213388209142 0.0
49.949910935240105 60.93235795324921 0.0
49.9457387634003 62.932615359187196 0.0
49.94154093722639 64.93290673009069 0.0
49.93731362217489 66.9332328095316 0.0
49.93305297305717 68.93359445530307 0.0
49.92875513534982 70.93399264022447 0.0
49.924416246647176 72.93442845288456 0.0
49.92003243825455 74.93490309831994 0.0
49.915599836920265 76.9354178986226 0.0
49.91111456670429 78.93597429346636 0.0
49.90657275097995 80.93657384054369 0.0
49.90197051456471 82.93721821590202 0.0
49.89730398597414 84.93790921416893 0.0
49.89256929979193 86.9386487486531 0.0
49.887762599147024 88.93943885130946 0.0
49.882880038286224 90.94028167255438 0.0
49.877917785229286 92.94117948091674 0.0
49.87287202448921 94.94213466251199 0.0
49.86773895983954 96.94314972032329 0.0
52.084538150995954 0.9465126422326378 0.0
52.0792262510664 2.9455820959383625 0.0
52.074001752868774 4.944711121510073 0.0
52.068860857727856 6.9438974540654215 0.0
52.06379978862885 8.943138923178797 0.0
52.05881478717917 10.94243345198152 0.0
52.05390211058083 12.94177905648642 0.0
52.049058028642015 14.941173845129233 0.0
52.04427882085306 16.940616018509903 0.0
52.03956077354984 18.940103869324183 0.0
52.03490017718427 20.939635782470663 0.0
52.03029332372003 22.939210235318377 0.0
52.025736504168094 24.93882579812011 0.0
52.02122600627439 26.93848113455662 0.0
52.01675811237019 28.938175002397145 0.0
52.01232909739269 30.937906254261847 0.0
52.007935227081674 32.937673838472314 0.0
52.00357275635638 34.93747679997229 0.0
51.99923792787494 36.937314281310336 0.0
51.99492697077682 38.93718552369779 0.0
51.99063609960865 40.937089868065236 0.0
51.98636151343153 42.937026756170354 0.0
51.98209939510783 44.93699573172566 0.0
51.97784591076503 46.93699644153633 0.0
51.97359720943345 48.93702863664316 0.0
51.96934942285442 50.93709217346403 0.0
51.96509866545605 52.93718701492813 0.0
51.96084103449317 54.93731323159788 0.0
51.9565726103489 56.93747100277355 0.0
51.95228945699466 58.937660617576334 0.0
51.947987622607414 60.93788247600586 0.0
51.9436631403414 62.93813708996622 0.0
51.939312029253806 64.93842508425745 0.0
51.93493029538268 66.93874719754245 0.0
51.930513932977085 68.93910428324264 0.0
51.92605892587837 70.9394973104042 0.0
51.9215612490526 72.93992736450333 0.0
51.91701687027306 74.94039564818928 0.0
51.91242175195241 76.9409034819559 0.0
51.907771853122824 78.94145230473414 0.0
51.90306313156191 80.94204367439431 0.0
51.89829154606121 82.94267926814788 0.0
51.8934530588325 84.9433608828363 0.0
51.88854363804598 86.94409043509346 0.0
51.883559260491495 88.94486996136838 0.0
51.87849591435288 90.9457016177922 0.0
51.873349602081866 92.94658767987477 0.0
51.86811634335559 94.9475305420137 0.0
51.8627921780983 96.94853271680081 0.0
54.08742820422414 0.9520734522220564 0.0
54.081927167068535 2.9511558006430394 0.0
54.07651676868756 4.9502971894410255 0.0
54.071193077475364 6.9494953645183335 0.0
54.06595218473466 8.948748164761742 0.0
54.06079020134293 10.948053521142699 0.0
54.055703254442626 12.947409456059116 0.0
54.05068748418477 14.946814082909611 0.0
54.04573904055361 16.946265605881134 0.0
54.04085408029506 18.94576231993871 0.0
54.036028763970926 20.945302611000358 0.0
54.03125925315625 22.944884956280895 0.0
54.02654170779516 24.944507924787487 0.0
54.02187228372772 26.94417017795103 0.0
54.01724713039751 28.94387047037674 0.0
54.01266238874756 30.943607650698624 0.0
54.00811418930929 32.943380662522294 0.0
54.00359865048858 34.94318854543759 0.0
53.99911187704925 36.943030436091504 0.0
53.99464995879459 38.94290556933404 0.0
53.99020896944543 40.94281327936005 0.0
53.98578496571199 42.942753000899124 0.0
53.98137398655664 44.94272427042181 0.0
53.97697205264372 46.942726727352564 0.0
53.9725751659724 48.94276011528447 0.0
53.96817930968859 50.94282428318907 0.0
53.96378044807168 52.94291918661648 0.0
53.959374526692464 54.943044888880486 0.0
53.95495747273907 56.943201562224466 0.0
53.950525195507545 58.94338948896472 0.0
53.946073587055416 60.94360906260706 0.0
53.9415985230159 62.943860788932184 0.0
53.937095863571955 64.94414528704648 0.0
53.93256145458966 66.94446329040913 0.0
53.92799112891026 68.94481564778982 0.0
53.92338070780207 70.9452033241982 0.0
53.91872600257133 72.94562740175496 0.0
53.91402281633378 74.94608908050122 0.0
53.90926694594615 76.94658967914023 0.0
53.90445418409813 78.94713063569996 0.0
53.89958032156293 80.94771350810768 0.0
53.89464114960577 82.94833997466404 0.0
53.88963246254538 84.94901183440358 0.0
53.88455006046467 86.94973100732769 0.0
53.87938975206283 88.95049953449423 0.0
53.874147357639366 90.951319577947 0.0
53.86881871219772 92.95219342046802 0.0
53.863399668652825 94.9531234651334 0.0
53.85788610112357 96.95411223465544 0.0
56.09027765749163 0.9578281370810671 0.0
56.08458917201186 2.9569238477176034 0.0
56.07899454566114 4.956078049635347 0.0
56.073489716042516 6.95528850016408 0.0
56.06807064492199 8.954553048007323 0.0
56.06273331457604 10.953869632350262 0.0
56.05747372417813 12.953236282227566 0.0
56.05228788625581 14.95265111614 0.0
56.04717182324707 16.95211234189853 0.0
56.04212156417997 18.95161825668265 0.0
56.03713314149822 20.951167247294123 0.0
56.03220258805043 22.950757790587392 0.0
56.02732593425871 24.95038845405818 0.0
56.02249920547883 26.950057896571913 0.0
56.017718419561234 28.94976486921425 0.0
56.01297958461992 30.949508216246404 0.0
56.008278697013424 32.949286876148726 0.0
56.0036117395399 34.94909988273234 0.0
55.998974679846974 36.94894636630926 0.0
55.99436346905456 38.94882555493153 0.0
55.989774040588294 40.94873677562321 0.0
55.98520230921981 42.948679455656055 0.0
55.98064417030894 44.94865312383722 0.0
55.97609549924379 46.948657411799424 0.0
55.971552151072444 48.9486920552887 0.0
55.96700996032206 50.94875689544369 0.0
55.96246474099979 52.94885188006139 0.0
55.957912286771574 54.94897706484562 0.0
55.95334837131426 56.94913261463374 0.0
55.94876874883857 58.94931880459957 0.0
55.94416915477946 60.94953602142858 0.0
55.93954530665329 62.94978476446212 0.0
55.934892905080034 64.950065646808 0.0
55.93020763497069 66.95037939642734 0.0
55.92548516688065 68.95072685715596 0.0
55.920721158529716 70.95110898969871 0.0
55.91591125649052 72.95152687256805 0.0
55.91105109804679 74.95198170296476 0.0
55.90613631322308 76.95247479759256 0.0
55.90116252698719 78.95300759339733 0.0
55.896125361625685 80.95358164822024 0.0
55.89102043929243 82.95419864135148 0.0
55.885843384727615 84.95486037397188 0.0
55.88058982814466 86.95556876946536 0.0
55.875255408278214 88.95632587358678 0.0
55.86983577558583 90.95713385446503 0.0
55.864326595591315 92.95799500242347 0.0
55.858723552355336 94.9589117295955 0.0
55.85302235205449 96.95988656931475 0.0
58.0930850718106 0.9637749469665691 0.0
58.08721088306361 2.9628844847534364 0.0
58.081433756102015 4.962051947469893 0.0
58.07574950008675 6.9612751045234935 0.0
58.07015394959292 8.9605518149358 0.0
58.06464296061362 10.959880026467141 0.0
58.05921240662052 12.959257775020568 0.0
58.05385817471457 14.958683184311822 0.0
58.048576161896804 16.95815446578144 0.0
58.043362271484504 18.95766991873368 0.0
58.03821240969581 20.957227930680975 0.0
58.03312248242129 22.956826977873078 0.0
58.028088392197766 24.95646562599023 0.0
58.02310603539647 26.95614253097993 0.0
58.018171299634375 28.95585644001789 0.0
58.013280061414676 30.95560619257411 0.0
58.008428183999605 32.95539072156596 0.0
58.003611515516745 34.95520905457694 0.0
57.99882588729738 36.95506031513071 0.0
57.9940671124445 38.95494372402938 0.0
57.98933098462594 40.95485860068036 0.0
57.98461327708734 42.954804364461566 0.0
57.9799097418794 44.95478053609323 0.0
57.975216109292255 46.954786739007005 0.0
57.97052808749133 48.95482270070769 0.0
57.96584136234753 50.954888254121954 0.0
57.96115159745643 52.95498333892971 0.0
57.95645443434057 54.9551080028746 0.0
57.95174549283076 56.95526240305071 0.0
57.94702037162227 58.95544680716342 0.0
57.94227464900363 60.95566159476231 0.0
57.93750388375599 62.95590725844281 0.0
57.93270361622303 64.95618440501558 0.0
57.92786936955095 66.95649375665363 0.0
57.92299665110082 68.9568361519772 0.0
57.91808095403458 70.95721254711437 0.0
57.91311775907798 72.95762401670972 0.0
57.908102536462664 74.95807175487866 0.0
57.90303074805153 76.9585570761006 0.0
57.89789784964933 78.95908141603971 0.0
57.892699293501536 80.9596463322833 0.0
57.887430530982165 82.96025350498422 0.0
57.88208701547145 84.96090473739206 0.0
57.8766642054208 86.96160195625674 0.0
57.87115756760157 88.96234721208582 0.0
57.86556258053075 90.96314267923456 0.0
57.85987473806352 92.96399065580812 0.0
57.85408955313926 94.96489356335115 0.0
57.84820256166315 96.96585394630168 0.0
60.09584901678387 0.9699120742394842 0.0
60.08979092496204 2.9690359013836627 0.0
60.08383307885874 4.968217070228243 0.0
60.077971161768225 6.96745336291212 0.0
60.072200883635425 8.966742649268259 0.0
60.06651797668981 10.966082885975888 0.0
60.060918191156325 12.96547211601236 0.0
60.05539729107918 14.964908468388924 0.0
60.04995105028883 16.96439015814405 0.0
60.0445752485398 18.96391548657633 0.0
60.03926566784201 20.963482841693203 0.0
60.03401808900505 22.963090698852138 0.0
60.02882828841012 24.962737621571343 0.0
60.02369203502162 26.962422262487294 0.0
60.01860508764641 28.962143364437626 0.0
60.01356319244527 30.96189976164854 0.0
60.00856208069909 32.961690381007166 0.0
60.003597466828914 34.961514243395555 0.0
59.99866504666704 36.96137046507627 0.0
59.99376049597497 38.96125825913538 0.0
59.98887946920156 40.96117693690914 0.0
59.9840175984753 42.961125909442124 0.0
59.97917049282173 44.961104688945426 0.0
59.974333737599096 46.96111289024616 0.0
59.969502894143105 48.96115023222332 0.0
59.96467349961398 50.96121653922552 0.0
59.95984106703782 52.96131174246662 0.0
59.95500108553648 54.96143588139677 0.0
59.95014902074027 56.961589105046755 0.0
59.945280315379534 58.96177167334491 0.0
59.9403903900521 60.961983958405106 0.0
59.93547464416502 62.962226445784424 0.0
59.93052845705032 64.96249973570944 0.0
59.9255471892559 66.96280454428246 0.0
59.92052618401361 68.96314170463027 0.0
59.91546076888791 70.96351216803117 0.0
59.910346257608985 72.9639170049958 0.0
59.905177952095 74.96435740629855 0.0
59.89995114466854 76.96483468395253 0.0
59.89466112047189 78.96535027211854 0.0
59.889303160085674 80.96590572793599 0.0
59.88387254235454 82.96650273226194 0.0
59.87836454742195 84.96714309030305 0.0
59.872774459974465 86.9678287321213 0.0
59.86709757269425 88.96856171299424 0.0
59.86132918991396 90.96934421360646 0.0
59.8554646314674 92.9701785400489 0.0
59.849499236722245 94.97106712359927 0.0
59.84342836877939 96.97201252025658 0.0
62.098568071146126 0.9762376544729761 0.0
62.09232793045832 2.975376230287714 0.0
62.086191199664675 4.974571548103201 0.0
62.080153439012456 6.973821403441413 0.0
62.074210236608145 8.9731236774264 0.0
62.06835720365324 10.972476335976266 0.0
62.06258996978113 12.971877429316248 0.0
62.05690417853159 14.971325091794771 0.0
62.051295482995926 16.970817541972714 0.0
62.04575954166071 18.97035308296552 0.0
62.040292014473714 20.969930103011286 0.0
62.03488855915127 22.969547076238914 0.0
62.02954482774205 24.969202563610693 0.0
62.02425646345827 26.968895214014186 0.0
62.01901909778112 28.96862376547974 0.0
62.013828347844395 30.968387046500894 0.0
62.008679814096226 32.968183977436155 0.0
62.00356907823723 34.968013571967454 0.0
61.99849170142989 36.96787493860439 0.0
61.99344322277253 38.96776728223852 0.0
61.988419158030084 40.967689905674256 0.0
61.983414998612474 42.96764221118321 0.0
61.97842621079014 44.96762370205086 0.0
61.973448235137695 46.96763398410687 0.0
61.96847648619487 48.96767276723503 0.0
61.96350635233594 50.96773986685843 0.0
61.9585331958389 52.9678352053974 0.0
61.95355235314678 54.96795881369821 0.0
61.94855913531494 56.968110832432295 0.0
61.94354882863987 58.968291513465616 0.0
61.93851669546567 60.968501221198956 0.0
61.93345797516761 62.96874043387808 0.0
61.92836788531207 64.96900974487497 0.0
61.923241622994944 66.96930986395122 0.0
61.918074366362006 68.96964161846935 0.0
61.912861276315034 70.9700059545871 0.0
61.90759749841025 72.9704039384109 0.0
61.902278164954545 74.97083675710749 0.0
61.896898397307716 76.97130571996544 0.0
61.891453308396464 78.97181225939725 0.0
61.885938005448374 80.97235793187072 0.0
61.88034759295088 82.97294441875432 0.0
61.8746771758409 84.97357352706028 0.0
61.86892186292765 86.97424719006573 0.0
61.863076770549746 88.97496746779011 0.0
61.85713702646393 90.9757365473042 0.0
61.85109777396017 92.97655674284387 0.0
61.84495417619226 94.9774304956999 0.0
61.8387014207095 96.97836037385295 0.0
64.10124082332001 0.9827497675721069 0.0
64.09482054076535 2.9819035483081002 0.0
64.0885068114868 4.9811134553123395 0.0
64.08229507576756 6.980377298133804 0.0
64.07618080291513 8.979692969647001 0.0
64.07015948606971 10.979058445297833 0.0
64.06422663714017 12.9784717826934 0.0
64.05837778190715 14.97793112151442 0.0
64.05260845532693 16.97743468371739 0.0
64.04691419706533 18.976980774002804 0.0
64.04129054728602 20.97656778051972 0.0
64.03573304271215 22.976194175777312 0.0
64.0302372129761 24.975858517735347 0.0
64.02479857726728 26.975559451045374 0.0
64.0194126412837 28.975295708416834 0.0
64.01407489448953 30.97506611208285 0.0
64.00878080767704 32.97486957534266 0.0
64.00352583082832 34.974705104154 0.0
63.99830539127009 36.974571798763925 0.0
63.99311489211212 38.97446885538049 0.0
63.9879497109592 40.974395567812564 0.0
63.982805198884726 42.97435132912312 0.0
63.97767667965332 44.974335633266 0.0
63.972559449181276 46.97434807669707 0.0
63.96744877522144 48.97438835995679 0.0
63.96233989726256 50.97445628922086 0.0
63.95722802663184 52.97455177781705 0.0
63.952108346792905 54.974674847708044 0.0
63.946976013830934 56.97482563094084 0.0
63.941826157120424 58.97500437106465 0.0
63.93665388017166 60.97521142451863 0.0
63.9314542616546 62.975447261990794 0.0
63.92622235660053 64.9757124697504 0.0
63.92095319778457 66.97600775096582 0.0
63.9156417972926 68.97633392697644 0.0
63.91028314827939 70.9766919385535 0.0
63.90487222692492 72.97708284712763 0.0
63.899403994597755 74.9775078359821 0.0
63.893873400234824 76.97796821140528 0.0
63.888275382947164 78.97846540379209 0.0
63.8826048748617 80.97900096868324 0.0
63.87685680420776 82.9795765877268 0.0
63.871026098656536 84.98019406954442 0.0
63.86510768891948 86.98085535048178 0.0
63.8590965126094 88.98156249521908 0.0
63.85298751836503 90.9823176972151 0.0
63.84677567023618 92.98312327895513 0.0
63.84045595232114 94.98398169197105 0.0
63.8340233736446 96.98489551659857 0.0
66.10386587197605 0.9894464390148814 0.0
66.09726740600213 2.9886158776895533 0.0
66.09077861486288 4.987840811336894 0.0
66.08439482224405 6.987119064162069 0.0
66.0781113819594 8.986448541221383 0.0
66.07192367230029 10.985827227738328 0.0
66.06582709054341 12.985253188787583 0.0
66.05981704765856 14.984724569322248 0.0
66.05388896325147 16.98423959450789 0.0
66.0480382607722 18.98379657033598 0.0
66.04226036301343 20.983393884483842 0.0
66.0365506879182 22.98303000738821 0.0
66.03090464471059 24.982703493501084 0.0
66.02531763035836 26.982412982696843 0.0
66.019785026372 28.982157201802078 0.0
66.01430219594005 30.981934966220525 0.0
66.00886448139666 32.981745181627915 0.0
66.00346720201549 34.98158684570849 0.0
65.9981056521184 36.98145904992055 0.0
65.99277509948904 38.981360981291864 0.0
65.98747078407645 40.98129192417255 0.0
65.98218791697492 42.98125126199027 0.0
65.97692167966467 44.98123847897749 0.0
65.97166722349907 46.98125316186276 0.0
65.96641966942333 48.981295001524096 0.0
65.96117410791163 50.981363794601165 0.0
65.95592559911076 52.98145944506711 0.0
65.95066917317956 54.98158196575999 0.0
65.94539983081616 56.98173147987723 0.0
65.94011254396682 58.98190822243579 0.0
65.93480225671249 60.98211254170188 0.0
65.92946388633156 62.982344900593134 0.0
65.92409232454042 64.98260587805726 0.0
65.91868243891439 66.9828961704403 0.0
65.91322907449569 68.9832165928167 0.0
65.90772705559546 70.98356808031485 0.0
65.90217118779964 72.9839516894185 0.0
65.89655626018977 74.98436859924406 0.0
65.8908770477907 76.98482011278735 0.0
65.88512831425828 78.98530765813034 0.0
65.87930481481948 80.98583278959646 0.0
65.87340129947778 82.98639718883842 0.0
65.8674125164953 84.98700266584088 0.0
65.86133321616103 86.98765115981438 0.0
65.85515815485321 88.988344739957 0.0
65.84888209939946 90.98908560605251 0.0
65.84249983173507 92.98987608887447 0.0
65.83600615385546 94.99071865035964 0.0
65.8293958930516 96.99161588351294 0.0
68.10644182659806 0.9963256412255619 0.0
68.0996671856343 2.9955111874515503 0.0
68.09300531822747 4.99475158229527 0.0
68.0864514351375 6.994044665224452 0.0
68.08000077827415 8.993388353871701 0.0
68.07364861455467 10.992780643439314 0.0
68.06739022995424 12.992219606497436 0.0
68.06122092379357 14.991703393146956 0.0
68.05513600330052 16.99123023150667 0.0
68.04913077847667 18.990798428493587 0.0
68.04320055729437 20.99040637085933 0.0
68.03734064124242 22.99005252644629 0.0
68.03154632123402 24.989735445628334 0.0
68.02581287388399 26.989453762902166 0.0
68.0201355581582 28.989206198597355 0.0
68.01450961239213 30.988991560675288 0.0
68.00893025167272 32.98880874658931 0.0
68.00339266557366 34.98865674517587 0.0
67.99789201623031 36.98853463856349 0.0
67.9924234367404 38.98844160409802 0.0
67.98698202987255 40.98837691621293 0.0
67.98156286706558 42.98833994828814 0.0
67.97616098770004 44.988330174468004 0.0
67.97077139862459 46.98834717143128 0.0
67.96538907391921 48.988390620111296 0.0
67.96000895488044 50.98846030736573 0.0
67.95462595021353 52.98855612759704 0.0
67.94923493642047 54.98867808432647 0.0
67.94383075837328 56.98882629172588 0.0
67.93840823006614 58.98900097611315 0.0
67.93296213554223 60.98920247741649 0.0
67.92748722999362 62.98943125061281 0.0
67.92197824103621 64.98968786714654 0.0
67.91642987016365 66.98997301634309 0.0
67.9108367943881 68.99028750679265 0.0
67.90519366807709 70.99063226773823 0.0
67.89949512499804 72.99100835045026 0.0
67.8937357805852 74.9914169295889 0.0
67.88791023444296 76.99185930454851 0.0
67.88201307310284 78.99233690077564 0.0
67.87603887304991 80.99285127104841 0.0
67.86998220403571 82.99340409670185 0.0
67.86383763269251 84.99399718877976 0.0
67.85759972646365 86.99463248908948 0.0
67.85126305786069 88.99531207113243 0.0
67.84482220905652 90.99603814087885 0.0
67.83827177681802 92.99681303735119 0.0
67.83160637777796 94.99763923297753 0.0
67.82482065403953 96.99851933367195 0.0
70.10896730806634 1.0033852950918456 0.0
70.10201854892296 3.002587394906024 0.0
70.09518563823775 5.001843682463102 0.0
70.08846367784432 7.001152013067642 0.0
70.0818478016428 9.000510317276124 0.0
70.07533316893009 10.999916600411696 0.0
70.06891495796242 12.999368942499054 0.0
70.06258835979745 14.998865498586564 0.0
70.05634857245306 16.998404499410597 0.0
70.05019079541694 18.99798425236671 0.0
70.04411022453036 20.99760314274622 0.0
70.03810204726538 22.997259635197764 0.0
70.03216143840763 24.996952275374493 0.0
70.02628355614938 26.996679691729724 0.0
70.0204635385943 28.99644059742535 0.0
70.01469650066718 30.996233792320872 0.0
70.00897753142097 32.99605816501247 0.0
70.00330169172565 34.99591269489027 0.0
69.99766401232408 36.99579645419927 0.0
69.99205949223446 38.99570861010092 0.0
69.98648309747999 40.9956484266644 0.0
69.98092976012302 42.99561526683059 0.0
69.97539437758284 44.995608594320075 0.0
69.96987181221516 46.99562797547852 0.0
69.96435689113335 48.99567308105951 0.0
69.95884440625257 50.99574368794539 0.0
69.9533291145405 52.995839680809134 0.0
69.94780573846057 54.99596105372229 0.0
69.94226896659644 56.996107911715676 0.0
69.93671345445009 58.99628047230057 0.0
69.93113382540861 60.99647906695867 0.0
69.92552467187888 62.99670414260798 0.0
69.91988055659166 64.996956263054 0.0
69.91419601408154 66.9972361104414 0.0
69.90846555235095 68.9975444866865 0.0
69.90268365473034 70.99788231492364 0.0
69.89684478194914 72.9982506409516 0.0
69.89094337443383 74.99865063468123 0.0
69.88497385485246 76.99908359158076 0.0
69.87893063092541 78.99955093411032 0.0
69.87280809852278 81.00005421313388 0.0
69.86660064507002 83.00059510929363 0.0
69.86030265328107 85.00117543432526 0.0
69.8539085052388 87.0017971322908 0.0
69.84741258683816 89.00246228069906 0.0
69.84080929260591 91.00317309147974 0.0
69.83409303090576 93.00393191177324 0.0
69.82725822953257 95.00474122449245 0.0
69.82029934169329 97.0056036486106 0.0
72.1114409492262 1.010623271638274 0.0
72.10432017534862 3.009842367332889 0.0
72.09731830006604 5.009114975952741 0.0
72.09043032063786 7.008438969170763 0.0
72.08365126717462 9.007812290756405 0.0
72.07697619540315 11.00723295622444 0.0
72.07040017970982 13.00669905293208 0.0
72.0639183065094 15.00620874058685 0.0
72.05752566798081 17.005760252115177 0.0
72.0512173562027 19.005351894851312 0.0
72.04498845771406 21.004982052000628 0.0
72.03883404851699 23.004649184331836 0.0
72.03274918953349 25.004351832054738 0.0
72.02672892251785 27.0040886168421 0.0
72.0207682664238 29.003858243956447 0.0
72.0148622142168 31.003659504446393 0.0
72.00900573011867 33.00349127737963 0.0
72.00319374726683 35.003352532077955 0.0
71.99742116576735 37.00324233033938 0.0
71.99168285111838 39.003159828642 0.0
71.98597363297894 41.00310428025966 0.0
71.98028830425692 43.00307503733184 0.0
71.97462162049071 45.003071552859325 0.0
71.96896829949883 47.003093382621365 0.0
71.96332302127384 49.00314018701465 0.0
71.95768042809902 51.00321173281745 0.0
71.95203512486803 53.00330789488361 0.0
71.94638167959178 55.00342865777432 0.0
71.94071462407975 57.00357411733651 0.0
71.93502845478645 59.00374448223896 0.0
71.92931763381827 61.00394007547647 0.0
71.92357659009922 63.004161335853226 0.0
71.91779972069871 65.00440881945603 0.0
71.9119813923285 67.00468320113613 0.0
71.9061159430188 69.00498527598323 0.0
71.90019768398855 71.00531596082544 0.0
71.89422090172683 73.00567629574405 0.0
71.88817986030588 75.00606744560675 0.0
71.88206880394834 77.00649070161562 0.0
71.87588195987297 79.00694748286375 0.0
71.86961354144435 81.0074393378884 0.0
71.86325775165268 83.00796794620541 0.0
71.8568087869489 85.00853511980395 0.0
71.85026084145922 87.0091428045756 0.0
71.84360811160151 89.00979308164679 0.0
71.8368448011222 91.01048816857842 0.0
71.82996512656779 93.01123042039029 0.0
71.82296332320111 95.01202233036443 0.0
71.81583365136349 97.01286653057409 0.0
74.11386139545426 1.01803739386932 0.0
74.10657075502128 3.017273923827011 0.0
74.09940203766985 5.016563278566068 0.0
74.09235014081523 7.015903346604408 0.0
74.0854099953461 9.015292085142018 0.0
74.07857655778508 11.014727519871082 0.0
74.07184480277819 13.014207745264166 0.0
74.06520971596309 15.013730925297828 0.0
74.05866628725977 17.013295294555682 0.0
74.05220950461654 19.012899159665373 0.0
74.04583434823752 21.012540901018035 0.0
74.03953578530715 23.012218974719342 0.0
74.0333087652212 25.011931914724407 0.0
74.02714821532533 27.011678335110048 0.0
74.02104903715423 29.01145693244177 0.0
74.01500610316013 31.011266488196302 0.0
74.00901425391228 33.01110587120404 0.0
74.00306829574534 35.01097404007459 0.0
73.99716299883093 37.01087004558915 0.0
73.99129309564329 39.01079303305257 0.0
73.98545327978987 41.01074224453633 0.0
73.97963820517455 43.010717021053594 0.0
73.97384248546439 45.01071680463991 0.0
73.96806069382849 47.01074114033605 0.0
73.96228736292241 49.01078967807534 0.0
73.95651698509221 51.01086217448115 0.0
73.95074401277547 53.010958494581715 0.0
73.94496285908147 55.01107861345317 0.0
73.93916789853526 57.01122261780271 0.0
73.93335346797548 59.01139070750568 0.0
73.92751386760058 61.01158319711133 0.0
73.92164336216199 63.01180051733015 0.0
73.91573618230848 65.01204321651802 0.0
73.9097865260893 67.01231196217745 0.0
73.90378856062966 69.01260754246444 0.0
73.89773642399503 71.0129308677353 0.0
73.8916242272648 73.01328297212618 0.0
73.88544605684021 75.0136650151698 0.0
73.87919597701259 77.01407828344817 0.0
73.87286803282181 79.01452419227601 0.0
73.86645625323555 81.0150042874036 0.0
73.8599546546805 83.01552024672353 0.0
73.85335724495778 85.01607388196051 0.0
73.84665802757208 87.01666714031683 0.0
73.8398510065038 89.01730210604093 0.0
73.83293019144884 91.01798100187958 0.0
73.82588960354722 93.01870619036967 0.0
73.81872328161614 95.0194801749172 0.0
73.81142528889576 97.02030560060788 0.0
76.1162273052127 1.025625438796464 0.0
76.10876898906875 3.0248798373312837 0.0
76.10143559403036 5.024186359835515 0.0
76.09422192280533 7.023542912079963 0.0
76.0871228119997 9.022947464826322 0.0
76.08013312363221 11.02239805382947 0.0
76.07324773703374 13.021892780349361 0.0
76.06646154118647 15.021429812123976 0.0
76.059769427547 17.021007384740916 0.0
76.05316628338765 19.020623803356337 0.0
76.04664698568199 21.02027744470322 0.0
76.04020639554824 23.019966759332988 0.0
76.03383935325887 25.019690274036556 0.0
76.02754067381267 27.019446594393866 0.0
76.02130514306052 29.019234407404713 0.0
76.01512751436671 31.019052484157925 0.0
76.0090025057844 33.018899682500184 0.0
76.00292479771626 35.01877494966502 0.0
75.99688903102927 37.018677324844994 0.0
75.99088980558882 39.018605941697444 0.0
75.98492167917676 41.018560030716706 0.0
75.9789791667558 43.01853892151297 0.0
75.97305674004517 45.01854204497338 0.0
75.9671488273716 47.018568935302746 0.0
75.96124981376425 49.01861923194958 0.0
75.95535404126335 51.01869268142464 0.0
75.94945580941696 53.01878913902285 0.0
75.94354937594484 55.01890857046256 0.0
75.9376289575523 57.019051053457645 0.0
75.93168873088267 59.01921677923998 0.0
75.92572283360175 61.019406054050364 0.0
75.91972536561414 63.019619300615126 0.0
75.91369039041504 65.01985705962684 0.0
75.9076119365883 67.02011999125244 0.0
75.90148399946521 69.02040887666232 0.0
75.89530054296425 71.02072461961593 0.0
75.8890555016362 73.02106824809997 0.0
75.88274278294277 75.02144091602622 0.0
75.87635626980102 77.02184390499015 0.0
75.86988982342756 79.02227862608505 0.0
75.86333728652002 81.02274662176293 0.0
75.85669248681303 83.02324956772632 0.0
75.84994924104683 85.02378927482968 0.0
75.84310135938676 87.02436769096228 0.0
75.83614265032858 89.02498690287834 0.0
75.82906692612205 91.02564913793265 0.0
75.82186800874223 93.02635676567316 0.0
75.81453973643019 95.02711229923558 0.0
75.80707597081934 97.02791839647767 0.0
78.11853735058584 1.0333851396647864 0.0
78.11091358999211 3.0326578368715587 0.0
78.10341772134848 5.031981945269442 0.0
78.09604445822679 7.031355388205577 0.0
78.08878854828679 9.030776150031324 0.0
78.08164476409806 11.030242276331617 0.0
78.07460789441288 13.029751874697252 0.0
78.06767273594576 15.029303115985034 0.0
78.06083408570645 17.028894235996212 0.0
78.05408673392225 19.028523537515067 0.0
78.04742545757333 21.02818939264289 0.0
78.0408450145557 23.02789024536487 0.0
78.03434013847435 25.027624614289778 0.0
78.02790553406203 27.02739109550627 0.0
78.02153587320768 29.027188365503342 0.0
78.01522579157337 31.027015184108375 0.0
78.00896988577001 33.026870397399996 0.0
78.00276271105868 35.02675294055466 0.0
77.9965987795379 37.02666184060757 0.0
77.99047255877687 39.02659621911762 0.0
77.98437847085123 41.02655529466954 0.0
77.97831089173864 43.026538385254035 0.0
77.97226415103115 45.02654491050237 0.0
77.9662325319246 47.026574393776045 0.0
77.96021027144684 49.026626464118536 0.0
77.95419156089083 51.02670085808042 0.0
77.94817054642347 53.02679742143185 0.0
77.94214132984494 55.0269161107804 0.0
77.93609796948013 57.02705699511324 0.0
77.93003448118893 59.027220257286224 0.0
77.9239448394882 61.02740619548133 0.0
77.91782297878507 63.02761522465468 0.0
77.91166279472675 65.0278478779971 0.0
77.90545814567905 67.02810480843421 0.0
77.89920285435059 69.02838679016486 0.0
77.89289070958668 71.0286947202752 0.0
77.8865154683607 73.02902962042835 0.0
77.88007085799643 75.02939263863966 0.0
77.87355057865851 77.02978505114025 0.0
77.8669483061517 79.0302082643263 0.0
77.86025769507202 81.03066381678576 0.0
77.85347238235491 83.0311533813879 0.0
77.84658599126595 85.03167876741355 0.0
77.8395921358795 87.03224192269806 0.0
77.83248442608925 89.03284493575013 0.0
77.82525647319159 91.03349003780312 0.0
77.81790189607882 93.03417960474651 0.0
77.81041432807305 95.03491615887823 0.0
77.80278742442516 97.03570237040988 0.0
80.12079021778983 1.041314188395675 0.0
80.11300328198303 3.0406056100104304 0.0
80.10534718119065 5.039947718819115 0.0
80.0978165458882 7.039338455966404 0.0
80.09040604054782 9.038775819299111 0.0
80.08311035372122 11.038257863861865 0.0
80.07592418864533 13.037782702971283 0.0
80.06884225443099 15.03734850980577 0.0
80.06185925788371 17.036953519433805 0.0
80.05496989599233 19.036596031214476 0.0
80.04816884910899 21.036274411498184 0.0
80.04145077483282 23.035987096557513 0.0
80.03481030259712 25.035732595681562 0.0
80.02824202894989 27.035509494371198 0.0
80.02174051350738 29.035316457577593 0.0
80.0153002755524 31.035152232932738 0.0
80.00891579124144 33.03501565392587 0.0
80.00258149137905 35.03490564298134 0.0
79.99629175971305 37.034821214418066 0.0
79.99004093170247 39.03476147727776 0.0
79.98382329370672 41.034725637957145 0.0
79.97763308254622 43.03471300268455 0.0
79.97146448538456 45.034722979819904 0.0
79.96531163988566 47.03475508198078 0.0
79.95916863460191 49.034808928005106 0.0
79.95302950955431 51.03488424476522 0.0
79.94688825697133 53.034980868851235 0.0
79.94073882215737 55.03509874814621 0.0
79.93457510447054 57.03523794331702 0.0
79.928390958394 59.035398629247574 0.0
79.92218019469396 61.035581096441284 0.0
79.91593658166346 63.0357857524194 0.0
79.90965384645854 65.03601312314207 0.0
79.90332567654072 67.03626385448251 0.0
79.89694572124634 69.03653871375987 0.0
79.89050759350918 71.03683859136912 0.0
79.88400487176996 73.03716450251329 0.0
79.87743110211039 75.03751758905025 0.0
79.87077980065563 77.03789912146031 0.0
79.86404445629191 79.03831050093314 0.0
79.85721853375 81.03875326156862 0.0
79.85029547710711 83.03922907267612 0.0
79.84326871376183 85.03973974115223 0.0
79.83613165893554 87.04028721390671 0.0
79.82887772075352 89.04087358029955 0.0
79.82150030595713 91.04150107454262 0.0
79.81399282629206 93.04217207801064 0.0
79.80634870561475 95.04288912139721 0.0
79.79856138775001 97.04365488664334 0.0
82.12298460764808 1.0494102382636643 0.0
82.11503680119128 3.04872080553824 0.0
82.10722274457548 5.048081325586061 0.0
82.09953699172017 7.047489757448221 0.0
82.09197413012066 9.046944112229115 0.0
82.08452877014014 11.046442453902856 0.0
82.07719553490617 13.04598290073581 0.0
82.06996905087638 15.045563627254182 0.0
82.0628439391241 17.045182866670054 0.0
82.05581480737993 19.044838913691446 0.0
82.04887624285314 21.04453012763551 0.0
82.0420228058408 23.04425493576643 0.0
82.03524902412244 25.04401183678412 0.0
82.0285493881225 27.043799404394015 0.0
82.02191834681638 29.043616290894658 0.0
82.01535030434218 31.043461230726262 0.0
82.0088396172753 33.04333304393097 0.0
82.00238059251522 35.043230639476896 0.0
81.99596748573016 37.04315301842485 0.0
81.98959450030054 39.043099276923876 0.0
81.98325578670334 41.04306860897153 0.0
81.97694544227737 43.04306030898068 0.0
81.97065751131267 45.04307377413384 0.0
81.96438598540911 47.04310850653073 0.0
81.95812480405473 49.043164115143824 0.0
81.95186785537878 51.04324031760005 0.0
81.94560897704044 53.04333694181225 0.0
81.93934195722224 55.04345392748701 0.0
81.93306053570305 57.043591327538564 0.0
81.9267584049947 59.043749309440784 0.0
81.92042921153367 61.04392815654933 0.0
81.91406655692751 63.044128269426025 0.0
81.90766399926403 65.0443501671977 0.0
81.90121505449925 67.04459448898427 0.0
81.89471319794738 69.04486199540763 0.0
81.88815186590442 71.04515357022292 0.0
81.88152445744257 73.0454702220818 0.0
81.87482433641989 75.04581308644407 0.0
81.86804483375516 77.0461834276459 0.0
81.86117925002173 79.04658264112717 0.0
81.85422085841986 81.04701225581283 0.0
81.84716290818771 83.04747393663538 0.0
81.83999862851589 85.04796948717808 0.0
81.83272123302761 87.04850085240876 0.0
81.82532392488977 89.0490701214658 0.0
81.81779990261424 91.04967953044732 0.0
81.81014236660808 93.05033146514513 0.0
81.80234452652405 95.05102846365537 0.0
81.79439960945614 97.0517732187859 0.0
84.12511923602266 1.0576709068268308 0.0
84.1170128959332 3.057001036421102 0.0
84.10904319198754 5.05638037479007 0.0
84.10120460862738 7.055806898825088 0.0
84.09349166306333 9.055278632482446 0.0
84.08589889372104 11.054793647950543 0.0
84.07842084938422 13.054350067473363 0.0
84.07105207910341 15.053946065749557 0.0
84.06378712292344 17.05357987281047 0.0
84.0566205034669 19.053249777292915 0.0
84.04954671839448 21.05295413001568 0.0
84.04256023374957 23.052691347772736 0.0
84.03565547817661 25.052459917260133 0.0
84.02882683799298 27.05225839905945 0.0
84.02206865307937 29.052085431607914 0.0
84.01537521354395 31.051939735093093 0.0
84.00874075710782 33.05182011521811 0.0
84.0021594671507 35.051725466786976 0.0
83.99562547135197 37.05165477708736 0.0
83.98913284085944 39.05160712905565 0.0
83.9826755899155 41.05158170416216 0.0
83.97624767587341 43.05157778505913 0.0
83.96984299953597 45.05159475797549 0.0
83.96345540575491 47.05163211486794 0.0
83.95707868423362 49.051689455347386 0.0
83.95070657048115 51.051766488403594 0.0
83.9443327468748 53.05186303395756 0.0
83.93795084379455 55.05197902427341 0.0
83.93155444080217 57.05211450526601 0.0
83.92513706784672 59.05226963774206 0.0
83.91869220648736 61.052444698612646 0.0
83.91221329113323 63.05264008211631 0.0
83.90569371031027 65.05285630108914 0.0
83.89912680797279 67.05309398832303 0.0
83.89250588488746 69.05335389803018 0.0
83.88582420012504 71.05363690745784 0.0
83.8790749727024 73.05394401866964 0.0
83.87225138342663 75.05427636051226 0.0
83.86534657699656 77.05463519078083 0.0
83.85835366442528 79.05502189858693 0.0
83.8512657258506 81.0554380069273 0.0
83.84407581380394 83.05588517544223 0.0
83.83677695701193 85.0563652033428 0.0
83.8293621648048 87.05688003247843 0.0
83.82182443220643 89.05743175050392 0.0
83.81415674577947 91.05802259409589 0.0
83.80635209029461 93.0586549521568 0.0
83.79840345628874 95.05933136893371 0.0
83.79030384856947 97.06005454696677 0.0
86.12719283418957 1.0660937791317702 0.0
86.1189303268275 3.0654438830275144 0.0
86.1108073133065 5.064842443019796 0.0
86.10281821624592 7.064287453633423 0.0
86.0949574897776 9.063776951075855 0.0
86.08721960708698 11.063309014821424 0.0
86.07959904875538 13.062881769895027 0.0
86.0720902919767 15.06249338976325 0.0
86.06468780070433 17.062142099725307 0.0
86.05738601676548 19.061826180707847 0.0
86.05017935196334 21.061543973362223 0.0
86.04306218116871 23.061293882366108 0.0
86.03602883638625 25.061074380837272 0.0
86.0290736017674 27.06088401477392 0.0
86.02219070952523 29.06072140744383 0.0
86.01537433669758 31.06058526365481 0.0
86.00861860269421 33.06047437384773 0.0
86.00191756755524 35.06038761795817 0.0
85.99526523084556 37.060323969023344 0.0
85.98865553110393 39.06028249651765 0.0
85.98208234576653 41.060262369357176 0.0
85.97553949148616 43.0602628586171 0.0
85.96902072476935 45.06028333994983 0.0
85.96251974286028 47.06032329571764 0.0
85.95603018480638 49.060382316863965 0.0
85.94954563264604 51.060460104552014 0.0
85.94305961267054 53.06055647160639 0.0
85.93656559671817 55.060671343796095 0.0
85.93005700347072 57.06080476100181 0.0
85.92352719973209 59.06095687831222 0.0
85.91696950167842 61.06112796709396 0.0
85.91037717608096 63.06131841608098 0.0
85.90374344151246 65.06152873252658 0.0
85.89706146955842 67.06175954346456 0.0
85.89032438606363 69.06201159710493 0.0
85.88352527245524 71.06228576441251 0.0
85.87665716719066 73.06258304088982 0.0
85.86971306738809 75.06290454858811 0.0
85.8626859307043 77.06325153836328 0.0
85.8555686775305 79.06362539238454 0.0
85.84835419358343 81.06402762689656 0.0
85.84103533297291 83.06445989522511 0.0
85.83360492183043 85.06492399100847 0.0
85.82605576258544 87.06542185162436 0.0
85.81838063897652 89.06595556177241 0.0
85.81057232188388 91.06652735715966 0.0
85.80262357606627 93.06713962822462 0.0
85.79452716788118 95.06779492382228 0.0
85.78627587405938 97.06849595477998 0.0
88.12920414914657 1.0746764112161098 0.0
88.12078786684512 3.0740468966569074 0.0
88.11251390763617 5.073465077789862 0.0
88.10437664059165 7.072928966356957 0.0
88.09637046451904 9.07243660999025 0.0
88.08848979453315 11.071986094276843 0.0
88.08072904954754 13.071575545569292 0.0
88.07308264076228 15.071203134437377 0.0
88.06554496120802 17.070867079640056 0.0
88.05811037638358 19.070565652509337 0.0
88.05077321600434 21.070297181631997 0.0
88.04352776685903 23.070060057719193 0.0
88.03636826675368 25.069852738561003 0.0
88.02928889950459 27.06967375397066 0.0
88.02228379092642 29.069521710632863 0.0
88.01534700574896 31.06939529678189 0.0
88.00847254538614 33.06929328664582 0.0
88.0016543464712 35.06921454460002 0.0
87.99488628006861 37.0691580290051 0.0
87.98816215146893 39.069122795712126 0.0
87.9814757004726 41.069108001178 0.0
87.97482060207182 43.069112905237326 0.0
87.96819046744143 45.06913687352271 0.0
87.96157884515756 47.0691793795526 0.0
87.95497922256888 49.0692400065168 0.0
87.94838502725516 51.06931844879514 0.0
87.94178962851603 53.06941451325165 0.0
87.93518633884628 55.06952812035071 0.0
87.92856841536144 57.06965930514518 0.0
87.9219290611533 59.0698082181891 0.0
87.91526142656338 61.069975126427416 0.0
87.90855861037602 63.07016041411534 0.0
87.90181366094427 65.07036458381862 0.0
87.8950195772724 67.0705882575463 0.0
87.88816931009067 69.07083217805071 0.0
87.88125576296768 71.07109721034647 0.0
87.87427179351651 73.071384343476 0.0
87.86721021475894 75.07169469255172 0.0
87.86006379672071 77.07202950109446 0.0
87.85282526833925 79.07239014368122 0.0
87.84548731976996 81.0727781289047 0.0
87.83804260518455 83.07319510263906 0.0
87.83048374615781 85.0736428515937 0.0
87.82280333574208 87.07412330712741 0.0
87.81499394333156 89.07463854928132 0.0
87.80704812041617 91.07519081097752 0.0
87.7989584073239 93.07578248231607 0.0
87.79071734104625 95.07641611488879 0.0
87.78231746423424 97.07709442601404 0.0
90.13115194383842 1.0834163339334208 0.0
90.1225843012574 3.082807603395664 0.0
90.11416178301661 5.082245801430606 0.0
90.10587871358202 7.081728956349102 0.0
90.09772944477629 9.081255126120828 0.0
90.08970834131304 11.080822400991753 0.0
90.08180976738265 13.080428906896605 0.0
90.07402807437366 15.080072809548213 0.0
90.06635758979222 17.079752319067598 0.0
90.05879260741654 19.079465695031935 0.0
90.05132737870137 21.07921125181212 0.0
90.04395610542416 23.078987364076628 0.0
90.03667293354312 25.07879247234647 0.0
90.0294719482187 27.078625088495333 0.0
90.02234716993247 29.07848380110023 0.0
90.01529255162299 31.078367280561306 0.0
90.00830197674713 33.078274283922084 0.0
90.00136925816577 35.07820365932948 0.0
89.99448813774893 37.078154350108655 0.0
89.9876522865905 39.07812539843441 0.0
89.98085530572479 41.07811594854612 0.0
89.97409072723899 43.078125249554574 0.0
89.96735201568102 45.07815265783895 0.0
89.96063256966843 47.07819763905846 0.0
89.95392572361484 49.07825976981601 0.0
89.9472247494985 51.078338739017326 0.0
89.940522858611 53.078434348975755 0.0
89.93381320323442 55.078546516317594 0.0
89.92708887821047 57.07867527274715 0.0
89.92034292237587 59.07882076573172 0.0
89.9135683198539 61.078983259168346 0.0
89.90675800120304 63.07916313409254 0.0
89.89990484443918 65.07936088948811 0.0
89.89300167595782 67.07957714325732 0.0
89.88604127139732 69.07981263339362 0.0
89.87901635649435 71.08006821941434 0.0
89.87191960799413 73.0803448840882 0.0
89.86474365468858 75.0806437354916 0.0
89.8574810786645 77.08096600942021 0.0
89.8501244168525 79.08131307217185 0.0
89.84266616297528 81.08168642370762 0.0
89.83509876999959 83.08208770118809 0.0
89.82741465320242 85.08251868286911 0.0
89.81960619396469 87.08298129233039 0.0
89.81166574440888 89.08347760299584 0.0
89.80358563299718 91.0840098428912 0.0
89.7953581712059 93.08458039957004 0.0
89.78697566138722 95.08519182512227 0.0
89.77843040592532 97.08584684116477 0.0
92.13303499728451 1.0923110571278933 0.0
92.12431842746483 3.091723508328516 0.0
92.11574975600156 5.0911821153389525 0.0
92.10732327241217 7.0906849221219534 0.0
92.09903329050016 9.090229995598339 0.0
92.09087413277587 11.089815428897964 0.0
92.08284011607886 13.089439345459477 0.0
92.07492553849372 15.08909990384413 0.0
92.06712466762339 17.088795303110782 0.0
92.05943173025804 19.08852378861243 0.0
92.05184090345045 21.088283658069606 0.0
92.04434630698213 23.08807326778232 0.0
92.0369419971815 25.08789103885147 0.0
92.02962196203194 27.08773546329189 0.0
92.02238011749058 29.087605109932248 0.0
92.01521030492 31.087498630012945 0.0
92.00810628952452 33.08741476240748 0.0
92.0010617596728 35.087352338403576 0.0
91.99407032698252 37.08731028601857 0.0
91.987125527041 39.087287633830755 0.0
91.98022082063693 41.08728351427807 0.0
91.97334959538102 43.08729716647639 0.0
91.96650516760107 45.08732793856176 0.0
91.959680784405 47.0873752895885 0.0
91.95286962581613 49.08743879102933 0.0
91.94606480689707 51.087518127928654 0.0
91.93925937979209 53.08761309976984 0.0
91.93244633563154 55.08772362112006 0.0
91.92561860625725 57.08784972212166 0.0
91.91876906574183 59.08799154890047 0.0
91.91189053169076 61.088149363960895 0.0
91.90497576633018 63.08832354663848 0.0
91.89801747739831 65.08851459367675 0.0
91.89100831887211 67.08872311999488 0.0
91.8839408915744 69.08894985969907 0.0
91.87680774371981 71.08919566739891 0.0
91.86960137146964 73.08946151987149 0.0
91.862314219577 75.08974851811412 0.0
91.85493868221472 77.09005788981631 0.0
91.84746710408767 79.09039099227239 0.0
91.83989178193963 81.09074931574668 0.0
91.83220496657287 83.09113448729002 0.0
91.82439886550436 85.09154827499661 0.0
91.81646564638783 87.09199259267461 0.0
91.80839744133405 89.09246950489148 0.0
91.80018635226392 91.09298123233863 0.0
91.79182445742765 93.09353015744492 0.0
91.78330381922153 95.09411883014995 0.0
91.77461649342868 97.09474997373209 0.0
94.13485210459069 1.101358074188695 0.0
94.12598905468697 3.100792100136002 0.0
94.11727665107814 5.100271504621873 0.0
94.10870915876332 7.099794346033954 0.0
94.10028086316136 9.099358698514052 0.0
94.09198605333646 11.09896265593444 0.0
94.0838190065952 13.098604336781001 0.0
94.07577397455496 15.0982818897902 0.0
94.06784517075147 17.097993500166748 0.0
94.06002675982315 19.097737396223767 0.0
94.052312848278 21.09751185628179 0.0
94.04469747681964 23.097315215671188 0.0
94.03717461418105 25.097145873693076 0.0
94.0297381523902 27.097002300407766 0.0
94.02238190336963 29.096883043134785 0.0
94.01509959675515 31.096786732567164 0.0
94.00788487880364 33.096712088419785 0.0
94.00073131225166 35.09665792454485 0.0
93.99363237698071 37.09662315348908 0.0
93.98658147134151 39.09660679047478 0.0
93.97957191399463 41.09660795676214 0.0
93.9725969461273 43.09662588244905 0.0
93.96564973391554 45.09665990872126 0.0
93.95872337111155 47.096709489593266 0.0
93.95181088164833 49.09677419319527 0.0
93.9449052221681 51.09685370266813 0.0
93.93799928439613 53.09694781673754 0.0
93.93108589729843 55.09705645004187 0.0
93.92415782897746 57.09717963329352 0.0
93.91720778827819 59.09731751335416 0.0
93.91022842609206 61.09747035330516 0.0
93.90321233636365 63.09763853259227 0.0
93.89615205682166 65.09782254732194 0.0
93.88904006946923 67.09802301078328 0.0
93.8818688008858 69.098240654259 0.0
93.87463062240458 71.09847632819165 0.0
93.8673178502453 73.09873100375727 0.0
93.85992274569237 75.09900577489223 0.0
93.85243751542097 77.09930186081151 0.0
93.84485431208587 79.09962060904346 0.0
93.83716523529422 81.09996349899944 0.0
93.82936233309562 83.10033214608012 0.0
93.82143760412826 85.10072830631086 0.0
93.81338300056656 87.1011538814827 0.0
93.8051904320208 89.10161092476066 0.0
93.79685177054152 91.10210164670492 0.0
93.78835885688285 93.1026284216325 0.0
93.7797035081777 95.10319379422943 0.0
93.77087752717243 97.10380048630196 0.0
96.13660207682491 1.1105548670171168 0.0
96.12759500348986 3.110010856111833 0.0
96.11874129990686 5.109511443167065 0.0
96.11003521781912 7.109054699411584 0.0
96.10147102461221 9.10863870408455 0.0
96.09304298525367 11.108261549240995 0.0
96.08474534579756 13.107921345527812 0.0
96.07657231856228 15.107616228755056 0.0
96.06851806905442 17.10734436706733 0.0
96.06057670467365 19.1071039685346 0.0
96.05274226519998 21.10689328897753 0.0
96.04500871502913 23.106710639852253 0.0
96.03736993709029 25.10655439603189 0.0
96.02981972835302 27.106423003338723 0.0
96.02235179680511 29.106314985699193 0.0
96.01495975976424 31.106228951814842 0.0
96.00763714336982 33.10616360126373 0.0
96.0003773830936 35.10611772996164 0.0
95.99317382509999 37.106090234958906 0.0
95.98601972828666 39.10608011855668 0.0
95.97890826684095 41.10608649170619 0.0
95.97183253315114 43.106108576754075 0.0
95.9647855409259 45.10614570955551 0.0
95.95776022838402 47.10619734100596 0.0
95.95074946139543 49.106263038058 0.0
95.94374603646757 51.106342484297315 0.0
95.93674268349194 53.10643548016046 0.0
95.92973206818213 55.10654194288181 0.0
95.92270679415499 57.106661906261 0.0
95.91565940462425 59.1067955203432 0.0
95.90858238369556 61.10694305110455 0.0
95.90146815726936 63.10710488023269 0.0
95.89430909357654 65.10728150508969 0.0
95.88709750338738 67.10747353894023 0.0
95.87982563995214 69.10768171151906 0.0
95.87248569874575 71.10790687001014 0.0
95.86506981710362 73.10814998049842 0.0
95.85757007385082 75.10841212994693 0.0
95.84997848903686 77.1086945287432 0.0
95.84228702390362 79.10899851384784 0.0
95.83448758122162 81.10932555256629 0.0
95.82657200614267 83.10967724695303 0.0
95.8185320877234 85.11005533884271 0.0
95.81035956128328 87.11046171548873 0.0
95.80204611176597 89.11089841577312 0.0
95.79358337827767 91.11136763693456 0.0
95.78496295997809 93.1118717417419 0.0
95.77617642350029 95.11241326602091 0.0
95.76721531207255 97.1129949264207 0.0
98.13828374073518 1.1198989114431308 0.0
98.12913510512789 3.1193772476377197 0.0
98.12014254035331 5.118899399179281 0.0
98.11130029706197 7.118463448144384 0.0
98.10260263572587 9.118067476295819 0.0
98.09404380719238 11.117709570835473 0.0
98.08561803502347 13.117387831197103 0.0
98.0773194997386 15.117100376678687 0.0
98.06914232503759 17.11684535469301 0.0
98.06108056603807 19.116620949429983 0.0
98.05312819952073 21.116425390721755 0.0
98.04527911613515 23.116256962912175 0.0
98.03752711448489 25.116114013548753 0.0
98.02986589697615 27.11599496173336 0.0
98.02228906728826 29.11589830599098 0.0
98.01479012930298 31.115822631539714 0.0
98.00736248731201 33.11576661687028 0.0
97.99999944731199 35.11572903956231 0.0
97.99269421919293 37.11570878131423 0.0
97.98543991962316 39.11570483217402 0.0
97.97822957544155 41.115716293942114 0.0
97.97105612737609 43.11574238281793 0.0
97.96391243391919 45.11578243132227 0.0
97.95679127520796 47.115835889559534 0.0
97.94968535677377 49.115902325898155 0.0
97.94258731304609 51.11598142715785 0.0
97.93548971051483 53.11607299839939 0.0
97.92838505047781 55.11617696241847 0.0
97.92126577132142 57.11629335904796 0.0
97.9141242503019 59.116422344374016 0.0
97.90695280481754 61.1165641899702 0.0
97.89974369318104 63.11671928225143 0.0
97.89248911492025 65.1168881220456 0.0
97.8851812106553 67.11707132447553 0.0
97.87781206161596 69.11726961923537 0.0
97.8703736888808 71.11748385134224 0.0
97.86285805243524 73.11771498243134 0.0
97.8552570501599 75.11796409265584 0.0
97.84756251687598 77.11823238324236 0.0
97.83976622358486 79.11852117974013 0.0
97.83185987705488 81.11883193599294 0.0
97.8238351199166 83.1191662388461 0.0
97.8156835314388 85.11952581358968 0.0
97.80739662916787 87.11991253012133 0.0
97.79896587161919 89.12032840979612 0.0
97.79038266221528 91.12077563291236 0.0
97.7816383546715 93.12125654676143 0.0
97.77272426002948 95.12177367414887 0.0
97.7636316555392 97.12232972227062 0.0
100.13989593828303 1.1293876831321836 0.0
100.13060820066896 3.1288887461574637 0.0
100.12147921528187 5.128432841225197 0.0
100.11250324481816 7.128018058796971 0.0
100.10367455478125 9.127642480071382 0.0
100.09498739253952 11.127304183818747 0.0
100.08643596842063 13.127001254332063 0.0
100.07801443897284 15.126731790264468 0.0
100.06971689247366 17.12649391410141 0.0
100.0615373367178 19.12628578203143 0.0
100.05346968906903 21.12610559397823 0.0
100.04550776871332 23.12595160356971 0.0
100.03764529101066 25.12582212783929 0.0
100.0298758638054 27.125715556477104 0.0
100.02219298552507 29.125630360475352 0.0
100.01459004487319 31.125565100040774 0.0
100.00706032190408 33.12551843167656 0.0
99.99959699025727 35.12548911435921 0.0
99.99219312032484 37.12547601478932 0.0
99.98484168312666 39.12547811170901 0.0
99.97753555467567 41.12549449926636 0.0
99.97026752062729 43.125524389509344 0.0
99.96303028102315 45.125567114054036 0.0
99.95581645495753 47.1256221250061 0.0
99.94861858501524 49.12568899522858 0.0
99.94142914135587 51.1257674180606 0.0
99.93424052533848 53.12585720659823 0.0
99.92704507260838 55.125958292654076 0.0
99.91983505558986 57.126070725515135 0.0
99.91260268535356 59.1261946706178 0.0
99.90534011284814 61.126330408258056 0.0
99.89803942951072 63.126478332450404 0.0
99.89069266728876 65.1266389500452 0.0
99.88329179812757 67.12681288020667 0.0
99.87582873299581 69.12700085434764 0.0
99.86829532053956 71.12720371660848 0.0
99.86068334547244 73.12742242495837 0.0
99.85298452682386 75.12765805298743 0.0
99.84519051618533 77.12791179244833 0.0
99.837292896106 79.12818495659226 0.0
99.82928317880442 81.12847898433488 0.0
99.8211528053742 83.1287954452704 0.0
99.81289314567564 85.12913604554105 0.0
99.80449549911191 87.12950263454948 0.0
99.79595109650295 89.12989721248627 0.0
99.78725110327379 91.13032193862458 0.0
99.7783866241827 93.1307791403117 0.0
99.76934870981755 95.13127132256633 0.0
99.76012836509089 97.1318011781621 0.0
102.14143752596574 1.1390186640279525 0.0
102.13201313987324 3.138542829697181 0.0
102.12275017107663 5.138109244834787 0.0
102.11364290851623 7.137716005287152 0.0
102.10468563556006 9.13736118801378 0.0
102.09587260744323 11.137042859157438 0.0
102.08719803103055 13.136759083314699 0.0
102.07865604704818 15.136507933742848 0.0
102.0702407148673 17.136287503215776 0.0
102.06194599987043 19.136095915258146 0.0
102.0537657633722 21.135931335487957 0.0
102.04569375501232 23.135791982813267 0.0
102.03772360749586 25.1356761402526 0.0
102.02984883350737 27.135582165175556 0.0
102.022062824598 29.135508498791697 0.0
102.0143588518124 31.135453674749794 0.0
102.00673006780757 33.13541632674424 0.0
101.99916951020388 35.13539519505269 0.0
101.99167010590563 37.13538913198899 0.0
101.98422467613088 39.13539710626995 0.0
101.97682594190475 41.13541820628938 0.0
101.96946652977906 43.1354516423938 0.0
101.96213897756773 45.1354967482217 0.0
101.95483573990398 47.13555298120083 0.0
101.94754919345424 49.13561992231587 0.0
101.94027164164937 51.13569727526763 0.0
101.93299531882079 53.135784865153276 0.0
101.92571239365508 55.13588263680143 0.0
101.91841497191199 57.13599065289722 0.0
101.91109509837091 59.136109092032235 0.0
101.90374475800218 61.13623824681076 0.0
101.89635587637783 63.136378522139715 0.0
101.88892031936432 65.13653043382328 0.0
101.88142989215643 67.13669460757518 0.0
101.87387633773443 69.13687177855672 0.0
101.86625133484586 71.1370627915348 0.0
101.85854649562786 73.13726860174842 0.0
101.85075336300788 75.13749027655994 0.0
101.84286340803136 77.13772899795742 0.0
101.83486802728603 79.13798606596052 0.0
101.82675854060142 81.13826290297209 0.0
101.81852618922215 83.13856105910143 0.0
101.81016213466081 85.13888221847176 0.0
101.8016574584551 87.13922820650602 0.0
101.7930031630586 89.13960099816848 0.0
101.78419017411164 91.1400027271181 0.0
101.77520934434013 93.14043569570825 0.0
101.76605145934388 95.1409023857414 0.0
101.75670724553277 97.14140546986238 0.0
104.14290737389345 1.1487893493824834 0.0
104.13334877978717 3.1483369899844167 0.0
104.12395425585046 5.147926099713316 0.0
104.11471813261878 7.147554776185247 0.0
104.10563472511635 9.147221087775547 0.0
104.09669830853814 11.146923083100203 0.0
104.08790309658717 13.146658801791068 0.0
104.0792432226251 15.146426286259977 0.0
104.07071272372715 17.14622359412329 0.0
104.06230552766387 19.146048810975394 0.0
104.05401544276918 21.145900063203584 0.0
104.04583615058903 23.145775530555646 0.0
104.03776120115364 25.145673458200605 0.0
104.02978401066699 27.145592168055327 0.0
104.02189786136836 29.145530069187426 0.0
104.01409590329455 31.145485667145724 0.0
104.00637115764731 33.145457572109244 0.0
103.99871652146527 35.14544450578006 0.0
103.9911247732951 37.14544530700963 0.0
103.98358857956514 39.145458936167216 0.0
103.97610050137784 41.14548447825837 0.0
103.96865300145653 43.14552114490431 0.0
103.96123845100743 45.145568275262725 0.0
103.95384913628301 47.145625336004905 0.0
103.94647726466461 49.14569192048186 0.0
103.93911497011207 51.145767747220916 0.0
103.9317543178599 53.145852657902665 0.0
103.92438730827021 55.14594661497041 0.0
103.91700587978356 57.14604969902561 0.0
103.90960191093636 59.14616210616026 0.0
103.90216722144397 61.146284145372974 0.0
103.8946935723701 63.146416236209554 0.0
103.88717266543158 65.14655890676194 0.0
103.87959614150772 67.14671279214872 0.0
103.87195557844503 69.14687863359744 0.0
103.86424248826958 71.14705727823065 0.0
103.85644831393526 73.1472496796537 0.0
103.84856442575665 75.1474568994294 0.0
103.8405821176911 77.14768010951254 0.0
103.83249260365162 79.1479205957064 0.0
103.82428701404751 81.14817976218944 0.0
103.81595639276587 83.14845913714657 0.0
103.8074916948225 85.14876037952403 0.0
103.79888378492325 87.14908528691016 0.0
103.79012343719272 89.14943580452497 0.0
103.78120133633861 91.14981403528145 0.0
103.77210808053111 93.15022225085742 0.0
103.76283418628631 95.15066290369128 0.0
103.75337009565062 97.15113863978678 0.0
106.14430436458667 1.1586972554320085 0.0
106.13461398301213 3.1582687402259024 0.0
106.12509031729643 5.157880917625188 0.0
106.11572775618131 7.157531882697152 0.0
106.10652066117372 9.157219690122577 0.0
106.09746334031631 11.15694236529055 0.0
106.0885500249941 13.156697916790721 0.0
106.07977484995365 15.156484349950395 0.0
106.07113183662928 17.156299681038767 0.0
106.06261487979313 19.1561419517801 0.0
106.05421773746872 21.156009243823412 0.0
106.04593402397433 23.155899692841345 0.0
106.03775720590316 25.155811501964685 0.0
106.02968060078882 27.155742954299445 0.0
106.02169737816469 29.155692424317614 0.0
106.01380056269278 31.155658387961584 0.0
106.00598303901877 33.15563943134902 0.0
105.99823755799875 35.155634258006074 0.0
105.99055674394782 37.15564169462738 0.0
105.98293310256878 39.155660695384206 0.0
105.97535902923795 41.155690344807844 0.0
105.96782681735168 43.15572985937797 0.0
105.96032866646307 45.15577858792035 0.0
105.95285668997624 47.155836010951546 0.0
105.94540292219618 49.15590173912775 0.0
105.93795932457101 51.15597551096199 0.0
105.9305177909985 53.156057189982505 0.0
105.92307015210314 55.156146761505 0.0
105.91560817842576 57.15624432919175 0.0
105.90812358249741 59.15635011156631 0.0
105.90060801980023 61.15646443864609 0.0
105.89305308864573 63.15658774884826 0.0
105.88545032902655 65.15672058631499 0.0
105.87779122052075 67.15686359879258 0.0
105.87006717935161 69.15701753619607 0.0
105.86226955472495 71.15718324996895 0.0
105.85438962458633 73.15736169334654 0.0
105.84641859095818 75.15755392261462 0.0
105.83834757503682 77.15776109944656 0.0
105.83016761224474 79.15798449438742 0.0
105.82186964745168 81.1582254915426 0.0
105.81344453059513 83.15848559451278 0.0
105.8048830129476 85.15876643360318 0.0
105.79617574429324 87.15906977431695 0.0
105.78731327129495 89.15939752712443 0.0
105.7782860373459 91.15975175847795 0.0
105.76908438421461 93.16013470301922 0.0
105.75969855580621 95.16054877689707 0.0
105.75011870437072 97.16099659208699 0.0
108.14562739145089 1.1687399277847255 0.0
108.135807615601 3.168335623612034 0.0
108.12615720013302 5.167971241019462 0.0
108.1166706099871 7.167644867402311 0.0
108.10734226910195 9.16735453776206 0.0
108.09816653209889 11.16709824764771 0.0
108.08913765944462 13.166873967610197 0.0
108.08024979628496 15.166679658760378 0.0
108.07149695505343 17.166513288995194 0.0
108.06287300185717 19.166372849478336 0.0
108.05437164655977 21.166256370971496 0.0
108.04598643639031 23.166161939643448 0.0
108.03771075284114 25.16608771202565 0.0
108.02953781154939 27.16603192883184 0.0
108.02146066481536 29.16599292741285 0.0
108.0134722063713 31.16596915267483 0.0
108.00556517799765 33.165959166345736 0.0
107.99773217757584 35.16596165452245 0.0
107.98996566817137 37.16597543351026 0.0
107.98225798775594 39.16599945399227 0.0
107.9746013592036 41.16603280357944 0.0
107.9669879002262 43.16607470789528 0.0
107.95940963294817 45.16612453032671 0.0
107.95185849286425 47.166181770606855 0.0
107.94432633696032 49.16624606241375 0.0
107.93680495082451 51.16631717017679 0.0
107.92928605461158 53.16639498528775 0.0
107.92176130776878 55.16647952191276 0.0
107.914222312463 57.166570912599134 0.0
107.90666061568965 59.166669403863935 0.0
107.89906771007072 61.16677535194383 0.0
107.89143503338315 63.166889218875546 0.0
107.88375396688201 65.16701156906586 0.0
107.87601583251276 67.16714306649634 0.0
107.86821188912258 69.16728447270587 0.0
107.86033332780805 71.16743664566827 0.0
107.85237126655505 73.16760053968176 0.0
107.84431674434195 75.16777720637218 0.0
107.83616071490272 77.1679677968989 0.0
107.82789404035762 79.16817356544244 0.0
107.81950748494295 81.16839587403781 0.0
107.81099170908753 83.16863619880637 0.0
107.80233726410106 85.16889613762184 0.0
107.79353458776119 87.16917741923093 0.0
107.784574001101 89.16948191382915 0.0
107.77544570672099 91.16981164507187 0.0
107.76613978896265 93.1701688034761 0.0
107.75664621630243 95.17055576114008 0.0
107.74695484633403 97.17097508767763 0.0
110.14687535688378 1.178914950596523 0.0
110.13692854452707 3.178535222626022 0.0
110.12715374308257 5.178194652476985 0.0
110.11754551319846 7.177891313828102 0.0
110.10809835841351 9.177623215016773 0.0
110.09880669455704 11.17738831409704 0.0
110.08966482314018 13.177184535539645 0.0
110.0806669089534 15.177009788097099 0.0
110.07180696197626 17.176861983330046 0.0
110.06307882359128 19.17673905431565 0.0
110.05447615698841 21.176638974074177 0.0
110.0459924415486 23.176559773288446 0.0
110.03762097091033 25.17649955694205 0.0
110.02935485435535 27.176456519561437 0.0
110.02118702109115 29.176428958811453 0.0
110.01311022697958 31.17641528726248 0.0
110.00511706323321 33.176414042213345 0.0
109.99719996660284 35.17642389351143 0.0
109.98935123058708 37.1764436493988 0.0
109.98156301721747 39.17647226044384 0.0
109.97382736900514 41.17650882163835 0.0
109.96613622067352 43.17655257284347 0.0
109.95848141034698 45.176602897748865 0.0
109.95085468991245 47.17665932154331 0.0
109.94324773431964 49.17672150751282 0.0
109.93565214963579 51.17678925278774 0.0
109.92805947971453 53.176862483463914 0.0
109.92046121138644 55.17694124931963 0.0
109.91284877811749 57.17702571834401 0.0
109.90521356212147 59.17711617128413 0.0
109.89754689494532 61.17721299640673 0.0
109.889840056578 63.17731668465831 0.0
109.88208427316343 65.17742782539575 0.0
109.87427071341781 67.17754710284102 0.0
109.86639048388275 69.17767529341609 0.0
109.85843462315924 71.1778132640804 0.0
109.85039409529249 73.17796197179756 0.0
109.84225978249526 75.17812246424002 0.0
109.83402247741608 77.17829588182984 0.0
109.82567287517853 79.17848346120161 0.0
109.81720156543604 81.17868654016148 0.0
109.80859902470819 83.17890656420451 0.0
109.79985560928242 85.17914509463607 0.0
109.79096154898812 87.17940381832896 0.0
109.78190694217069 89.17968455912815 0.0
109.77268175221452 91.1799892908952 0.0
109.76327580598574 93.1803201521587 0.0
109.75367879458616 95.18067946231042 0.0
109.74388027682889 97.18106973925278 0.0
112.14804716996034 1.1892199566220474 0.0
112.13797563466616 3.188865169247504 0.0
112.12807877531742 5.188548785071233 0.0
112.11835126945601 7.188268856954435 0.0
112.10878771871774 9.188023358440518 0.0
112.0993826157242 11.187810201243494 0.0
112.09013031556225 13.187627254523084 0.0
112.0810250120943 15.187472365388226 0.0
112.07206071920493 17.187343380044155 0.0
112.0632312569595 19.18723816502625 0.0
112.05453024252235 21.187154627986683 0.0
112.04595108556717 23.187090737547777 0.0
112.03748698781828 25.187044541799743 0.0
112.02913094627786 27.187014185091762 0.0
112.0208757596386 29.18699792284439 0.0
112.01271403734204 31.186994134192155 0.0
112.00463821072388 33.18700133234361 0.0
111.99664054569125 35.1870181726139 0.0
111.98871315639005 37.18704345818207 0.0
111.98084801935414 39.18707614366096 0.0
111.97303698766844 41.18711533659525 0.0
111.96527180472648 43.187160297108065 0.0
111.95754411722022 45.1872104358984 0.0
111.94984548705372 47.18726531082694 0.0
111.94216740193264 49.18732462234192 0.0
111.93450128443465 51.18738820800092 0.0
111.92683849942294 53.18745603634499 0.0
111.9191703597109 55.187528200373116 0.0
111.91148812993399 57.18760491085752 0.0
111.90378302862432 59.18768648972669 0.0
111.89604622852146 61.18777336372877 0.0
111.88826885518216 63.18786605857398 0.0
111.88044198398481 65.18796519373863 0.0
111.87255663564585 67.18807147809494 0.0
111.86460377038921 69.18818570653127 0.0
111.85657428093319 71.18830875769203 0.0
111.84845898447523 73.18844159297134 0.0
111.84024861387711 75.18858525687648 0.0
111.83193380827088 77.18874087886675 0.0
111.82350510332452 79.18890967676204 0.0
111.81495292142866 81.18909296180517 0.0
111.80626756208441 83.18929214544902 0.0
111.79743919279643 85.18950874792675 0.0
111.7884578407964 87.18974440864929 0.0
111.77931338595022 89.19000089845461 0.0
111.76999555522308 91.19028013371579 0.0
111.76049391910637 93.19058419228818 0.0
111.7507978904317 95.19091533124957 0.0
111.74089672602693 97.19127600635387 0.0
114.14914174363508 1.1996526382423687 0.0
114.13894774521766 3.199323156154657 0.0
114.12893111229668 5.199031333749548 0.0
114.11908666234915 7.198775194757218 0.0
114.10940911505773 9.198552668483515 0.0
114.09989305643663 11.198361610095528 0.0
114.09053290824602 13.19819982285562 0.0
114.08132290296638 15.198065081648599 0.0
114.07225706443735 17.197955157119548 0.0
114.06332919411305 19.19786783977456 0.0
114.05453286273057 21.197800963427277 0.0
114.04586140705787 23.197752427435784 0.0
114.03730793127527 25.197720217252087 0.0
114.02886531245011 27.197702422894878 0.0
114.02052620950717 29.197697255050855 0.0
114.01228307505082 31.197703058607086 0.0
114.00412816938689 33.19771832350962 0.0
113.99605357609384 35.19774169292343 0.0
113.98805121852371 37.19777196877678 0.0
113.9801128766512 39.19780811481468 0.0
113.97223020374507 41.19784925732101 0.0
113.96439474239816 43.197894683774265 0.0
113.95659793951572 45.1979438396854 0.0
113.9488311599347 47.19799632389968 0.0
113.94108569840935 49.19805188265643 0.0
113.93335278976623 51.19811040270087 0.0
113.92562361709241 53.19817190373778 0.0
113.91788931787185 55.198236530505135 0.0
113.91014098804057 57.19830454473234 0.0
113.9023696839683 59.198376317230974 0.0
113.89456642241848 61.19845232034671 0.0
113.88672217856579 63.19853312098438 0.0
113.87882788218437 65.19861937439947 0.0
113.87087441213993 67.19871181892752 0.0
113.86285258934402 69.1988112718249 0.0
113.8547531683489 71.19891862635433 0.0
113.84656682777718 73.19903485025633 0.0
113.83828415980352 75.19916098572833 0.0
113.82989565892011 77.1992981510246 0.0
113.82139171023927 79.19944754377869 0.0
113.81276257760837 81.1996104461425 0.0
113.80399839183039 83.19978823182356 0.0
113.79508913931316 85.19998237509219 0.0
113.78602465149038 87.20019446181519 0.0
113.77679459539078 89.20042620255816 0.0
113.76738846575533 91.20067944777864 0.0
113.75779557913845 93.20095620510878 0.0
113.74800507045458 95.20125865869939 0.0
113.73800589246672 97.20158919056254 0.0
116.15015799139144 1.2102107595870981 0.0
116.13984372548558 3.2099069490459544 0.0
116.12970955090414 5.209640067859102 0.0
116.11975045016736 7.2094081009170985 0.0
116.10996128254571 9.20920892233476 0.0
116.10033674512746 11.209040318964053 0.0
116.09087133999928 13.208900016036724 0.0
116.08155934784088 15.208785704163775 0.0
116.07239480803818 17.20869506689333 0.0
116.06337150522928 19.208625808069606 0.0
116.05448296201976 21.208575678279857 0.0
116.04572243744657 23.208542499752138 0.0
116.03708293064015 25.208524189165217 0.0
116.02855718903139 27.20851877793889 0.0
116.02013772038434 29.208524429688705 0.0
116.01181680789014 31.208539454644846 0.0
116.0035865275572 33.20856232094512 0.0
115.99543876714078 35.208591662805446 0.0
115.98736524589891 37.20862628569191 0.0
115.97935753451549 39.2086651686658 0.0
115.97140707460086 41.20870746411577 0.0
115.96350519725605 43.208752495195824 0.0
115.95564314026909 45.20879975127261 0.0
115.94781206359201 47.20884888171585 0.0
115.94000306282717 49.208899688373194 0.0
115.93220718052433 51.20895211706697 0.0
115.92441541516068 53.20900624843916 0.0
115.91661872773241 55.20906228845382 0.0
115.90880804594447 57.209120558847644 0.0
115.90097426602921 59.20918148779543 0.0
115.89310825226234 61.20924560103616 0.0
115.88520083428013 63.209313513682076 0.0
115.87724280232807 65.2093859229132 0.0
115.86922490059543 67.20946360173409 0.0
115.86113781880972 69.20954739397344 0.0
115.85297218228507 71.20963821066121 0.0
115.84471854063406 73.20973702793088 0.0
115.83636735537137 75.20984488657244 0.0
115.82790898665394 77.20996289335564 0.0
115.81933367942383 79.21009222423312 0.0
115.81063154923778 81.21023412952641 0.0
115.80179256809369 83.21038994118892 0.0
115.79280655058885 85.21056108223016 0.0
115.78366314077324 87.2107490783748 0.0
115.77435180009222 89.21095557201606 0.0
115.7648617968467 91.21118233850505 0.0
115.75518219763396 93.21143130479643 0.0
115.7453018612692 95.21170457044373 0.0
115.73520943572609 97.21200443090454 0.0
118.15109482325715 1.2208921698888249 0.0
118.1406624099208 3.220614400223373 0.0
118.13041286378538 5.220372844963032 0.0
118.12034135982879 7.220165438841367 0.0
118.11044292020051 9.219989988089083 0.0
118.10071237189383 11.219844197681251 0.0
118.09114431150687 13.219725700916971 0.0
118.08173307742548 15.219632090416447 0.0
118.07247272952486 17.219560949597046 0.0
118.06335703625786 19.21950988374119 0.0
118.0543794687842 21.219476549828983 0.0
118.0455332016136 23.219458684405662 0.0
118.03681111908236 25.21945412887539 0.0
118.02820582686992 27.219460851745577 0.0
118.01970966768953 29.219476967486465 0.0
118.01131474024857 31.21950075180862 0.0
118.00301292057469 33.219530653292324 0.0
117.99479588483146 35.21956530141179 0.0
117.98665513280496 37.219603511131496 0.0
117.97858201131379 39.21964428430583 0.0
117.97056773688551 41.2196868081631 0.0
117.96260341713463 43.21973045125749 0.0
117.9546800703792 45.21977475725775 0.0
117.94678864312746 47.21981943696615 0.0
117.9389200251572 49.219864358963655 0.0
117.9310650619988 51.21990953926554 0.0
117.92321456470536 53.21995513035402 0.0
117.91535931686268 55.220001409929424 0.0
117.90749007884598 57.22004876969599 0.0
117.89959758938221 59.22009770446833 0.0
117.89167256451162 61.22014880185767 0.0
117.88370569407763 63.22020273277012 0.0
117.87568763589903 65.22026024292431 0.0
117.86760900779825 67.22032214556911 0.0
117.85946037768109 69.22038931558524 0.0
117.8512322518757 71.22046268510557 0.0
117.84291506195434 73.2205432408046 0.0
117.83449915027923 75.22063202298591 0.0
117.8259747545273 77.2207301265923 0.0
117.81733199146774 79.22083870425416 0.0
117.80856084028943 81.22095897149015 0.0
117.79965112579684 83.22109221416473 0.0
117.79059250182247 85.22123979830302 0.0
117.78137443523293 87.22140318235415 0.0
117.77198619094365 89.22158393198228 0.0
117.7624168183917 91.22178373745052 0.0
117.75265513995912 93.222004433643 0.0
117.74268974188269 95.22224802274417 0.0
117.73250896822915 97.22251669956462 0.0
120.1519511410901 1.2316948182321337 0.0
120.14140261231617 3.231443463604018 0.0
120.13103979276183 5.231227626118034 0.0
120.12085807986657 7.231045177173003 0.0
120.11085268387797 9.230893840412751 0.0
120.10101858174451 11.230771223308167 0.0
120.09135047925373 13.23067485129791 0.0
120.08184278178597 15.230602203399746 0.0
120.07248957376561 17.230550748185088 0.0
120.06328460661172 19.230517979074676 0.0
120.05422129474194 21.230501447994072 0.0
120.04529271896133 23.230498796551807 0.0
120.0364916363987 25.230507784054552 0.0
120.02781049602301 27.23052631183776 0.0
120.01924145869872 29.230552443560686 0.0
120.01077642070277 31.23058442128109 0.0
120.00240703964357 33.23062067727881 0.0
119.99412476176283 35.23065984172619 0.0
119.98592084968428 37.23070074645118 0.0
119.97778640976462 39.2307424251002 0.0
119.96971241831719 41.230784110063254 0.0
119.96168974609665 43.23082522662392 0.0
119.95370918054866 45.23086538477919 0.0
119.9457614454464 47.23090436919198 0.0
119.93783721764247 49.2309421277332 0.0
119.9299271407578 51.23097875904952 0.0
119.92202183571746 53.23101449956559 0.0
119.91411190811492 55.23104971029585 0.0
119.90618795244245 57.23108486380561 0.0
119.89824055328074 59.23112053162585 0.0
119.8902602835718 61.23115737239068 0.0
119.88223770013607 63.23119612093605 0.0
119.87416333661221 65.23123757856952 0.0
119.86602769401915 67.23128260469059 0.0
119.85782122915383 69.23133210994618 0.0
119.8495343410482 71.2313870510526 0.0
119.84115735572495 73.2314484274349 0.0
119.83268050949945 75.2315172798134 0.0
119.82409393109327 77.23159469086501 0.0
119.81538762284151 79.23168178808186 0.0
119.80655144129452 81.23177974894939 0.0
119.79757507754218 83.23188980856251 0.0
119.78844803761777 85.23201326979536 0.0
119.77915962336988 87.2321515161361 0.0
119.76969891423194 89.23230602728944 0.0
119.76005475036123 91.23247839763741 0.0
119.75021571766446 93.23267035763426 0.0
119.74017013527902 95.23288379818464 0.0
119.72990604613351 97.23312079802851 0.0
122.15272583302598 1.2426167698889032 0.0
122.14206311902059 3.2423922113575525 0.0
122.1315890411821 5.242202492816015 0.0
122.12129925233097 7.2420454069922595 0.0
122.11118917816441 9.241918577911832 0.0
122.10125396692442 11.241819497529443 0.0
122.09148844869591 13.241745565170563 0.0
122.08188710473736 15.241694128483733 0.0
122.07244404690127 17.24166252459134 0.0
122.0631530068611 19.24164812021141 0.0
122.05400733456125 21.241648349630783 0.0
122.04500000504959 23.24166074956954 0.0
122.03612363265562 25.241682990165774 0.0
122.02737049133358 27.241712901513342 0.0
122.01873253991496 29.241748495392926 0.0
122.01020145099237 31.241787982036115 0.0
122.00176864218386 33.241829781944254 0.0
121.99342530860358 35.24187253293347 0.0
121.98516245546247 37.24191509274042 0.0
121.97697092985538 39.24195653759124 0.0
121.968841450928 41.241996157195786 0.0
121.9607646377643 43.24203344672443 0.0
121.95273103447703 45.24206809630191 0.0
121.94473113211957 47.24209997855972 0.0
121.93675538716091 49.24212913477288 0.0
121.92879423637365 51.24215576007253 0.0
121.92083810807833 53.242180188187724 0.0
121.91287742976478 55.242202876123876 0.0
121.90490263217247 57.24222438914077 0.0
121.89690414995981 59.242245386347875 0.0
121.88887241913113 61.24226660719285 0.0
121.88079787141066 63.24228885908372 0.0
121.87267092577856 65.24231300635134 0.0
121.86448197739035 67.24233996072677 0.0
121.8562213841156 69.24237067351373 0.0
121.84787945093557 71.24240612958121 0.0
121.83944641244771 73.24244734332329 0.0
121.83091241373837 75.2424953567146 0.0
121.82226748988921 77.24255123959058 0.0
121.81350154440509 79.24261609228014 0.0
121.80460432686779 81.2426910507214 0.0
121.79556541014614 83.2427772941926 0.0
121.78637416752355 85.24287605579157 0.0
121.777019750141 87.24298863579651 0.0
121.7674910651954 89.24311641803686 0.0
121.75777675538127 91.2432608893962 0.0
121.74786518011722 93.24342366255473 0.0
121.73774439915698 95.24360650205945 0.0
121.72740215924655 97.24381135378357 0.0
124.15341776695624 1.2536562244677285 0.0
124.14264268102043 3.2534588524041745 0.0
124.13205926504399 5.2532956658305165 0.0
124.12166346344762 7.25316436095486 0.0
124.11145094708935 9.25306244244588 0.0
124.10141705819994 11.25298726596888 0.0
124.09155676660514 13.252936083809542 0.0
124.08186463767638 15.252906092026432 0.0
124.07233481202091 17.252894477571772 0.0
124.06296099651296 19.252898463929743 0.0
124.05373646590765 21.25291535396682 0.0
124.04465407397652 23.252942568892827 0.0
124.03570627287482 25.252977682469094 0.0
124.02688513930302 27.253018449853197 0.0
124.01818240594298 29.253062830722488 0.0
124.00958949665 31.253109006558518 0.0
124.00109756393208 33.253155392188354 0.0
123.99269752735492 35.25320064185241 0.0
123.98438011165102 37.25324365024718 0.0
123.97613588347501 39.253283549064555 0.0
123.96795528592654 41.25331969961104 0.0
123.95982867013784 43.25335168217765 0.0
123.9517463233946 45.2533792827978 0.0
123.94369849342033 47.253402478026004 0.0
123.93567540859262 49.25342141833707 0.0
123.92766729398144 51.253436410697994 0.0
123.91966438320361 53.25344790080962 0.0
123.91165692616549 55.253456455457666 0.0
123.90363519282838 57.25346274535408 0.0
123.89558947317987 59.253467528796186 0.0
123.88751007362339 61.25347163642086 0.0
123.87938731001847 63.25347595728858 0.0
123.87121149761991 65.2534814264968 0.0
123.86297293816574 67.2534890144851 0.0
123.85466190437023 69.25349971820393 0.0
123.84626862207625 71.25351455425934 0.0
123.83778325032735 73.25353455417452 0.0
123.82919585962183 75.25356076189217 0.0
123.82049640861871 77.25359423364469 0.0
123.81167471958214 79.2536360403249 0.0
123.8027204528667 81.25368727249607 0.0
123.79362308077101 83.25374904818625 0.0
123.78437186112308 85.25382252362067 0.0
123.77495581099524 87.25390890704752 0.0
123.7653636809972 89.25400947581707 0.0
123.75558393064495 91.25412559686846 0.0
123.74560470536886 93.25425875077148 0.0
123.73541381578445 95.25441055945491 0.0
123.72499871992717 97.25458281772804 0.0
126.15402578288314 1.2648115361493073 0.0
126.14314000470239 3.2646417530533602 0.0
126.13244906269034 5.264505526255533 0.0
126.1219492328353 7.264400434657703 0.0
126.1116364634869 9.264323840674466 0.0
126.10150631497396 11.264272939701737 0.0
126.09155391250655 13.264244812976614 0.0
126.08177391283924 15.264236481950242 0.0
126.07216048463629 17.264244962309856 0.0
126.06270730198858 19.264267315931093 0.0
126.05340755009055 21.264300699236152 0.0
126.04425394173586 23.264342406695423 0.0
126.035238743031 25.264389908510406 0.0
126.02635380656105 27.26444088183016 0.0
126.01759061017762 29.264493235162107 0.0
126.00894029959736 31.264545125925665 0.0
126.00039373308886 33.26459497134898 0.0
125.99194152667536 35.26464145310737 0.0
125.9835740984699 37.26468351629781 0.0
125.9752817109671 39.264720363419364 0.0
125.96705451034309 41.26475144408968 0.0
125.95888256202647 43.26477644130276 0.0
125.95075588201254 45.26479525498491 0.0
125.9426644635749 47.264807983582955 0.0
125.93459829919232 49.264814904366105 0.0
125.92654739763829 51.264816453055396 0.0
125.91850179629475 53.26481320332202 0.0
125.910451568829 55.2648058466209 0.0
125.90238682843734 57.26479517275485 0.0
125.89429772689735 59.26478205149831 0.0
125.8861744496988 61.264767415551766 0.0
125.87800720753098 63.26475224504978 0.0
125.86978622441367 65.26473755380569 0.0
125.86150172275026 67.26472437743728 0.0
125.85314390558021 69.26471376353048 0.0
125.84470293630098 71.26470676393481 0.0
125.83616891612287 73.26470442932167 0.0
125.82753185952222 75.26470780611999 0.0
125.81878166796 77.2647179359531 0.0
125.80990810214567 79.26473585771254 0.0
125.80090075313947 81.26476261241392 0.0
125.79174901261668 83.26479925099599 0.0
125.7824420426461 85.26484684523533 0.0
125.77296874537994 87.26490650195997 0.0
125.76331773310304 89.26497938075372 0.0
125.7534772991458 91.26506671534477 0.0
125.74343539023711 93.26516983887021 0.0
125.73317958094417 95.26529021319637 0.0
125.72269705093129 97.26542946245696 0.0
128.15454868397336 1.2760812363338951 0.0
128.14355374108627 3.275939460119837 0.0
128.132756962851 5.275830639081793 0.0
128.12215500106598 7.27575221058083 0.0
128.11174411681387 9.275701368180735 0.0
128.10152011409042 11.275675119291563 0.0
128.09147828913794 13.275670346532278 0.0
128.08161339598604 15.275683870539114 0.0
128.0719196280418 17.275712511984082 0.0
128.06239061496493 19.275753150762583 0.0
128.0530194335401 21.275802780567286 0.0
128.04379863084205 23.275858557404266 0.0
128.03472025770037 25.275917840987027 0.0
128.0257759102977 27.27597822833502 0.0
128.01695677768856 29.276037579280594 0.0
128.0082536930817 31.276094033933262 0.0
127.99965718686852 33.276146022443406 0.0
127.99115753958756 35.276192267634976 0.0
127.9827448332637 37.27623178128556 0.0
127.97440899983175 39.27626385490762 0.0
127.96613986562949 41.27628804593857 0.0
127.95792719120911 43.27630416030189 0.0
127.94976070595936 45.2763122322344 0.0
127.94163013724372 47.27631250222502 0.0
127.93352523394108 49.27630539383371 0.0
127.92543578442167 51.27629149006707 0.0
127.91735162910365 53.27627150989219 0.0
127.90926266781919 55.2762462853763 0.0
127.90115886227387 57.27621673985331 0.0
127.89303023391616 59.27618386743863 0.0
127.88486685754994 61.27614871414791 0.0
127.87665885102292 63.27611236082057 0.0
127.86839636131697 65.2760759080057 0.0
127.86006954735196 67.2760404629287 0.0
127.85166855979936 69.27600712867273 0.0
127.8431835181854 71.27597699564457 0.0
127.83460448555203 73.2759511354405 0.0
127.82592144093574 75.27593059721316 0.0
127.81712424992288 77.27591640665884 0.0
127.80820263354728 79.27590956775882 0.0
127.79914613581114 81.27591106743021 0.0
127.78994409013438 83.2759218832599 0.0
127.78058558507392 85.27594299451722 0.0
127.77105942969598 87.27597539665749 0.0
127.761354119045 89.27602011954497 0.0
127.75145780021232 91.27607824963198 0.0
127.74135823958528 93.2761509563358 0.0
127.73104279194526 95.27623952285002 0.0
127.72049837216932 97.27634538161288 0.0
130.15498522607382 1.2874640590936104 0.0
130.14388247324706 3.2873507269222055 0.0
130.13298141073486 5.287269779726389 0.0
130.12227911528296 7.287218485025202 0.0
130.11177219918486 9.287193836583773 0.0
130.10145673715164 11.287192621741413 0.0
130.0913282118353 13.287211492806259 0.0
130.0813814785181 15.287247039751099 0.0
130.07161074866394 17.287295861519695 0.0
130.06200959127992 19.28735463351242 0.0
130.05257095040884 21.287420169166364 0.0
130.04328717658703 23.287489473982042 0.0
130.03415006977497 25.28755979083105 0.0
130.02515093110145 27.287628635865953 0.0
130.01628062074565 29.287693824815175 0.0
130.00752961938386 31.28775348985711 0.0
129.9988880908493 33.28780608760952 0.0
129.99034594392245 35.287850399025515 0.0
129.98189289151074 37.2878855222072 0.0
129.97351850580955 39.287910859217725 0.0
129.9652122683843 41.287926098010985 0.0
129.95696361442927 43.28793119062566 0.0
129.94876197074527 45.28792632869338 0.0
129.9405967872228 47.28791191722884 0.0
129.9324575618181 49.28788854756065 0.0
129.9243338591641 51.28785697013909 0.0
129.916215323078 53.28781806783683 0.0
129.90809168329696 55.287772830241494 0.0
129.89995275683174 57.287722329335075 0.0
129.89178844433707 59.287667696862805 0.0
129.88358872190804 61.28761010361833 0.0
129.87534362869312 63.287550740812705 0.0
129.8670432506943 65.28749080364854 0.0
129.85867770109704 67.28743147718161 0.0
129.85023709744317 69.28737392457232 0.0
129.84171153593527 71.28731927776687 0.0
129.83309106313615 73.28726863070015 0.0
129.82436564531415 75.28722303510635 0.0
129.8155251356765 77.2871834990456 0.0
129.80655923973578 79.28715098828118 0.0
129.7974574790668 81.28712643066756 0.0
129.78820915373672 83.28711072373959 0.0
129.77880330372537 85.28710474572138 0.0
129.7692286697016 87.28710937019986 0.0
129.75947365358036 89.28712548473119 0.0
129.7495262793591 91.28715401366632 0.0
129.73937415481046 93.28719594549266 0.0
129.72900443470908 95.28725236499224 0.0
129.71840378636946 97.28732449050936 0.0
132.15533410543242 1.2989589699051962 0.0
132.14412470161918 3.29887454265564 0.0
132.1331207518461 5.298821964019735 0.0
132.1223198125697 7.298798298553578 0.0
132.1117188893689 9.298800304135986 0.0
132.10131435617842 11.298824510825439 0.0
132.09110189678455 13.298867304140835 0.0
132.08107646908363 15.298925009386686 0.0
132.07123229158185 17.298993973771065 0.0
132.06156285070105 19.29907064341449 0.0
132.05206092669357 21.299151632811174 0.0
132.0427186354051 23.299233784870516 0.0
132.0335274827681 25.299314220280174 0.0
132.02447842875284 27.299390375539026 0.0
132.01556195753446 29.299460029572117 0.0
132.00676815082142 31.299521319329685 0.0
131.99808676159736 33.29957274516672 0.0
131.9895072859077 35.29961316708107 0.0
131.98101903075548 37.29964179311446 0.0
131.97261117659903 39.29965816127398 0.0
131.96427283337127 41.299662116344756 0.0
131.9559930893156 43.29965378295321 0.0
131.9477610522714 45.2996335361034 0.0
131.93956588331577 47.29960197028408 0.0
131.9313968228862 49.299559868095024 0.0
131.92324320967663 51.29950816918286 0.0
131.91509449270285 53.29944794012479 0.0
131.90694023701087 55.29938034575757 0.0
131.89877012352989 57.29930662232479 0.0
131.8905739435728 59.299228052710724 0.0
131.88234158847638 61.299145943943834 0.0
131.87406303483326 63.299061607089335 0.0
131.86572832573682 65.29897633960343 0.0
131.85732754840504 67.29889141018465 0.0
131.84885080851663 69.29880804618288 0.0
131.84028820154475 71.29872742356875 0.0
131.8316297813457 73.29865065952625 0.0
131.82286552623285 75.29857880773325 0.0
131.8139853027539 77.29851285642717 0.0
131.80497882738632 79.29845372938503 0.0
131.79583562637598 81.29840228998688 0.0
131.78654499396555 83.29835934856749 0.0
131.77709594930218 85.29832567330057 0.0
131.76747719235365 87.29830200489673 0.0
131.75767705924008 89.29828907542704 0.0
131.747683477454 91.2982876316128 0.0
131.73748392154252 93.29829846294136 0.0
131.72706536992465 95.29832243497923 0.0
131.716414263637 97.29836052825536 0.0
134.15559394433143 1.3105651982420192 0.0
134.14427882682529 3.3105101657369778 0.0
134.13317321314756 5.310486482263192 0.0
134.12227520071727 7.310490970550767 0.0
134.11158223446657 9.31052011040522 0.0
134.10109101744092 11.310570131358727 0.0
134.0907974481033 13.310637110095797 0.0
134.0806965847901 15.310717068503939 0.0
134.07078263648776 17.310806068404112 0.0
134.06104897796772 19.310900299491006 0.0
134.05148818640617 21.310996157632733 0.0
134.04209209595942 23.311090311416738 0.0
134.03285186638263 25.3111797556098 0.0
134.02375806166162 27.3112618509581 0.0
134.01480073473283 29.311334350440188 0.0
134.00596951466557 31.311395412666666 0.0
133.99725369311435 33.311443603569614 0.0
133.98864230736177 35.311477887830044 0.0
133.9801242178277 37.31149761171265 0.0
133.97168817846648 39.311502479001845 0.0
133.9633228989876 41.311492521705496 0.0
133.95501709828636 43.311468067127976 0.0
133.94675954885832 45.31142970272296 0.0
133.9385391122746 47.31137823995765 0.0
133.93034476603106 49.31131467822117 0.0
133.92216562224664 51.31124016960942 0.0
133.91399093878917 53.311155985230414 0.0
133.90581012345817 55.3110634835063 0.0
133.89761273186613 57.310964080803984 0.0
133.88938845963892 59.31085922460755 0.0
133.88112712951482 61.310750369353805 0.0
133.87281867386662 63.3106389549855 0.0
133.86445311310834 65.31052638823199 0.0
133.85602053038457 67.3104140265918 0.0
133.84751104287972 69.31030316502803 0.0
133.83891477002967 71.31019502533135 0.0
133.8302217988735 73.31009074817938 0.0
133.8214221467482 75.30999138793157 0.0
133.81250572150793 77.30989791024017 0.0
133.80346227944386 79.30981119260322 0.0
133.79428138108108 81.30973202803352 0.0
133.78495234506224 83.30966113206561 0.0
133.77546420035162 85.3095991533735 0.0
133.76580563706096 87.30954668831772 0.0
133.75596495625584 89.30950429978404 0.0
133.74593001919433 91.30947254071303 0.0
133.73568819654713 93.30945198275086 0.0
133.7252263182642 95.30944325047123 0.0
133.71453062488357 97.30944706163048 0.0
136.15576327418663 1.32228227473221 0.0
136.1443431295095 3.3222571618537313 0.0
136.13313688103221 5.322262938107111 0.0
136.1221432358955 7.32229613865449 0.0
136.1113601288724 9.322352915768297 0.0
136.1007846232118 11.322429148075262 0.0
136.09041284368178 13.322520554891552 0.0
136.0802399421475 15.322622810529175 0.0
136.0702600944049 17.32273165376855 0.0
136.06046652559425 19.322842988341904 0.0
136.05085156042435 21.32295297110106 0.0
136.04140669368357 23.323058085506375 0.0
136.03212267612318 25.323155199069287 0.0
136.02298961073825 27.32324160432793 0.0
136.01399705470266 29.323315043769693 0.0
136.00513412266267 31.323373719798447 0.0
135.99638958770194 33.32341629134829 0.0
135.98775197697222 35.32344185906559 0.0
135.97920965970278 37.323449941180606 0.0
135.97075092597746 39.32344044216758 0.0
135.9623640552928 41.32341361620297 0.0
135.95403737444076 43.32337002729395 0.0
135.9457593046987 45.32331050768717 0.0
135.93751839863887 47.32323611592075 0.0
135.9293033671141 49.3231480956244 0.0
135.92110309713 51.32304783592075 0.0
135.91290666139778 53.32293683405488 0.0
135.9047033203878 55.32281666068055 0.0
135.8964825176838 57.32268892806817 0.0
135.88823386938935 59.32255526136901 0.0
135.8799471482603 61.32241727297267 0.0
135.87161226316198 63.322276539928886 0.0
135.8632192343517 65.32213458436327 0.0
135.85475816500764 67.32199285678837 0.0
135.84621920934143 69.32185272225888 0.0
135.83759253756145 71.32171544927053 0.0
135.82886829789575 73.32158220139078 0.0
135.8200365758379 75.32145403162902 0.0
135.81108735074844 77.32133187960984 0.0
135.802010449936 79.32121657166783 0.0
135.79279550033831 81.32110882404436 0.0
135.7834318779509 83.32100924942637 0.0
135.7739086551867 85.32091836713033 0.0
135.7642145464063 87.32083661729108 0.0
135.75433785193533 89.32076437947315 0.0
135.7442664009747 91.32070199616851 0.0
135.733987493922 93.32064980168862 0.0
135.72348784474815 95.32060815698803 0.0
135.712753524216 97.32057749098027 0.0
138.1558405156518 1.3341100737522416 0.0
138.1443157466224 3.334115447617206 0.0
138.13300967553138 5.334151293171235 0.0
138.1219216967129 7.334213803978039 0.0
138.11105029013743 9.33429874660182 0.0
138.10039291124434 11.334401589920834 0.0
138.08994591981622 13.334517639771466 0.0
138.07970454801605 15.33464217257332 0.0
138.06966290567067 17.334770562062655 0.0
138.0598140191518 19.33489839415111 0.0
138.0501498988964 21.335021566041632 0.0
138.04066162975462 23.33513636699212 0.0
138.0313394779773 25.33523953939138 0.0
138.02217300870763 27.33532831999109 0.0
138.01315120824157 29.3354004621495 0.0
138.00426260599357 31.335454240736865 0.0
137.99549539193765 33.33548844190872 0.0
137.98683752619868 35.33550234026901 0.0
137.97827683838196 37.33549566610043 0.0
137.96980111507185 39.33546856524209 0.0
137.96139817467198 41.335421554016456 0.0
137.95305592937862 43.335355471373035 0.0
137.94476243456592 45.33527143006134 0.0
137.9365059262085 47.33517076831668 0.0
137.92827484721337 49.33505500321106 0.0
137.92005786365735 51.334925786514304 0.0
137.91184387198712 53.33478486364122 0.0
137.90362199821985 55.33463403603251 0.0
137.89538159012614 57.33447512713544 0.0
137.8871122032842 59.334309952010756 0.0
137.8788035817854 61.33414029049375 0.0
137.87044563425235 63.33396786377456 0.0
137.8620284057121 65.3337943142306 0.0
137.8535420457553 67.33362118832417 0.0
137.8449767733092 69.33344992244159 0.0
137.836322838264 71.33328183150938 0.0
137.82757048011848 73.33311810032882 0.0
137.81870988375593 75.3329597776019 0.0
137.80973113242155 77.33280777269105 0.0
137.80062415795555 79.33266285522424 0.0
137.79137868833428 81.33252565773151 0.0
137.78198419259218 83.33239668157285 0.0
137.77242982323762 85.33227630649267 0.0
137.7627043563344 87.3321648042073 0.0
137.7527961294994 89.33206235650124 0.0
137.7426929781708 91.33196907836863 0.0
137.7323821706154 93.33188504679191 0.0
137.7218503422865 95.33181033579245 0.0
137.71108343029886 97.33174505842119 0.0
140.15582395512442 1.3460488625296647 0.0
140.14419464343746 3.346085340932544 0.0
140.13278932001992 5.346151918546524 0.0
140.12160815401128 7.346244383258935 0.0
140.1106502312567 9.34635804725254 0.0
140.09991343175437 11.346487900733903 0.0
140.08939435470833 13.346628771085847 0.0
140.07908829094487 15.346775479529553 0.0
140.06898923986398 17.346922988093613 0.0
140.05908996595167 19.347066530912173 0.0
140.04938208830825 21.34720172537647 0.0
140.03985619571012 23.34732466031519 0.0
140.03050197940453 25.347431960007704 0.0
140.02130837606356 27.347520824302947 0.0
140.01226371398684 29.34758904633323 0.0
140.00335585661065 31.347635010224565 0.0
139.99457233852135 33.34765767179691 0.0
139.9859004903582 35.34765652553306 0.0
139.97732755014823 37.347631561170324 0.0
139.96884075964442 39.34758321305793 0.0
139.96042744512195 41.347512305122464 0.0
139.95207508278926 43.34741999391896 0.0
139.9437713494963 45.34730771177564 0.0
139.9355041597802 47.34717711160858 0.0
139.9272616905083 49.34703001457011 0.0
139.91903239447092 51.34686836132454 0.0
139.9108050042814 53.346694167431394 0.0
139.90256852787414 55.346509483060046 0.0
139.89431223677943 57.34631635706458 0.0
139.88602564821156 59.346116805302785 0.0
139.87769850185182 61.345912782989394 0.0
139.8693207320494 63.34570616081993 0.0
139.86088243601134 65.34549870458153 0.0
139.85237383841022 67.34529205796262 0.0
139.84378525271418 69.3450877283534 0.0
139.8351070394374 71.34488707540201 0.0
139.82632956141506 73.34469130221463 0.0
139.81744313615087 75.34450144913478 0.0
139.80843798522474 77.34431839012156 0.0
139.79930418073587 79.34414283183014 0.0
139.79003158874406 81.34397531558749 0.0
139.78060980969568 83.3438162225442 0.0
139.77102811585797 85.34366578237291 0.0
139.76127538585024 87.34352408596979 0.0
139.75134003644445 89.34339110269889 0.0
139.74120995191558 91.34326670279432 0.0
139.73087241135192 93.34315068560439 0.0
139.72031401448567 95.34304281441834 0.0
139.70952060677783 97.34294285866375 0.0
142.15571171688683 1.3580993580891538 0.0
142.14397758039811 3.3581676194696715 0.0
142.1324733055135 5.358265654593648 0.0
142.121199935612 7.358388769337226 0.0
142.1101572288395 9.358531740115632 0.0
142.09934352169486 11.358688997490141 0.0
142.08875565100715 13.358854815041136 0.0
142.078388933471 15.359023493590781 0.0
142.06823719860773 17.35918953191321 0.0
142.0582928683566 19.359347776763833 0.0
142.04854707464054 21.359493547089905 0.0
142.03898980524602 23.359622729454237 0.0
142.02961006817185 25.359731843788143 0.0
142.0203960651087 27.359818080411287 0.0
142.01133536575045 29.359879310706592 0.0
142.00241507601586 31.35991407486355 0.0
141.99362199480305 33.359921550703504 0.0
141.98494275544752 35.35990150780957 0.0
141.976363949502 37.359854251128006 0.0
141.96787223170503 39.35978055783235 0.0
141.9594544060334 41.35968161077014 0.0
141.95109749351414 43.35955893128168 0.0
141.94278878302097 45.35941431356631 0.0
141.93451586662312 47.35924976222041 0.0
141.9262666612256 49.35906743406593 0.0
141.91802941827433 51.358869584952465 0.0
141.90979272323136 53.358658521859574 0.0
141.90154548638967 55.358436560348004 0.0
141.89327692641658 57.358205987202865 0.0
141.8849765478099 59.357969027974015 0.0
141.87663411324607 61.357727819032924 0.0
141.8682396115914 63.35748438373007 0.0
141.8597832221609 65.35724061223429 0.0
141.851255275636 67.35699824465051 0.0
141.84264621190337 69.35675885711508 0.0
141.83394653495014 71.35652385055491 0.0
141.8251467648489 73.35629444194343 0.0
141.81623738678647 75.35607165794706 0.0
141.8072087970365 77.35585633095843 0.0
141.79805124574466 79.35564909761261 0.0
141.78875477638863 81.35545039998544 0.0
141.77930916179167 83.35526048977901 0.0
141.76970383661057 85.35507943590201 0.0
141.75992782628222 87.35490713595627 0.0
141.74996967250763 89.3547433322373 0.0
141.73981735546317 91.35458763294992 0.0
141.72945821307175 93.35443953942271 0.0
141.71887885782914 95.35429848017858 0.0
141.70806509186895 97.35416385277836 0.0
144.15550172993602 1.3702627937099134 0.0
144.143662073678 3.3703635889668337 0.0
144.1320588484312 5.370493880806915 0.0
144.12069408506545 7.37064840170953 0.0
144.1095682865496 9.370821295456889 0.0
144.09868027615775 11.371006337533288 0.0
144.08802711772987 13.371197160217827 0.0
144.07760410621984 15.371387469880743 0.0
144.06740482253332 17.371571245547738 0.0
144.05742124335342 19.371742910151127 0.0
144.04764389447155 21.371897468639048 0.0
144.03806203512661 23.372030609971652 0.0
144.0286638609186 25.372138772697664 0.0
144.01943671380604 27.372219176053292 0.0
144.01036728926832 29.372269820231143 0.0
144.00144183265988 31.372289460585062 0.0
143.99264631884748 33.3722775610933 0.0
143.98396661122504 35.3722342324677 0.0
143.97538859798962 37.372160160036415 0.0
143.96689830505892 39.372056525917394 0.0
143.95848198617912 41.371924929301954 0.0
143.95012619161258 43.371767307924706 0.0
143.94181781733943 45.371585863008825 0.0
143.93354413700055 47.37138298928614 0.0
143.925292818901 49.371161211086516 0.0
143.91705193033232 51.37092312499072 0.0
143.9088099313128 53.37067134914735 0.0
143.90055565961066 55.370408479062526 0.0
143.8922783086549 57.37013704946953 0.0
143.8839673996609 59.36985950175912 0.0
143.87561274902833 61.369578156389224 0.0
143.86720443181602 63.36929518967974 0.0
143.8587327418676 65.36901261442266 0.0
143.85018814896057 67.36873226377672 0.0
143.84156125317452 69.36845577804519 0.0
143.83284273653462 71.3681845939413 0.0
143.82402331186506 73.36791993611452 0.0
143.81509366870154 75.36766281079149 0.0
143.80604441604774 77.36741400150316 0.0
143.79686602172706 79.36717406698752 0.0
143.7875487480667 81.366943341476 0.0
143.77808258367153 83.36672193769301 0.0
143.76845717108267 85.36650975301812 0.0
143.75866173018645 87.36630647937848 0.0
143.7486849773345 89.36611161755485 0.0
143.7385150402586 91.3659244966931 0.0
143.7281393690152 93.36574429991401 0.0
143.7175446433719 95.36557009700411 0.0
143.7067166772517 97.36540088524565 0.0
146.1551916882857 1.3825409969934763 0.0
146.14324534802705 3.382675163547752 0.0
146.13154284042844 5.3828385979680995 0.0
146.12008731326 7.383025349342773 0.0
146.10888009312401 9.383228813001733 0.0
146.09792051680967 11.383441996513596 0.0
146.08720585213058 13.383657789138793 0.0
146.07673130501288 15.383869218925186 0.0
146.0664901041618 17.384069683918835 0.0
146.05647365054404 19.384253147253666 0.0
146.04667171640617 21.38441428962522 0.0
146.03707267763525 23.384548616423267 0.0
146.0276637637583 25.384652520198628 0.0
146.01843131148829 27.38472330189224 0.0
146.0093610100507 29.38475915622231 0.0
146.0004381292375 31.384759127787895 0.0
145.9916477238803 33.38472304487372 0.0
145.98297481098788 35.38465143776109 0.0
145.97440451798548 37.384545447782386 0.0
145.96592220224542 39.3844067324236 0.0
145.95751354339114 41.384237370780816 0.0
145.94916461072202 43.38403977267326 0.0
145.94086190859846 45.383816593721576 0.0
145.93259240282202 47.38357065785956 0.0
145.92434353101055 49.38330488804125 0.0
145.9161031997809 51.38302224534683 0.0
145.90785977125827 53.38272567627392 0.0
145.89960204108564 55.38241806770927 0.0
145.89131920974575 57.382102208892455 0.0
145.88300084864255 59.38178075958527 0.0
145.87463686206067 61.38145622363074 0.0
145.86621744580412 63.381130927108735 0.0
145.85773304305525 65.38080700035187 0.0
145.84917429775584 67.38048636315632 0.0
145.84053200561763 69.38017071268087 0.0
145.83179706270963 71.37986151355548 0.0
145.8229604114398 73.37955998991438 0.0
145.81401298365228 75.3792671191662 0.0
145.80494564049047 77.37898362745182 0.0
145.79574910864048 79.37870998687218 0.0
145.78641391254808 81.37844641470576 0.0
145.77693030222432 83.37819287497123 0.0
145.76728817629078 85.37794908282797 0.0
145.75747699998846 87.37771451244315 0.0
145.74748571797457 89.37748840908768 0.0
145.73730266186183 91.37726980635043 0.0
145.72691545261566 93.37705754948107 0.0
145.71631089812018 95.3768503259793 0.0
145.70547488644033 97.3766467046434 0.0
148.15477900319246 1.3949364822022212 0.0
148.14272428009957 3.395104960818749 0.0
148.13092178854026 5.395302525406281 0.0
148.11937594150427 7.395522408494514 0.0
148.10808897421916 9.395757117800905 0.0
148.09706075741394 11.395998759115912 0.0
148.08628872243546 13.396239360359356 0.0
148.0757678927206 15.396471176679198 0.0
148.0654910091072 17.396686959832408 0.0
148.05544873141355 19.396880179709193 0.0
148.0456298959014 21.397045190965372 0.0
148.03602180760225 23.397177342703966 0.0
148.02661054770766 25.39727303346965 0.0
148.01738127881225 27.397329717151276 0.0
148.0083185342146 29.397345867592854 0.0
147.9994064812048 31.397320910822494 0.0
147.9906291518865 33.3972551339699 0.0
147.98197063829923 35.39714957936806 0.0
147.97341525124082 37.39700593132218 0.0
147.9649476441908 39.396826401657954 0.0
147.95655290510842 41.39661361877942 0.0
147.94821661970417 43.39637052364673 0.0
147.9399249101536 45.3961002748591 0.0
147.93166445325346 47.39580616402788 0.0
147.92342248180228 49.39549154182714 0.0
147.91518677261925 51.39515975450818 0.0
147.90694562416107 53.394814090245916 0.0
147.89868782620923 55.394457734416356 0.0
147.8904026236179 57.39409373275938 0.0
147.88207967566566 59.39372496132902 0.0
147.873709012137 61.39335410215291 0.0
147.86528098690872 63.392983623589934 0.0
147.85678622950127 65.3926157644758 0.0
147.84821559479815 67.39225252125243 0.0
147.83956011091874 69.39189563747014 0.0
147.83081092505947 71.39154659510342 0.0
147.82195924697672 73.39120660733938 0.0
147.81299628968458 75.39087661261523 0.0
147.80391320686329 77.39055726983517 0.0
147.79470102643262 79.39024895484617 0.0
147.78535057972667 81.38995175840358 0.0
147.77585242571527 83.38966548601081 0.0
147.7661967697629 85.38938966016995 0.0
147.7563733764838 87.38912352573558 0.0
147.7463714763568 89.38886605921645 0.0
147.73617966590288 91.38861598301841 0.0
147.7257858013979 93.38837178576364 0.0
147.7151768863048 95.38813174995065 0.0
147.70433895284572 97.38789398833474 0.0
150.1542607453046 1.4074525602660921 0.0
150.1420953299419 3.407656415281507 0.0
150.1301917434304 5.407889216954616 0.0
150.1185558344062 7.4081432190155905 0.0
150.10719083728776 9.408409873497805 0.0
150.09609716673634 11.408680225090212 0.0
150.08527235288352 13.40894530273794 0.0
150.07471110833566 15.409196482736798 0.0
150.0644055088846 17.40942580254167 0.0
150.05434526365667 19.409626211034393 0.0
150.04451804742578 21.409791747977522 0.0
150.03490986779025 23.409917651948053 0.0
150.025505442304 25.41000040150622 0.0
150.01628856470953 27.410037698315236 0.0
150.00724244433675 29.410028403287413 0.0
149.9983500078158 31.4099724377168 0.0
149.98959415695734 33.40987066104175 0.0
149.98095798064128 35.40972473569949 0.0
149.97242492165725 37.409536987893354 0.0
149.96397890163496 39.40931027114367 0.0
149.95560440857778 41.40904783763328 0.0
149.9472865521894 43.40875322067207 0.0
149.93901109234417 45.4084301301296 0.0
149.93076444581416 47.40808236153487 0.0
149.92253367590564 49.407713718672674 0.0
149.91430646904934 51.40732794889719 0.0
149.90607110173175 53.40692868999254 0.0
149.89781640050646 55.40651942719616 0.0
149.88953169720915 57.40610345892145 0.0
149.88120678095197 59.405683869731504 0.0
149.8728318479923 61.40526350920042 0.0
149.86439745015974 63.40484497542515 0.0
149.85589444218573 65.40443060210121 0.0
149.84731392799557 67.40402244822354 0.0
149.83864720579632 69.40362228970436 0.0
149.82988571160894 71.40323161227468 0.0
149.8210209607565 73.40285160528073 0.0
149.81204448670434 75.4024831561203 0.0
149.802947776579 77.40212684523445 0.0
149.79372220263986 79.40178294173216 0.0
149.7843589489593 81.40145139989397 0.0
149.77484893257358 83.40113185696467 0.0
149.7651827184081 85.40082363281911 0.0
149.75535042734714 87.40052573225594 0.0
149.7453416369281 89.4002368508493 0.0
149.73514527428017 91.3999553854601 0.0
149.72474950111507 93.39967945067484 0.0
149.7141415907966 95.39940690259353 0.0
149.70330779778206 97.39913537152762 0.0
152.15363357412645 1.4200934708329 0.0
152.14135445764109 3.4203339146177747 0.0
152.12934821294385 5.420603200217825 0.0
152.11762232053087 7.420892403559861 0.0
152.1061811086996 9.421191716899882 0.0
152.0950255295339 11.421490933603978 0.0
152.08415311328554 13.421779923705422 0.0
152.07355808679492 15.42204906712072 0.0
152.06323162980772 17.42228961878286 0.0
152.05316223555099 19.422493989212295 0.0
152.04333613898814 21.422655933621105 0.0
152.0337377772976 23.422770651295544 0.0
152.02435025138303 25.422834803835233 0.0
152.01515576341635 27.422846465409037 0.0
152.00613601242947 29.422805020516886 0.0
151.99727253681664 31.422711025118417 0.0
151.98854699864467 33.42256604587693 0.0
151.9799414095121 35.422372490185005 0.0
151.971438301227 37.42213343713255 0.0
151.96302084686326 39.421852476883636 0.0
151.9546729389773 41.42153356349489 0.0
151.94637923216237 43.42118088411507 0.0
151.93812515690828 45.42079874578372 0.0
151.92989691114258 47.42039147977592 0.0
151.9216814350179 49.419963362544635 0.0
151.9134663736142 51.41951855174083 0.0
151.9052400313243 53.41906103547719 0.0
151.8969913208581 55.41859459288117 0.0
151.88870970904622 57.41812276400163 0.0
151.88038516097748 59.417648827243205 0.0
151.87200808345983 61.4171757826686 0.0
151.8635692683402 63.416706339708334 0.0
151.85505983585426 65.41624290802318 0.0
151.8464711778825 67.41578759046055 0.0
151.83779490075324 69.41534217731223 0.0
151.82902276705406 71.41490814117967 0.0
151.8201466357654 73.41448663202164 0.0
151.81115839992796 75.41407847210603 0.0
151.80204992097237 77.41368415077108 0.0
151.79281295879434 79.41330381907677 0.0
151.78343909662732 81.41293728460414 0.0
151.7739196597772 83.41258400684092 0.0
151.76424562730546 85.41224309377961 0.0
151.75440753582487 87.41191330054545 0.0
151.74439537466907 89.4115930310687 0.0
151.73419847184846 91.41128034401447 0.0
151.7238053703971 93.41097296437673 0.0
151.7132036949554 95.41066830232808 0.0
151.70238000871993 97.41036348108211 0.0
154.15289365137417 1.432864542048193 0.0
154.14049702122088 3.4331429647705125 0.0
154.12838605739972 5.433450145127782 0.0
154.1165700984155 7.433775735370533 0.0
154.1050546624307 9.434108418738903 0.0
154.09384120698783 11.434436509517711 0.0
154.08292711645507 13.434748533430303 0.0
154.07230589456063 15.435033745589028 0.0
154.06196752409195 17.435282554211042 0.0
154.05189894695607 19.435486831527484 0.0
154.04208461543655 21.435640106468025 0.0
154.03250706868496 23.43573764505031 0.0
154.02314749564195 25.43577643281975 0.0
154.0139862549237 27.4357550787619 0.0
154.00500333205767 29.435673662047883 0.0
153.99617872357055 31.435533542369146 0.0
153.98749274502552 33.435337152242994 0.0
153.97892626581734 35.4350877862919 0.0
153.9704608773726 37.434789398838504 0.0
153.9620790035756 39.43444641754036 0.0
153.95376396309527 41.43406357769641 0.0
153.94549999317258 43.43364577934831 0.0
153.93727224368968 45.43319796736956 0.0
153.92906674924055 47.432725033406186 0.0
153.92087038568067 49.432231737685235 0.0
153.9126708163773 51.43172264824287 0.0
153.9044564322145 53.431202094948326 0.0
153.89621628837057 55.430674135723145 0.0
153.88794003999618 57.43014253251029 0.0
153.87961787818796 59.429610734778315 0.0
153.87124046704815 61.42908186861272 0.0
153.86279888214875 63.428558729726895 0.0
153.8542845503362 65.42804377899465 0.0
153.8456891905219 67.42753913934804 0.0
153.83700475487342 69.42704659318697 0.0
153.8282233696469 71.42656757956642 0.0
153.81933727476385 73.42610319071359 0.0
153.81033876113227 75.42565416758544 0.0
153.80122010463495 77.42522089436902 0.0
153.79197349565632 79.42480339200809 0.0
153.78259096298802 81.42440131102633 0.0
153.7730642909477 83.42401392410966 0.0
153.76338492857437 85.4236401191092 0.0
153.75354388981674 87.4232783933402 0.0
153.74353164373542 89.42292685027296 0.0
153.73333799388232 91.42258319993877 0.0
153.72295194622635 93.42224476460324 0.0
153.71236156524714 95.42190849147791 0.0
153.7015538181358 97.42157097444286 0.0
156.15203653367016 1.4457723855274147 0.0
156.13951765064147 3.4460903916005945 0.0
156.12729936206756 5.446437069599549 0.0
156.11539312507537 7.4468003419546624 0.0
156.1038057399294 9.447167076743094 0.0
156.09253909899894 11.44752383582313 0.0
156.0815902285723 13.4478575866873 0.0
156.07095158808235 15.448156322545701 0.0
156.06061157150688 17.448409551630835 0.0
156.05055514557262 19.448608635679197 0.0
156.04076455861284 21.448746975626555 0.0
156.03122006068452 23.448820057329055 0.0
156.02190058721405 25.448825380238084 0.0
156.01278437227086 27.44876229716686 0.0
156.00384947125514 29.44863179419556 0.0
155.99507418471254 31.448436237455933 0.0
155.9864373843059 33.44817910923733 0.0
155.97791874844694 35.44786475066827 0.0
155.9694989189555 37.447498123074986 0.0
155.96115959183663 39.44708459540294 0.0
155.95288355540652 41.44662976129602 0.0
155.94465468809776 43.44613928654496 0.0
155.93645792677128 45.445618785570495 0.0
155.92827921460938 47.445073724330854 0.0
155.9201054358797 49.44450934635064 0.0
155.91192434320374 51.44393061830835 0.0
155.90372448150234 53.443342191658566 0.0
155.89549511155533 55.442748376990416 0.0
155.8872261351052 57.442153128156995 0.0
155.87890802262828 59.44156003358666 0.0
155.87053174426592 61.440972312572136 0.0
155.86208870392906 63.44039281470035 0.0
155.8535706762171 65.43982402092159 0.0
155.84496974551726 67.43926804504069 0.0
155.83627824643867 69.4387266347481 0.0
155.82748870457834 71.43820117144239 0.0
155.81859377649215 73.43769266839412 0.0
155.80958618764828 75.43720176696256 0.0
155.80045866706945 77.43672873077098 0.0
155.79120387731288 79.43627343792913 0.0
155.78181433839922 81.43583537158102 0.0
155.7722823442882 83.43541360925576 0.0
155.76259987050696 85.43500681170991 0.0
155.7527584715807 87.43461321218369 0.0
155.74274916700514 89.43423060723812 0.0
155.73256231463947 91.43385635060396 0.0
155.72218747060123 93.43348735174054 0.0
155.71161323502133 95.4331200810672 0.0
155.70082708335894 97.43275058407494 0.0
158.15105703847192 1.4588251364217864 0.0
158.13841009106423 3.4591845894422013 0.0
158.126081280968 5.4595725925960386 0.0
158.11408448366544 7.459974954137934 0.0
158.10242786138232 9.460376348694744 0.0
158.09111361244132 11.460761257128839 0.0
158.08013810006216 13.461114843815803 0.0
158.0694923052468 15.46142369915631 0.0
158.0591625229298 17.461676400023023 0.0
158.0491312097505 19.461863868178785 0.0
158.0393778944442 21.46197953152361 0.0
158.02988007458126 23.4620193120243 0.0
158.02061404192094 25.461981475862043 0.0
158.01155559885305 27.461866385894908 0.0
158.00268064712438 29.461676195325676 0.0
157.99396564530667 31.461414516362115 0.0
157.9853879424932 33.46108609052594 0.0
157.9769260025932 35.46069647963933 0.0
157.9685595369746 37.46025178952054 0.0
157.96026956393814 39.45975843248887 0.0
157.9520384124688 41.45922293032516 0.0
157.94384968565134 43.45865175621146 0.0
157.93568819661587 45.45805121218057 0.0
157.92753988730533 47.45742733755495 0.0
157.91939173795288 49.45678584346949 0.0
157.91123167306662 51.456132068637295 0.0
157.9030484679632 53.45547095186219 0.0
157.89483165849418 55.45480701729251 0.0
157.8865714555007 57.454144368959305 0.0
157.87825866470527 59.45348669168928 0.0
157.8698846121124 61.45283725599137 0.0
157.86144107453975 63.45219892497475 0.0
157.85292021456354 65.45157416174962 0.0
157.8443145189195 67.45096503608403 0.0
157.83561673922688 69.45037322944829 0.0
157.8268198337695 71.44980003771485 0.0
157.81791690896702 73.44924637108574 0.0
157.80890115908866 75.44871275097374 0.0
157.7997658026902 77.44819930375292 0.0
157.7905040141986 79.44770575146951 0.0
157.78110884901997 81.4472313997934 0.0
157.77157316051392 83.446775123688 0.0
157.76188950716698 85.4463353515001 0.0
157.75205004831682 87.44591004841804 0.0
157.74204642684583 89.44549670052373 0.0
157.73186963738877 91.44509230096251 0.0
157.72150987879587 93.44469334007486 0.0
157.7109563898835 95.4442958016523 0.0
157.70019726787808 97.44389516778286 0.0
160.1499490749344 1.472032751871743 0.0
160.137167006219 3.4724358304160483 0.0
160.12472384444666 5.472867248341053 0.0
160.11263622654002 7.473310212902449 0.0
160.1009137297647 9.473746735063497 0.0
160.0895586421576 11.474158819613033 0.0
160.07856622834302 13.47452955112397 0.0
160.06792540416185 15.474843981743486 0.0
160.05761970121895 17.475089764654022 0.0
160.04762839247573 19.47525751660056 0.0
160.03792765936402 21.47534092680794 0.0
160.02849170349356 23.475336653525655 0.0
160.01929373492743 25.4752440620035 0.0
160.01030679810304 27.475064860103842 0.0
160.00150442157798 29.474802682661128 0.0
159.99286109671627 31.4744626661992 0.0
159.98435260279797 33.474051044467934 0.0
159.97595620258014 35.47357478447925 0.0
159.96765073437453 37.473041273586624 0.0
159.9594166256718 39.472458061008346 0.0
159.9512358505 41.471832652266535 0.0
159.943091849046 43.4711723519161 0.0
159.9349694242577 45.470484148274956 0.0
159.92685462660688 47.46977463328346 0.0
159.9187346351192 49.46904995073796 0.0
159.91059764025252 51.46831576667784 0.0
159.90243273221253 53.467577256450284 0.0
159.89422979676317 55.4668391037936 0.0
159.8859794194661 57.466105508076616 0.0
159.87767279845892 59.46538019655971 0.0
159.86930166531056 61.464666439178025 0.0
159.86085821309223 63.46396706388678 0.0
159.8523350305321 65.46328447105189 0.0
159.84372504093753 67.46262064571285 0.0
159.83502144444446 69.46197716691299 0.0
159.82621766205813 71.46135521342003 0.0
159.8173072798789 73.46075556545517 0.0
159.8082839918396 75.46017860218699 0.0
159.79914153921752 77.45962429491838 0.0
159.78987364512344 79.45909219605831 0.0
159.78047394210304 81.45858142414377 0.0
159.77093589093556 83.45809064537524 0.0
159.76125268866787 85.45761805235117 0.0
159.75141716390908 87.45716134095244 0.0
159.74142165744283 89.45671768663135 0.0
159.73125788630722 91.45628372170334 0.0
159.72091678967587 93.4558555156196 0.0
159.71038835516862 95.45542856058782 0.0
159.69966142462934 97.45499776529208 0.0
162.1487054282855 1.485407385930683 0.0
162.1357797294422 3.4858566533433004 0.0
162.123217720761 5.486333880193754 0.0
162.1110391897303 7.486819050312445 0.0
162.09925513120226 9.487290923119165 0.0
162.08786757571775 11.487728553048177 0.0
162.07687006941399 13.488112638964388 0.0
162.06624866961894 15.488426581319722 0.0
162.05598328023407 17.48865718282167 0.0
162.04604914528852 19.488794985769857 0.0
162.03641834090286 21.48883428518097 0.0
162.02706114455503 23.488772885871104 0.0
162.01794720484918 25.488611683345507 0.0
162.00904647616 27.488354145851023 0.0
162.000329915298 29.488005763177465 0.0
161.99176995976458 31.487573511659832 0.0
161.98334081985067 33.48706536821943 0.0
161.97501862164967 35.4864898916578 0.0
161.96678143743725 37.485855878033554 0.0
161.95860923597255 39.485172088848 0.0
161.95048377987044 41.484447045781515 0.0
161.94238849144833 43.483688883102126 0.0
161.93430830311274 45.48290524793607 0.0
161.9262295037529 47.482103238796704 0.0
161.9181395888867 49.48128937361872 0.0
161.9100271194174 51.480469579698614 0.0
161.90188159170376 53.479649199182504 0.0
161.89369332009835 55.47883300492702 0.0
161.8854533320248 57.47802522261938 0.0
161.87715327494317 59.477229555948604 0.0
161.86878533407545 61.47644921236527 0.0
161.86034215947876 63.475686927568944 0.0
161.8518168008688 65.47494498733336 0.0
161.84320264850288 67.47422524562553 0.0
161.83449337836555 69.47352913833433 0.0
161.82568289985963 71.47285769202676 0.0
161.81676530416613 73.4722115274218 0.0
161.80773481138849 75.47159085738095 0.0
161.7985857145442 77.47099547935875 0.0
161.7893123183904 79.47042476239399 0.0
161.77990887099205 81.46987762887834 0.0
161.77036948585342 83.4693525315184 0.0
161.76068805234686 85.4688474261308 0.0
161.75085813210933 87.46835974118191 0.0
161.74087283905453 89.46788634531588 0.0
161.73072470069076 91.46742351450885 0.0
161.7204054985818 93.46696690093734 0.0
161.70990608607462 95.46651150613238 0.0
161.6992161818595 97.46605166148066 0.0
164.14731748177212 1.498963865911434 0.0
164.13423794534702 3.499462358235834 0.0
164.12155191907465 5.4999881394171055 0.0
164.1092827751265 7.500517166075361 0.0
164.09744283896907 9.501024207096044 0.0
164.08603333973232 11.501484799857707 0.0
164.07504522365218 13.501876931632964 0.0
164.06446061602242 15.50218228815436 0.0
164.0542546699367 17.50238700098049 0.0
164.04439754573798 19.502481908554483 0.0
164.03485630957817 21.502462407093727 0.0
164.02559660389775 23.502328000545845 0.0
164.01658400939672 25.50208166581857 0.0
164.0077850749765 27.50172913738098 0.0
163.99916803326238 29.501278192687856 0.0
163.99070324399406 31.500737994166627 0.0
163.9823634183653 33.500118519860635 0.0
163.97412367823878 35.499430095927 0.0
163.96596149894052 37.49868303085622 0.0
163.95785657622 39.49788734288411 0.0
163.94979064911297 41.49705256778338 0.0
163.94174730219407 43.49618763276084 0.0
163.93371176367182 45.49530078252666 0.0
163.92567071016455 47.49439954498168 0.0
163.9176120847388 49.493490725797066 0.0
163.90952493169166 51.49258042307774 0.0
163.90139924940084 53.491674055097036 0.0
163.89322586112442 55.490776395660944 0.0
163.8849963027129 57.489891612971505 0.0
163.87670272564642 59.48902330891425 0.0
163.8683378135094 61.488174556518 0.0
163.85989470987545 63.487347933967 0.0
163.8513669555247 65.48654555401038 0.0
163.84274843292135 67.48576908793896 0.0
163.83403331589486 69.48501978362312 0.0
163.82521602248517 71.48429847716649 0.0
163.81629116891187 73.48360559795962 0.0
163.8072535226027 75.48294116698555 0.0
163.7980979521634 77.48230478833212 0.0
163.7888193720905 79.48169563396822 0.0
163.77941267992253 81.48111242196322 0.0
163.76987268339596 83.48055338848694 0.0
163.7601940150311 85.48001625413407 0.0
163.75037103144348 87.4794981853926 0.0
163.74039769456775 89.47899575243156 0.0
163.7302674319506 91.47850488482726 0.0
163.71997297334647 93.47802082738511 0.0
163.70950616109636 95.47753809881605 0.0
163.6988577322379 97.47705045666112 0.0
166.14577485357228 1.512720305136958 0.0
166.13252927848296 3.513271642717486 0.0
166.11971341763163 5.513849123649563 0.0
166.10735469801548 7.514423628318218 0.0
166.0954665351598 9.514965001781299 0.0
166.08404851628083 11.515444593761725 0.0
166.0730877337224 13.515837355755632 0.0
166.06256092736984 15.516123293872795 0.0
166.0524370445676 17.51628821551872 0.0
166.04267985725656 19.516323828365124 0.0
166.03325036060858 21.516227329263618 0.0
166.0241087824784 23.51600065381266 0.0
166.01521613153335 25.515649552030037 0.0
166.0065352880109 27.515182626075088 0.0
165.99803168961287 29.514610426435706 0.0
165.98967368864564 31.513944664177675 0.0
165.9814326614874 33.51319756489277 0.0
165.97328294482801 35.512381367066624 0.0
165.96520166075524 37.51150795337127 0.0
165.95716847881576 39.51058859599306 0.0
165.94916535009244 41.5096337947154 0.0
165.9411762373083 43.50865318710966 0.0
165.93318685630112 45.50765551245253 0.0
165.92518443779923 47.50664861394328 0.0
165.91715751388884 49.50563946682312 0.0
165.9090957305228 51.5046342227659 0.0
165.90098968547417 53.503638263275384 0.0
165.89283078997974 55.502656256749134 0.0
165.8846111516945 57.50169221537984 0.0
165.8763234763051 59.50074954921115 0.0
165.86796098508273 61.49983111551439 0.0
165.8595173457161 63.49893926226221 0.0
165.85098661387107 65.49807586489831 0.0
165.8423631830484 67.4972423558681 0.0
165.83364174042077 69.49643974664123 0.0
165.8248172264065 71.49566864195084 0.0
165.81588479577837 73.49492924614778 0.0
165.80683977810216 75.49422136157789 0.0
165.7976776352493 77.49354437894065 0.0
165.7883939136341 79.49289725964182 0.0
165.7789841886861 81.49227851023188 0.0
165.76944399889487 83.49168614914171 0.0
165.75976876655153 85.49111766610822 0.0
165.74995370209132 87.49056997494463 0.0
165.73999368872634 89.49003936067933 0.0
165.72988314390142 91.48952142258253 0.0
165.71961585407345 93.48901101523116 0.0
165.7091847794759 95.48850219051761 0.0
165.69858182598662 97.48798814433945 0.0
168.14406491606027 1.5266989020048576 0.0
168.13063875576717 3.5273074321081728 0.0
168.11768669646642 5.5279402037083845 0.0
168.10524070125948 7.528561636518662 0.0
168.09331477580156 9.529135469196795 0.0
168.08190557524443 11.529628084621567 0.0
168.07099455119453 13.530011120378754 0.0
168.06055109107874 15.530263115023804 0.0
168.0505360619472 17.530370158997545 0.0
168.0409052552258 19.530325691208084 0.0
168.0316123831953 21.530129679185162 0.0
168.02261144577648 23.529787443336136 0.0
168.01385842763403 25.52930835442904 0.0
168.00531238233276 27.528704574319246 0.0
167.99693601169167 29.527989945581048 0.0
167.98869586416058 31.52717908029463 0.0
167.98056226869392 33.52628665778438 0.0
167.9725091015717 35.52532691582631 0.0
167.96451346102845 37.52431330701653 0.0
167.9565553032387 39.5232582877453 0.0
167.9486170753913 41.52217320839693 0.0
167.94068336788476 43.5210682772689 0.0
167.9327405977826 45.519952575575346 0.0
167.92477672891255 47.518834105780584 0.0
167.9167810296379 49.517719859858296 0.0
167.9087438667041 51.516615897685185 0.0
167.90065653211713 53.515527428641484 0.0
167.8925110993496 55.514458891670934 0.0
167.88430030498276 57.51341403066159 0.0
167.87601745199123 59.51239596315865 0.0
167.86765633110818 61.511407241214464 0.0
167.85921115700376 63.51044990371085 0.0
167.85067651629356 65.50952551981865 0.0
167.84204732464954 67.50863522343008 0.0
167.8333187904912 69.5077797385802 0.0
167.82448638287087 71.50695939577739 0.0
167.81554580125237 73.5061741392668 0.0
167.80649294488992 75.50542352518535 0.0
167.79732387946552 77.50470671055697 0.0
167.78803479853366 79.50402243306968 0.0
167.77862197714734 81.50336898160117 0.0
167.7690817148058 83.50274415752642 0.0
167.75941026457986 85.50214522697915 0.0
167.74960374492937 87.50156886446692 0.0
167.73965803037473 89.50101108860422 0.0
167.72956861685088 91.50046719125731 0.0
167.71933045735292 93.49993166212927 0.0
167.70893776348706 95.49939811174806 0.0
167.69838376891684 97.49885919692379 0.0
170.14217214946862 1.5409269979777833 0.0
170.1285480954095 3.541597978136307 0.0
170.11545314897472 5.542290107536565 0.0
170.10292424564167 7.542959496740225 0.0
170.0909750457129 9.543562278284476 0.0
170.07959729591798 11.544058993190822 0.0
170.06876425610363 13.544417818146911 0.0
170.05843530412974 15.544616341994619 0.0
170.0485608342806 17.54464194289208 0.0
170.03908675559168 19.544491058328973 0.0
170.02995816977074 21.544167745860786 0.0
170.02112206999055 23.543681921696294 0.0
170.01252909659382 25.543047582373624 0.0
170.0041344985647 27.54228120813879 0.0
169.9958984922904 29.541400448338248 0.0
169.98778620452367 31.54042311526837 0.0
169.97976735705595 33.539366466432305 0.0
169.97181581303207 35.538246731601 0.0
169.96390906897864 37.53707883363508 0.0
169.9560277469719 39.53587625403635 0.0
169.9481551190759 41.53465100101419 0.0
169.94027668056938 43.533413646152276 0.0
169.93237977822878 45.532173403797835 0.0
169.92445329364767 47.53093823426091 0.0
169.9164873780285 49.52971495752492 0.0
169.9084732331467 51.52850936847152 0.0
169.9004029325737 53.52732634779664 0.0
169.8922692772989 55.526169965052546 0.0
169.88406568027798 57.52504357180523 0.0
169.87578607498494 59.52394988392446 0.0
169.86742484362844 61.52289105266947 0.0
169.85897676123176 63.52186872461034 0.0
169.85043695225914 65.52088409061037 0.0
169.84180085684972 67.51993792413447 0.0
169.83306420401678 69.5190306092136 0.0
169.82422298937027 71.51816215819498 0.0
169.8152734550277 73.51733221942223 0.0
169.8062120694052 75.51654007484488 0.0
169.79703550452885 77.51578462747321 0.0
169.7877406083684 79.51506437851775 0.0
169.7783243694939 81.51437739401463 0.0
169.76878387105884 83.513721260736 0.0
169.75911623074262 85.51309303125736 0.0
169.74931852282054 87.5124891582225 0.0
169.73938767798757 89.51190541816862 0.0
169.7293203559964 91.51133682580931 0.0
169.71911278565833 93.5107775404939 0.0
169.7087605664835 95.51022076770732 0.0
169.69825842640967 97.5096586599231 0.0
172.14007725789335 1.5554385024653254 0.0
172.12623475415444 3.556178337112772 0.0
172.1129903419869 5.556934359901372 0.0
172.10038620333887 7.557651874564508 0.0
172.0884339854464 9.558277512138865 0.0
172.0771174954919 11.55876505310739 0.0
172.06639815405407 13.559079355076854 0.0
172.05622175760584 15.559198088836036 0.0
172.0465252221917 17.55911152232352 0.0
172.03724237892413 19.558820914408926 0.0
172.02830836377566 21.55833616445751 0.0
172.01966253837216 23.55767327324614 0.0
172.01125012911896 25.556851998209773 0.0
172.00302288261145 27.555893908330845 0.0
171.9949390453661 29.554820904281907 0.0
171.9869629309893 31.553654180191756 0.0
171.9790642735126 33.55241355835421 0.0
171.97121750309628 35.55111711410859 0.0
171.96340102921874 37.54978101209279 0.0
171.95559657902143 39.54841948725285 0.0
171.94778861320455 41.547044918579225 0.0
171.93996382602535 43.54566795717381 0.0
171.93211072680518 45.54429768162928 0.0
171.9242192956472 47.54294176255967 0.0
171.9162807041263 49.541606624661625 0.0
171.90828709139728 51.540297599318826 0.0
171.90023138671918 53.53901906392637 0.0
171.8921071703439 55.53777456618676 0.0
171.88390856579807 57.536566932930334 0.0
171.8756301576374 59.53539836377008 0.0
171.86726692969168 61.53427051029452 0.0
171.858814219625 63.53318454165323 0.0
171.85026768628268 65.53214119738092 0.0
171.8416232868056 67.53114082818199 0.0
171.83287726085834 69.53018342532694 0.0
171.82402611956545 71.52926863899151 0.0
171.81506663687932 73.52839578578796 0.0
171.80599584113634 75.52756384550449 0.0
171.7968110044885 77.52677144690713 0.0
171.7875096277506 79.52601684230959 0.0
171.77808941795223 81.52529787050089 0.0
171.76854825554776 83.52461190754407 0.0
171.75888414777592 85.52395580493706 0.0
171.7490951640661 87.52332581470266 0.0
171.73917934864215 89.52271750119789 0.0
171.72913460458543 91.52212563991473 0.0
171.71895854270235 93.52154410440157 0.0
171.70864828778076 95.52096574378756 0.0
171.69820023457987 97.52038225528297 0.0
174.1377559367462 1.5702758491373703 0.0
174.1236706332805 3.5710923950473825 0.0
174.11027109235806 5.57191722082761 0.0
174.09760461733384 7.572681408240703 0.0
174.08567793614273 9.57331971849231 0.0
174.07446225261864 11.573778345138853 0.0
174.06390193282618 13.574019543364665 0.0
174.05392443761426 15.574022942745263 0.0
174.04444952836397 17.57378418258831 0.0
174.03539656620003 19.573311900372072 0.0
174.02668951591775 21.572624088369412 0.0
174.01825982943416 23.57174457513946 0.0
174.01004766736278 25.570700064996156 0.0
174.0020019800571 27.569517894836267 0.0
173.994079904257 29.568224488219304 0.0
173.98624581773205 31.566844395761517 0.0
173.97847028076254 33.565399782940034 0.0
173.9707290016529 35.563910234007906 0.0
173.963001898317 37.56239276381937 0.0
173.95527228585792 39.560861955668216 0.0
173.94752619515307 41.559330167077306 0.0
173.9397518141346 43.55780776454109 0.0
173.93193903744347 45.55630336241623 0.0
173.92407910835567 47.554824051186145 0.0
173.91616433740495 49.553375607100335 0.0
173.90818788371263 51.55196267957451 0.0
173.90014358701953 53.55058895544608 0.0
173.89202584039955 55.54925730074749 0.0
173.88382949543302 57.54796988147671 0.0
173.87554979317918 59.54672826518048 0.0
173.8671823155652 61.54553350520455 0.0
173.85872295283858 63.54438620932767 0.0
173.85016788352888 65.54328659425666 0.0
173.84151356396248 67.54223452714918 0.0
173.83275672479883 69.5412295551128 0.0
173.823894372325 71.54027092318422 0.0
173.8149237923905 73.53935758110958 0.0
173.8058425548834 75.53848817892593 0.0
173.79664851657114 77.53766105110168 0.0
173.78733981995228 79.53687418877091 0.0
173.77791488549087 81.53612519940384 0.0
173.76837239422545 83.53541125308949 0.0
173.7587112572292 85.534729014479 0.0
173.7489305676843 87.53407455936564 0.0
173.73902953038206 89.53344327494 0.0
173.72900736219495 91.53282974307118 0.0
173.7188631555755 93.53222760675207 0.0
173.70859569561165 95.5316294213434 0.0
173.698203220134 97.53102649464799 0.0
176.13517711627588 1.5854927413455986 0.0
176.12082029637477 3.5863956991126322 0.0
176.107262336761 5.587294331850825 0.0
176.09455466245947 7.5881007786804044 0.0
176.08269406044218 9.588735049439155 0.0
176.07163192588015 11.589135326638859 0.0
176.0612881379151 13.589263065085937 0.0
176.05156560969405 15.589103092193087 0.0
176.04236265284348 17.58866015668931 0.0
176.03358182051733 19.58795374731667 0.0
176.02513516636608 21.587012704778815 0.0
176.01694658898066 23.585870571794747 0.0
176.00895216518498 25.584562071966 0.0
176.00109929629915 27.583120728487604 0.0
175.99334528470038 29.581577439161745 0.0
175.98565574193987 31.57995976493711 0.0
175.97800305740395 33.57829170448647 0.0
175.97036503838905 35.57659377267922 0.0
175.96272376009952 37.57488325064163 0.0
175.95506462421508 39.573174517902245 0.0
175.9473756055175 41.57147940990174 0.0
175.93964665902385 43.569807567295605 0.0
175.93186925951395 45.56816675894464 0.0
175.9240360478676 47.566563170339045 0.0
175.9161405623195 49.56500165515273 0.0
175.90817703658428 51.563485950995855 0.0
175.9001402503324 53.56201886215851 0.0
175.89202542051427 55.560602412850564 0.0
175.8838281245226 57.559237974557405 0.0
175.8755442481653 59.557926370911204 0.0
175.86716995298573 61.55666796308554 0.0
175.85870165865654 63.5554627182574 0.0
175.85013603707444 65.5543102631899 0.0
175.84147001543346 67.55320992448917 0.0
175.83270078599833 69.55216075672514 0.0
175.82382582058293 71.55116155904008 0.0
175.81484288786461 73.55021088059078 0.0
175.80575007167576 75.54930701476593 0.0
175.79654578830758 77.54844798180048 0.0
175.78722880066263 79.5476314991157 0.0
175.7777982267924 81.54685493844713 0.0
175.76825353996645 83.5461152685688 0.0
175.75859455687586 85.54540898217465 0.0
175.748821409822 87.54473200522764 0.0
175.7389344976166 89.54407958688662 0.0
175.72893440829063 91.54344616811308 0.0
175.71882180446838 93.54282522755328 0.0
175.70859725960466 95.54220910473987 0.0
175.69826103081093 97.54158880353577 0.0
178.13230039512837 1.601158103879556 0.0
178.11763848044274 3.6021595072764225 0.0
178.10392380867606 5.603136377479552 0.0
178.0912090920199 7.603975327674199 0.0
178.07947249657602 9.604578318264094 0.0
178.0686344392415 11.604876161565477 0.0
178.05857982020862 13.604833298465183 0.0
178.0491791603414 15.60444513200639 0.0
178.04030471438875 17.603730968127895 0.0
178.03184046161533 19.60272564104743 0.0
178.02368678238508 21.601471955481156 0.0
178.01576140632955 23.600014929178723 0.0
178.00799818978126 25.598397973733324 0.0
178.00034489651037 27.596660704221637 0.0
177.99276072186717 29.594837933062255 0.0
177.98521395846547 31.5929594351241 0.0
177.97767997685966 33.591050165292806 0.0
177.97013956606415 35.58913070803999 0.0
177.96257761420168 37.58721781876492 0.0
177.95498208297133 39.58532497426721 0.0
177.9473432233034 41.58346288805886 0.0
177.9396529828748 43.581639970116626 0.0
177.9319045632171 45.57986272473339 0.0
177.92409209197314 47.57813608785053 0.0
177.91621038308807 49.57646370906786 0.0
177.9082547638545 51.57484818503794 0.0
177.90022095270572 53.57329125117863 0.0
177.89210497555365 55.57179393819073 0.0
177.88390311148495 57.570356699117575 0.0
177.8756118609146 59.568979511826406 0.0
177.8672279310211 61.56766196094108 0.0
177.858748234557 63.566403302459456 0.0
177.850169899064 65.56520251356207 0.0
177.8414902841703 67.56405832944444 0.0
177.8327070050897 69.5629692685164 0.0
177.82381796070146 71.56193364663963 0.0
177.814821364693 73.56094958071918 0.0
177.8057157782301 75.5600149814806 0.0
177.79650014248386 77.55912753488029 0.0
177.78717380911027 79.55828467123642 0.0
177.77773656647014 81.55748352083533 0.0
177.76818865898701 83.55672085444405 0.0
177.75853079654306 85.55599300679926 0.0
177.7487641501147 87.55529578070366 0.0
177.73889032872458 89.55462432881532 0.0
177.728911330888 91.55397300967167 0.0
177.71882946070448 93.55333521432524 0.0
177.7086471944705 95.55270316092283 0.0
177.69836697882687 97.5520676576525 0.0
180.12907218046016 1.6173619377013118 0.0
180.11406657659225 3.6184767327915233 0.0
180.10020664928263 5.619534206048072 0.0
180.0875397566781 7.620386249451581 0.0
180.07601035413896 9.620913528825746 0.0
180.06549055828492 11.621042579464403 0.0
180.05581579396565 13.620748136331844 0.0
180.04681490593205 15.620044788796005 0.0
180.03832999738327 17.618973970923623 0.0
180.03022621947127 19.61759123656331 0.0
180.0223942468653 21.61595638371874 0.0
180.01474852295405 23.614127023284077 0.0
180.0072236532493 25.612155068411663 0.0
179.9997703976293 27.610085285765102 0.0
179.99235198832093 29.60795511585034 0.0
179.98494104767263 31.605795178491825 0.0
179.97751714286144 33.60363008425597 0.0
179.97006490985856 35.60147932871312 0.0
179.96257264560876 37.59935815073779 0.0
179.95503126769202 39.59727829992315 0.0
179.9474335543582 41.59524869474134 0.0
179.93977359475022 43.59327597234272 0.0
179.93204639500044 45.59136493995362 0.0
179.92424759919948 47.58951894120326 0.0
179.91637329476018 49.587740151072424 0.0
179.90841987976182 51.586029812081 0.0
179.9003839758953 53.58438842268287 0.0
179.8922623751028 55.58281588706649 0.0
179.88405201128228 57.581311633889676 0.0
179.8757499508212 59.57987470999166 0.0
179.86735339746073 61.578503853848346 0.0
179.85885970823585 63.57719755245691 0.0
179.85026641812473 65.57595408441605 0.0
179.84157127164997 67.57477155116432 0.0
179.83277226006408 69.57364789776003 0.0
179.823867662976 71.57258092383982 0.0
179.81485609334152 73.57156828497888 0.0
179.80573654468742 75.57060748413117 0.0
179.79650843926157 77.56969585238505 0.0
179.78717167554038 79.56883051784713 0.0
179.77772667318933 81.56800836108334 0.0
179.7681744132016 83.56722595516653 0.0
179.75851647054736 85.56647948795504 0.0
179.74875503617474 87.56576466363838 0.0
179.7388929243548 89.5650765796761 0.0
179.72893355957294 91.56440957396461 0.0
179.71888093356247 93.56375703570005 0.0
179.70873951684726 95.56311117300535 0.0
179.6985141005039 97.56246273286082 0.0
182.1254196842953 1.6342243129341876 0.0
182.11002761372507 3.6354709086186645 0.0
182.09605238402864 5.636606043942317 0.0
182.0835214086492 7.6374341159654335 0.0
182.0723189654813 9.637812834093983 0.0
182.06224220900253 11.637672772040975 0.0
182.0530579335984 13.6370123540435 0.0
182.04454374799582 15.6358784920774 0.0
182.03650978045053 17.634344490811674 0.0
182.02880512975352 19.632492133845197 0.0
182.0213154127031 21.630400189787995 0.0
182.01395660345366 23.628138483970925 0.0
182.00666822506545 25.625765779351582 0.0
181.99940730437734 27.623329834554387 0.0
181.9921435186109 29.62086851191512 0.0
181.98485551091176 31.618411260765352 0.0
181.9775281852988 33.61598061900957 0.0
181.9701507623991 35.61359356889458 0.0
181.9627154017963 37.611262689582226 0.0
181.95521623613328 39.60899710279946 0.0
181.9476487000945 41.606803231775274 0.0
181.94000906878478 43.604685401778994 0.0
181.93229414412977 45.602646310993514 0.0
181.9245010457294 47.60068739755546 0.0
181.91662707544438 49.59880912459486 0.0
181.90866963414965 51.59701120108009 0.0
181.90062617556674 53.59529275266999 0.0
181.89249418664903 55.59365245373 0.0
181.88427118720594 57.59208862918454 0.0
181.87595474371 59.590599332878256 0.0
181.86754249381818 61.58918240752685 0.0
181.85903217924778 63.587835530068034 0.0
181.85042168541628 65.58655624519422 0.0
181.84170908676694 67.58534198898074 0.0
181.83289269702638 69.58419010390853 0.0
181.82397112380377 71.5830978458019 0.0
181.81494332697153 73.5820623827603 0.0
181.80580868017108 75.58108078557876 0.0
181.79656703457889 77.58015000865501 0.0
181.78721878375407 79.57926685990246 0.0
181.77776492802127 81.57842795774488 0.0
181.76820713646615 83.5776296728572 0.0
181.75854780435068 85.5768680518916 0.0
181.74879010361806 87.57613871981464 0.0
181.73893802399084 89.57543675634885 0.0
181.72899640123438 91.57475653990595 0.0
181.7189709258447 93.57409154920686 0.0
181.70886811747178 95.57343410955386 0.0
181.69869523634028 97.57277507058326 0.0
184.1212412036985 1.6519096810630818 0.0
184.10541912765876 3.6533102133086777 0.0
184.09139351583931 5.654507509540079 0.0
184.07914028596693 7.655241779321343 0.0
184.06843681479296 9.655351496056534 0.0
184.05896516947567 11.654790553399273 0.0
184.0504006207739 13.65360423679013 0.0
184.04246296238202 15.6518904575743 0.0
184.03493405613685 17.6497651022134 0.0
184.02765481741366 19.64733994079395 0.0
184.02051404298382 21.644711908014592 0.0
184.01343613265314 23.641959985068677 0.0
184.00637068504142 25.639145995286654 0.0
183.9992845838104 27.636317005345493 0.0
183.9921563181648 29.63350809044913 0.0
183.98497203699168 31.630744901087787 0.0
183.97772286111976 33.62804583049554 0.0
183.97040307592127 35.62542375514311 0.0
183.96300892774985 37.62288739222418 0.0
183.955537829995 39.62044233989023 0.0
183.94798784539284 41.61809186580318 0.0
183.94035735413902 43.615837500936046 0.0
183.93264484685682 45.61367948491143 0.0
183.9248488014907 47.611617099181395 0.0
183.91696761668857 49.60964891592648 0.0
183.90899958331275 51.60777298380934 0.0
183.90094288182866 53.60598696648614 0.0
183.89279559743323 55.604288245780864 0.0
183.88455574757418 57.60267399840599 0.0
183.87622131839765 59.60114125282808 0.0
183.86779030795 61.59968693115029 0.0
183.85926077483043 63.598307879565745 0.0
183.85063089158308 65.59700088990596 0.0
183.84189900250377 67.59576271396269 0.0
183.83306368576615 69.59459007167911 0.0
183.8241238198836 71.59347965354702 0.0
183.81507865451115 73.59242811711876 0.0
183.8059278854751 75.59143207694218 0.0
183.7966717336707 77.590488086692 0.0
183.78731102711893 79.58959261172205 0.0
183.77784728502948 81.58874198974465 0.0
183.76828280228509 83.5879323768814 0.0
183.75862073252367 85.58715967594685 0.0
183.7488651682311 87.5864194433868 0.0
183.73902121716105 89.58570677032584 0.0
183.7290950754827 91.58501613065167 0.0
183.71909409710022 93.58434118372519 0.0
183.70902685087793 95.58367451119537 0.0
183.69890313730545 97.58300726054128 0.0
186.11638963405565 1.6706512627241437 0.0
186.10010339017958 3.6722297304815017 0.0
186.08615908025834 5.673445234801548 0.0
186.07441268071966 7.673953225106317 0.0
186.0644519314937 9.673593681554957 0.0
186.0557873014426 11.672383650506044 0.0
186.04798127319808 13.670453310934656 0.0
186.04069970888648 15.667974059139794 0.0
186.0337102998768 17.665112229930102 0.0
186.02686084544195 19.662007745911186 0.0
186.02005533870144 21.658769670894667 0.0
186.01323504160018 23.655479139546074 0.0
186.00636507576658 25.652194638369227 0.0
185.99942548139865 27.648957289305656 0.0
185.99240542885804 29.645795314887074 0.0
185.98529953724588 31.64272753191321 0.0
185.97810555947456 33.639765977259636 0.0
185.9708229412503 35.63691783756063 0.0
185.96345193501077 37.63418684926754 0.0
185.95599306516158 39.631574306909364 0.0
185.9484468153229 41.629079786036826 0.0
185.94081345566505 43.62670166013991 0.0
185.93309295842639 45.624437469442505 0.0
185.9252849687345 47.622284183420085 0.0
185.9173888099192 49.62023838712751 0.0
185.90940351020856 51.61829641292487 0.0
185.90132784262318 53.61645443309151 0.0
185.89316037305406 55.61470852444988 0.0
185.88489951355814 57.61305471299278 0.0
185.87654357924023 59.61148900425354 0.0
185.86809084796127 61.61000740352798 0.0
185.85953962268277 63.60860592885679 0.0
185.8508882966378 65.60728061877364 0.0
185.84213542175647 67.60602753609291 0.0
185.8332797809127 69.60484276853326 0.0
185.82432046462003 71.60372242629508 0.0
185.81525695277261 73.60266263633899 0.0
185.80608920190517 75.60165953253926 0.0
185.79681773819885 77.60070924032395 0.0
185.7874437560789 79.59980785379872 0.0
185.77796922172612 81.598951402706 0.0
185.76839698023701 83.59813580598917 0.0
185.75873086476147 85.59735680832297 0.0
185.7489758062559 87.59660989582498 0.0
185.7391379444384 89.59589018696956 0.0
185.7292247447911 91.59519229299623 0.0
185.71924513146834 93.59451013565489 0.0
185.70920964430294 95.59383669538991 0.0
185.69913060524158 97.5931636423461 0.0
188.1106428523648 1.690792662537127 0.0
188.09389554556188 3.6925701194439564 0.0
188.0802945665659 5.693690934005307 0.0
188.06942350687504 7.6937202492151995 0.0
188.06053903176115 9.69255689798335 0.0
188.05291112938247 11.690363284079414 0.0
188.04598812505134 13.687405617142858 0.0
188.03940869634076 15.683947777331035 0.0
188.03295653941558 17.680201855849777 0.0
188.02650859479257 19.676323040661543 0.0
188.01999839621487 21.672418773672142 0.0
188.01339240779487 23.668560752558466 0.0
188.00667574911293 25.66479529926025 0.0
187.99984377036586 27.661151230788185 0.0
187.99289716092775 29.65764548544772 0.0
187.98583914069232 31.654287028381606 0.0
187.97867387166903 33.651079521770555 0.0
187.97140558187877 35.648023136007495 0.0
187.96403810422106 37.645115772706234 0.0
187.95657465609614 39.642353887760464 0.0
187.94901775752072 41.63973304316807 0.0
187.94136922763332 43.63724827496631 0.0
187.93363022431052 45.63489433643868 0.0
187.92580130630785 47.6326658567032 0.0
187.91788250608877 49.63055744194704 0.0
187.90987340672754 51.62856373789871 0.0
187.90177321940035 53.62667946626426 0.0
187.89358085986274 55.624899443863484 0.0
187.88529502343314 57.623218590480924 0.0
187.8769142586835 59.621631929573844 0.0
187.8684370404476 61.620134584681935 0.0
187.85986184300586 63.61872177347201 0.0
187.85118721446528 65.61738880068842 0.0
187.84241185344663 67.61613105075304 0.0
187.83353468925642 69.6149439804561 0.0
187.82455496673887 71.6138231116384 0.0
187.81547233698348 73.6127640235119 0.0
187.80628695496958 75.61176234376308 0.0
187.79699958502718 77.61081373704658 0.0
187.7876117146336 79.6099138888047 0.0
187.77812567648672 81.60905848155468 0.0
187.76854477801228 83.60824315994753 0.0
187.75887343661503 85.60746348023743 0.0
187.74911731872643 87.60671483970684 0.0
187.73928348261109 89.6059923824571 0.0
187.72938053214506 91.60529087913339 0.0
187.7194188037877 93.60460457448984 0.0
187.70941062560834 95.6039269776077 0.0
187.6993706779399 97.60325052563861 0.0
190.1036470990881 1.7128788500345709 0.0
190.08655822823226 3.714832973023709 0.0
190.07381901931626 5.7155927540459 0.0
190.06440550050095 7.714645631996966 0.0
190.05701221883066 9.71213546770694 0.0
190.05063330373034 11.708492918271661 0.0
190.04465501358868 13.704177138720738 0.0
190.03875787570527 15.699529985740892 0.0
190.03278561443292 17.69477902544744 0.0
190.02666963119842 19.690065724352092 0.0
190.02038555707657 21.68547398142034 0.0
190.0139306077762 23.68105092461253 0.0
190.00731178736177 25.676820784083702 0.0
190.00053988284307 27.67279375679166 0.0
189.99362646189496 29.668971574663257 0.0
189.98658243701624 31.665350973730902 0.0
189.97941744131086 33.661925845666914 0.0
189.97213962078632 35.65868856534016 0.0
189.964755634904 37.655630802973654 0.0
189.9572707556851 39.652744013314454 0.0
189.94968900796866 41.65001972220553 0.0
189.9420133213745 43.64744968618657 0.0
189.93424567950717 45.645025972883964 0.0
189.92638725995496 47.6427409924944 0.0
189.9184385628775 49.64058749966207 0.0
189.9103995281741 51.63855857806758 0.0
189.90226964230786 53.63664761559311 0.0
189.89404803635904 55.63484827507289 0.0
189.88573357706775 57.6331544638043 0.0
189.87732495266354 59.63156030381244 0.0
189.86882075525287 61.63006010409872 0.0
189.8602195614911 63.628648335611906 0.0
189.85152001323158 65.62731960935002 0.0
189.84272089981894 67.62606865774373 0.0
189.83382124369976 69.6248903193981 0.0
189.82482039102982 71.62377952691988 0.0
189.815718108968 73.62273129747467 0.0
189.80651469132397 75.62174072535709 0.0
189.79721107412323 77.62080297542036 0.0
189.7878089623928 79.6199132755658 0.0
189.77831096895298 81.61906690559191 0.0
189.76872076507632 83.6182591785449 0.0
189.75904324150105 85.61748540946415 0.0
189.74928467673396 87.6167408656329 0.0
189.73945290943732 89.61602069342165 0.0
189.72955751774242 91.61531982138337 0.0
189.71961003277573 93.61463284652494 0.0
189.70962426512918 95.61395390003187 0.0
189.6996168721707 97.61327642280841 0.0
192.09480354866471 1.7377845354824861 0.0
192.07783301163212 3.739818547938552 0.0
192.06699403461465 5.739492022248039 0.0
192.05987300400517 7.736641539313914 0.0
192.0543834556697 9.731932099508443 0.0
192.04932935046307 11.726289428452631 0.0
192.04422872471622 13.7203068780062 0.0
192.0388954751789 15.714324552536297 0.0
192.03327928955582 17.708519367086584 0.0
192.02738317804742 19.702976127148556 0.0
192.02122986591826 21.697729236499267 0.0
192.0148471028652 23.692786301123633 0.0
192.00826175821715 25.68814111611832 0.0
192.00149763938936 27.68378077400726 0.0
191.9945749346245 29.679689526806392 0.0
191.9875103240405 31.675850855825 0.0
191.98031733914425 33.672248547480464 0.0
191.97300678591517 35.668867217001946 0.0
191.96558715428895 37.66569252673523 0.0
191.95806498546966 39.66271123783935 0.0
191.95044519016807 41.65991117396174 0.0
191.94273132001553 43.65728114139585 0.0
191.93492579780496 45.6548108307959 0.0
191.9270301130197 47.65249071436684 0.0
191.91904498882974 49.65031194601923 0.0
191.91097052606116 51.64826626828588 0.0
191.90280632887925 53.64634592769503 0.0
191.89455161622882 55.64454359912629 0.0
191.88620532247612 57.64285231905506 0.0
191.87776619021668 59.641265427289945 0.0
191.86923285784638 61.63977651669456 0.0
191.860603944223 63.63837939037686 0.0
191.85187813256846 65.63706802587389 0.0
191.84305425566083 67.63583654589975 0.0
191.8341313843269 69.63467919540547 0.0
191.82510892126922 71.63359032457268 0.0
191.81598670231853 73.63256437750013 0.0
191.80676510727136 75.6315958861952 0.0
191.7974451825183 77.63067946925835 0.0
191.78802877759608 79.62980983418937 0.0
191.77851869747548 81.62898178143415 0.0
191.768918871589 83.62819020699536 0.0
191.75923453894114 85.62743009854839 0.0
191.74947244573977 87.62669651777597 0.0
191.73964104801524 89.62598456037959 0.0
191.7297507101938 91.6252892891077 0.0
191.71981390607678 93.62460565297069 0.0
191.70984551561025 95.62392844105906 0.0
191.69986349796852 97.62325227186957 0.0
194.08302773798746 1.7673756876776887 0.0
194.067735921859 3.768502770028495 0.0
194.06068054282545 5.765553878843621 0.0
194.05684795053966 7.758934647610257 0.0
194.05329881043096 9.751025609922708 0.0
194.0493704322986 11.742932097616912 0.0
194.04489352741996 13.735144007466378 0.0
194.03989862410396 15.727836943020474 0.0
194.0344555013055 17.72105278963921 0.0
194.0286363561516 19.714777581700236 0.0
194.02250351152583 21.708976467605577 0.0
194.01610789872308 23.703608852812426 0.0
194.0094901713034 25.698634831657305 0.0
194.00268246794332 27.694017690822164 0.0
193.99571007534175 29.689724655625728 0.0
193.98859282159592 31.685726867768732 0.0
193.9813461902873 33.68199905180861 0.0
193.97398219654437 35.67851908095734 0.0
193.9665100732571 37.67526753688501 0.0
193.95893681014448 39.67222730309244 0.0
193.95126758006435 41.66938320551745 0.0
193.9435060792177 43.66672170207164 0.0
193.93565480158222 45.66423061767676 0.0
193.92771526302764 47.66189891951874 0.0
193.91968818687897 49.65971652692966 0.0
193.91157365995403 51.65767415067943 0.0
193.9033712660698 53.65576315709212 0.0
193.8950802025162 55.65397545309339 0.0
193.886699383895 57.652303388957044 0.0
193.87822753692174 59.65073967611613 0.0
193.86966328921653 61.64927731792862 0.0
193.86100525471022 63.647909551747 0.0
193.85225211804004 65.64662980103633 0.0
193.84340272016033 67.6454316366064 0.0
193.83445614735405 69.64430874644738 0.0
193.82541182586328 71.64325491375436 0.0
193.8162696244732 73.64226400310845 0.0
193.80702996754042 75.64132995490338 0.0
193.7976939611548 77.64044678821453 0.0
193.7882635352749 79.63960861224247 0.0
193.77874160467488 81.63880964610586 0.0
193.76913225111187 83.63804424587127 0.0
193.7594409277464 85.63730693590507 0.0
193.74967468350835 87.63659243842486 0.0
193.73984239807197 89.63589569035535 0.0
193.72995500544155 91.6352118326111 0.0
193.72002567124198 93.63453616624605 0.0
193.71006991737244 95.63386413628463 0.0
193.7001060444311 97.63319157925218 0.0
196.06659685571483 1.8039048799071837 0.0
196.05742083703194 3.802808703023606 0.0
196.0574771386674 5.7918111020711205 0.0
196.0564948354232 7.779470884903366 0.0
196.05430461379302 9.767800042039825 0.0
196.05093334451925 11.75729159943137 0.0
196.04666732518535 13.747917764183502 0.0
196.04171656792607 15.739541087977743 0.0
196.03623950104426 17.732015715699255 0.0
196.0303500705393 19.725214521040098 0.0
196.02413149156894 21.719032619373454 0.0
196.01764518773984 23.713384891565997 0.0
196.01093710094344 25.708202365747933 0.0
196.00404195767922 27.703428888729935 0.0
195.99698621528808 29.69901839555221 0.0
195.989790125137 31.694932759818226 0.0
195.9824692053967 33.69114012510067 0.0
195.97503531181204 35.68761361302629 0.0
195.96749743039587 37.684330319979104 0.0
195.95986227453028 39.6812705333452 0.0
195.95213474234453 41.67841711485031 0.0
195.9443182728519 43.6757550115601 0.0
195.93641512780852 45.67327086500248 0.0
195.92842661850207 47.67095269623697 0.0
195.9203532913952 49.668789650157485 0.0
195.9121950828788 51.666771786366276 0.0
195.90395145084338 53.66488990697616 0.0
195.89562148896124 55.663135413963964 0.0
195.8872040283002 57.66150019041676 0.0
195.87869772997922 59.65997650132812 0.0
195.87010117194703 61.65855691062851 0.0
195.8614129325316 63.657234211951966 0.0
195.85263167313323 65.6560013713022 0.0
195.8437562222933 67.65485148031696 0.0
195.83478566332445 69.65377771944111 0.0
195.8257194277476 71.6527733306017 0.0
195.81655739692403 73.65183159957834 0.0
195.80730001449385 75.6509458486644 0.0
195.79794841252385 77.65010944070899 0.0
195.78850455459585 79.64931579612664 0.0
195.77897139934035 81.64855842492025 0.0
195.7693530879504 83.64783097603721 0.0
195.75965515850604 85.64712730611045 0.0
195.74988478737478 87.64644156800955 0.0
195.7400510507792 89.64576831496582 0.0
195.73016518153275 91.6451026054749 0.0
195.7202407527054 93.64444007728075 0.0
195.71029363929804 95.64377696235883 0.0
195.700341582688 97.64311026699433 0.0
198.04360296502054 1.8610130857525222 0.0
198.05612780096115 3.8351387261688057 0.0
198.05919655145144 5.8126642287325 0.0
198.05944874732194 7.79472879847048 0.0
198.05732811193846 9.780241155641145 0.0
198.05380530709425 11.768192432782973 0.0
198.0493149524334 13.757922585811679 0.0
198.04413938146817 15.748998418790112 0.0
198.03845447433565 17.741126359583813 0.0
198.03237876424834 19.734100170734866 0.0
198.02599464787613 21.727770235313365 0.0
198.01936126533457 23.722024985566094 0.0
198.0125220071045 25.71677923478416 0.0
198.0055092415009 27.711966589318507 0.0
197.99834738676913 29.707534356179924 0.0
197.99105498339026 31.703440030265458 0.0
197.98364613366323 33.69964881162927 0.0
197.97613152881323 35.69613181263538 0.0
197.96851919931038 37.692864738293096 0.0
197.96081507489268 39.68982689801636 0.0
197.9530234109338 41.68700045400167 0.0
197.9451471192076 43.68436984142164 0.0
197.93718802919642 45.68192131531536 0.0
197.92914709830467 47.6796425922209 0.0
197.92102458412924 49.67752256357074 0.0
197.91282018840758 51.67555106409619 0.0
197.9045331798161 53.67371868288089 0.0
197.89616250109597 55.67201660785001 0.0
197.88770686477997 57.6704364967753 0.0
197.87916484096553 59.66897036957681 0.0
197.87053493998638 61.66761051798574 0.0
197.86181569245323 63.666349429631865 0.0
197.85300572888102 65.66517972441333 0.0
197.84410386100268 67.66409410164503 0.0
197.83510916683554 69.66308529719292 0.0
197.82602108163624 71.66214605018827 0.0
197.8168394970285 73.6612690796561 0.0
197.80756487081644 75.66044707199957 0.0
197.79819835030446 77.65967268110327 0.0
197.78874191230085 79.65893854385082 0.0
197.7791985233402 81.65823731522426 0.0
197.76957232386798 83.65756172899215 0.0
197.75986883981741 85.65690469245104 0.0
197.7500952232354 87.6562594267816 0.0
197.74026051789423 89.65561966777604 0.0
197.73037592912348 91.65497994225811 0.0
197.7204550285519 93.65433592304487 0.0
197.71051367732278 95.6536848111115 0.0
197.7005689913499 97.65302555333034 0.0

CELLS 5000 25000
4 0 4 300 299
4 299 300 301 298
4 298 301 302 297
4 297 302 303 296
4 296 303 304 295
4 295 304 305 294
4 294 305 306 293
4 293 306 307 292
4 292 307 308 291
4 291 308 309 290
4 290 309 310 289
4 289 310 311 288
4 288 311 312 287
4 287 312 313 286
4 286 313 314 285
4 285 314 315 284
4 284 315 316 283
4 283 316 317 282
4 282 317 318 281
4 281 318 319 280
4 280 319 320 279
4 279 320 321 278
4 278 321 322 277
4 277 322 323 276
4 276 323 324 275
4 275 324 325 274
4 274 325 326 273
4 273 326 327 272
4 272 327 328 271
4 271 328 329 270
4 270 329 330 269
4 269 330 331 268
4 268 331 332 267
4 267 332 333 266
4 266 333 334 265
4 265 334 335 264
4 264 335 336 263
4 263 336 337 262
4 262 337 338 261
4 261 338 339 260
4 260 339 340 259
4 259 340 341 258
4 258 341 342 257
4 257 342 343 256
4 256 343 344 255
4 255 344 345 254
4 254 345 346 253
4 253 346 347 252
4 252 347 348 251
4 251 348 250 3
4 4 5 349 300
4 300 349 350 301
4 301 350 351 302
4 302 351 352 303
4 303 352 353 304
4 304 353 354 305
4 305 354 355 306
4 306 355 356 307
4 307 356 357 308
4 308 357 358 309
4 309 358 359 310
4 310 359 360 311
4 311 360 361 312
4 312 361 362 313
4 313 362 363 314
4 314 363 364 315
4 315 364 365 316
4 316 365 366 317
4 317 366 367 318
4 318 367 368 319
4 319 368 369 320
4 320 369 370 321
4 321 370 371 322
4 322 371 372 323
4 323 372 373 324
4 324 373 374 325
4 325 374 375 326
4 326 375 376 327
4 327 376 377 328
4 328 377 378 329
4 329 378 379 330
4 330 379 380 331
4 331 380 381 332
4 332 381 382 333
4 333 382 383 334
4 334 383 384 335
4 335 384 385 336
4 336 385 386 337
4 337 386 387 338
4 338 387 388 339
4 339 388 389 340
4 340 389 390 341
4 341 390 391 342
4 342 391 392 343
4 343 392 393 344
4 344 393 394 345
4 345 394 395 346
4 346 395 396 347
4 347 396 397 348
4 348 397 249 250
4 5 6 398 349
4 349 398 399 350
4 350 399 400 351
4 351 400 401 352
4 352 401 402 353
4 353 402 403 354
4 354 403 404 355
4 355 404 405 356
4 356 405 406 357
4 357 406 407 358
4 358 407 408 359
4 359 408 409 360
4 360 409 410 361
4 361 410 411 362
4 362 411 412 363
4 363 412 413 364
4 364 413 414 365
4 365 414 415 366
4 366 415 416 367
4 367 416 417 368
4 368 417 418 369
4 369 418 419 370
4 370 419 420 371
4 371 420 421 372
4 372 421 422 373
4 373 422 423 374
4 374 423 424 375
4 375 424 425 376
4 376 425 426 377
4 377 426 427 378
4 378 427 428 379
4 379 428 429 380
4 380 429 430 381
4 381 430 431 382
4 382 431 432 383
4 383 432 433 384
4 384 433 434 385
4 385 434 435 386
4 386 435 436 387
4 387 436 437 388
4 388 437 438 389
4 389 438 439 390
4 390 439 440 391
4 391 440 441 392
4 392 441 442 393
4 393 442 443 394
4 394 443 444 395
4 395 444 445 396
4 396 445 446 397
4 397 446 248 249
4 6 7 447 398
4 398 447 448 399
4 399 448 449 400
4 400 449 450 401
4 401 450 451 402
4 402 451 452 403
4 403 452 453 404
4 404 453 454 405
4 405 454 455 406
4 406 455 456 407
4 407 456 457 408
4 408 457 458 409
4 409 458 459 410
4 410 459 460 411
4 411 460 461 412
4 412 461 462 413
4 413 462 463 414
4 414 463 464 415
4 415 464 465 416
4 416 465 466 417
4 417 466 467 418
4 418 467 468 419
4 419 468 469 420
4 420 469 470 421
4 421 470 471 422
4 422 471 472 423
4 423 472 473 424
4 424 473 474 425
4 425 474 475 426
4 426 475 476 427
4 427 476 477 428
4 428 477 478 429
4 429 478 479 430
4 430 479 480 431
4 431 480 481 432
4 432 481 482 433
4 433 482 483 434
4 434 483 484 435
4 435 484 485 436
4 436 485 486 437
4 437 486 487 438
4 438 487 488 439
4 439 488 489 440
4 440 489 490 441
4 441 490 491 442
4 442 491 492 443
4 443 492 493 444
4 444 493 494 445
4 445 494 495 446
4 446 495 247 248
4 7 8 496 447
4 447 496 497 448
4 448 497 498 449
4 449 498 499 450
4 450 499 500 451
4 451 500 501 452
4 452 501 502 453
4 453 502 503 454
4 454 503 504 455
4 455 504 505 456
4 456 505 506 457
4 457 506 507 458
4 458 507 508 459
4 459 508 509 460
4 460 509 510 461
4 461 510 511 462
4 462 511 512 463
4 463 512 513 464
4 464 513 514 465
4 465 514 515 466
4 466 515 516 467
4 467 516 517 468
4 468 517 518 469
4 469 518 519 470
4 470 519 520 471
4 471 520 521 472
4 472 521 522 473
4 473 522 523 474
4 474 523 524 475
4 475 524 525 476
4 476 525 526 477
4 477 526 527 478
4 478 527 528 479
4 479 528 529 480
4 480 529 530 481
4 481 530 531 482
4 482 531 532 483
4 483 532 533 484
4 484 533 534 485
4 485 534 535 486
4 486 535 536 487
4 487 536 537 488
4 488 537 538 489
4 489 538 539 490
4 490 539 540 491
4 491 540 541 492
4 492 541 542 493
4 493 542 543 494
4 494 543 544 495
4 495 544 246 247
4 8 9 545 496
4 496 545 546 497
4 497 546 547 498
4 498 547 548 499
4 499 548 549 500
4 500 549 550 501
4 501 550 551 502
4 502 551 552 503
4 503 552 553 504
4 504 553 554 505
4 505 554 555 506
4 506 555 556 507
4 507 556 557 508
4 508 557 558 509
4 509 558 559 510
4 510 559 560 511
4 511 560 561 512
4 512 561 562 513
4 513 562 563 514
4 514 563 564 515
4 515 564 565 516
4 516 565 566 517
4 517 566 567 518
4 518 567 568 519
4 519 568 569 520
4 520 569 570 521
4 521 570 571 522
4 522 571 572 523
4 523 572 573 524
4 524 573 574 525
4 525 574 575 526
4 526 575 576 527
4 527 576 577 528
4 528 577 578 529
4 529 578 579 530
4 530 579 580 531
4 531 580 581 532
4 532 581 582 533
4 533 582 583 534
4 534 583 584 535
4 535 584 585 536
4 536 585 586 537
4 537 586 587 538
4 538 587 588 539
4 539 588 589 540
4 540 589 590 541
4 541 590 591 542
4 542 591 592 543
4 543 592 593 544
4 544 593 245 246
4 9 10 594 545
4 545 594 595 546
4 546 595 596 547
4 547 596 597 548
4 548 597 598 549
4 549 598 599 550
4 550 599 600 551
4 551 600 601 552
4 552 601 602 553
4 553 602 603 554
4 554 603 604 555
4 555 604 605 556
4 556 605 606 557
4 557 606 607 558
4 558 607 608 559
4 559 608 609 560
4 560 609 610 561
4 561 610 611 562
4 562 611 612 563
4 563 612 613 564
4 564 613 614 565
4 565 614 615 566
4 566 615 616 567
4 567 616 617 568
4 568 617 618 569
4 569 618 619 570
4 570 619 620 571
4 571 620 621 572
4 572 621 622 573
4 573 622 623 574
4 574 623 624 575
4 575 624 625 576
4 576 625 626 577
4 577 626 627 578
4 578 627 628 579
4 579 628 629 580
4 580 629 630 581
4 581 630 631 582
4 582 631 632 583
4 583 632 633 584
4 584 633 634 585
4 585 634 635 586
4 586 635 636 587
4 587 636 637 588
4 588 637 638 589
4 589 638 639 590
4 590 639 640 591
4 591 640 641 592
4 592 641 642 593
4 593 642 244 245
4 10 11 643 594
4 594 643 644 595
4 595 644 645 596
4 596 645 646 597
4 597 646 647 598
4 598 647 648 599
4 599 648 649 600
4 600 649 650 601
4 601 650 651 602
4 602 651 652 603
4 603 652 653 604
4 604 653 654 605
4 605 654 655 606
4 606 655 656 607
4 607 656 657 608
4 608 657 658 609
4 609 658 659 610
4 610 659 660 611
4 611 660 661 612
4 612 661 662 613
4 613 662 663 614
4 614 663 664 615
4 615 664 665 616
4 616 665 666 617
4 617 666 667 618
4 618 667 668 619
4 619 668 669 620
4 620 669 670 621
4 621 670 671 622
4 622 671 672 623
4 623 672 673 624
4 624 673 674 625
4 625 674 675 626
4 626 675 676 627
4 627 676 677 628
4 628 677 678 629
4 629 678 679 630
4 630 679 680 631
4 631 680 681 632
4 632 681 682 633
4 633 682 683 634
4 634 683 684 635
4 635 684 685 636
4 636 685 686 637
4 637 686 687 638
4 638 687 688 639
4 639 688 689 640
4 640 689 690 641
4 641 690 691 642
4 642 691 243 244
4 11 12 692 643
4 643 692 693 644
4 644 693 694 645
4 645 694 695 646
4 646 695 696 647
4 647 696 697 648
4 648 697 698 649
4 649 698 699 650
4 650 699 700 651
4 651 700 701 652
4 652 701 702 653
4 653 702 703 654
4 654 703 704 655
4 655 704 705 656
4 656 705 706 657
4 657 706 707 658
4 658 707 708 659
4 659 708 709 660
4 660 709 710 661
4 661 710 711 662
4 662 711 712 663
4 663 712 713 664
4 664 713 714 665
4 665 714 715 666
4 666 715 716 667
4 667 716 717 668
4 668 717 718 669
4 669 718 719 670
4 670 719 720 671
4 671 720 721 672
4 672 721 722 673
4 673 722 723 674
4 674 723 724 675
4 675 724 725 676
4 676 725 726 677
4 677 726 727 678
4 678 727 728 679
4 679 728 729 680
4 680 729 730 681
4 681 730 731 682
4 682 731 732 683
4 683 732 733 684
4 684 733 734 685
4 685 734 735 686
4 686 735 736 687
4 687 736 737 688
4 688 737 738 689
4 689 738 739 690
4 690 739 740 691
4 691 740 242 243
4 12 13 741 692
4 692 741 742 693
4 693 742 743 694
4 694 743 744 695
4 695 744 745 696
4 696 745 746 697
4 697 746 747 698
4 698 747 748 699
4 699 748 749 700
4 700 749 750 701
4 701 750 751 702
4 702 751 752 703
4 703 752 753 704
4 704 753 754 705
4 705 754 755 706
4 706 755 756 707
4 707 756 757 708
4 708 757 758 709
4 709 758 759 710
4 710 759 760 711
4 711 760 761 712
4 712 761 762 713
4 713 762 763 714
4 714 763 764 715
4 715 764 765 716
4 716 765 766 717
4 717 766 767 718
4 718 767 768 719
4 719 768 769 720
4 720 769 770 721
4 721 770 771 722
4 722 771 772 723
4 723 772 773 724
4 724 773 774 725
4 725 774 775 726
4 726 775 776 727
4 727 776 777 728
4 728 777 778 729
4 729 778 779 730
4 730 779 780 731
4 731 780 781 732
4 732 781 782 733
4 733 782 783 734
4 734 783 784 735
4 735 784 785 736
4 736 785 786 737
4 737 786 787 738
4 738 787 788 739
4 739 788 789 740
4 740 789 241 242
4 13 14 790 741
4 741 790 791 742
4 742 791 792 743
4 743 792 793 744
4 744 793 794 745
4 745 794 795 746
4 746 795 796 747
4 747 796 797 748
4 748 797 798 749
4 749 798 799 750
4 750 799 800 751
4 751 800 801 752
4 752 801 802 753
4 753 802 803 754
4 754 803 804 755
4 755 804 805 756
4 756 805 806 757
4 757 806 807 758
4 758 807 808 759
4 759 808 809 760
4 760 809 810 761
4 761 810 811 762
4 762 811 812 763
4 763 812 813 764
4 764 813 814 765
4 765 814 815 766
4 766 815 816 767
4 767 816 817 768
4 768 817 818 769
4 769 818 819 770
4 770 819 820 771
4 771 820 821 772
4 772 821 822 773
4 773 822 823 774
4 774 823 824 775
4 775 824 825 776
4 776 825 826 777
4 777 826 827 778
4 778 827 828 779
4 779 828 829 780
4 780 829 830 781
4 781 830 831 782
4 782 831 832 783
4 783 832 833 784
4 784 833 834 785
4 785 834 835 786
4 786 835 836 787
4 787 836 837 788
4 788 837 838 789
4 789 838 240 241
4 14 15 839 790
4 790 839 840 791
4 791 840 841 792
4 792 841 842 793
4 793 842 843 794
4 794 843 844 795
4 795 844 845 796
4 796 845 846 797
4 797 846 847 798
4 798 847 848 799
4 799 848 849 800
4 800 849 850 801
4 801 850 851 802
4 802 851 852 803
4 803 852 853 804
4 804 853 854 805
4 805 854 855 806
4 806 855 856 807
4 807 856 857 808
4 808 857 858 809
4 809 858 859 810
4 810 859 860 811
4 811 860 861 812
4 812 861 862 813
4 813 862 863 814
4 814 863 864 815
4 815 864 865 816
4 816 865 866 817
4 817 866 867 818
4 818 867 868 819
4 819 868 869 820
4 820 869 870 821
4 821 870 871 822
4 822 871 872 823
4 823 872 873 824
4 824 873 874 825
4 825 874 875 826
4 826 875 876 827
4 827 876 877 828
4 828 877 878 829
4 829 878 879 830
4 830 879 880 831
4 831 880 881 832
4 832 881 882 833
4 833 882 883 834
4 834 883 884 835
4 835 884 885 836
4 836 885 886 837
4 837 886 887 838
4 838 887 239 240
4 15 16 888 839
4 839 888 889 840
4 840 889 890 841
4 841 890 891 842
4 842 891 892 843
4 843 892 893 844
4 844 893 894 845
4 845 894 895 846
4 846 895 896 847
4 847 896 897 848
4 848 897 898 849
4 849 898 899 850
4 850 899 900 851
4 851 900 901 852
4 852 901 902 853
4 853 902 903 854
4 854 903 904 855
4 855 904 905 856
4 856 905 906 857
4 857 906 907 858
4 858 907 908 859
4 859 908 909 860
4 860 909 910 861
4 861 910 911 862
4 862 911 912 863
4 863 912 913 864
4 864 913 914 865
4 865 914 915 866
4 866 915 916 867
4 867 916 917 868
4 868 917 918 869
4 869 918 919 870
4 870 919 920 871
4 871 920 921 872
4 872 921 922 873
4 873 922 923 874
4 874 923 924 875
4 875 924 925 876
4 876 925 926 877
4 877 926 927 878
4 878 927 928 879
4 879 928 929 880
4 880 929 930 881
4 881 930 931 882
4 882 931 932 883
4 883 932 933 884
4 884 933 934 885
4 885 934 935 886
4 886 935 936 887
4 887 936 238 239
4 16 17 937 888
4 888 937 938 889
4 889 938 939 890
4 890 939 940 891
4 891 940 941 892
4 892 941 942 893
4 893 942 943 894
4 894 943 944 895
4 895 944 945 896
4 896 945 946 897
4 897 946 947 898
4 898 947 948 899
4 899 948 949 900
4 900 949 950 901
4 901 950 951 902
4 902 951 952 903
4 903 952 953 904
4 904 953 954 905
4 905 954 955 906
4 906 955 956 907
4 907 956 957 908
4 908 957 958 909
4 909 958 959 910
4 910 959 960 911
4 911 960 961 912
4 912 961 962 913
4 913 962 963 914
4 914 963 964 915
4 915 964 965 916
4 916 965 966 917
4 917 966 967 918
4 918 967 968 919
4 919 968 969 920
4 920 969 970 921
4 921 970 971 922
4 922 971 972 923
4 923 972 973 924
4 924 973 974 925
4 925 974 975 926
4 926 975 976 927
4 927 976 977 928
4 928 977 978 929
4 929 978 979 930
4 930 979 980 931
4 931 980 981 932
4 932 981 982 933
4 933 982 983 934
4 934 983 984 935
4 935 984 985 936
4 936 985 237 238
4 17 18 986 937
4 937 986 987 938
4 938 987 988 939
4 939 988 989 940
4 940 989 990 941
4 941 990 991 942
4 942 991 992 943
4 943 992 993 944
4 944 993 994 945
4 945 994 995 946
4 946 995 996 947
4 947 996 997 948
4 948 997 998 949
4 949 998 999 950
4 950 999 1000 951
4 951 1000 1001 952
4 952 1001 1002 953
4 953 1002 1003 954
4 954 1003 1004 955
4 955 1004 1005 956
4 956 1005 1006 957
4 957 1006 1007 958
4 958 1007 1008 959
4 959 1008 1009 960
4 960 1009 1010 961
4 961 1010 1011 962
4 962 1011 1012 963
4 963 1012 1013 964
4 964 1013 1014 965
4 965 1014 1015 966
4 966 1015 1016 967
4 967 1016 1017 968
4 968 1017 1018 969
4 969 1018 1019 970
4 970 1019 1020 971
4 971 1020 1021 972
4 972 1021 1022 973
4 973 1022 1023 974
4 974 1023 1024 975
4 975 1024 1025 976
4 976 1025 1026 977
4 977 1026 1027 978
4 978 1027 1028 979
4 979 1028 1029 980
4 980 1029 1030 981
4 981 1030 1031 982
4 982 1031 1032 983
4 983 1032 1033 984
4 984 1033 1034 985
4 985 1034 236 237
4 18 19 1035 986
4 986 1035 1036 987
4 987 1036 1037 988
4 988 1037 1038 989
4 989 1038 1039 990
4 990 1039 1040 991
4 991 1040 1041 992
4 992 1041 1042 993
4 993 1042 1043 994
4 994 1043 1044 995
4 995 1044 1045 996
4 996 1045 1046 997
4 997 1046 1047 998
4 998 1047 1048 999
4 999 1048 1049 1000
4 1000 1049 1050 1001
4 1001 1050 1051 1002
4 1002 1051 1052 1003
4 1003 1052 1053 1004
4 1004 1053 1054 1005
4 1005 1054 1055 1006
4 1006 1055 1056 1007
4 1007 1056 1057 1008
4 1008 1057 1058 1009
4 1009 1058 1059 1010
4 1010 1059 1060 1011
4 1011 1060 1061 1012
4 1012 1061 1062 1013
4 1013 1062 1063 1014
4 1014 1063 1064 1015
4 1015 1064 1065 1016
4 1016 1065 1066 1017
4 1017 1066 1067 1018
4 1018 1067 1068 1019
4 1019 1068 1069 1020
4 1020 1069 1070 1021
4 1021 1070 1071 1022
4 1022 1071 1072 1023
4 1023 1072 1073 1024
4 1024 1073 1074 1025
4 1025 1074 1075 1026
4 1026 1075 1076 1027
4 1027 1076 1077 1028
4 1028 1077 1078 1029
4 1029 1078 1079 1030
4 1030 1079 1080 1031
4 1031 1080 1081 1032
4 1032 1081 1082 1033
4 1033 1082 1083 1034
4 1034 1083 235 236
4 19 20 1084 1035
4 1035 1084 1085 1036
4 1036 1085 1086 1037
4 1037 1086 1087 1038
4 1038 1087 1088 1039
4 1039 1088 1089 1040
4 1040 1089 1090 1041
4 1041 1090 1091 1042
4 1042 1091 1092 1043
4 1043 1092 1093 1044
4 1044 1093 1094 1045
4 1045 1094 1095 1046
4 1046 1095 1096 1047
4 1047 1096 1097 1048
4 1048 1097 1098 1049
4 1049 1098 1099 1050
4 1050 1099 1100 1051
4 1051 1100 1101 1052
4 1052 1101 1102 1053
4 1053 1102 1103 1054
4 1054 1103 1104 1055
4 1055 1104 1105 1056
4 1056 1105 1106 1057
4 1057 1106 1107 1058
4 1058 1107 1108 1059
4 1059 1108 1109 1060
4 1060 1109 1110 1061
4 1061 1110 1111 1062
4 1062 1111 1112 1063
4 1063 1112 1113 1064
4 1064 1113 1114 1065
4 1065 1114 1115 1066
4 1066 1115 1116 1067
4 1067 1116 1117 1068
4 1068 1117 1118 1069
4 1069 1118 1119 1070
4 1070 1119 1120 1071
4 1071 1120 1121 1072
4 1072 1121 1122 1073
4 1073 1122 1123 1074
4 1074 1123 1124 1075
4 1075 1124 1125 1076
4 1076 1125 1126 1077
4 1077 1126 1127 1078
4 1078 1127 1128 1079
4 1079 1128 1129 1080
4 1080 1129 1130 1081
4 1081 1130 1131 1082
4 1082 1131 1132 1083
4 1083 1132 234 235
4 20 21 1133 1084
4 1084 1133 1134 1085
4 1085 1134 1135 1086
4 1086 1135 1136 1087
4 1087 1136 1137 1088
4 1088 1137 1138 1089
4 1089 1138 1139 1090
4 1090 1139 1140 1091
4 1091 1140 1141 1092
4 1092 1141 1142 1093
4 1093 1142 1143 1094
4 1094 1143 1144 1095
4 1095 1144 1145 1096
4 1096 1145 1146 1097
4 1097 1146 1147 1098
4 1098 1147 1148 1099
4 1099 1148 1149 1100
4 1100 1149 1150 1101
4 1101 1150 1151 1102
4 1102 1151 1152 1103
4 1103 1152 1153 1104
4 1104 1153 1154 1105
4 1105 1154 1155 1106
4 1106 1155 1156 1107
4 1107 1156 1157 1108
4 1108 1157 1158 1109
4 1109 1158 1159 1110
4 1110 1159 1160 1111
4 1111 1160 1161 1112
4 1112 1161 1162 1113
4 1113 1162 1163 1114
4 1114 1163 1164 1115
4 1115 1164 1165 1116
4 1116 1165 1166 1117
4 1117 1166 1167 1118
4 1118 1167 1168 1119
4 1119 1168 1169 1120
4 1120 1169 1170 1121
4 1121 1170 1171 1122
4 1122 1171 1172 1123
4 1123 1172 1173 1124
4 1124 1173 1174 1125
4 1125 1174 1175 1126
4 1126 1175 1176 1127
4 1127 1176 1177 1128
4 1128 1177 1178 1129
4 1129 1178 1179 1130
4 1130 1179 1180 1131
4 1131 1180 1181 1132
4 1132 1181 233 234
4 21 22 1182 1133
4 1133 1182 1183 1134
4 1134 1183 1184 1135
4 1135 1184 1185 1136
4 1136 1185 1186 1137
4 1137 1186 1187 1138
4 1138 1187 1188 1139
4 1139 1188 1189 1140
4 1140 1189 1190 1141
4 1141 1190 1191 1142
4 1142 1191 1192 1143
4 1143 1192 1193 1144
4 1144 1193 1194 1145
4 1145 1194 1195 1146
4 1146 1195 1196 1147
4 1147 1196 1197 1148
4 1148 1197 1198 1149
4 1149 1198 1199 1150
4 1150 1199 1200 1151
4 1151 1200 1201 1152
4 1152 1201 1202 1153
4 1153 1202 1203 1154
4 1154 1203 1204 1155
4 1155 1204 1205 1156
4 1156 1205 1206 1157
4 1157 1206 1207 1158
4 1158 1207 1208 1159
4 1159 1208 1209 1160
4 1160 1209 1210 1161
4 1161 1210 1211 1162
4 1162 1211 1212 1163
4 1163 1212 1213 1164
4 1164 1213 1214 1165
4 1165 1214 1215 1166
4 1166 1215 1216 1167
4 1167 1216 1217 1168
4 1168 1217 1218 1169
4 1169 1218 1219 1170
4 1170 1219 1220 1171
4 1171 1220 1221 1172
4 1172 1221 1222 1173
4 1173 1222 1223 1174
4 1174 1223 1224 1175
4 1175 1224 1225 1176
4 1176 1225 1226 1177
4 1177 1226 1227 1178
4 1178 1227 1228 1179
4 1179 1228 1229 1180
4 1180 1229 1230 1181
4 1181 1230 232 233
4 22 23 1231 1182
4 1182 1231 1232 1183
4 1183 1232 1233 1184
4 1184 1233 1234 1185
4 1185 1234 1235 1186
4 1186 1235 1236 1187
4 1187 1236 1237 1188
4 1188 1237 1238 1189
4 1189 1238 1239 1190
4 1190 1239 1240 1191
4 1191 1240 1241 1192
4 1192 1241 1242 1193
4 1193 1242 1243 1194
4 1194 1243 1244 1195
4 1195 1244 1245 1196
4 1196 1245 1246 1197
4 1197 1246 1247 1198
4 1198 1247 1248 1199
4 1199 1248 1249 1200
4 1200 1249 1250 1201
4 1201 1250 1251 1202
4 1202 1251 1252 1203
4 1203 1252 1253 1204
4 1204 1253 1254 1205
4 1205 1254 1255 1206
4 1206 1255 1256 1207
4 1207 1256 1257 1208
4 1208 1257 1258 1209
4 1209 1258 1259 1210
4 1210 1259 1260 1211
4 1211 1260 1261 1212
4 1212 1261 1262 1213
4 1213 1262 1263 1214
4 1214 1263 1264 1215
4 1215 1264 1265 1216
4 1216 1265 1266 1217
4 1217 1266 1267 1218
4 1218 1267 1268 1219
4 1219 1268 1269 1220
4 1220 1269 1270 1221
4 1221 1270 1271 1222
4 1222 1271 1272 1223
4 1223 1272 1273 1224
4 1224 1273 1274 1225
4 1225 1274 1275 1226
4 1226 1275 1276 1227
4 1227 1276 1277 1228
4 1228 1277 1278 1229
4 1229 1278 1279 1230
4 1230 1279 231 232
4 23 24 1280 1231
4 1231 1280 1281 1232
4 1232 1281 1282 1233
4 1233 1282 1283 1234
4 1234 1283 1284 1235
4 1235 1284 1285 1236
4 1236 1285 1286 1237
4 1237 1286 1287 1238
4 1238 1287 1288 1239
4 1239 1288 1289 1240
4 1240 1289 1290 1241
4 1241 1290 1291 1242
4 1242 1291 1292 1243
4 1243 1292 1293 1244
4 1244 1293 1294 1245
4 1245 1294 1295 1246
4 1246 1295 1296 1247
4 1247 1296 1297 1248
4 1248 1297 1298 1249
4 1249 1298 1299 1250
4 1250 1299 1300 1251
4 1251 1300 1301 1252
4 1252 1301 1302 1253
4 1253 1302 1303 1254
4 1254 1303 1304 1255
4 1255 1304 1305 1256
4 1256 1305 1306 1257
4 1257 1306 1307 1258
4 1258 1307 1308 1259
4 1259 1308 1309 1260
4 1260 1309 1310 1261
4 1261 1310 1311 1262
4 1262 1311 1312 1263
4 1263 1312 1313 1264
4 1264 1313 1314 1265
4 1265 1314 1315 1266
4 1266 1315 1316 1267
4 1267 1316 1317 1268
4 1268 1317 1318 1269
4 1269 1318 1319 1270
4 1270 1319 1320 1271
4 1271 1320 1321 1272
4 1272 1321 1322 1273
4 1273 1322 1323 1274
4 1274 1323 1324 1275
4 1275 1324 1325 1276
4 1276 1325 1326 1277
4 1277 1326 1327 1278
4 1278 1327 1328 1279
4 1279 1328 230 231
4 24 25 1329 1280
4 1280 1329 1330 1281
4 1281 1330 1331 1282
4 1282 1331 1332 1283
4 1283 1332 1333 1284
4 1284 1333 1334 1285
4 1285 1334 1335 1286
4 1286 1335 1336 1287
4 1287 1336 1337 1288
4 1288 1337 1338 1289
4 1289 1338 1339 1290
4 1290 1339 1340 1291
4 1291 1340 1341 1292
4 1292 1341 1342 1293
4 1293 1342 1343 1294
4 1294 1343 1344 1295
4 1295 1344 1345 1296
4 1296 1345 1346 1297
4 1297 1346 1347 1298
4 1298 1347 1348 1299
4 1299 1348 1349 1300
4 1300 1349 1350 1301
4 1301 1350 1351 1302
4 1302 1351 1352 1303
4 1303 1352 1353 1304
4 1304 1353 1354 1305
4 1305 1354 1355 1306
4 1306 1355 1356 1307
4 1307 1356 1357 1308
4 1308 1357 1358 1309
4 1309 1358 1359 1310
4 1310 1359 1360 1311
4 1311 1360 1361 1312
4 1312 1361 1362 1313
4 1313 1362 1363 1314
4 1314 1363 1364 1315
4 1315 1364 1365 1316
4 1316 1365 1366 1317
4 1317 1366 1367 1318
4 1318 1367 1368 1319
4 1319 1368 1369 1320
4 1320 1369 1370 1321
4 1321 1370 1371 1322
4 1322 1371 1372 1323
4 1323 1372 1373 1324
4 1324 1373 1374 1325
4 1325 1374 1375 1326
4 1326 1375 1376 1327
4 1327 1376 1377 1328
4 1328 1377 229 230
4 25 26 1378 1329
4 1329 1378 1379 1330
4 1330 1379 1380 1331
4 1331 1380 1381 1332
4 1332 1381 1382 1333
4 1333 1382 1383 1334
4 1334 1383 1384 1335
4 1335 1384 1385 1336
4 1336 1385 1386 1337
4 1337 1386 1387 1338
4 1338 1387 1388 1339
4 1339 1388 1389 1340
4 1340 1389 1390 1341
4 1341 1390 1391 1342
4 1342 1391 1392 1343
4 1343 1392 1393 1344
4 1344 1393 1394 1345
4 1345 1394 1395 1346
4 1346 1395 1396 1347
4 1347 1396 1397 1348
4 1348 1397 1398 1349
4 1349 1398 1399 1350
4 1350 1399 1400 1351
4 1351 1400 1401 1352
4 1352 1401 1402 1353
4 1353 1402 1403 1354
4 1354 1403 1404 1355
4 1355 1404 1405 1356
4 1356 1405 1406 1357
4 1357 1406 1407 1358
4 1358 1407 1408 1359
4 1359 1408 1409 1360
4 1360 1409 1410 1361
4 1361 1410 1411 1362
4 1362 1411 1412 1363
4 1363 1412 1413 1364
4 1364 1413 1414 1365
4 1365 1414 1415 1366
4 1366 1415 1416 1367
4 1367 1416 1417 1368
4 1368 1417 1418 1369
4 1369 1418 1419 1370
4 1370 1419 1420 1371
4 1371 1420 1421 1372
4 1372 1421 1422 1373
4 1373 1422 1423 1374
4 1374 1423 1424 1375
4 1375 1424 1425 1376
4 1376 1425 1426 1377
4 1377 1426 228 229
4 26 27 1427 1378
4 1378 1427 1428 1379
4 1379 1428 1429 1380
4 1380 1429 1430 1381
4 1381 1430 1431 1382
4 1382 1431 1432 1383
4 1383 1432 1433 1384
4 1384 1433 1434 1385
4 1385 1434 1435 1386
4 1386 1435 1436 1387
4 1387 1436 1437 1388
4 1388 1437 1438 1389
4 1389 1438 1439 1390
4 1390 1439 1440 1391
4 1391 1440 1441 1392
4 1392 1441 1442 1393
4 1393 1442 1443 1394
4 1394 1443 1444 1395
4 1395 1444 1445 1396
4 1396 1445 1446 1397
4 1397 1446 1447 1398
4 1398 1447 1448 1399
4 1399 1448 1449 1400
4 1400 1449 1450 1401
4 1401 1450 1451 1402
4 1402 1451 1452 1403
4 1403 1452 1453 1404
4 1404 1453 1454 1405
4 1405 1454 1455 1406
4 1406 1455 1456 1407
4 1407 1456 1457 1408
4 1408 1457 1458 1409
4 1409 1458 1459 1410
4 1410 1459 1460 1411
4 1411 1460 1461 1412
4 1412 1461 1462 1413
4 1413 1462 1463 1414
4 1414 1463 1464 1415
4 1415 1464 1465 1416
4 1416 1465 1466 1417
4 1417 1466 1467 1418
4 1418 1467 1468 1419
4 1419 1468 1469 1420
4 1420 1469 1470 1421
4 1421 1470 1471 1422
4 1422 1471 1472 1423
4 1423 1472 1473 1424
4 1424 1473 1474 1425
4 1425 1474 1475 1426
4 1426 1475 227 228
4 27 28 1476 1427
4 1427 1476 1477 1428
4 1428 1477 1478 1429
4 1429 1478 1479 1430
4 1430 1479 1480 1431
4 1431 1480 1481 1432
4 1432 1481 1482 1433
4 1433 1482 1483 1434
4 1434 1483 1484 1435
4 1435 1484 1485 1436
4 1436 1485 1486 1437
4 1437 1486 1487 1438
4 1438 1487 1488 1439
4 1439 1488 1489 1440
4 1440 1489 1490 1441
4 1441 1490 1491 1442
4 1442 1491 1492 1443
4 1443 1492 1493 1444
4 1444 1493 1494 1445
4 1445 1494 1495 1446
4 1446 1495 1496 1447
4 1447 1496 1497 1448
4 1448 1497 1498 1449
4 1449 1498 1499 1450
4 1450 1499 1500 1451
4 1451 1500 1501 1452
4 1452 1501 1502 1453
4 1453 1502 1503 1454
4 1454 1503 1504 1455
4 1455 1504 1505 1456
4 1456 1505 1506 1457
4 1457 1506 1507 1458
4 1458 1507 1508 1459
4 1459 1508 1509 1460
4 1460 1509 1510 1461
4 1461 1510 1511 1462
4 1462 1511 1512 1463
4 1463 1512 1513 1464
4 1464 1513 1514 1465
4 1465 1514 1515 1466
4 1466 1515 1516 1467
4 1467 1516 1517 1468
4 1468 1517 1518 1469
4 1469 1518 1519 1470
4 1470 1519 1520 1471
4 1471 1520 1521 1472
4 1472 1521 1522 1473
4 1473 1522 1523 1474
4 1474 1523 1524 1475
4 1475 1524 226 227
4 28 29 1525 1476
4 1476 1525 1526 1477
4 1477 1526 1527 1478
4 1478 1527 1528 1479
4 1479 1528 1529 1480
4 1480 1529 1530 1481
4 1481 1530 1531 1482
4 1482 1531 1532 1483
4 1483 1532 1533 1484
4 1484 1533 1534 1485
4 1485 1534 1535 1486
4 1486 1535 1536 1487
4 1487 1536 1537 1488
4 1488 1537 1538 1489
4 1489 1538 1539 1490
4 1490 1539 1540 1491
4 1491 1540 1541 1492
4 1492 1541 1542 1493
4 1493 1542 1543 1494
4 1494 1543 1544 1495
4 1495 1544 1545 1496
4 1496 1545 1546 1497
4 1497 1546 1547 1498
4 1498 1547 1548 1499
4 1499 1548 1549 1500
4 1500 1549 1550 1501
4 1501 1550 1551 1502
4 1502 1551 1552 1503
4 1503 1552 1553 1504
4 1504 1553 1554 1505
4 1505 1554 1555 1506
4 1506 1555 1556 1507
4 1507 1556 1557 1508
4 1508 1557 1558 1509
4 1509 1558 1559 1510
4 1510 1559 1560 1511
4 1511 1560 1561 1512
4 1512 1561 1562 1513
4 1513 1562 1563 1514
4 1514 1563 1564 1515
4 1515 1564 1565 1516
4 1516 1565 1566 1517
4 1517 1566 1567 1518
4 1518 1567 1568 1519
4 1519 1568 1569 1520
4 1520 1569 1570 1521
4 1521 1570 1571 1522
4 1522 1571 1572 1523
4 1523 1572 1573 1524
4 1524 1573 225 226
4 29 30 1574 1525
4 1525 1574 1575 1526
4 1526 1575 1576 1527
4 1527 1576 1577 1528
4 1528 1577 1578 1529
4 1529 1578 1579 1530
4 1530 1579 1580 1531
4 1531 1580 1581 1532
4 1532 1581 1582 1533
4 1533 1582 1583 1534
4 1534 1583 1584 1535
4 1535 1584 1585 1536
4 1536 1585 1586 1537
4 1537 1586 1587 1538
4 1538 1587 1588 1539
4 1539 1588 1589 1540
4 1540 1589 1590 1541
4 1541 1590 1591 1542
4 1542 1591 1592 1543
4 1543 1592 1593 1544
4 1544 1593 1594 1545
4 1545 1594 1595 1546
4 1546 1595 1596 1547
4 1547 1596 1597 1548
4 1548 1597 1598 1549
4 1549 1598 1599 1550
4 1550 1599 1600 1551
4 1551 1600 1601 1552
4 1552 1601 1602 1553
4 1553 1602 1603 1554
4 1554 1603 1604 1555
4 1555 1604 1605 1556
4 1556 1605 1606 1557
4 1557 1606 1607 1558
4 1558 1607 1608 1559
4 1559 1608 1609 1560
4 1560 1609 1610 1561
4 1561 1610 1611 1562
4 1562 1611 1612 1563
4 1563 1612 1613 1564
4 1564 1613 1614 1565
4 1565 1614 1615 1566
4 1566 1615 1616 1567
4 1567 1616 1617 1568
4 1568 1617 1618 1569
4 1569 1618 1619 1570
4 1570 1619 1620 1571
4 1571 1620 1621 1572
4 1572 1621 1622 1573
4 1573 1622 224 225
4 30 31 1623 1574
4 1574 1623 1624 1575
4 1575 1624 1625 1576
4 1576 1625 1626 1577
4 1577 1626 1627 1578
4 1578 1627 1628 1579
4 1579 1628 1629 1580
4 1580 1629 1630 1581
4 1581 1630 1631 1582
4 1582 1631 1632 1583
4 1583 1632 1633 1584
4 1584 1633 1634 1585
4 1585 1634 1635 1586
4 1586 1635 1636 1587
4 1587 1636 1637 1588
4 1588 1637 1638 1589
4 1589 1638 1639 1590
4 1590 1639 1640 1591
4 1591 1640 1641 1592
4 1592 1641 1642 1593
4 1593 1642 1643 1594
4 1594 1643 1644 1595
4 1595 1644 1645 1596
4 1596 1645 1646 1597
4 1597 1646 1647 1598
4 1598 1647 1648 1599
4 1599 1648 1649 1600
4 1600 1649 1650 1601
4 1601 1650 1651 1602
4 1602 1651 1652 1603
4 1603 1652 1653 1604
4 1604 1653 1654 1605
4 1605 1654 1655 1606
4 1606 1655 1656 1607
4 1607 1656 1657 1608
4 1608 1657 1658 1609
4 1609 1658 1659 1610
4 1610 1659 1660 1611
4 1611 1660 1661 1612
4 1612 1661 1662 1613
4 1613 1662 1663 1614
4 1614 1663 1664 1615
4 1615 1664 1665 1616
4 1616 1665 1666 1617
4 1617 1666 1667 1618
4 1618 1667 1668 1619
4 1619 1668 1669 1620
4 1620 1669 1670 1621
4 1621 1670 1671 1622
4 1622 1671 223 224
4 31 32 1672 1623
4 1623 1672 1673 1624
4 1624 1673 1674 1625
4 1625 1674 1675 1626
4 1626 1675 1676 1627
4 1627 1676 1677 1628
4 1628 1677 1678 1629
4 1629 1678 1679 1630
4 1630 1679 1680 1631
4 1631 1680 1681 1632
4 1632 1681 1682 1633
4 1633 1682 1683 1634
4 1634 1683 1684 1635
4 1635 1684 1685 1636
4 1636 1685 1686 1637
4 1637 1686 1687 1638
4 1638 1687 1688 1639
4 1639 1688 1689 1640
4 1640 1689 1690 1641
4 1641 1690 1691 1642
4 1642 1691 1692 1643
4 1643 1692 1693 1644
4 1644 1693 1694 1645
4 1645 1694 1695 1646
4 1646 1695 1696 1647
4 1647 1696 1697 1648
4 1648 1697 1698 1649
4 1649 1698 1699 1650
4 1650 1699 1700 1651
4 1651 1700 1701 1652
4 1652 1701 1702 1653
4 1653 1702 1703 1654
4 1654 1703 1704 1655
4 1655 1704 1705 1656
4 1656 1705 1706 1657
4 1657 1706 1707 1658
4 1658 1707 1708 1659
4 1659 1708 1709 1660
4 1660 1709 1710 1661
4 1661 1710 1711 1662
4 1662 1711 1712 1663
4 1663 1712 1713 1664
4 1664 1713 1714 1665
4 1665 1714 1715 1666
4 1666 1715 1716 1667
4 1667 1716 1717 1668
4 1668 1717 1718 1669
4 1669 1718 1719 1670
4 1670 1719 1720 1671
4 1671 1720 222 223
4 32 33 1721 1672
4 1672 1721 1722 1673
4 1673 1722 1723 1674
4 1674 1723 1724 1675
4 1675 1724 1725 1676
4 1676 1725 1726 1677
4 1677 1726 1727 1678
4 1678 1727 1728 1679
4 1679 1728 1729 1680
4 1680 1729 1730 1681
4 1681 1730 1731 1682
4 1682 1731 1732 1683
4 1683 1732 1733 1684
4 1684 1733 1734 1685
4 1685 1734 1735 1686
4 1686 1735 1736 1687
4 1687 1736 1737 1688
4 1688 1737 1738 1689
4 1689 1738 1739 1690
4 1690 1739 1740 1691
4 1691 1740 1741 1692
4 1692 1741 1742 1693
4 1693 1742 1743 1694
4 1694 1743 1744 1695
4 1695 1744 1745 1696
4 1696 1745 1746 1697
4 1697 1746 1747 1698
4 1698 1747 1748 1699
4 1699 1748 1749 1700
4 1700 1749 1750 1701
4 1701 1750 1751 1702
4 1702 1751 1752 1703
4 1703 1752 1753 1704
4 1704 1753 1754 1705
4 1705 1754 1755 1706
4 1706 1755 1756 1707
4 1707 1756 1757 1708
4 1708 1757 1758 1709
4 1709 1758 1759 1710
4 1710 1759 1760 1711
4 1711 1760 1761 1712
4 1712 1761 1762 1713
4 1713 1762 1763 1714
4 1714 1763 1764 1715
4 1715 1764 1765 1716
4 1716 1765 1766 1717
4 1717 1766 1767 1718
4 1718 1767 1768 1719
4 1719 1768 1769 1720
4 1720 1769 221 222
4 33 34 1770 1721
4 1721 1770 1771 1722
4 1722 1771 1772 1723
4 1723 1772 1773 1724
4 1724 1773 1774 1725
4 1725 1774 1775 1726
4 1726 1775 1776 1727
4 1727 1776 1777 1728
4 1728 1777 1778 1729
4 1729 1778 1779 1730
4 1730 1779 1780 1731
4 1731 1780 1781 1732
4 1732 1781 1782 1733
4 1733 1782 1783 1734
4 1734 1783 1784 1735
4 1735 1784 1785 1736
4 1736 1785 1786 1737
4 1737 1786 1787 1738
4 1738 1787 1788 1739
4 1739 1788 1789 1740
4 1740 1789 1790 1741
4 1741 1790 1791 1742
4 1742 1791 1792 1743
4 1743 1792 1793 1744
4 1744 1793 1794 1745
4 1745 1794 1795 1746
4 1746 1795 1796 1747
4 1747 1796 1797 1748
4 1748 1797 1798 1749
4 1749 1798 1799 1750
4 1750 1799 1800 1751
4 1751 1800 1801 1752
4 1752 1801 1802 1753
4 1753 1802 1803 1754
4 1754 1803 1804 1755
4 1755 1804 1805 1756
4 1756 1805 1806 1757
4 1757 1806 1807 1758
4 1758 1807 1808 1759
4 1759 1808 1809 1760
4 1760 1809 1810 1761
4 1761 1810 1811 1762
4 1762 1811 1812 1763
4 1763 1812 1813 1764
4 1764 1813 1814 1765
4 1765 1814 1815 1766
4 1766 1815 1816 1767
4 1767 1816 1817 1768
4 1768 1817 1818 1769
4 1769 1818 220 221
4 34 35 1819 1770
4 1770 1819 1820 1771
4 1771 1820 1821 1772
4 1772 1821 1822 1773
4 1773 1822 1823 1774
4 1774 1823 1824 1775
4 1775 1824 1825 1776
4 1776 1825 1826 1777
4 1777 1826 1827 1778
4 1778 1827 1828 1779
4 1779 1828 1829 1780
4 1780 1829 1830 1781
4 1781 1830 1831 1782
4 1782 1831 1832 1783
4 1783 1832 1833 1784
4 1784 1833 1834 1785
4 1785 1834 1835 1786
4 1786 1835 1836 1787
4 1787 1836 1837 1788
4 1788 1837 1838 1789
4 1789 1838 1839 1790
4 1790 1839 1840 1791
4 1791 1840 1841 1792
4 1792 1841 1842 1793
4 1793 1842 1843 1794
4 1794 1843 1844 1795
4 1795 1844 1845 1796
4 1796 1845 1846 1797
4 1797 1846 1847 1798
4 1798 1847 1848 1799
4 1799 1848 1849 1800
4 1800 1849 1850 1801
4 1801 1850 1851 1802
4 1802 1851 1852 1803
4 1803 1852 1853 1804
4 1804 1853 1854 1805
4 1805 1854 1855 1806
4 1806 1855 1856 1807
4 1807 1856 1857 1808
4 1808 1857 1858 1809
4 1809 1858 1859 1810
4 1810 1859 1860 1811
4 1811 1860 1861 1812
4 1812 1861 1862 1813
4 1813 1862 1863 1814
4 1814 1863 1864 1815
4 1815 1864 1865 1816
4 1816 1865 1866 1817
4 1817 1866 1867 1818
4 1818 1867 219 220
4 35 36 1868 1819
4 1819 1868 1869 1820
4 1820 1869 1870 1821
4 1821 1870 1871 1822
4 1822 1871 1872 1823
4 1823 1872 1873 1824
4 1824 1873 1874 1825
4 1825 1874 1875 1826
4 1826 1875 1876 1827
4 1827 1876 1877 1828
4 1828 1877 1878 1829
4 1829 1878 1879 1830
4 1830 1879 1880 1831
4 1831 1880 1881 1832
4 1832 1881 1882 1833
4 1833 1882 1883 1834
4 1834 1883 1884 1835
4 1835 1884 1885 1836
4 1836 1885 1886 1837
4 1837 1886 1887 1838
4 1838 1887 1888 1839
4 1839 1888 1889 1840
4 1840 1889 1890 1841
4 1841 1890 1891 1842
4 1842 1891 1892 1843
4 1843 1892 1893 1844
4 1844 1893 1894 1845
4 1845 1894 1895 1846
4 1846 1895 1896 1847
4 1847 1896 1897 1848
4 1848 1897 1898 1849
4 1849 1898 1899 1850
4 1850 1899 1900 1851
4 1851 1900 1901 1852
4 1852 1901 1902 1853
4 1853 1902 1903 1854
4 1854 1903 1904 1855
4 1855 1904 1905 1856
4 1856 1905 1906 1857
4 1857 1906 1907 1858
4 1858 1907 1908 1859
4 1859 1908 1909 1860
4 1860 1909 1910 1861
4 1861 1910 1911 1862
4 1862 1911 1912 1863
4 1863 1912 1913 1864
4 1864 1913 1914 1865
4 1865 1914 1915 1866
4 1866 1915 1916 1867
4 1867 1916 218 219
4 36 37 1917 1868
4 1868 1917 1918 1869
4 1869 1918 1919 1870
4 1870 1919 1920 1871
4 1871 1920 1921 1872
4 1872 1921 1922 1873
4 1873 1922 1923 1874
4 1874 1923 1924 1875
4 1875 1924 1925 1876
4 1876 1925 1926 1877
4 1877 1926 1927 1878
4 1878 1927 1928 1879
4 1879 1928 1929 1880
4 1880 1929 1930 1881
4 1881 1930 1931 1882
4 1882 1931 1932 1883
4 1883 1932 1933 1884
4 1884 1933 1934 1885
4 1885 1934 1935 1886
4 1886 1935 1936 1887
4 1887 1936 1937 1888
4 1888 1937 1938 1889
4 1889 1938 1939 1890
4 1890 1939 1940 1891
4 1891 1940 1941 1892
4 1892 1941 1942 1893
4 1893 1942 1943 1894
4 1894 1943 1944 1895
4 1895 1944 1945 1896
4 1896 1945 1946 1897
4 1897 1946 1947 1898
4 1898 1947 1948 1899
4 1899 1948 1949 1900
4 1900 1949 1950 1901
4 1901 1950 1951 1902
4 1902 1951 1952 1903
4 1903 1952 1953 1904
4 1904 1953 1954 1905
4 1905 1954 1955 1906
4 1906 1955 1956 1907
4 1907 1956 1957 1908
4 1908 1957 1958 1909
4 1909 1958 1959 1910
4 1910 1959 1960 1911
4 1911 1960 1961 1912
4 1912 1961 1962 1913
4 1913 1962 1963 1914
4 1914 1963 1964 1915
4 1915 1964 1965 1916
4 1916 1965 217 218
4 37 38 1966 1917
4 1917 1966 1967 1918
4 1918 1967 1968 1919
4 1919 1968 1969 1920
4 1920 1969 1970 1921
4 1921 1970 1971 1922
4 1922 1971 1972 1923
4 1923 1972 1973 1924
4 1924 1973 1974 1925
4 1925 1974 1975 1926
4 1926 1975 1976 1927
4 1927 1976 1977 1928
4 1928 1977 1978 1929
4 1929 1978 1979 1930
4 1930 1979 1980 1931
4 1931 1980 1981 1932
4 1932 1981 1982 1933
4 1933 1982 1983 1934
4 1934 1983 1984 1935
4 1935 1984 1985 1936
4 1936 1985 1986 1937
4 1937 1986 1987 1938
4 1938 1987 1988 1939
4 1939 1988 1989 1940
4 1940 1989 1990 1941
4 1941 1990 1991 1942
4 1942 1991 1992 1943
4 1943 1992 1993 1944
4 1944 1993 1994 1945
4 1945 1994 1995 1946
4 1946 1995 1996 1947
4 1947 1996 1997 1948
4 1948 1997 1998 1949
4 1949 1998 1999 1950
4 1950 1999 2000 1951
4 1951 2000 2001 1952
4 1952 2001 2002 1953
4 1953 2002 2003 1954
4 1954 2003 2004 1955
4 1955 2004 2005 1956
4 1956 2005 2006 1957
4 1957 2006 2007 1958
4 1958 2007 2008 1959
4 1959 2008 2009 1960
4 1960 2009 2010 1961
4 1961 2010 2011 1962
4 1962 2011 2012 1963
4 1963 2012 2013 1964
4 1964 2013 2014 1965
4 1965 2014 216 217
4 38 39 2015 1966
4 1966 2015 2016 1967
4 1967 2016 2017 1968
4 1968 2017 2018 1969
4 1969 2018 2019 1970
4 1970 2019 2020 1971
4 1971 2020 2021 1972
4 1972 2021 2022 1973
4 1973 2022 2023 1974
4 1974 2023 2024 1975
4 1975 2024 2025 1976
4 1976 2025 2026 1977
4 1977 2026 2027 1978
4 1978 2027 2028 1979
4 1979 2028 2029 1980
4 1980 2029 2030 1981
4 1981 2030 2031 1982
4 1982 2031 2032 1983
4 1983 2032 2033 1984
4 1984 2033 2034 1985
4 1985 2034 2035 1986
4 1986 2035 2036 1987
4 1987 2036 2037 1988
4 1988 2037 2038 1989
4 1989 2038 2039 1990
4 1990 2039 2040 1991
4 1991 2040 2041 1992
4 1992 2041 2042 1993
4 1993 2042 2043 1994
4 1994 2043 2044 1995
4 1995 2044 2045 1996
4 1996 2045 2046 1997
4 1997 2046 2047 1998
4 1998 2047 2048 1999
4 1999 2048 2049 2000
4 2000 2049 2050 2001
4 2001 2050 2051 2002
4 2002 2051 2052 2003
4 2003 2052 2053 2004
4 2004 2053 2054 2005
4 2005 2054 2055 2006
4 2006 2055 2056 2007
4 2007 2056 2057 2008
4 2008 2057 2058 2009
4 2009 2058 2059 2010
4 2010 2059 2060 2011
4 2011 2060 2061 2012
4 2012 2061 2062 2013
4 2013 2062 2063 2014
4 2014 2063 215 216
4 39 40 2064 2015
4 2015 2064 2065 2016
4 2016 2065 2066 2017
4 2017 2066 2067 2018
4 2018 2067 2068 2019
4 2019 2068 2069 2020
4 2020 2069 2070 2021
4 2021 2070 2071 2022
4 2022 2071 2072 2023
4 2023 2072 2073 2024
4 2024 2073 2074 2025
4 2025 2074 2075 2026
4 2026 2075 2076 2027
4 2027 2076 2077 2028
4 2028 2077 2078 2029
4 2029 2078 2079 2030
4 2030 2079 2080 2031
4 2031 2080 2081 2032
4 2032 2081 2082 2033
4 2033 2082 2083 2034
4 2034 2083 2084 2035
4 2035 2084 2085 2036
4 2036 2085 2086 2037
4 2037 2086 2087 2038
4 2038 2087 2088 2039
4 2039 2088 2089 2040
4 2040 2089 2090 2041
4 2041 2090 2091 2042
4 2042 2091 2092 2043
4 2043 2092 2093 2044
4 2044 2093 2094 2045
4 2045 2094 2095 2046
4 2046 2095 2096 2047
4 2047 2096 2097 2048
4 2048 2097 2098 2049
4 2049 2098 2099 2050
4 2050 2099 2100 2051
4 2051 2100 2101 2052
4 2052 2101 2102 2053
4 2053 2102 2103 2054
4 2054 2103 2104 2055
4 2055 2104 2105 2056
4 2056 2105 2106 2057
4 2057 2106 2107 2058
4 2058 2107 2108 2059
4 2059 2108 2109 2060
4 2060 2109 2110 2061
4 2061 2110 2111 2062
4 2062 2111 2112 2063
4 2063 2112 214 215
4 40 41 2113 2064
4 2064 2113 2114 2065
4 2065 2114 2115 2066
4 2066 2115 2116 2067
4 2067 2116 2117 2068
4 2068 2117 2118 2069
4 2069 2118 2119 2070
4 2070 2119 2120 2071
4 2071 2120 2121 2072
4 2072 2121 2122 2073
4 2073 2122 2123 2074
4 2074 2123 2124 2075
4 2075 2124 2125 2076
4 2076 2125 2126 2077
4 2077 2126 2127 2078
4 2078 2127 2128 2079
4 2079 2128 2129 2080
4 2080 2129 2130 2081
4 2081 2130 2131 2082
4 2082 2131 2132 2083
4 2083 2132 2133 2084
4 2084 2133 2134 2085
4 2085 2134 2135 2086
4 2086 2135 2136 2087
4 2087 2136 2137 2088
4 2088 2137 2138 2089
4 2089 2138 2139 2090
4 2090 2139 2140 2091
4 2091 2140 2141 2092
4 2092 2141 2142 2093
4 2093 2142 2143 2094
4 2094 2143 2144 2095
4 2095 2144 2145 2096
4 2096 2145 2146 2097
4 2097 2146 2147 2098
4 2098 2147 2148 2099
4 2099 2148 2149 2100
4 2100 2149 2150 2101
4 2101 2150 2151 2102
4 2102 2151 2152 2103
4 2103 2152 2153 2104
4 2104 2153 2154 2105
4 2105 2154 2155 2106
4 2106 2155 2156 2107
4 2107 2156 2157 2108
4 2108 2157 2158 2109
4 2109 2158 2159 2110
4 2110 2159 2160 2111
4 2111 2160 2161 2112
4 2112 2161 213 214
4 41 42 2162 2113
4 2113 2162 2163 2114
4 2114 2163 2164 2115
4 2115 2164 2165 2116
4 2116 2165 2166 2117
4 2117 2166 2167 2118
4 2118 2167 2168 2119
4 2119 2168 2169 2120
4 2120 2169 2170 2121
4 2121 2170 2171 2122
4 2122 2171 2172 2123
4 2123 2172 2173 2124
4 2124 2173 2174 2125
4 2125 2174 2175 2126
4 2126 2175 2176 2127
4 2127 2176 2177 2128
4 2128 2177 2178 2129
4 2129 2178 2179 2130
4 2130 2179 2180 2131
4 2131 2180 2181 2132
4 2132 2181 2182 2133
4 2133 2182 2183 2134
4 2134 2183 2184 2135
4 2135 2184 2185 2136
4 2136 2185 2186 2137
4 2137 2186 2187 2138
4 2138 2187 2188 2139
4 2139 2188 2189 2140
4 2140 2189 2190 2141
4 2141 2190 2191 2142
4 2142 2191 2192 2143
4 2143 2192 2193 2144
4 2144 2193 2194 2145
4 2145 2194 2195 2146
4 2146 2195 2196 2147
4 2147 2196 2197 2148
4 2148 2197 2198 2149
4 2149 2198 2199 2150
4 2150 2199 2200 2151
4 2151 2200 2201 2152
4 2152 2201 2202 2153
4 2153 2202 2203 2154
4 2154 2203 2204 2155
4 2155 2204 2205 2156
4 2156 2205 2206 2157
4 2157 2206 2207 2158
4 2158 2207 2208 2159
4 2159 2208 2209 2160
4 2160 2209 2210 2161
4 2161 2210 212 213
4 42 43 2211 2162
4 2162 2211 2212 2163
4 2163 2212 2213 2164
4 2164 2213 2214 2165
4 2165 2214 2215 2166
4 2166 2215 2216 2167
4 2167 2216 2217 2168
4 2168 2217 2218 2169
4 2169 2218 2219 2170
4 2170 2219 2220 2171
4 2171 2220 2221 2172
4 2172 2221 2222 2173
4 2173 2222 2223 2174
4 2174 2223 2224 2175
4 2175 2224 2225 2176
4 2176 2225 2226 2177
4 2177 2226 2227 2178
4 2178 2227 2228 2179
4 2179 2228 2229 2180
4 2180 2229 2230 2181
4 2181 2230 2231 2182
4 2182 2231 2232 2183
4 2183 2232 2233 2184
4 2184 2233 2234 2185
4 2185 2234 2235 2186
4 2186 2235 2236 2187
4 2187 2236 2237 2188
4 2188 2237 2238 2189
4 2189 2238 2239 2190
4 2190 2239 2240 2191
4 2191 2240 2241 2192
4 2192 2241 2242 2193
4 2193 2242 2243 2194
4 2194 2243 2244 2195
4 2195 2244 2245 2196
4 2196 2245 2246 2197
4 2197 2246 2247 2198
4 2198 2247 2248 2199
4 2199 2248 2249 2200
4 2200 2249 2250 2201
4 2201 2250 2251 2202
4 2202 2251 2252 2203
4 2203 2252 2253 2204
4 2204 2253 2254 2205
4 2205 2254 2255 2206
4 2206 2255 2256 2207
4 2207 2256 2257 2208
4 2208 2257 2258 2209
4 2209 2258 2259 2210
4 2210 2259 211 212
4 43 44 2260 2211
4 2211 2260 2261 2212
4 2212 2261 2262 2213
4 2213 2262 2263 2214
4 2214 2263 2264 2215
4 2215 2264 2265 2216
4 2216 2265 2266 2217
4 2217 2266 2267 2218
4 2218 2267 2268 2219
4 2219 2268 2269 2220
4 2220 2269 2270 2221
4 2221 2270 2271 2222
4 2222 2271 2272 2223
4 2223 2272 2273 2224
4 2224 2273 2274 2225
4 2225 2274 2275 2226
4 2226 2275 2276 2227
4 2227 2276 2277 2228
4 2228 2277 2278 2229
4 2229 2278 2279 2230
4 2230 2279 2280 2231
4 2231 2280 2281 2232
4 2232 2281 2282 2233
4 2233 2282 2283 2234
4 2234 2283 2284 2235
4 2235 2284 2285 2236
4 2236 2285 2286 2237
4 2237 2286 2287 2238
4 2238 2287 2288 2239
4 2239 2288 2289 2240
4 2240 2289 2290 2241
4 2241 2290 2291 2242
4 2242 2291 2292 2243
4 2243 2292 2293 2244
4 2244 2293 2294 2245
4 2245 2294 2295 2246
4 2246 2295 2296 2247
4 2247 2296 2297 2248
4 2248 2297 2298 2249
4 2249 2298 2299 2250
4 2250 2299 2300 2251
4 2251 2300 2301 2252
4 2252 2301 2302 2253
4 2253 2302 2303 2254
4 2254 2303 2304 2255
4 2255 2304 2305 2256
4 2256 2305 2306 2257
4 2257 2306 2307 2258
4 2258 2307 2308 2259
4 2259 2308 210 211
4 44 45 2309 2260
4 2260 2309 2310 2261
4 2261 2310 2311 2262
4 2262 2311 2312 2263
4 2263 2312 2313 2264
4 2264 2313 2314 2265
4 2265 2314 2315 2266
4 2266 2315 2316 2267
4 2267 2316 2317 2268
4 2268 2317 2318 2269
4 2269 2318 2319 2270
4 2270 2319 2320 2271
4 2271 2320 2321 2272
4 2272 2321 2322 2273
4 2273 2322 2323 2274
4 2274 2323 2324 2275
4 2275 2324 2325 2276
4 2276 2325 2326 2277
4 2277 2326 2327 2278
4 2278 2327 2328 2279
4 2279 2328 2329 2280
4 2280 2329 2330 2281
4 2281 2330 2331 2282
4 2282 2331 2332 2283
4 2283 2332 2333 2284
4 2284 2333 2334 2285
4 2285 2334 2335 2286
4 2286 2335 2336 2287
4 2287 2336 2337 2288
4 2288 2337 2338 2289
4 2289 2338 2339 2290
4 2290 2339 2340 2291
4 2291 2340 2341 2292
4 2292 2341 2342 2293
4 2293 2342 2343 2294
4 2294 2343 2344 2295
4 2295 2344 2345 2296
4 2296 2345 2346 2297
4 2297 2346 2347 2298
4 2298 2347 2348 2299
4 2299 2348 2349 2300
4 2300 2349 2350 2301
4 2301 2350 2351 2302
4 2302 2351 2352 2303
4 2303 2352 2353 2304
4 2304 2353 2354 2305
4 2305 2354 2355 2306
4 2306 2355 2356 2307
4 2307 2356 2357 2308
4 2308 2357 209 210
4 45 46 2358 2309
4 2309 2358 2359 2310
4 2310 2359 2360 2311
4 2311 2360 2361 2312
4 2312 2361 2362 2313
4 2313 2362 2363 2314
4 2314 2363 2364 2315
4 2315 2364 2365 2316
4 2316 2365 2366 2317
4 2317 2366 2367 2318
4 2318 2367 2368 2319
4 2319 2368 2369 2320
4 2320 2369 2370 2321
4 2321 2370 2371 2322
4 2322 2371 2372 2323
4 2323 2372 2373 2324
4 2324 2373 2374 2325
4 2325 2374 2375 2326
4 2326 2375 2376 2327
4 2327 2376 2377 2328
4 2328 2377 2378 2329
4 2329 2378 2379 2330
4 2330 2379 2380 2331
4 2331 2380 2381 2332
4 2332 2381 2382 2333
4 2333 2382 2383 2334
4 2334 2383 2384 2335
4 2335 2384 2385 2336
4 2336 2385 2386 2337
4 2337 2386 2387 2338
4 2338 2387 2388 2339
4 2339 2388 2389 2340
4 2340 2389 2390 2341
4 2341 2390 2391 2342
4 2342 2391 2392 2343
4 2343 2392 2393 2344
4 2344 2393 2394 2345
4 2345 2394 2395 2346
4 2346 2395 2396 2347
4 2347 2396 2397 2348
4 2348 2397 2398 2349
4 2349 2398 2399 2350
4 2350 2399 2400 2351
4 2351 2400 2401 2352
4 2352 2401 2402 2353
4 2353 2402 2403 2354
4 2354 2403 2404 2355
4 2355 2404 2405 2356
4 2356 2405 2406 2357
4 2357 2406 208 209
4 46 47 2407 2358
4 2358 2407 2408 2359
4 2359 2408 2409 2360
4 2360 2409 2410 2361
4 2361 2410 2411 2362
4 2362 2411 2412 2363
4 2363 2412 2413 2364
4 2364 2413 2414 2365
4 2365 2414 2415 2366
4 2366 2415 2416 2367
4 2367 2416 2417 2368
4 2368 2417 2418 2369
4 2369 2418 2419 2370
4 2370 2419 2420 2371
4 2371 2420 2421 2372
4 2372 2421 2422 2373
4 2373 2422 2423 2374
4 2374 2423 2424 2375
4 2375 2424 2425 2376
4 2376 2425 2426 2377
4 2377 2426 2427 2378
4 2378 2427 2428 2379
4 2379 2428 2429 2380
4 2380 2429 2430 2381
4 2381 2430 2431 2382
4 2382 2431 2432 2383
4 2383 2432 2433 2384
4 2384 2433 2434 2385
4 2385 2434 2435 2386
4 2386 2435 2436 2387
4 2387 2436 2437 2388
4 2388 2437 2438 2389
4 2389 2438 2439 2390
4 2390 2439 2440 2391
4 2391 2440 2441 2392
4 2392 2441 2442 2393
4 2393 2442 2443 2394
4 2394 2443 2444 2395
4 2395 2444 2445 2396
4 2396 2445 2446 2397
4 2397 2446 2447 2398
4 2398 2447 2448 2399
4 2399 2448 2449 2400
4 2400 2449 2450 2401
4 2401 2450 2451 2402
4 2402 2451 2452 2403
4 2403 2452 2453 2404
4 2404 2453 2454 2405
4 2405 2454 2455 2406
4 2406 2455 207 208
4 47 48 2456 2407
4 2407 2456 2457 2408
4 2408 2457 2458 2409
4 2409 2458 2459 2410
4 2410 2459 2460 2411
4 2411 2460 2461 2412
4 2412 2461 2462 2413
4 2413 2462 2463 2414
4 2414 2463 2464 2415
4 2415 2464 2465 2416
4 2416 2465 2466 2417
4 2417 2466 2467 2418
4 2418 2467 2468 2419
4 2419 2468 2469 2420
4 2420 2469 2470 2421
4 2421 2470 2471 2422
4 2422 2471 2472 2423
4 2423 2472 2473 2424
4 2424 2473 2474 2425
4 2425 2474 2475 2426
4 2426 2475 2476 2427
4 2427 2476 2477 2428
4 2428 2477 2478 2429
4 2429 2478 2479 2430
4 2430 2479 2480 2431
4 2431 2480 2481 2432
4 2432 2481 2482 2433
4 2433 2482 2483 2434
4 2434 2483 2484 2435
4 2435 2484 2485 2436
4 2436 2485 2486 2437
4 2437 2486 2487 2438
4 2438 2487 2488 2439
4 2439 2488 2489 2440
4 2440 2489 2490 2441
4 2441 2490 2491 2442
4 2442 2491 2492 2443
4 2443 2492 2493 2444
4 2444 2493 2494 2445
4 2445 2494 2495 2446
4 2446 2495 2496 2447
4 2447 2496 2497 2448
4 2448 2497 2498 2449
4 2449 2498 2499 2450
4 2450 2499 2500 2451
4 2451 2500 2501 2452
4 2452 2501 2502 2453
4 2453 2502 2503 2454
4 2454 2503 2504 2455
4 2455 2504 206 207
4 48 49 2505 2456
4 2456 2505 2506 2457
4 2457 2506 2507 2458
4 2458 2507 2508 2459
4 2459 2508 2509 2460
4 2460 2509 2510 2461
4 2461 2510 2511 2462
4 2462 2511 2512 2463
4 2463 2512 2513 2464
4 2464 2513 2514 2465
4 2465 2514 2515 2466
4 2466 2515 2516 2467
4 2467 2516 2517 2468
4 2468 2517 2518 2469
4 2469 2518 2519 2470
4 2470 2519 2520 2471
4 2471 2520 2521 2472
4 2472 2521 2522 2473
4 2473 2522 2523 2474
4 2474 2523 2524 2475
4 2475 2524 2525 2476
4 2476 2525 2526 2477
4 2477 2526 2527 2478
4 2478 2527 2528 2479
4 2479 2528 2529 2480
4 2480 2529 2530 2481
4 2481 2530 2531 2482
4 2482 2531 2532 2483
4 2483 2532 2533 2484
4 2484 2533 2534 2485
4 2485 2534 2535 2486
4 2486 2535 2536 2487
4 2487 2536 2537 2488
4 2488 2537 2538 2489
4 2489 2538 2539 2490
4 2490 2539 2540 2491
4 2491 2540 2541 2492
4 2492 2541 2542 2493
4 2493 2542 2543 2494
4 2494 2543 2544 2495
4 2495 2544 2545 2496
4 2496 2545 2546 2497
4 2497 2546 2547 2498
4 2498 2547 2548 2499
4 2499 2548 2549 2500
4 2500 2549 2550 2501
4 2501 2550 2551 2502
4 2502 2551 2552 2503
4 2503 2552 2553 2504
4 2504 2553 205 206
4 49 50 2554 2505
4 2505 2554 2555 2506
4 2506 2555 2556 2507
4 2507 2556 2557 2508
4 2508 2557 2558 2509
4 2509 2558 2559 2510
4 2510 2559 2560 2511
4 2511 2560 2561 2512
4 2512 2561 2562 2513
4 2513 2562 2563 2514
4 2514 2563 2564 2515
4 2515 2564 2565 2516
4 2516 2565 2566 2517
4 2517 2566 2567 2518
4 2518 2567 2568 2519
4 2519 2568 2569 2520
4 2520 2569 2570 2521
4 2521 2570 2571 2522
4 2522 2571 2572 2523
4 2523 2572 2573 2524
4 2524 2573 2574 2525
4 2525 2574 2575 2526
4 2526 2575 2576 2527
4 2527 2576 2577 2528
4 2528 2577 2578 2529
4 2529 2578 2579 2530
4 2530 2579 2580 2531
4 2531 2580 2581 2532
4 2532 2581 2582 2533
4 2533 2582 2583 2534
4 2534 2583 2584 2535
4 2535 2584 2585 2536
4 2536 2585 2586 2537
4 2537 2586 2587 2538
4 2538 2587 2588 2539
4 2539 2588 2589 2540
4 2540 2589 2590 2541
4 2541 2590 2591 2542
4 2542 2591 2592 2543
4 2543 2592 2593 2544
4 2544 2593 2594 2545
4 2545 2594 2595 2546
4 2546 2595 2596 2547
4 2547 2596 2597 2548
4 2548 2597 2598 2549
4 2549 2598 2599 2550
4 2550 2599 2600 2551
4 2551 2600 2601 2552
4 2552 2601 2602 2553
4 2553 2602 204 205
4 50 51 2603 2554
4 2554 2603 2604 2555
4 2555 2604 2605 2556
4 2556 2605 2606 2557
4 2557 2606 2607 2558
4 2558 2607 2608 2559
4 2559 2608 2609 2560
4 2560 2609 2610 2561
4 2561 2610 2611 2562
4 2562 2611 2612 2563
4 2563 2612 2613 2564
4 2564 2613 2614 2565
4 2565 2614 2615 2566
4 2566 2615 2616 2567
4 2567 2616 2617 2568
4 2568 2617 2618 2569
4 2569 2618 2619 2570
4 2570 2619 2620 2571
4 2571 2620 2621 2572
4 2572 2621 2622 2573
4 2573 2622 2623 2574
4 2574 2623 2624 2575
4 2575 2624 2625 2576
4 2576 2625 2626 2577
4 2577 2626 2627 2578
4 2578 2627 2628 2579
4 2579 2628 2629 2580
4 2580 2629 2630 2581
4 2581 2630 2631 2582
4 2582 2631 2632 2583
4 2583 2632 2633 2584
4 2584 2633 2634 2585
4 2585 2634 2635 2586
4 2586 2635 2636 2587
4 2587 2636 2637 2588
4 2588 2637 2638 2589
4 2589 2638 2639 2590
4 2590 2639 2640 2591
4 2591 2640 2641 2592
4 2592 2641 2642 2593
4 2593 2642 2643 2594
4 2594 2643 2644 2595
4 2595 2644 2645 2596
4 2596 2645 2646 2597
4 2597 2646 2647 2598
4 2598 2647 2648 2599
4 2599 2648 2649 2600
4 2600 2649 2650 2601
4 2601 2650 2651 2602
4 2602 2651 203 204
4 51 52 2652 2603
4 2603 2652 2653 2604
4 2604 2653 2654 2605
4 2605 2654 2655 2606
4 2606 2655 2656 2607
4 2607 2656 2657 2608
4 2608 2657 2658 2609
4 2609 2658 2659 2610
4 2610 2659 2660 2611
4 2611 2660 2661 2612
4 2612 2661 2662 2613
4 2613 2662 2663 2614
4 2614 2663 2664 2615
4 2615 2664 2665 2616
4 2616 2665 2666 2617
4 2617 2666 2667 2618
4 2618 2667 2668 2619
4 2619 2668 2669 2620
4 2620 2669 2670 2621
4 2621 2670 2671 2622
4 2622 2671 2672 2623
4 2623 2672 2673 2624
4 2624 2673 2674 2625
4 2625 2674 2675 2626
4 2626 2675 2676 2627
4 2627 2676 2677 2628
4 2628 2677 2678 2629
4 2629 2678 2679 2630
4 2630 2679 2680 2631
4 2631 2680 2681 2632
4 2632 2681 2682 2633
4 2633 2682 2683 2634
4 2634 2683 2684 2635
4 2635 2684 2685 2636
4 2636 2685 2686 2637
4 2637 2686 2687 2638
4 2638 2687 2688 2639
4 2639 2688 2689 2640
4 2640 2689 2690 2641
4 2641 2690 2691 2642
4 2642 2691 2692 2643
4 2643 2692 2693 2644
4 2644 2693 2694 2645
4 2645 2694 2695 2646
4 2646 2695 2696 2647
4 2647 2696 2697 2648
4 2648 2697 2698 2649
4 2649 2698 2699 2650
4 2650 2699 2700 2651
4 2651 2700 202 203
4 52 53 2701 2652
4 2652 2701 2702 2653
4 2653 2702 2703 2654
4 2654 2703 2704 2655
4 2655 2704 2705 2656
4 2656 2705 2706 2657
4 2657 2706 2707 2658
4 2658 2707 2708 2659
4 2659 2708 2709 2660
4 2660 2709 2710 2661
4 2661 2710 2711 2662
4 2662 2711 2712 2663
4 2663 2712 2713 2664
4 2664 2713 2714 2665
4 2665 2714 2715 2666
4 2666 2715 2716 2667
4 2667 2716 2717 2668
4 2668 2717 2718 2669
4 2669 2718 2719 2670
4 2670 2719 2720 2671
4 2671 2720 2721 2672
4 2672 2721 2722 2673
4 2673 2722 2723 2674
4 2674 2723 2724 2675
4 2675 2724 2725 2676
4 2676 2725 2726 2677
4 2677 2726 2727 2678
4 2678 2727 2728 2679
4 2679 2728 2729 2680
4 2680 2729 2730 2681
4 2681 2730 2731 2682
4 2682 2731 2732 2683
4 2683 2732 2733 2684
4 2684 2733 2734 2685
4 2685 2734 2735 2686
4 2686 2735 2736 2687
4 2687 2736 2737 2688
4 2688 2737 2738 2689
4 2689 2738 2739 2690
4 2690 2739 2740 2691
4 2691 2740 2741 2692
4 2692 2741 2742 2693
4 2693 2742 2743 2694
4 2694 2743 2744 2695
4 2695 2744 2745 2696
4 2696 2745 2746 2697
4 2697 2746 2747 2698
4 2698 2747 2748 2699
4 2699 2748 2749 2700
4 2700 2749 201 202
4 53 54 2750 2701
4 2701 2750 2751 2702
4 2702 2751 2752 2703
4 2703 2752 2753 2704
4 2704 2753 2754 2705
4 2705 2754 2755 2706
4 2706 2755 2756 2707
4 2707 2756 2757 2708
4 2708 2757 2758 2709
4 2709 2758 2759 2710
4 2710 2759 2760 2711
4 2711 2760 2761 2712
4 2712 2761 2762 2713
4 2713 2762 2763 2714
4 2714 2763 2764 2715
4 2715 2764 2765 2716
4 2716 2765 2766 2717
4 2717 2766 2767 2718
4 2718 2767 2768 2719
4 2719 2768 2769 2720
4 2720 2769 2770 2721
4 2721 2770 2771 2722
4 2722 2771 2772 2723
4 2723 2772 2773 2724
4 2724 2773 2774 2725
4 2725 2774 2775 2726
4 2726 2775 2776 2727
4 2727 2776 2777 2728
4 2728 2777 2778 2729
4 2729 2778 2779 2730
4 2730 2779 2780 2731
4 2731 2780 2781 2732
4 2732 2781 2782 2733
4 2733 2782 2783 2734
4 2734 2783 2784 2735
4 2735 2784 2785 2736
4 2736 2785 2786 2737
4 2737 2786 2787 2738
4 2738 2787 2788 2739
4 2739 2788 2789 2740
4 2740 2789 2790 2741
4 2741 2790 2791 2742
4 2742 2791 2792 2743
4 2743 2792 2793 2744
4 2744 2793 2794 2745
4 2745 2794 2795 2746
4 2746 2795 2796 2747
4 2747 2796 2797 2748
4 2748 2797 2798 2749
4 2749 2798 200 201
4 54 55 2799 2750
4 2750 2799 2800 2751
4 2751 2800 2801 2752
4 2752 2801 2802 2753
4 2753 2802 2803 2754
4 2754 2803 2804 2755
4 2755 2804 2805 2756
4 2756 2805 2806 2757
4 2757 2806 2807 2758
4 2758 2807 2808 2759
4 2759 2808 2809 2760
4 2760 2809 2810 2761
4 2761 2810 2811 2762
4 2762 2811 2812 2763
4 2763 2812 2813 2764
4 2764 2813 2814 2765
4 2765 2814 2815 2766
4 2766 2815 2816 2767
4 2767 2816 2817 2768
4 2768 2817 2818 2769
4 2769 2818 2819 2770
4 2770 2819 2820 2771
4 2771 2820 2821 2772
4 2772 2821 2822 2773
4 2773 2822 2823 2774
4 2774 2823 2824 2775
4 2775 2824 2825 2776
4 2776 2825 2826 2777
4 2777 2826 2827 2778
4 2778 2827 2828 2779
4 2779 2828 2829 2780
4 2780 2829 2830 2781
4 2781 2830 2831 2782
4 2782 2831 2832 2783
4 2783 2832 2833 2784
4 2784 2833 2834 2785
4 2785 2834 2835 2786
4 2786 2835 2836 2787
4 2787 2836 2837 2788
4 2788 2837 2838 2789
4 2789 2838 2839 2790
4 2790 2839 2840 2791
4 2791 2840 2841 2792
4 2792 2841 2842 2793
4 2793 2842 2843 2794
4 2794 2843 2844 2795
4 2795 2844 2845 2796
4 2796 2845 2846 2797
4 2797 2846 2847 2798
4 2798 2847 199 200
4 55 56 2848 2799
4 2799 2848 2849 2800
4 2800 2849 2850 2801
4 2801 2850 2851 2802
4 2802 2851 2852 2803
4 2803 2852 2853 2804
4 2804 2853 2854 2805
4 2805 2854 2855 2806
4 2806 2855 2856 2807
4 2807 2856 2857 2808
4 2808 2857 2858 2809
4 2809 2858 2859 2810
4 2810 2859 2860 2811
4 2811 2860 2861 2812
4 2812 2861 2862 2813
4 2813 2862 2863 2814
4 2814 2863 2864 2815
4 2815 2864 2865 2816
4 2816 2865 2866 2817
4 2817 2866 2867 2818
4 2818 2867 2868 2819
4 2819 2868 2869 2820
4 2820 2869 2870 2821
4 2821 2870 2871 2822
4 2822 2871 2872 2823
4 2823 2872 2873 2824
4 2824 2873 2874 2825
4 2825 2874 2875 2826
4 2826 2875 2876 2827
4 2827 2876 2877 2828
4 2828 2877 2878 2829
4 2829 2878 2879 2830
4 2830 2879 2880 2831
4 2831 2880 2881 2832
4 2832 2881 2882 2833
4 2833 2882 2883 2834
4 2834 2883 2884 2835
4 2835 2884 2885 2836
4 2836 2885 2886 2837
4 2837 2886 2887 2838
4 2838 2887 2888 2839
4 2839 2888 2889 2840
4 2840 2889 2890 2841
4 2841 2890 2891 2842
4 2842 2891 2892 2843
4 2843 2892 2893 2844
4 2844 2893 2894 2845
4 2845 2894 2895 2846
4 2846 2895 2896 2847
4 2847 2896 198 199
4 56 57 2897 2848
4 2848 2897 2898 2849
4 2849 2898 2899 2850
4 2850 2899 2900 2851
4 2851 2900 2901 2852
4 2852 2901 2902 2853
4 2853 2902 2903 2854
4 2854 2903 2904 2855
4 2855 2904 2905 2856
4 2856 2905 2906 2857
4 2857 2906 2907 2858
4 2858 2907 2908 2859
4 2859 2908 2909 2860
4 2860 2909 2910 2861
4 2861 2910 2911 2862
4 2862 2911 2912 2863
4 2863 2912 2913 2864
4 2864 2913 2914 2865
4 2865 2914 2915 2866
4 2866 2915 2916 2867
4 2867 2916 2917 2868
4 2868 2917 2918 2869
4 2869 2918 2919 2870
4 2870 2919 2920 2871
4 2871 2920 2921 2872
4 2872 2921 2922 2873
4 2873 2922 2923 2874
4 2874 2923 2924 2875
4 2875 2924 2925 2876
4 2876 2925 2926 2877
4 2877 2926 2927 2878
4 2878 2927 2928 2879
4 2879 2928 2929 2880
4 2880 2929 2930 2881
4 2881 2930 2931 2882
4 2882 2931 2932 2883
4 2883 2932 2933 2884
4 2884 2933 2934 2885
4 2885 2934 2935 2886
4 2886 2935 2936 2887
4 2887 2936 2937 2888
4 2888 2937 2938 2889
4 2889 2938 2939 2890
4 2890 2939 2940 2891
4 2891 2940 2941 2892
4 2892 2941 2942 2893
4 2893 2942 2943 2894
4 2894 2943 2944 2895
4 2895 2944 2945 2896
4 2896 2945 197 198
4 57 58 2946 2897
4 2897 2946 2947 2898
4 2898 2947 2948 2899
4 2899 2948 2949 2900
4 2900 2949 2950 2901
4 2901 2950 2951 2902
4 2902 2951 2952 2903
4 2903 2952 2953 2904
4 2904 2953 2954 2905
4 2905 2954 2955 2906
4 2906 2955 2956 2907
4 2907 2956 2957 2908
4 2908 2957 2958 2909
4 2909 2958 2959 2910
4 2910 2959 2960 2911
4 2911 2960 2961 2912
4 2912 2961 2962 2913
4 2913 2962 2963 2914
4 2914 2963 2964 2915
4 2915 2964 2965 2916
4 2916 2965 2966 2917
4 2917 2966 2967 2918
4 2918 2967 2968 2919
4 2919 2968 2969 2920
4 2920 2969 2970 2921
4 2921 2970 2971 2922
4 2922 2971 2972 2923
4 2923 2972 2973 2924
4 2924 2973 2974 2925
4 2925 2974 2975 2926
4 2926 2975 2976 2927
4 2927 2976 2977 2928
4 2928 2977 2978 2929
4 2929 2978 2979 2930
4 2930 2979 2980 2931
4 2931 2980 2981 2932
4 2932 2981 2982 2933
4 2933 2982 2983 2934
4 2934 2983 2984 2935
4 2935 2984 2985 2936
4 2936 2985 2986 2937
4 2937 2986 2987 2938
4 2938 2987 2988 2939
4 2939 2988 2989 2940
4 2940 2989 2990 2941
4 2941 2990 2991 2942
4 2942 2991 2992 2943
4 2943 2992 2993 2944
4 2944 2993 2994 2945
4 2945 2994 196 197
4 58 59 2995 2946
4 2946 2995 2996 2947
4 2947 2996 2997 2948
4 2948 2997 2998 2949
4 2949 2998 2999 2950
4 2950 2999 3000 2951
4 2951 3000 3001 2952
4 2952 3001 3002 2953
4 2953 3002 3003 2954
4 2954 3003 3004 2955
4 2955 3004 3005 2956
4 2956 3005 3006 2957
4 2957 3006 3007 2958
4 2958 3007 3008 2959
4 2959 3008 3009 2960
4 2960 3009 3010 2961
4 2961 3010 3011 2962
4 2962 3011 3012 2963
4 2963 3012 3013 2964
4 2964 3013 3014 2965
4 2965 3014 3015 2966
4 2966 3015 3016 2967
4 2967 3016 3017 2968
4 2968 3017 3018 2969
4 2969 3018 3019 2970
4 2970 3019 3020 2971
4 2971 3020 3021 2972
4 2972 3021 3022 2973
4 2973 3022 3023 2974
4 2974 3023 3024 2975
4 2975 3024 3025 2976
4 2976 3025 3026 2977
4 2977 3026 3027 2978
4 2978 3027 3028 2979
4 2979 3028 3029 2980
4 2980 3029 3030 2981
4 2981 3030 3031 2982
4 2982 3031 3032 2983
4 2983 3032 3033 2984
4 2984 3033 3034 2985
4 2985 3034 3035 2986
4 2986 3035 3036 2987
4 2987 3036 3037 2988
4 2988 3037 3038 2989
4 2989 3038 3039 2990
4 2990 3039 3040 2991
4 2991 3040 3041 2992
4 2992 3041 3042 2993
4 2993 3042 3043 2994
4 2994 3043 195 196
4 59 60 3044 2995
4 2995 3044 3045 2996
4 2996 3045 3046 2997
4 2997 3046 3047 2998
4 2998 3047 3048 2999
4 2999 3048 3049 3000
4 3000 3049 3050 3001
4 3001 3050 3051 3002
4 3002 3051 3052 3003
4 3003 3052 3053 3004
4 3004 3053 3054 3005
4 3005 3054 3055 3006
4 3006 3055 3056 3007
4 3007 3056 3057 3008
4 3008 3057 3058 3009
4 3009 3058 3059 3010
4 3010 3059 3060 3011
4 3011 3060 3061 3012
4 3012 3061 3062 3013
4 3013 3062 3063 3014
4 3014 3063 3064 3015
4 3015 3064 3065 3016
4 3016 3065 3066 3017
4 3017 3066 3067 3018
4 3018 3067 3068 3019
4 3019 3068 3069 3020
4 3020 3069 3070 3021
4 3021 3070 3071 3022
4 3022 3071 3072 3023
4 3023 3072 3073 3024
4 3024 3073 3074 3025
4 3025 3074 3075 3026
4 3026 3075 3076 3027
4 3027 3076 3077 3028
4 3028 3077 3078 3029
4 3029 3078 3079 3030
4 3030 3079 3080 3031
4 3031 3080 3081 3032
4 3032 3081 3082 3033
4 3033 3082 3083 3034
4 3034 3083 3084 3035
4 3035 3084 3085 3036
4 3036 3085 3086 3037
4 3037 3086 3087 3038
4 3038 3087 3088 3039
4 3039 3088 3089 3040
4 3040 3089 3090 3041
4 3041 3090 3091 3042
4 3042 3091 3092 3043
4 3043 3092 194 195
4 60 61 3093 3044
4 3044 3093 3094 3045
4 3045 3094 3095 3046
4 3046 3095 3096 3047
4 3047 3096 3097 3048
4 3048 3097 3098 3049
4 3049 3098 3099 3050
4 3050 3099 3100 3051
4 3051 3100 3101 3052
4 3052 3101 3102 3053
4 3053 3102 3103 3054
4 3054 3103 3104 3055
4 3055 3104 3105 3056
4 3056 3105 3106 3057
4 3057 3106 3107 3058
4 3058 3107 3108 3059
4 3059 3108 3109 3060
4 3060 3109 3110 3061
4 3061 3110 3111 3062
4 3062 3111 3112 3063
4 3063 3112 3113 3064
4 3064 3113 3114 3065
4 3065 3114 3115 3066
4 3066 3115 3116 3067
4 3067 3116 3117 3068
4 3068 3117 3118 3069
4 3069 3118 3119 3070
4 3070 3119 3120 3071
4 3071 3120 3121 3072
4 3072 3121 3122 3073
4 3073 3122 3123 3074
4 3074 3123 3124 3075
4 3075 3124 3125 3076
4 3076 3125 3126 3077
4 3077 3126 3127 3078
4 3078 3127 3128 3079
4 3079 3128 3129 3080
4 3080 3129 3130 3081
4 3081 3130 3131 3082
4 3082 3131 3132 3083
4 3083 3132 3133 3084
4 3084 3133 3134 3085
4 3085 3134 3135 3086
4 3086 3135 3136 3087
4 3087 3136 3137 3088
4 3088 3137 3138 3089
4 3089 3138 3139 3090
4 3090 3139 3140 3091
4 3091 3140 3141 3092
4 3092 3141 193 194
4 61 62 3142 3093
4 3093 3142 3143 3094
4 3094 3143 3144 3095
4 3095 3144 3145 3096
4 3096 3145 3146 3097
4 3097 3146 3147 3098
4 3098 3147 3148 3099
4 3099 3148 3149 3100
4 3100 3149 3150 3101
4 3101 3150 3151 3102
4 3102 3151 3152 3103
4 3103 3152 3153 3104
4 3104 3153 3154 3105
4 3105 3154 3155 3106
4 3106 3155 3156 3107
4 3107 3156 3157 3108
4 3108 3157 3158 3109
4 3109 3158 3159 3110
4 3110 3159 3160 3111
4 3111 3160 3161 3112
4 3112 3161 3162 3113
4 3113 3162 3163 3114
4 3114 3163 3164 3115
4 3115 3164 3165 3116
4 3116 3165 3166 3117
4 3117 3166 3167 3118
4 3118 3167 3168 3119
4 3119 3168 3169 3120
4 3120 3169 3170 3121
4 3121 3170 3171 3122
4 3122 3171 3172 3123
4 3123 3172 3173 3124
4 3124 3173 3174 3125
4 3125 3174 3175 3126
4 3126 3175 3176 3127
4 3127 3176 3177 3128
4 3128 3177 3178 3129
4 3129 3178 3179 3130
4 3130 3179 3180 3131
4 3131 3180 3181 3132
4 3132 3181 3182 3133
4 3133 3182 3183 3134
4 3134 3183 3184 3135
4 3135 3184 3185 3136
4 3136 3185 3186 3137
4 3137 3186 3187 3138
4 3138 3187 3188 3139
4 3139 3188 3189 3140
4 3140 3189 3190 3141
4 3141 3190 192 193
4 62 63 3191 3142
4 3142 3191 3192 3143
4 3143 3192 3193 3144
4 3144 3193 3194 3145
4 3145 3194 3195 3146
4 3146 3195 3196 3147
4 3147 3196 3197 3148
4 3148 3197 3198 3149
4 3149 3198 3199 3150
4 3150 3199 3200 3151
4 3151 3200 3201 3152
4 3152 3201 3202 3153
4 3153 3202 3203 3154
4 3154 3203 3204 3155
4 3155 3204 3205 3156
4 3156 3205 3206 3157
4 3157 3206 3207 3158
4 3158 3207 3208 3159
4 3159 3208 3209 3160
4 3160 3209 3210 3161
4 3161 3210 3211 3162
4 3162 3211 3212 3163
4 3163 3212 3213 3164
4 3164 3213 3214 3165
4 3165 3214 3215 3166
4 3166 3215 3216 3167
4 3167 3216 3217 3168
4 3168 3217 3218 3169
4 3169 3218 3219 3170
4 3170 3219 3220 3171
4 3171 3220 3221 3172
4 3172 3221 3222 3173
4 3173 3222 3223 3174
4 3174 3223 3224 3175
4 3175 3224 3225 3176
4 3176 3225 3226 3177
4 3177 3226 3227 3178
4 3178 3227 3228 3179
4 3179 3228 3229 3180
4 3180 3229 3230 3181
4 3181 3230 3231 3182
4 3182 3231 3232 3183
4 3183 3232 3233 3184
4 3184 3233 3234 3185
4 3185 3234 3235 3186
4 3186 3235 3236 3187
4 3187 3236 3237 3188
4 3188 3237 3238 3189
4 3189 3238 3239 3190
4 3190 3239 191 192
4 63 64 3240 3191
4 3191 3240 3241 3192
4 3192 3241 3242 3193
4 3193 3242 3243 3194
4 3194 3243 3244 3195
4 3195 3244 3245 3196
4 3196 3245 3246 3197
4 3197 3246 3247 3198
4 3198 3247 3248 3199
4 3199 3248 3249 3200
4 3200 3249 3250 3201
4 3201 3250 3251 3202
4 3202 3251 3252 3203
4 3203 3252 3253 3204
4 3204 3253 3254 3205
4 3205 3254 3255 3206
4 3206 3255 3256 3207
4 3207 3256 3257 3208
4 3208 3257 3258 3209
4 3209 3258 3259 3210
4 3210 3259 3260 3211
4 3211 3260 3261 3212
4 3212 3261 3262 3213
4 3213 3262 3263 3214
4 3214 3263 3264 3215
4 3215 3264 3265 3216
4 3216 3265 3266 3217
4 3217 3266 3267 3218
4 3218 3267 3268 3219
4 3219 3268 3269 3220
4 3220 3269 3270 3221
4 3221 3270 3271 3222
4 3222 3271 3272 3223
4 3223 3272 3273 3224
4 3224 3273 3274 3225
4 3225 3274 3275 3226
4 3226 3275 3276 3227
4 3227 3276 3277 3228
4 3228 3277 3278 3229
4 3229 3278 3279 3230
4 3230 3279 3280 3231
4 3231 3280 3281 3232
4 3232 3281 3282 3233
4 3233 3282 3283 3234
4 3234 3283 3284 3235
4 3235 3284 3285 3236
4 3236 3285 3286 3237
4 3237 3286 3287 3238
4 3238 3287 3288 3239
4 3239 3288 190 191
4 64 65 3289 3240
4 3240 3289 3290 3241
4 3241 3290 3291 3242
4 3242 3291 3292 3243
4 3243 3292 3293 3244
4 3244 3293 3294 3245
4 3245 3294 3295 3246
4 3246 3295 3296 3247
4 3247 3296 3297 3248
4 3248 3297 3298 3249
4 3249 3298 3299 3250
4 3250 3299 3300 3251
4 3251 3300 3301 3252
4 3252 3301 3302 3253
4 3253 3302 3303 3254
4 3254 3303 3304 3255
4 3255 3304 3305 3256
4 3256 3305 3306 3257
4 3257 3306 3307 3258
4 3258 3307 3308 3259
4 3259 3308 3309 3260
4 3260 3309 3310 3261
4 3261 3310 3311 3262
4 3262 3311 3312 3263
4 3263 3312 3313 3264
4 3264 3313 3314 3265
4 3265 3314 3315 3266
4 3266 3315 3316 3267
4 3267 3316 3317 3268
4 3268 3317 3318 3269
4 3269 3318 3319 3270
4 3270 3319 3320 3271
4 3271 3320 3321 3272
4 3272 3321 3322 3273
4 3273 3322 3323 3274
4 3274 3323 3324 3275
4 3275 3324 3325 3276
4 3276 3325 3326 3277
4 3277 3326 3327 3278
4 3278 3327 3328 3279
4 3279 3328 3329 3280
4 3280 3329 3330 3281
4 3281 3330 3331 3282
4 3282 3331 3332 3283
4 3283 3332 3333 3284
4 3284 3333 3334 3285
4 3285 3334 3335 3286
4 3286 3335 3336 3287
4 3287 3336 3337 3288
4 3288 3337 189 190
4 65 66 3338 3289
4 3289 3338 3339 3290
4 3290 3339 3340 3291
4 3291 3340 3341 3292
4 3292 3341 3342 3293
4 3293 3342 3343 3294
4 3294 3343 3344 3295
4 3295 3344 3345 3296
4 3296 3345 3346 3297
4 3297 3346 3347 3298
4 3298 3347 3348 3299
4 3299 3348 3349 3300
4 3300 3349 3350 3301
4 3301 3350 3351 3302
4 3302 3351 3352 3303
4 3303 3352 3353 3304
4 3304 3353 3354 3305
4 3305 3354 3355 3306
4 3306 3355 3356 3307
4 3307 3356 3357 3308
4 3308 3357 3358 3309
4 3309 3358 3359 3310
4 3310 3359 3360 3311
4 3311 3360 3361 3312
4 3312 3361 3362 3313
4 3313 3362 3363 3314
4 3314 3363 3364 3315
4 3315 3364 3365 3316
4 3316 3365 3366 3317
4 3317 3366 3367 3318
4 3318 3367 3368 3319
4 3319 3368 3369 3320
4 3320 3369 3370 3321
4 3321 3370 3371 3322
4 3322 3371 3372 3323
4 3323 3372 3373 3324
4 3324 3373 3374 3325
4 3325 3374 3375 3326
4 3326 3375 3376 3327
4 3327 3376 3377 3328
4 3328 3377 3378 3329
4 3329 3378 3379 3330
4 3330 3379 3380 3331
4 3331 3380 3381 3332
4 3332 3381 3382 3333
4 3333 3382 3383 3334
4 3334 3383 3384 3335
4 3335 3384 3385 3336
4 3336 3385 3386 3337
4 3337 3386 188 189
4 66 67 3387 3338
4 3338 3387 3388 3339
4 3339 3388 3389 3340
4 3340 3389 3390 3341
4 3341 3390 3391 3342
4 3342 3391 3392 3343
4 3343 3392 3393 3344
4 3344 3393 3394 3345
4 3345 3394 3395 3346
4 3346 3395 3396 3347
4 3347 3396 3397 3348
4 3348 3397 3398 3349
4 3349 3398 3399 3350
4 3350 3399 3400 3351
4 3351 3400 3401 3352
4 3352 3401 3402 3353
4 3353 3402 3403 3354
4 3354 3403 3404 3355
4 3355 3404 3405 3356
4 3356 3405 3406 3357
4 3357 3406 3407 3358
4 3358 3407 3408 3359
4 3359 3408 3409 3360
4 3360 3409 3410 3361
4 3361 3410 3411 3362
4 3362 3411 3412 3363
4 3363 3412 3413 3364
4 3364 3413 3414 3365
4 3365 3414 3415 3366
4 3366 3415 3416 3367
4 3367 3416 3417 3368
4 3368 3417 3418 3369
4 3369 3418 3419 3370
4 3370 3419 3420 3371
4 3371 3420 3421 3372
4 3372 3421 3422 3373
4 3373 3422 3423 3374
4 3374 3423 3424 3375
4 3375 3424 3425 3376
4 3376 3425 3426 3377
4 3377 3426 3427 3378
4 3378 3427 3428 3379
4 3379 3428 3429 3380
4 3380 3429 3430 3381
4 3381 3430 3431 3382
4 3382 3431 3432 3383
4 3383 3432 3433 3384
4 3384 3433 3434 3385
4 3385 3434 3435 3386
4 3386 3435 187 188
4 67 68 3436 3387
4 3387 3436 3437 3388
4 3388 3437 3438 3389
4 3389 3438 3439 3390
4 3390 3439 3440 3391
4 3391 3440 3441 3392
4 3392 3441 3442 3393
4 3393 3442 3443 3394
4 3394 3443 3444 3395
4 3395 3444 3445 3396
4 3396 3445 3446 3397
4 3397 3446 3447 3398
4 3398 3447 3448 3399
4 3399 3448 3449 3400
4 3400 3449 3450 3401
4 3401 3450 3451 3402
4 3402 3451 3452 3403
4 3403 3452 3453 3404
4 3404 3453 3454 3405
4 3405 3454 3455 3406
4 3406 3455 3456 3407
4 3407 3456 3457 3408
4 3408 3457 3458 3409
4 3409 3458 3459 3410
4 3410 3459 3460 3411
4 3411 3460 3461 3412
4 3412 3461 3462 3413
4 3413 3462 3463 3414
4 3414 3463 3464 3415
4 3415 3464 3465 3416
4 3416 3465 3466 3417
4 3417 3466 3467 3418
4 3418 3467 3468 3419
4 3419 3468 3469 3420
4 3420 3469 3470 3421
4 3421 3470 3471 3422
4 3422 3471 3472 3423
4 3423 3472 3473 3424
4 3424 3473 3474 3425
4 3425 3474 3475 3426
4 3426 3475 3476 3427
4 3427 3476 3477 3428
4 3428 3477 3478 3429
4 3429 3478 3479 3430
4 3430 3479 3480 3431
4 3431 3480 3481 3432
4 3432 3481 3482 3433
4 3433 3482 3483 3434
4 3434 3483 3484 3435
4 3435 3484 186 187
4 68 69 3485 3436
4 3436 3485 3486 3437
4 3437 3486 3487 3438
4 3438 3487 3488 3439
4 3439 3488 3489 3440
4 3440 3489 3490 3441
4 3441 3490 3491 3442
4 3442 3491 3492 3443
4 3443 3492 3493 3444
4 3444 3493 3494 3445
4 3445 3494 3495 3446
4 3446 3495 3496 3447
4 3447 3496 3497 3448
4 3448 3497 3498 3449
4 3449 3498 3499 3450
4 3450 3499 3500 3451
4 3451 3500 3501 3452
4 3452 3501 3502 3453
4 3453 3502 3503 3454
4 3454 3503 3504 3455
4 3455 3504 3505 3456
4 3456 3505 3506 3457
4 3457 3506 3507 3458
4 3458 3507 3508 3459
4 3459 3508 3509 3460
4 3460 3509 3510 3461
4 3461 3510 3511 3462
4 3462 3511 3512 3463
4 3463 3512 3513 3464
4 3464 3513 3514 3465
4 3465 3514 3515 3466
4 3466 3515 3516 3467
4 3467 3516 3517 3468
4 3468 3517 3518 3469
4 3469 3518 3519 3470
4 3470 3519 3520 3471
4 3471 3520 3521 3472
4 3472 3521 3522 3473
4 3473 3522 3523 3474
4 3474 3523 3524 3475
4 3475 3524 3525 3476
4 3476 3525 3526 3477
4 3477 3526 3527 3478
4 3478 3527 3528 3479
4 3479 3528 3529 3480
4 3480 3529 3530 3481
4 3481 3530 3531 3482
4 3482 3531 3532 3483
4 3483 3532 3533 3484
4 3484 3533 185 186
4 69 70 3534 3485
4 3485 3534 3535 3486
4 3486 3535 3536 3487
4 3487 3536 3537 3488
4 3488 3537 3538 3489
4 3489 3538 3539 3490
4 3490 3539 3540 3491
4 3491 3540 3541 3492
4 3492 3541 3542 3493
4 3493 3542 3543 3494
4 3494 3543 3544 3495
4 3495 3544 3545 3496
4 3496 3545 3546 3497
4 3497 3546 3547 3498
4 3498 3547 3548 3499
4 3499 3548 3549 3500
4 3500 3549 3550 3501
4 3501 3550 3551 3502
4 3502 3551 3552 3503
4 3503 3552 3553 3504
4 3504 3553 3554 3505
4 3505 3554 3555 3506
4 3506 3555 3556 3507
4 3507 3556 3557 3508
4 3508 3557 3558 3509
4 3509 3558 3559 3510
4 3510 3559 3560 3511
4 3511 3560 3561 3512
4 3512 3561 3562 3513
4 3513 3562 3563 3514
4 3514 3563 3564 3515
4 3515 3564 3565 3516
4 3516 3565 3566 3517
4 3517 3566 3567 3518
4 3518 3567 3568 3519
4 3519 3568 3569 3520
4 3520 3569 3570 3521
4 3521 3570 3571 3522
4 3522 3571 3572 3523
4 3523 3572 3573 3524
4 3524 3573 3574 3525
4 3525 3574 3575 3526
4 3526 3575 3576 3527
4 3527 3576 3577 3528
4 3528 3577 3578 3529
4 3529 3578 3579 3530
4 3530 3579 3580 3531
4 3531 3580 3581 3532
4 3532 3581 3582 3533
4 3533 3582 184 185
4 70 71 3583 3534
4 3534 3583 3584 3535
4 3535 3584 3585 3536
4 3536 3585 3586 3537
4 3537 3586 3587 3538
4 3538 3587 3588 3539
4 3539 3588 3589 3540
4 3540 3589 3590 3541
4 3541 3590 3591 3542
4 3542 3591 3592 3543
4 3543 3592 3593 3544
4 3544 3593 3594 3545
4 3545 3594 3595 3546
4 3546 3595 3596 3547
4 3547 3596 3597 3548
4 3548 3597 3598 3549
4 3549 3598 3599 3550
4 3550 3599 3600 3551
4 3551 3600 3601 3552
4 3552 3601 3602 3553
4 3553 3602 3603 3554
4 3554 3603 3604 3555
4 3555 3604 3605 3556
4 3556 3605 3606 3557
4 3557 3606 3607 3558
4 3558 3607 3608 3559
4 3559 3608 3609 3560
4 3560 3609 3610 3561
4 3561 3610 3611 3562
4 3562 3611 3612 3563
4 3563 3612 3613 3564
4 3564 3613 3614 3565
4 3565 3614 3615 3566
4 3566 3615 3616 3567
4 3567 3616 3617 3568
4 3568 3617 3618 3569
4 3569 3618 3619 3570
4 3570 3619 3620 3571
4 3571 3620 3621 3572
4 3572 3621 3622 3573
4 3573 3622 3623 3574
4 3574 3623 3624 3575
4 3575 3624 3625 3576
4 3576 3625 3626 3577
4 3577 3626 3627 3578
4 3578 3627 3628 3579
4 3579 3628 3629 3580
4 3580 3629 3630 3581
4 3581 3630 3631 3582
4 3582 3631 183 184
4 71 72 3632 3583
4 3583 3632 3633 3584
4 3584 3633 3634 3585
4 3585 3634 3635 3586
4 3586 3635 3636 3587
4 3587 3636 3637 3588
4 3588 3637 3638 3589
4 3589 3638 3639 3590
4 3590 3639 3640 3591
4 3591 3640 3641 3592
4 3592 3641 3642 3593
4 3593 3642 3643 3594
4 3594 3643 3644 3595
4 3595 3644 3645 3596
4 3596 3645 3646 3597
4 3597 3646 3647 3598
4 3598 3647 3648 3599
4 3599 3648 3649 3600
4 3600 3649 3650 3601
4 3601 3650 3651 3602
4 3602 3651 3652 3603
4 3603 3652 3653 3604
4 3604 3653 3654 3605
4 3605 3654 3655 3606
4 3606 3655 3656 3607
4 3607 3656 3657 3608
4 3608 3657 3658 3609
4 3609 3658 3659 3610
4 3610 3659 3660 3611
4 3611 3660 3661 3612
4 3612 3661 3662 3613
4 3613 3662 3663 3614
4 3614 3663 3664 3615
4 3615 3664 3665 3616
4 3616 3665 3666 3617
4 3617 3666 3667 3618
4 3618 3667 3668 3619
4 3619 3668 3669 3620
4 3620 3669 3670 3621
4 3621 3670 3671 3622
4 3622 3671 3672 3623
4 3623 3672 3673 3624
4 3624 3673 3674 3625
4 3625 3674 3675 3626
4 3626 3675 3676 3627
4 3627 3676 3677 3628
4 3628 3677 3678 3629
4 3629 3678 3679 3630
4 3630 3679 3680 3631
4 3631 3680 182 183
4 72 73 3681 3632
4 3632 3681 3682 3633
4 3633 3682 3683 3634
4 3634 3683 3684 3635
4 3635 3684 3685 3636
4 3636 3685 3686 3637
4 3637 3686 3687 3638
4 3638 3687 3688 3639
4 3639 3688 3689 3640
4 3640 3689 3690 3641
4 3641 3690 3691 3642
4 3642 3691 3692 3643
4 3643 3692 3693 3644
4 3644 3693 3694 3645
4 3645 3694 3695 3646
4 3646 3695 3696 3647
4 3647 3696 3697 3648
4 3648 3697 3698 3649
4 3649 3698 3699 3650
4 3650 3699 3700 3651
4 3651 3700 3701 3652
4 3652 3701 3702 3653
4 3653 3702 3703 3654
4 3654 3703 3704 3655
4 3655 3704 3705 3656
4 3656 3705 3706 3657
4 3657 3706 3707 3658
4 3658 3707 3708 3659
4 3659 3708 3709 3660
4 3660 3709 3710 3661
4 3661 3710 3711 3662
4 3662 3711 3712 3663
4 3663 3712 3713 3664
4 3664 3713 3714 3665
4 3665 3714 3715 3666
4 3666 3715 3716 3667
4 3667 3716 3717 3668
4 3668 3717 3718 3669
4 3669 3718 3719 3670
4 3670 3719 3720 3671
4 3671 3720 3721 3672
4 3672 3721 3722 3673
4 3673 3722 3723 3674
4 3674 3723 3724 3675
4 3675 3724 3725 3676
4 3676 3725 3726 3677
4 3677 3726 3727 3678
4 3678 3727 3728 3679
4 3679 3728 3729 3680
4 3680 3729 181 182
4 73 74 3730 3681
4 3681 3730 3731 3682
4 3682 3731 3732 3683
4 3683 3732 3733 3684
4 3684 3733 3734 3685
4 3685 3734 3735 3686
4 3686 3735 3736 3687
4 3687 3736 3737 3688
4 3688 3737 3738 3689
4 3689 3738 3739 3690
4 3690 3739 3740 3691
4 3691 3740 3741 3692
4 3692 3741 3742 3693
4 3693 3742 3743 3694
4 3694 3743 3744 3695
4 3695 3744 3745 3696
4 3696 3745 3746 3697
4 3697 3746 3747 3698
4 3698 3747 3748 3699
4 3699 3748 3749 3700
4 3700 3749 3750 3701
4 3701 3750 3751 3702
4 3702 3751 3752 3703
4 3703 3752 3753 3704
4 3704 3753 3754 3705
4 3705 3754 3755 3706
4 3706 3755 3756 3707
4 3707 3756 3757 3708
4 3708 3757 3758 3709
4 3709 3758 3759 3710
4 3710 3759 3760 3711
4 3711 3760 3761 3712
4 3712 3761 3762 3713
4 3713 3762 3763 3714
4 3714 3763 3764 3715
4 3715 3764 3765 3716
4 3716 3765 3766 3717
4 3717 3766 3767 3718
4 3718 3767 3768 3719
4 3719 3768 3769 3720
4 3720 3769 3770 3721
4 3721 3770 3771 3722
4 3722 3771 3772 3723
4 3723 3772 3773 3724
4 3724 3773 3774 3725
4 3725 3774 3775 3726
4 3726 3775 3776 3727
4 3727 3776 3777 3728
4 3728 3777 3778 3729
4 3729 3778 180 181
4 74 75 3779 3730
4 3730 3779 3780 3731
4 3731 3780 3781 3732
4 3732 3781 3782 3733
4 3733 3782 3783 3734
4 3734 3783 3784 3735
4 3735 3784 3785 3736
4 3736 3785 3786 3737
4 3737 3786 3787 3738
4 3738 3787 3788 3739
4 3739 3788 3789 3740
4 3740 3789 3790 3741
4 3741 3790 3791 3742
4 3742 3791 3792 3743
4 3743 3792 3793 3744
4 3744 3793 3794 3745
4 3745 3794 3795 3746
4 3746 3795 3796 3747
4 3747 3796 3797 3748
4 3748 3797 3798 3749
4 3749 3798 3799 3750
4 3750 3799 3800 3751
4 3751 3800 3801 3752
4 3752 3801 3802 3753
4 3753 3802 3803 3754
4 3754 3803 3804 3755
4 3755 3804 3805 3756
4 3756 3805 3806 3757
4 3757 3806 3807 3758
4 3758 3807 3808 3759
4 3759 3808 3809 3760
4 3760 3809 3810 3761
4 3761 3810 3811 3762
4 3762 3811 3812 3763
4 3763 3812 3813 3764
4 3764 3813 3814 3765
4 3765 3814 3815 3766
4 3766 3815 3816 3767
4 3767 3816 3817 3768
4 3768 3817 3818 3769
4 3769 3818 3819 3770
4 3770 3819 3820 3771
4 3771 3820 3821 3772
4 3772 3821 3822 3773
4 3773 3822 3823 3774
4 3774 3823 3824 3775
4 3775 3824 3825 3776
4 3776 3825 3826 3777
4 3777 3826 3827 3778
4 3778 3827 179 180
4 75 76 3828 3779
4 3779 3828 3829 3780
4 3780 3829 3830 3781
4 3781 3830 3831 3782
4 3782 3831 3832 3783
4 3783 3832 3833 3784
4 3784 3833 3834 3785
4 3785 3834 3835 3786
4 3786 3835 3836 3787
4 3787 3836 3837 3788
4 3788 3837 3838 3789
4 3789 3838 3839 3790
4 3790 3839 3840 3791
4 3791 3840 3841 3792
4 3792 3841 3842 3793
4 3793 3842 3843 3794
4 3794 3843 3844 3795
4 3795 3844 3845 3796
4 3796 3845 3846 3797
4 3797 3846 3847 3798
4 3798 3847 3848 3799
4 3799 3848 3849 3800
4 3800 3849 3850 3801
4 3801 3850 3851 3802
4 3802 3851 3852 3803
4 3803 3852 3853 3804
4 3804 3853 3854 3805
4 3805 3854 3855 3806
4 3806 3855 3856 3807
4 3807 3856 3857 3808
4 3808 3857 3858 3809
4 3809 3858 3859 3810
4 3810 3859 3860 3811
4 3811 3860 3861 3812
4 3812 3861 3862 3813
4 3813 3862 3863 3814
4 3814 3863 3864 3815
4 3815 3864 3865 3816
4 3816 3865 3866 3817
4 3817 3866 3867 3818
4 3818 3867 3868 3819
4 3819 3868 3869 3820
4 3820 3869 3870 3821
4 3821 3870 3871 3822
4 3822 3871 3872 3823
4 3823 3872 3873 3824
4 3824 3873 3874 3825
4 3825 3874 3875 3826
4 3826 3875 3876 3827
4 3827 3876 178 179
4 76 77 3877 3828
4 3828 3877 3878 3829
4 3829 3878 3879 3830
4 3830 3879 3880 3831
4 3831 3880 3881 3832
4 3832 3881 3882 3833
4 3833 3882 3883 3834
4 3834 3883 3884 3835
4 3835 3884 3885 3836
4 3836 3885 3886 3837
4 3837 3886 3887 3838
4 3838 3887 3888 3839
4 3839 3888 3889 3840
4 3840 3889 3890 3841
4 3841 3890 3891 3842
4 3842 3891 3892 3843
4 3843 3892 3893 3844
4 3844 3893 3894 3845
4 3845 3894 3895 3846
4 3846 3895 3896 3847
4 3847 3896 3897 3848
4 3848 3897 3898 3849
4 3849 3898 3899 3850
4 3850 3899 3900 3851
4 3851 3900 3901 3852
4 3852 3901 3902 3853
4 3853 3902 3903 3854
4 3854 3903 3904 3855
4 3855 3904 3905 3856
4 3856 3905 3906 3857
4 3857 3906 3907 3858
4 3858 3907 3908 3859
4 3859 3908 3909 3860
4 3860 3909 3910 3861
4 3861 3910 3911 3862
4 3862 3911 3912 3863
4 3863 3912 3913 3864
4 3864 3913 3914 3865
4 3865 3914 3915 3866
4 3866 3915 3916 3867
4 3867 3916 3917 3868
4 3868 3917 3918 3869
4 3869 3918 3919 3870
4 3870 3919 3920 3871
4 3871 3920 3921 3872
4 3872 3921 3922 3873
4 3873 3922 3923 3874
4 3874 3923 3924 3875
4 3875 3924 3925 3876
4 3876 3925 177 178
4 77 78 3926 3877
4 3877 3926 3927 3878
4 3878 3927 3928 3879
4 3879 3928 3929 3880
4 3880 3929 3930 3881
4 3881 3930 3931 3882
4 3882 3931 3932 3883
4 3883 3932 3933 3884
4 3884 3933 3934 3885
4 3885 3934 3935 3886
4 3886 3935 3936 3887
4 3887 3936 3937 3888
4 3888 3937 3938 3889
4 3889 3938 3939 3890
4 3890 3939 3940 3891
4 3891 3940 3941 3892
4 3892 3941 3942 3893
4 3893 3942 3943 3894
4 3894 3943 3944 3895
4 3895 3944 3945 3896
4 3896 3945 3946 3897
4 3897 3946 3947 3898
4 3898 3947 3948 3899
4 3899 3948 3949 3900
4 3900 3949 3950 3901
4 3901 3950 3951 3902
4 3902 3951 3952 3903
4 3903 3952 3953 3904
4 3904 3953 3954 3905
4 3905 3954 3955 3906
4 3906 3955 3956 3907
4 3907 3956 3957 3908
4 3908 3957 3958 3909
4 3909 3958 3959 3910
4 3910 3959 3960 3911
4 3911 3960 3961 3912
4 3912 3961 3962 3913
4 3913 3962 3963 3914
4 3914 3963 3964 3915
4 3915 3964 3965 3916
4 3916 3965 3966 3917
4 3917 3966 3967 3918
4 3918 3967 3968 3919
4 3919 3968 3969 3920
4 3920 3969 3970 3921
4 3921 3970 3971 3922
4 3922 3971 3972 3923
4 3923 3972 3973 3924
4 3924 3973 3974 3925
4 3925 3974 176 177
4 78 79 3975 3926
4 3926 3975 3976 3927
4 3927 3976 3977 3928
4 3928 3977 3978 3929
4 3929 3978 3979 3930
4 3930 3979 3980 3931
4 3931 3980 3981 3932
4 3932 3981 3982 3933
4 3933 3982 3983 3934
4 3934 3983 3984 3935
4 3935 3984 3985 3936
4 3936 3985 3986 3937
4 3937 3986 3987 3938
4 3938 3987 3988 3939
4 3939 3988 3989 3940
4 3940 3989 3990 3941
4 3941 3990 3991 3942
4 3942 3991 3992 3943
4 3943 3992 3993 3944
4 3944 3993 3994 3945
4 3945 3994 3995 3946
4 3946 3995 3996 3947
4 3947 3996 3997 3948
4 3948 3997 3998 3949
4 3949 3998 3999 3950
4 3950 3999 4000 3951
4 3951 4000 4001 3952
4 3952 4001 4002 3953
4 3953 4002 4003 3954
4 3954 4003 4004 3955
4 3955 4004 4005 3956
4 3956 4005 4006 3957
4 3957 4006 4007 3958
4 3958 4007 4008 3959
4 3959 4008 4009 3960
4 3960 4009 4010 3961
4 3961 4010 4011 3962
4 3962 4011 4012 3963
4 3963 4012 4013 3964
4 3964 4013 4014 3965
4 3965 4014 4015 3966
4 3966 4015 4016 3967
4 3967 4016 4017 3968
4 3968 4017 4018 3969
4 3969 4018 4019 3970
4 3970 4019 4020 3971
4 3971 4020 4021 3972
4 3972 4021 4022 3973
4 3973 4022 4023 3974
4 3974 4023 175 176
4 79 80 4024 3975
4 3975 4024 4025 3976
4 3976 4025 4026 3977
4 3977 4026 4027 3978
4 3978 4027 4028 3979
4 3979 4028 4029 3980
4 3980 4029 4030 3981
4 3981 4030 4031 3982
4 3982 4031 4032 3983
4 3983 4032 4033 3984
4 3984 4033 4034 3985
4 3985 4034 4035 3986
4 3986 4035 4036 3987
4 3987 4036 4037 3988
4 3988 4037 4038 3989
4 3989 4038 4039 3990
4 3990 4039 4040 3991
4 3991 4040 4041 3992
4 3992 4041 4042 3993
4 3993 4042 4043 3994
4 3994 4043 4044 3995
4 3995 4044 4045 3996
4 3996 4045 4046 3997
4 3997 4046 4047 3998
4 3998 4047 4048 3999
4 3999 4048 4049 4000
4 4000 4049 4050 4001
4 4001 4050 4051 4002
4 4002 4051 4052 4003
4 4003 4052 4053 4004
4 4004 4053 4054 4005
4 4005 4054 4055 4006
4 4006 4055 4056 4007
4 4007 4056 4057 4008
4 4008 4057 4058 4009
4 4009 4058 4059 4010
4 4010 4059 4060 4011
4 4011 4060 4061 4012
4 4012 4061 4062 4013
4 4013 4062 4063 4014
4 4014 4063 4064 4015
4 4015 4064 4065 4016
4 4016 4065 4066 4017
4 4017 4066 4067 4018
4 4018 4067 4068 4019
4 4019 4068 4069 4020
4 4020 4069 4070 4021
4 4021 4070 4071 4022
4 4022 4071 4072 4023
4 4023 4072 174 175
4 80 81 4073 4024
4 4024 4073 4074 4025
4 4025 4074 4075 4026
4 4026 4075 4076 4027
4 4027 4076 4077 4028
4 4028 4077 4078 4029
4 4029 4078 4079 4030
4 4030 4079 4080 4031
4 4031 4080 4081 4032
4 4032 4081 4082 4033
4 4033 4082 4083 4034
4 4034 4083 4084 4035
4 4035 4084 4085 4036
4 4036 4085 4086 4037
4 4037 4086 4087 4038
4 4038 4087 4088 4039
4 4039 4088 4089 4040
4 4040 4089 4090 4041
4 4041 4090 4091 4042
4 4042 4091 4092 4043
4 4043 4092 4093 4044
4 4044 4093 4094 4045
4 4045 4094 4095 4046
4 4046 4095 4096 4047
4 4047 4096 4097 4048
4 4048 4097 4098 4049
4 4049 4098 4099 4050
4 4050 4099 4100 4051
4 4051 4100 4101 4052
4 4052 4101 4102 4053
4 4053 4102 4103 4054
4 4054 4103 4104 4055
4 4055 4104 4105 4056
4 4056 4105 4106 4057
4 4057 4106 4107 4058
4 4058 4107 4108 4059
4 4059 4108 4109 4060
4 4060 4109 4110 4061
4 4061 4110 4111 4062
4 4062 4111 4112 4063
4 4063 4112 4113 4064
4 4064 4113 4114 4065
4 4065 4114 4115 4066
4 4066 4115 4116 4067
4 4067 4116 4117 4068
4 4068 4117 4118 4069
4 4069 4118 4119 4070
4 4070 4119 4120 4071
4 4071 4120 4121 4072
4 4072 4121 173 174
4 81 82 4122 4073
4 4073 4122 4123 4074
4 4074 4123 4124 4075
4 4075 4124 4125 4076
4 4076 4125 4126 4077
4 4077 4126 4127 4078
4 4078 4127 4128 4079
4 4079 4128 4129 4080
4 4080 4129 4130 4081
4 4081 4130 4131 4082
4 4082 4131 4132 4083
4 4083 4132 4133 4084
4 4084 4133 4134 4085
4 4085 4134 4135 4086
4 4086 4135 4136 4087
4 4087 4136 4137 4088
4 4088 4137 4138 4089
4 4089 4138 4139 4090
4 4090 4139 4140 4091
4 4091 4140 4141 4092
4 4092 4141 4142 4093
4 4093 4142 4143 4094
4 4094 4143 4144 4095
4 4095 4144 4145 4096
4 4096 4145 4146 4097
4 4097 4146 4147 4098
4 4098 4147 4148 4099
4 4099 4148 4149 4100
4 4100 4149 4150 4101
4 4101 4150 4151 4102
4 4102 4151 4152 4103
4 4103 4152 4153 4104
4 4104 4153 4154 4105
4 4105 4154 4155 4106
4 4106 4155 4156 4107
4 4107 4156 4157 4108
4 4108 4157 4158 4109
4 4109 4158 4159 4110
4 4110 4159 4160 4111
4 4111 4160 4161 4112
4 4112 4161 4162 4113
4 4113 4162 4163 4114
4 4114 4163 4164 4115
4 4115 4164 4165 4116
4 4116 4165 4166 4117
4 4117 4166 4167 4118
4 4118 4167 4168 4119
4 4119 4168 4169 4120
4 4120 4169 4170 4121
4 4121 4170 172 173
4 82 83 4171 4122
4 4122 4171 4172 4123
4 4123 4172 4173 4124
4 4124 4173 4174 4125
4 4125 4174 4175 4126
4 4126 4175 4176 4127
4 4127 4176 4177 4128
4 4128 4177 4178 4129
4 4129 4178 4179 4130
4 4130 4179 4180 4131
4 4131 4180 4181 4132
4 4132 4181 4182 4133
4 4133 4182 4183 4134
4 4134 4183 4184 4135
4 4135 4184 4185 4136
4 4136 4185 4186 4137
4 4137 4186 4187 4138
4 4138 4187 4188 4139
4 4139 4188 4189 4140
4 4140 4189 4190 4141
4 4141 4190 4191 4142
4 4142 4191 4192 4143
4 4143 4192 4193 4144
4 4144 4193 4194 4145
4 4145 4194 4195 4146
4 4146 4195 4196 4147
4 4147 4196 4197 4148
4 4148 4197 4198 4149
4 4149 4198 4199 4150
4 4150 4199 4200 4151
4 4151 4200 4201 4152
4 4152 4201 4202 4153
4 4153 4202 4203 4154
4 4154 4203 4204 4155
4 4155 4204 4205 4156
4 4156 4205 4206 4157
4 4157 4206 4207 4158
4 4158 4207 4208 4159
4 4159 4208 4209 4160
4 4160 4209 4210 4161
4 4161 4210 4211 4162
4 4162 4211 4212 4163
4 4163 4212 4213 4164
4 4164 4213 4214 4165
4 4165 4214 4215 4166
4 4166 4215 4216 4167
4 4167 4216 4217 4168
4 4168 4217 4218 4169
4 4169 4218 4219 4170
4 4170 4219 171 172
4 83 84 4220 4171
4 4171 4220 4221 4172
4 4172 4221 4222 4173
4 4173 4222 4223 4174
4 4174 4223 4224 4175
4 4175 4224 4225 4176
4 4176 4225 4226 4177
4 4177 4226 4227 4178
4 4178 4227 4228 4179
4 4179 4228 4229 4180
4 4180 4229 4230 4181
4 4181 4230 4231 4182
4 4182 4231 4232 4183
4 4183 4232 4233 4184
4 4184 4233 4234 4185
4 4185 4234 4235 4186
4 4186 4235 4236 4187
4 4187 4236 4237 4188
4 4188 4237 4238 4189
4 4189 4238 4239 4190
4 4190 4239 4240 4191
4 4191 4240 4241 4192
4 4192 4241 4242 4193
4 4193 4242 4243 4194
4 4194 4243 4244 4195
4 4195 4244 4245 4196
4 4196 4245 4246 4197
4 4197 4246 4247 4198
4 4198 4247 4248 4199
4 4199 4248 4249 4200
4 4200 4249 4250 4201
4 4201 4250 4251 4202
4 4202 4251 4252 4203
4 4203 4252 4253 4204
4 4204 4253 4254 4205
4 4205 4254 4255 4206
4 4206 4255 4256 4207
4 4207 4256 4257 4208
4 4208 4257 4258 4209
4 4209 4258 4259 4210
4 4210 4259 4260 4211
4 4211 4260 4261 4212
4 4212 4261 4262 4213
4 4213 4262 4263 4214
4 4214 4263 4264 4215
4 4215 4264 4265 4216
4 4216 4265 4266 4217
4 4217 4266 4267 4218
4 4218 4267 4268 4219
4 4219 4268 170 171
4 84 85 4269 4220
4 4220 4269 4270 4221
4 4221 4270 4271 4222
4 4222 4271 4272 4223
4 4223 4272 4273 4224
4 4224 4273 4274 4225
4 4225 4274 4275 4226
4 4226 4275 4276 4227
4 4227 4276 4277 4228
4 4228 4277 4278 4229
4 4229 4278 4279 4230
4 4230 4279 4280 4231
4 4231 4280 4281 4232
4 4232 4281 4282 4233
4 4233 4282 4283 4234
4 4234 4283 4284 4235
4 4235 4284 4285 4236
4 4236 4285 4286 4237
4 4237 4286 4287 4238
4 4238 4287 4288 4239
4 4239 4288 4289 4240
4 4240 4289 4290 4241
4 4241 4290 4291 4242
4 4242 4291 4292 4243
4 4243 4292 4293 4244
4 4244 4293 4294 4245
4 4245 4294 4295 4246
4 4246 4295 4296 4247
4 4247 4296 4297 4248
4 4248 4297 4298 4249
4 4249 4298 4299 4250
4 4250 4299 4300 4251
4 4251 4300 4301 4252
4 4252 4301 4302 4253
4 4253 4302 4303 4254
4 4254 4303 4304 4255
4 4255 4304 4305 4256
4 4256 4305 4306 4257
4 4257 4306 4307 4258
4 4258 4307 4308 4259
4 4259 4308 4309 4260
4 4260 4309 4310 4261
4 4261 4310 4311 4262
4 4262 4311 4312 4263
4 4263 4312 4313 4264
4 4264 4313 4314 4265
4 4265 4314 4315 4266
4 4266 4315 4316 4267
4 4267 4316 4317 4268
4 4268 4317 169 170
4 85 86 4318 4269
4 4269 4318 4319 4270
4 4270 4319 4320 4271
4 4271 4320 4321 4272
4 4272 4321 4322 4273
4 4273 4322 4323 4274
4 4274 4323 4324 4275
4 4275 4324 4325 4276
4 4276 4325 4326 4277
4 4277 4326 4327 4278
4 4278 4327 4328 4279
4 4279 4328 4329 4280
4 4280 4329 4330 4281
4 4281 4330 4331 4282
4 4282 4331 4332 4283
4 4283 4332 4333 4284
4 4284 4333 4334 4285
4 4285 4334 4335 4286
4 4286 4335 4336 4287
4 4287 4336 4337 4288
4 4288 4337 4338 4289
4 4289 4338 4339 4290
4 4290 4339 4340 4291
4 4291 4340 4341 4292
4 4292 4341 4342 4293
4 4293 4342 4343 4294
4 4294 4343 4344 4295
4 4295 4344 4345 4296
4 4296 4345 4346 4297
4 4297 4346 4347 4298
4 4298 4347 4348 4299
4 4299 4348 4349 4300
4 4300 4349 4350 4301
4 4301 4350 4351 4302
4 4302 4351 4352 4303
4 4303 4352 4353 4304
4 4304 4353 4354 4305
4 4305 4354 4355 4306
4 4306 4355 4356 4307
4 4307 4356 4357 4308
4 4308 4357 4358 4309
4 4309 4358 4359 4310
4 4310 4359 4360 4311
4 4311 4360 4361 4312
4 4312 4361 4362 4313
4 4313 4362 4363 4314
4 4314 4363 4364 4315
4 4315 4364 4365 4316
4 4316 4365 4366 4317
4 4317 4366 168 169
4 86 87 4367 4318
4 4318 4367 4368 4319
4 4319 4368 4369 4320
4 4320 4369 4370 4321
4 4321 4370 4371 4322
4 4322 4371 4372 4323
4 4323 4372 4373 4324
4 4324 4373 4374 4325
4 4325 4374 4375 4326
4 4326 4375 4376 4327
4 4327 4376 4377 4328
4 4328 4377 4378 4329
4 4329 4378 4379 4330
4 4330 4379 4380 4331
4 4331 4380 4381 4332
4 4332 4381 4382 4333
4 4333 4382 4383 4334
4 4334 4383 4384 4335
4 4335 4384 4385 4336
4 4336 4385 4386 4337
4 4337 4386 4387 4338
4 4338 4387 4388 4339
4 4339 4388 4389 4340
4 4340 4389 4390 4341
4 4341 4390 4391 4342
4 4342 4391 4392 4343
4 4343 4392 4393 4344
4 4344 4393 4394 4345
4 4345 4394 4395 4346
4 4346 4395 4396 4347
4 4347 4396 4397 4348
4 4348 4397 4398 4349
4 4349 4398 4399 4350
4 4350 4399 4400 4351
4 4351 4400 4401 4352
4 4352 4401 4402 4353
4 4353 4402 4403 4354
4 4354 4403 4404 4355
4 4355 4404 4405 4356
4 4356 4405 4406 4357
4 4357 4406 4407 4358
4 4358 4407 4408 4359
4 4359 4408 4409 4360
4 4360 4409 4410 4361
4 4361 4410 4411 4362
4 4362 4411 4412 4363
4 4363 4412 4413 4364
4 4364 4413 4414 4365
4 4365 4414 4415 4366
4 4366 4415 167 168
4 87 88 4416 4367
4 4367 4416 4417 4368
4 4368 4417 4418 4369
4 4369 4418 4419 4370
4 4370 4419 4420 4371
4 4371 4420 4421 4372
4 4372 4421 4422 4373
4 4373 4422 4423 4374
4 4374 4423 4424 4375
4 4375 4424 4425 4376
4 4376 4425 4426 4377
4 4377 4426 4427 4378
4 4378 4427 4428 4379
4 4379 4428 4429 4380
4 4380 4429 4430 4381
4 4381 4430 4431 4382
4 4382 4431 4432 4383
4 4383 4432 4433 4384
4 4384 4433 4434 4385
4 4385 4434 4435 4386
4 4386 4435 4436 4387
4 4387 4436 4437 4388
4 4388 4437 4438 4389
4 4389 4438 4439 4390
4 4390 4439 4440 4391
4 4391 4440 4441 4392
4 4392 4441 4442 4393
4 4393 4442 4443 4394
4 4394 4443 4444 4395
4 4395 4444 4445 4396
4 4396 4445 4446 4397
4 4397 4446 4447 4398
4 4398 4447 4448 4399
4 4399 4448 4449 4400
4 4400 4449 4450 4401
4 4401 4450 4451 4402
4 4402 4451 4452 4403
4 4403 4452 4453 4404
4 4404 4453 4454 4405
4 4405 4454 4455 4406
4 4406 4455 4456 4407
4 4407 4456 4457 4408
4 4408 4457 4458 4409
4 4409 4458 4459 4410
4 4410 4459 4460 4411
4 4411 4460 4461 4412
4 4412 4461 4462 4413
4 4413 4462 4463 4414
4 4414 4463 4464 4415
4 4415 4464 166 167
4 88 89 4465 4416
4 4416 4465 4466 4417
4 4417 4466 4467 4418
4 4418 4467 4468 4419
4 4419 4468 4469 4420
4 4420 4469 4470 4421
4 4421 4470 4471 4422
4 4422 4471 4472 4423
4 4423 4472 4473 4424
4 4424 4473 4474 4425
4 4425 4474 4475 4426
4 4426 4475 4476 4427
4 4427 4476 4477 4428
4 4428 4477 4478 4429
4 4429 4478 4479 4430
4 4430 4479 4480 4431
4 4431 4480 4481 4432
4 4432 4481 4482 4433
4 4433 4482 4483 4434
4 4434 4483 4484 4435
4 4435 4484 4485 4436
4 4436 4485 4486 4437
4 4437 4486 4487 4438
4 4438 4487 4488 4439
4 4439 4488 4489 4440
4 4440 4489 4490 4441
4 4441 4490 4491 4442
4 4442 4491 4492 4443
4 4443 4492 4493 4444
4 4444 4493 4494 4445
4 4445 4494 4495 4446
4 4446 4495 4496 4447
4 4447 4496 4497 4448
4 4448 4497 4498 4449
4 4449 4498 4499 4450
4 4450 4499 4500 4451
4 4451 4500 4501 4452
4 4452 4501 4502 4453
4 4453 4502 4503 4454
4 4454 4503 4504 4455
4 4455 4504 4505 4456
4 4456 4505 4506 4457
4 4457 4506 4507 4458
4 4458 4507 4508 4459
4 4459 4508 4509 4460
4 4460 4509 4510 4461
4 4461 4510 4511 4462
4 4462 4511 4512 4463
4 4463 4512 4513 4464
4 4464 4513 165 166
4 89 90 4514 4465
4 4465 4514 4515 4466
4 4466 4515 4516 4467
4 4467 4516 4517 4468
4 4468 4517 4518 4469
4 4469 4518 4519 4470
4 4470 4519 4520 4471
4 4471 4520 4521 4472
4 4472 4521 4522 4473
4 4473 4522 4523 4474
4 4474 4523 4524 4475
4 4475 4524 4525 4476
4 4476 4525 4526 4477
4 4477 4526 4527 4478
4 4478 4527 4528 4479
4 4479 4528 4529 4480
4 4480 4529 4530 4481
4 4481 4530 4531 4482
4 4482 4531 4532 4483
4 4483 4532 4533 4484
4 4484 4533 4534 4485
4 4485 4534 4535 4486
4 4486 4535 4536 4487
4 4487 4536 4537 4488
4 4488 4537 4538 4489
4 4489 4538 4539 4490
4 4490 4539 4540 4491
4 4491 4540 4541 4492
4 4492 4541 4542 4493
4 4493 4542 4543 4494
4 4494 4543 4544 4495
4 4495 4544 4545 4496
4 4496 4545 4546 4497
4 4497 4546 4547 4498
4 4498 4547 4548 4499
4 4499 4548 4549 4500
4 4500 4549 4550 4501
4 4501 4550 4551 4502
4 4502 4551 4552 4503
4 4503 4552 4553 4504
4 4504 4553 4554 4505
4 4505 4554 4555 4506
4 4506 4555 4556 4507
4 4507 4556 4557 4508
4 4508 4557 4558 4509
4 4509 4558 4559 4510
4 4510 4559 4560 4511
4 4511 4560 4561 4512
4 4512 4561 4562 4513
4 4513 4562 164 165
4 90 91 4563 4514
4 4514 4563 4564 4515
4 4515 4564 4565 4516
4 4516 4565 4566 4517
4 4517 4566 4567 4518
4 4518 4567 4568 4519
4 4519 4568 4569 4520
4 4520 4569 4570 4521
4 4521 4570 4571 4522
4 4522 4571 4572 4523
4 4523 4572 4573 4524
4 4524 4573 4574 4525
4 4525 4574 4575 4526
4 4526 4575 4576 4527
4 4527 4576 4577 4528
4 4528 4577 4578 4529
4 4529 4578 4579 4530
4 4530 4579 4580 4531
4 4531 4580 4581 4532
4 4532 4581 4582 4533
4 4533 4582 4583 4534
4 4534 4583 4584 4535
4 4535 4584 4585 4536
4 4536 4585 4586 4537
4 4537 4586 4587 4538
4 4538 4587 4588 4539
4 4539 4588 4589 4540
4 4540 4589 4590 4541
4 4541 4590 4591 4542
4 4542 4591 4592 4543
4 4543 4592 4593 4544
4 4544 4593 4594 4545
4 4545 4594 4595 4546
4 4546 4595 4596 4547
4 4547 4596 4597 4548
4 4548 4597 4598 4549
4 4549 4598 4599 4550
4 4550 4599 4600 4551
4 4551 4600 4601 4552
4 4552 4601 4602 4553
4 4553 4602 4603 4554
4 4554 4603 4604 4555
4 4555 4604 4605 4556
4 4556 4605 4606 4557
4 4557 4606 4607 4558
4 4558 4607 4608 4559
4 4559 4608 4609 4560
4 4560 4609 4610 4561
4 4561 4610 4611 4562
4 4562 4611 163 164
4 91 92 4612 4563
4 4563 4612 4613 4564
4 4564 4613 4614 4565
4 4565 4614 4615 4566
4 4566 4615 4616 4567
4 4567 4616 4617 4568
4 4568 4617 4618 4569
4 4569 4618 4619 4570
4 4570 4619 4620 4571
4 4571 4620 4621 4572
4 4572 4621 4622 4573
4 4573 4622 4623 4574
4 4574 4623 4624 4575
4 4575 4624 4625 4576
4 4576 4625 4626 4577
4 4577 4626 4627 4578
4 4578 4627 4628 4579
4 4579 4628 4629 4580
4 4580 4629 4630 4581
4 4581 4630 4631 4582
4 4582 4631 4632 4583
4 4583 4632 4633 4584
4 4584 4633 4634 4585
4 4585 4634 4635 4586
4 4586 4635 4636 4587
4 4587 4636 4637 4588
4 4588 4637 4638 4589
4 4589 4638 4639 4590
4 4590 4639 4640 4591
4 4591 4640 4641 4592
4 4592 4641 4642 4593
4 4593 4642 4643 4594
4 4594 4643 4644 4595
4 4595 4644 4645 4596
4 4596 4645 4646 4597
4 4597 4646 4647 4598
4 4598 4647 4648 4599
4 4599 4648 4649 4600
4 4600 4649 4650 4601
4 4601 4650 4651 4602
4 4602 4651 4652 4603
4 4603 4652 4653 4604
4 4604 4653 4654 4605
4 4605 4654 4655 4606
4 4606 4655 4656 4607
4 4607 4656 4657 4608
4 4608 4657 4658 4609
4 4609 4658 4659 4610
4 4610 4659 4660 4611
4 4611 4660 162 163
4 92 93 4661 4612
4 4612 4661 4662 4613
4 4613 4662 4663 4614
4 4614 4663 4664 4615
4 4615 4664 4665 4616
4 4616 4665 4666 4617
4 4617 4666 4667 4618
4 4618 4667 4668 4619
4 4619 4668 4669 4620
4 4620 4669 4670 4621
4 4621 4670 4671 4622
4 4622 4671 4672 4623
4 4623 4672 4673 4624
4 4624 4673 4674 4625
4 4625 4674 4675 4626
4 4626 4675 4676 4627
4 4627 4676 4677 4628
4 4628 4677 4678 4629
4 4629 4678 4679 4630
4 4630 4679 4680 4631
4 4631 4680 4681 4632
4 4632 4681 4682 4633
4 4633 4682 4683 4634
4 4634 4683 4684 4635
4 4635 4684 4685 4636
4 4636 4685 4686 4637
4 4637 4686 4687 4638
4 4638 4687 4688 4639
4 4639 4688 4689 4640
4 4640 4689 4690 4641
4 4641 4690 4691 4642
4 4642 4691 4692 4643
4 4643 4692 4693 4644
4 4644 4693 4694 4645
4 4645 4694 4695 4646
4 4646 4695 4696 4647
4 4647 4696 4697 4648
4 4648 4697 4698 4649
4 4649 4698 4699 4650
4 4650 4699 4700 4651
4 4651 4700 4701 4652
4 4652 4701 4702 4653
4 4653 4702 4703 4654
4 4654 4703 4704 4655
4 4655 4704 4705 4656
4 4656 4705 4706 4657
4 4657 4706 4707 4658
4 4658 4707 4708 4659
4 4659 4708 4709 4660
4 4660 4709 161 162
4 93 94 4710 4661
4 4661 4710 4711 4662
4 4662 4711 4712 4663
4 4663 4712 4713 4664
4 4664 4713 4714 4665
4 4665 4714 4715 4666
4 4666 4715 4716 4667
4 4667 4716 4717 4668
4 4668 4717 4718 4669
4 4669 4718 4719 4670
4 4670 4719 4720 4671
4 4671 4720 4721 4672
4 4672 4721 4722 4673
4 4673 4722 4723 4674
4 4674 4723 4724 4675
4 4675 4724 4725 4676
4 4676 4725 4726 4677
4 4677 4726 4727 4678
4 4678 4727 4728 4679
4 4679 4728 4729 4680
4 4680 4729 4730 4681
4 4681 4730 4731 4682
4 4682 4731 4732 4683
4 4683 4732 4733 4684
4 4684 4733 4734 4685
4 4685 4734 4735 4686
4 4686 4735 4736 4687
4 4687 4736 4737 4688
4 4688 4737 4738 4689
4 4689 4738 4739 4690
4 4690 4739 4740 4691
4 4691 4740 4741 4692
4 4692 4741 4742 4693
4 4693 4742 4743 4694
4 4694 4743 4744 4695
4 4695 4744 4745 4696
4 4696 4745 4746 4697
4 4697 4746 4747 4698
4 4698 4747 4748 4699
4 4699 4748 4749 4700
4 4700 4749 4750 4701
4 4701 4750 4751 4702
4 4702 4751 4752 4703
4 4703 4752 4753 4704
4 4704 4753 4754 4705
4 4705 4754 4755 4706
4 4706 4755 4756 4707
4 4707 4756 4757 4708
4 4708 4757 4758 4709
4 4709 4758 160 161
4 94 95 4759 4710
4 4710 4759 4760 4711
4 4711 4760 4761 4712
4 4712 4761 4762 4713
4 4713 4762 4763 4714
4 4714 4763 4764 4715
4 4715 4764 4765 4716
4 4716 4765 4766 4717
4 4717 4766 4767 4718
4 4718 4767 4768 4719
4 4719 4768 4769 4720
4 4720 4769 4770 4721
4 4721 4770 4771 4722
4 4722 4771 4772 4723
4 4723 4772 4773 4724
4 4724 4773 4774 4725
4 4725 4774 4775 4726
4 4726 4775 4776 4727
4 4727 4776 4777 4728
4 4728 4777 4778 4729
4 4729 4778 4779 4730
4 4730 4779 4780 4731
4 4731 4780 4781 4732
4 4732 4781 4782 4733
4 4733 4782 4783 4734
4 4734 4783 4784 4735
4 4735 4784 4785 4736
4 4736 4785 4786 4737
4 4737 4786 4787 4738
4 4738 4787 4788 4739
4 4739 4788 4789 4740
4 4740 4789 4790 4741
4 4741 4790 4791 4742
4 4742 4791 4792 4743
4 4743 4792 4793 4744
4 4744 4793 4794 4745
4 4745 4794 4795 4746
4 4746 4795 4796 4747
4 4747 4796 4797 4748
4 4748 4797 4798 4749
4 4749 4798 4799 4750
4 4750 4799 4800 4751
4 4751 4800 4801 4752
4 4752 4801 4802 4753
4 4753 4802 4803 4754
4 4754 4803 4804 4755
4 4755 4804 4805 4756
4 4756 4805 4806 4757
4 4757 4806 4807 4758
4 4758 4807 159 160
4 95 96 4808 4759
4 4759 4808 4809 4760
4 4760 4809 4810 4761
4 4761 4810 4811 4762
4 4762 4811 4812 4763
4 4763 4812 4813 4764
4 4764 4813 4814 4765
4 4765 4814 4815 4766
4 4766 4815 4816 4767
4 4767 4816 4817 4768
4 4768 4817 4818 4769
4 4769 4818 4819 4770
4 4770 4819 4820 4771
4 4771 4820 4821 4772
4 4772 4821 4822 4773
4 4773 4822 4823 4774
4 4774 4823 4824 4775
4 4775 4824 4825 4776
4 4776 4825 4826 4777
4 4777 4826 4827 4778
4 4778 4827 4828 4779
4 4779 4828 4829 4780
4 4780 4829 4830 4781
4 4781 4830 4831 4782
4 4782 4831 4832 4783
4 4783 4832 4833 4784
4 4784 4833 4834 4785
4 4785 4834 4835 4786
4 4786 4835 4836 4787
4 4787 4836 4837 4788
4 4788 4837 4838 4789
4 4789 4838 4839 4790
4 4790 4839 4840 4791
4 4791 4840 4841 4792
4 4792 4841 4842 4793
4 4793 4842 4843 4794
4 4794 4843 4844 4795
4 4795 4844 4845 4796
4 4796 4845 4846 4797
4 4797 4846 4847 4798
4 4798 4847 4848 4799
4 4799 4848 4849 4800
4 4800 4849 4850 4801
4 4801 4850 4851 4802
4 4802 4851 4852 4803
4 4803 4852 4853 4804
4 4804 4853 4854 4805
4 4805 4854 4855 4806
4 4806 4855 4856 4807
4 4807 4856 158 159
4 96 97 4857 4808
4 4808 4857 4858 4809
4 4809 4858 4859 4810
4 4810 4859 4860 4811
4 4811 4860 4861 4812
4 4812 4861 4862 4813
4 4813 4862 4863 4814
4 4814 4863 4864 4815
4 4815 4864 4865 4816
4 4816 4865 4866 4817
4 4817 4866 4867 4818
4 4818 4867 4868 4819
4 4819 4868 4869 4820
4 4820 4869 4870 4821
4 4821 4870 4871 4822
4 4822 4871 4872 4823
4 4823 4872 4873 4824
4 4824 4873 4874 4825
4 4825 4874 4875 4826
4 4826 4875 4876 4827
4 4827 4876 4877 4828
4 4828 4877 4878 4829
4 4829 4878 4879 4830
4 4830 4879 4880 4831
4 4831 4880 4881 4832
4 4832 4881 4882 4833
4 4833 4882 4883 4834
4 4834 4883 4884 4835
4 4835 4884 4885 4836
4 4836 4885 4886 4837
4 4837 4886 4887 4838
4 4838 4887 4888 4839
4 4839 4888 4889 4840
4 4840 4889 4890 4841
4 4841 4890 4891 4842
4 4842 4891 4892 4843
4 4843 4892 4893 4844
4 4844 4893 4894 4845
4 4845 4894 4895 4846
4 4846 4895 4896 4847
4 4847 4896 4897 4848
4 4848 4897 4898 4849
4 4849 4898 4899 4850
4 4850 4899 4900 4851
4 4851 4900 4901 4852
4 4852 4901 4902 4853
4 4853 4902 4903 4854
4 4854 4903 4904 4855
4 4855 4904 4905 4856
4 4856 4905 157 158
4 97 98 4906 4857
4 4857 4906 4907 4858
4 4858 4907 4908 4859
4 4859 4908 4909 4860
4 4860 4909 4910 4861
4 4861 4910 4911 4862
4 4862 4911 4912 4863
4 4863 4912 4913 4864
4 4864 4913 4914 4865
4 4865 4914 4915 4866
4 4866 4915 4916 4867
4 4867 4916 4917 4868
4 4868 4917 4918 4869
4 4869 4918 4919 4870
4 4870 4919 4920 4871
4 4871 4920 4921 4872
4 4872 4921 4922 4873
4 4873 4922 4923 4874
4 4874 4923 4924 4875
4 4875 4924 4925 4876
4 4876 4925 4926 4877
4 4877 4926 4927 4878
4 4878 4927 4928 4879
4 4879 4928 4929 4880
4 4880 4929 4930 4881
4 4881 4930 4931 4882
4 4882 4931 4932 4883
4 4883 4932 4933 4884
4 4884 4933 4934 4885
4 4885 4934 4935 4886
4 4886 4935 4936 4887
4 4887 4936 4937 4888
4 4888 4937 4938 4889
4 4889 4938 4939 4890
4 4890 4939 4940 4891
4 4891 4940 4941 4892
4 4892 4941 4942 4893
4 4893 4942 4943 4894
4 4894 4943 4944 4895
4 4895 4944 4945 4896
4 4896 4945 4946 4897
4 4897 4946 4947 4898
4 4898 4947 4948 4899
4 4899 4948 4949 4900
4 4900 4949 4950 4901
4 4901 4950 4951 4902
4 4902 4951 4952 4903
4 4903 4952 4953 4904
4 4904 4953 4954 4905
4 4905 4954 156 157
4 98 99 4955 4906
4 4906 4955 4956 4907
4 4907 4956 4957 4908
4 4908 4957 4958 4909
4 4909 4958 4959 4910
4 4910 4959 4960 4911
4 4911 4960 4961 4912
4 4912 4961 4962 4913
4 4913 4962 4963 4914
4 4914 4963 4964 4915
4 4915 4964 4965 4916
4 4916 4965 4966 4917
4 4917 4966 4967 4918
4 4918 4967 4968 4919
4 4919 4968 4969 4920
4 4920 4969 4970 4921
4 4921 4970 4971 4922
4 4922 4971 4972 4923
4 4923 4972 4973 4924
4 4924 4973 4974 4925
4 4925 4974 4975 4926
4 4926 4975 4976 4927
4 4927 4976 4977 4928
4 4928 4977 4978 4929
4 4929 4978 4979 4930
4 4930 4979 4980 4931
4 4931 4980 4981 4932
4 4932 4981 4982 4933
4 4933 4982 4983 4934
4 4934 4983 4984 4935
4 4935 4984 4985 4936
4 4936 4985 4986 4937
4 4937 4986 4987 4938
4 4938 4987 4988 4939
4 4939 4988 4989 4940
4 4940 4989 4990 4941
4 4941 4990 4991 4942
4 4942 4991 4992 4943
4 4943 4992 4993 4944
4 4944 4993 4994 4945
4 4945 4994 4995 4946
4 4946 4995 4996 4947
4 4947 4996 4997 4948
4 4948 4997 4998 4949
4 4949 4998 4999 4950
4 4950 4999 5000 4951
4 4951 5000 5001 4952
4 4952 5001 5002 4953
4 4953 5002 5003 4954
4 4954 5003 155 156
4 99 100 5004 4955
4 4955 5004 5005 4956
4 4956 5005 5006 4957
4 4957 5006 5007 4958
4 4958 5007 5008 4959
4 4959 5008 5009 4960
4 4960 5009 5010 4961
4 4961 5010 5011 4962
4 4962 5011 5012 4963
4 4963 5012 5013 4964
4 4964 5013 5014 4965
4 4965 5014 5015 4966
4 4966 5015 5016 4967
4 4967 5016 5017 4968
4 4968 5017 5018 4969
4 4969 5018 5019 4970
4 4970 5019 5020 4971
4 4971 5020 5021 4972
4 4972 5021 5022 4973
4 4973 5022 5023 4974
4 4974 5023 5024 4975
4 4975 5024 5025 4976
4 4976 5025 5026 4977
4 4977 5026 5027 4978
4 4978 5027 5028 4979
4 4979 5028 5029 4980
4 4980 5029 5030 4981
4 4981 5030 5031 4982
4 4982 5031 5032 4983
4 4983 5032 5033 4984
4 4984 5033 5034 4985
4 4985 5034 5035 4986
4 4986 5035 5036 4987
4 4987 5036 5037 4988
4 4988 5037 5038 4989
4 4989 5038 5039 4990
4 4990 5039 5040 4991
4 4991 5040 5041 4992
4 4992 5041 5042 4993
4 4993 5042 5043 4994
4 4994 5043 5044 4995
4 4995 5044 5045 4996
4 4996 5045 5046 4997
4 4997 5046 5047 4998
4 4998 5047 5048 4999
4 4999 5048 5049 5000
4 5000 5049 5050 5001
4 5001 5050 5051 5002
4 5002 5051 5052 5003
4 5003 5052 154 155
4 100 101 5053 5004
4 5004 5053 5054 5005
4 5005 5054 5055 5006
4 5006 5055 5056 5007
4 5007 5056 5057 5008
4 5008 5057 5058 5009
4 5009 5058 5059 5010
4 5010 5059 5060 5011
4 5011 5060 5061 5012
4 5012 5061 5062 5013
4 5013 5062 5063 5014
4 5014 5063 5064 5015
4 5015 5064 5065 5016
4 5016 5065 5066 5017
4 5017 5066 5067 5018
4 5018 5067 5068 5019
4 5019 5068 5069 5020
4 5020 5069 5070 5021
4 5021 5070 5071 5022
4 5022 5071 5072 5023
4 5023 5072 5073 5024
4 5024 5073 5074 5025
4 5025 5074 5075 5026
4 5026 5075 5076 5027
4 5027 5076 5077 5028
4 5028 5077 5078 5029
4 5029 5078 5079 5030
4 5030 5079 5080 5031
4 5031 5080 5081 5032
4 5032 5081 5082 5033
4 5033 5082 5083 5034
4 5034 5083 5084 5035
4 5035 5084 5085 5036
4 5036 5085 5086 5037
4 5037 5086 5087 5038
4 5038 5087 5088 5039
4 5039 5088 5089 5040
4 5040 5089 5090 5041
4 5041 5090 5091 5042
4 5042 5091 5092 5043
4 5043 5092 5093 5044
4 5044 5093 5094 5045
4 5045 5094 5095 5046
4 5046 5095 5096 5047
4 5047 5096 5097 5048
4 5048 5097 5098 5049
4 5049 5098 5099 5050
4 5050 5099 5100 5051
4 5051 5100 5101 5052
4 5052 5101 153 154
4 101 102 5102 5053
4 5053 5102 5103 5054
4 5054 5103 5104 5055
4 5055 5104 5105 5056
4 5056 5105 5106 5057
4 5057 5106 5107 5058
4 5058 5107 5108 5059
4 5059 5108 5109 5060
4 5060 5109 5110 5061
4 5061 5110 5111 5062
4 5062 5111 5112 5063
4 5063 5112 5113 5064
4 5064 5113 5114 5065
4 5065 5114 5115 5066
4 5066 5115 5116 5067
4 5067 5116 5117 5068
4 5068 5117 5118 5069
4 5069 5118 5119 5070
4 5070 5119 5120 5071
4 5071 5120 5121 5072
4 5072 5121 5122 5073
4 5073 5122 5123 5074
4 5074 5123 5124 5075
4 5075 5124 5125 5076
4 5076 5125 5126 5077
4 5077 5126 5127 5078
4 5078 5127 5128 5079
4 5079 5128 5129 5080
4 5080 5129 5130 5081
4 5081 5130 5131 5082
4 5082 5131 5132 5083
4 5083 5132 5133 5084
4 5084 5133 5134 5085
4 5085 5134 5135 5086
4 5086 5135 5136 5087
4 5087 5136 5137 5088
4 5088 5137 5138 5089
4 5089 5138 5139 5090
4 5090 5139 5140 5091
4 5091 5140 5141 5092
4 5092 5141 5142 5093
4 5093 5142 5143 5094
4 5094 5143 5144 5095
4 5095 5144 5145 5096
4 5096 5145 5146 5097
4 5097 5146 5147 5098
4 5098 5147 5148 5099
4 5099 5148 5149 5100
4 5100 5149 5150 5101
4 5101 5150 152 153
4 102 1 103 5102
4 5102 103 104 5103
4 5103 104 105 5104
4 5104 105 106 5105
4 5105 106 107 5106
4 5106 107 108 5107
4 5107 108 109 5108
4 5108 109 110 5109
4 5109 110 111 5110
4 5110 111 112 5111
4 5111 112 113 5112
4 5112 113 114 5113
4 5113 114 115 5114
4 5114 115 116 5115
4 5115 116 117 5116
4 5116 117 118 5117
4 5117 118 119 5118
4 5118 119 120 5119
4 5119 120 121 5120
4 5120 121 122 5121
4 5121 122 123 5122
4 5122 123 124 5123
4 5123 124 125 5124
4 5124 125 126 5125
4 5125 126 127 5126
4 5126 127 128 5127
4 5127 128 129 5128
4 5128 129 130 5129
4 5129 130 131 5130
4 5130 131 132 5131
4 5131 132 133 5132
4 5132 133 134 5133
4 5133 134 135 5134
4 5134 135 136 5135
4 5135 136 137 5136
4 5136 137 138 5137
4 5137 138 139 5138
4 5138 139 140 5139
4 5139 140 141 5140
4 5140 141 142 5141
4 5141 142 143 5142
4 5142 143 144 5143
4 5143 144 145 5144
4 5144 145 146 5145
4 5145 146 147 5146
4 5146 147 148 5147
4 5147 148 149 5148
4 5148 149 150 5149
4 5149 150 151 5150
4 5150 151 2 152

CELL_TYPES 5000
9
9
9
9
9
9
9
9
9
9
9
9
9
9
9
9
9
9
9
9
9
9
9
9
9
9
9
9
9
9
9
9
9
9
9
9
9
9
9
9
9
9
9
9
9
9
9
9
9
9
9
9
9
9
9
9
9
9
9
9
9
9
9
9
9
9
9
9
9
9
9
9
9
9
9
9
9
9
9
9
9
9
9
9
9
9
9
9
9
9
9
9
9
9
9
9
9
9
9
9
9
9
9
9
9
9
9
9
9
9
9
9
9
9
9
9
9
9
9
9
9
9
9
9
9
9
9
9
9
9
9
9
9
9
9
9
9
9
9
9
9
9
9
9
9
9
9
9
9
9
9
9
9
9
9
9
9
9
9
9
9
9
9
9
9
9
9
9
9
9
9
9
9
9
9
9
9
9
9
9
9
9
9
9
9
9
9
9
9
9
9
9
9
9
9
9
9
9
9
9
9
9
9
9
9
9
9
9
9
9
9
9
9
9
9
9
9
9
9
9
9
9
9
9
9
9
9
9
9
9
9
9
9
9
9
9
9
9
9
9
9
9
9
9
9
9
9
9
9
9
9
9
9
9
9
9
9
9
9
9
9
9
9
9
9
9
9
9
9
9
9
9
9
9
9
9
9
9
9
9
9
9
9
9
9
9
9
9
9
9
9
9
9
9
9
9
9
9
9
9
9
9
9
9
9
9
9
9
9
9
9
9
9
9
9
9
9
9
9
9
9
9
9
9
9
9
9
9
9
9
9
9
9
9
9
9
9
9
9
9
9
9
9
9
9
9
9
9
9
9
9
9
9
9
9
9
9
9
9
9
9
9
9
9
9
9
9
9
9
9
9
9
9
9
9
9
9
9
9
9
9
9
9
9
9
9
9
9
9
9
9
9
9
9
9
9
9
9
9
9
9
9
9
9
9
9
9
9
9
9
9
9
9
9
9
9
9
9
9
9
9
9
9
9
9
9
9
9
9
9
9
9
9
9
9
9
9
9
9
9
9
9
9
9
9
9
9
9
9
9
9
9
9
9
9
9
9
9
9
9
9
9
9
9
9
9
9
9
9
9
9
9
9
9
9
9
9
9
9
9
9
9
9
9
9
9
9
9
9
9
9
9
9
9
9
9
9
9
9
9
9
9
9
9
9
9
9
9
9
9
9
9
9
9
9
9
9
9
9
9
9
9
9
9
9
9
9
9
9
9
9
9
9
9
9
9
9
9
9
9
9
9
9
9
9
9
9
9
9
9
9
9
9
9
9
9
9
9
9
9
9
9
9
9
9
9
9
9
9
9
9
9
9
9
9
9
9
9
9
9
9
9
9
9
9
9
9
9
9
9
9
9
9
9
9
9
9
9
9
9
9
9
9
9
9
9
9
9
9
9
9
9
9
9
9
9
9
9
9
9
9
9
9
9
9
9
9
9
9
9
9
9
9
9
9
9
9
9
9
9
9
9
9
9
9
9
9
9
9
9
9
9
9
9
9
9
9
9
9
9
9
9
9
9
9
9
9
9
9
9
9
9
9
9
9
9
9
9
9
9
9
9
9
9
9
9
9
9
9
9
9
9
9
9
9
9
9
9
9
9
9
9
9
9
9
9
9
9
9
9
9
9
9
9
9
9
9
9
9
9
9
9
9
9
9
9
9
9
9
9
9
9
9
9
9
9
9
9
9
9
9
9
9
9
9
9
9
9
9
9
9
9
9
9
9
9
9
9
9
9
9
9
9
9
9
9
9
9
9
9
9
9
9
9
9
9
9
9
9
9
9
9
9
9
9
9
9
9
9
9
9
9
9
9
9
9
9
9
9
9
9
9
9
9
9
9
9
9
9
9
9
9
9
9
9
9
9
9
9
9
9
9
9
9
9
9
9
9
9
9
9
9
9
9
9
9
9
9
9
9
9
9
9
9
9
9
9
9
9
9
9
9
9
9
9
9
9
9
9
9
9
9
9
9
9
9
9
9
9
9
9
9
9
9
9
9
9
9
9
9
9
9
9
9
9
9
9
9
9
9
9
9
9
9
9
9
9
9
9
9
9
9
9
9
9
9
9
9
9
9
9
9
9
9
9
9
9
9
9
9
9
9
9
9
9
9
9
9
9
9
9
9
9
9
9
9
9
9
9
9
9
9
9
9
9
9
9
9
9
9
9
9
9
9
9
9
9
9
9
9
9
9
9
9
9
9
9
9
9
9
9
9
9
9
9
9
9
9
9
9
9
9
9
9
9
9
9
9
9
9
9
9
9
9
9
9
9
9
9
9
9
9
9
9
9
9
9
9
9
9
9
9
9
9
9
9
9
9
9
9
9
9
9
9
9
9
9
9
9
9
9
9
9
9
9
9
9
9
9
9
9
9
9
9
9
9
9
9
9
9
9
9
9
9
9
9
9
9
9
9
9
9
9
9
9
9
9
9
9
9
9
9
9
9
9
9
9
9
9
9
9
9
9
9
9
9
9
9
9
9
9
9
9
9
9
9
9
9
9
9
9
9
9
9
9
9
9
9
9
9
9
9
9
9
9
9
9
9
9
9
9
9
9
9
9
9
9
9
9
9
9
9
9
9
9
9
9
9
9
9
9
9
9
9
9
9
9
9
9
9
9
9
9
9
9
9
9
9
9
9
9
9
9
9
9
9
9
9
9
9
9
9
9
9
9
9
9
9
9
9
9
9
9
9
9
9
9
9
9
9
9
9
9
9
9
9
9
9
9
9
9
9
9
9
9
9
9
9
9
9
9
9
9
9
9
9
9
9
9
9
9
9
9
9
9
9
9
9
9
9
9
9
9
9
9
9
9
9
9
9
9
9
9
9
9
9
9
9
9
9
9
9
9
9
9
9
9
9
9
9
9
9
9
9
9
9
9
9
9
9
9
9
9
9
9
9
9
9
9
9
9
9
9
9
9
9
9
9
9
9
9
9
9
9
9
9
9
9
9
9
9
9
9
9
9
9
9
9
9
9
9
9
9
9
9
9
9
9
9
9
9
9
9
9
9
9
9
9
9
9
9
9
9
9
9
9
9
9
9
9
9
9
9
9
9
9
9
9
9
9
9
9
9
9
9
9
9
9
9
9
9
9
9
9
9
9
9
9
9
9
9
9
9
9
9
9
9
9
9
9
9
9
9
9
9
9
9
9
9
9
9
9
9
9
9
9
9
9
9
9
9
9
9
9
9
9
9
9
9
9
9
9
9
9
9
9
9
9
9
9
9
9
9
9
9
9
9
9
9
9
9
9
9
9
9
9
9
9
9
9
9
9
9
9
9
9
9
9
9
9
9
9
9
9
9
9
9
9
9
9
9
9
9
9
9
9
9
9
9
9
9
9
9
9
9
9
9
9
9
9
9
9
9
9
9
9
9
9
9
9
9
9
9
9
9
9
9
9
9
9
9
9
9
9
9
9
9
9
9
9
9
9
9
9
9
9
9
9
9
9
9
9
9
9
9
9
9
9
9
9
9
9
9
9
9
9
9
9
9
9
9
9
9
9
9
9
9
9
9
9
9
9
9
9
9
9
9
9
9
9
9
9
9
9
9
9
9
9
9
9
9
9
9
9
9
9
9
9
9
9
9
9
9
9
9
9
9
9
9
9
9
9
9
9
9
9
9
9
9
9
9
9
9
9
9
9
9
9
9
9
9
9
9
9
9
9
9
9
9
9
9
9
9
9
9
9
9
9
9
9
9
9
9
9
9
9
9
9
9
9
9
9
9
9
9
9
9
9
9
9
9
9
9
9
9
9
9
9
9
9
9
9
9
9
9
9
9
9
9
9
9
9
9
9
9
9
9
9
9
9
9
9
9
9
9
9
9
9
9
9
9
9
9
9
9
9
9
9
9
9
9
9
9
9
9
9
9
9
9
9
9
9
9
9
9
9
9
9
9
9
9
9
9
9
9
9
9
9
9
9
9
9
9
9
9
9
9
9
9
9
9
9
9
9
9
9
9
9
9
9
9
9
9
9
9
9
9
9
9
9
9
9
9
9
9
9
9
9
9
9
9
9
9
9
9
9
9
9
9
9
9
9
9
9
9
9
9
9
9
9
9
9
9
9
9
9
9
9
9
9
9
9
9
9
9
9
9
9
9
9
9
9
9
9
9
9
9
9
9
9
9
9
9
9
9
9
9
9
9
9
9
9
9
9
9
9
9
9
9
9
9
9
9
9
9
9
9
9
9
9
9
9
9
9
9
9
9
9
9
9
9
9
9
9
9
9
9
9
9
9
9
9
9
9
9
9
9
9
9
9
9
9
9
9
9
9
9
9
9
9
9
9
9
9
9
9
9
9
9
9
9
9
9
9
9
9
9
9
9
9
9
9
9
9
9
9
9
9
9
9
9
9
9
9
9
9
9
9
9
9
9
9
9
9
9
9
9
9
9
9
9
9
9
9
9
9
9
9
9
9
9
9
9
9
9
9
9
9
9
9
9
9
9
9
9
9
9
9
9
9
9
9
9
9
9
9
9
9
9
9
9
9
9
9
9
9
9
9
9
9
9
9
9
9
9
9
9
9
9
9
9
9
9
9
9
9
9
9
9
9
9
9
9
9
9
9
9
9
9
9
9
9
9
9
9
9
9
9
9
9
9
9
9
9
9
9
9
9
9
9
9
9
9
9
9
9
9
9
9
9
9
9
9
9
9
9
9
9
9
9
9
9
9
9
9
9
9
9
9
9
9
9
9
9
9
9
9
9
9
9
9
9
9
9
9
9
9
9
9
9
9
9
9
9
9
9
9
9
9
9
9
9
9
9
9
9
9
9
9
9
9
9
9
9
9
9
9
9
9
9
9
9
9
9
9
9
9
9
9
9
9
9
9
9
9
9
9
9
9
9
9
9
9
9
9
9
9
9
9
9
9
9
9
9
9
9
9
9
9
9
9
9
9
9
9
9
9
9
9
9
9
9
9
9
9
9
9
9
9
9
9
9
9
9
9
9
9
9
9
9
9
9
9
9
9
9
9
9
9
9
9
9
9
9
9
9
9
9
9
9
9
9
9
9
9
9
9
9
9
9
9
9
9
9
9
9
9
9
9
9
9
9
9
9
9
9
9
9
9
9
9
9
9
9
9
9
9
9
9
9
9
9
9
9
9
9
9
9
9
9
9
9
9
9
9
9
9
9
9
9
9
9
9
9
9
9
9
9
9
9
9
9
9
9
9
9
9
9
9
9
9
9
9
9
9
9
9
9
9
9
9
9
9
9
9
9
9
9
9
9
9
9
9
9
9
9
9
9
9
9
9
9
9
9
9
9
9
9
9
9
9
9
9
9
9
9
9
9
9
9
9
9
9
9
9
9
9
9
9
9
9
9
9
9
9
9
9
9
9
9
9
9
9
9
9
9
9
9
9
9
9
9
9
9
9
9
9
9
9
9
9
9
9
9
9
9
9
9
9
9
9
9
9
9
9
9
9
9
9
9
9
9
9
9
9
9
9
9
9
9
9
9
9
9
9
9
9
9
9
9
9
9
9
9
9
9
9
9
9
9
9
9
9
9
9
9
9
9
9
9
9
9
9
9
9
9
9
9
9
9
9
9
9
9
9
9
9
9
9
9
9
9
9
9
9
9
9
9
9
9
9
9
9
9
9
9
9
9
9
9
9
9
9
9
9
9
9
9
9
9
9
9
9
9
9
9
9
9
9
9
9
9
9
9
9
9
9
9
9
9
9
9
9
9
9
9
9
9
9
9
9
9
9
9
9
9
9
9
9
9
9
9
9
9
9
9
9
9
9
9
9
9
9
9
9
9
9
9
9
9
9
9
9
9
9
9
9
9
9
9
9
9
9
9
9
9
9
9
9
9
9
9
9
9
9
9
9
9
9
9
9
9
9
9
9
9
9
9
9
9
9
9
9
9
9
9
9
9
9
9
9
9
9
9
9
9
9
9
9
9
9
9
9
9
9
9
9
9
9
9
9
9
9
9
9
9
9
9
9
9
9
9
9
9
9
9
9
9
9
9
9
9
9
9
9
9
9
9
9
9
9
9
9
9
9
9
9
9
9
9
9
9
9
9
9
9
9
9
9
9
9
9
9
9
9
9
9
9
9
9
9
9
9
9
9
9
9
9
9
9
9
9
9
9
9
9
9
9
9
9
9
9
9
9
9
9
9
9
9
9
9
9
9
9
9
9
9
9
9
9
9
9
9
9
9
9
9
9
9
9
9
9
9
9
9
9
9
9
9
9
9
9
9
9
9
9
9
9
9
9
9
9
9
9
9
9
9
9
9
9
9
9
9
9
9
9
9
9
9
9
9
9
9
9
9
9
9
9
9
9
9
9
9
9
9
9
9
9
9
9
9
9
9
9
9
9
9
9
9
9
9
9
9
9
9
9
9
9
9
9
9
9
9
9
9
9
9
9
9
9
9
9
9
9
9
9
9
9
9
9
9
9
9
9
9
9
9
9
9
9
9
9
9
9
9
9
9
9
9
9
9
9
9
9
9
9
9
9
9
9
9
9
9
9
9
9
9
9
9
9
9
9
9
9
9
9
9
9
9
9
9
9
9
9
9
9
9
9
9
9
9
9
9
9
9
9
9
9
9
9
9
9
9
9
9
9
9
9
9
9
9
9
9
9
9
9
9
9
9
9
9
9
9
9
9
9
9
9
9
9
9
9
9
9
9
9
9
9
9
9
9
9
9
9
9
9
9
9
9
9
9
9
9
9
9
9
9
9
9
9
9
9
9
9
9
9
9
9
9
9
9
9
9
9
9
9
9
9
9
9
9
9
9
9
9
9
9
9
9
9
9
9
9
9
9
9
9
9
9
9
9
9
9
9
9
9
9
9
9
9
9
9
9
9
9
9
9
9
9
9
9
9
9
9
9
9
9
9
9
9
9
9
9
9
9
9
9
9
9
9
9
9
9
9
9
9
9
9
9
9
9
9
9
9
9
9
9
9
9
9
9
9
9
9
9
9
9
9
9
9
9
9
9
9
9
9
9
9
9
9
9
9
9
9
9
9
9
9
9
9
9
9
9
9
9
9
9
9
9
9
9
9
9
9
9
9
9
9
9
9
9
9
9
9
9
9
9
9
9
9
9
9
9
9
9
9
9
9
9
9
9
9
9
9
9
9
9
9
9
9
9
9
9
9
9
9
9
9
9
9
9
9
9
9
9
9
9
9
9
9
9
9
9
9
9
9
9
9
9
9
9
9
9
9
9
9
9
9
9
9
9
9
9
9
9
9
9
9
9
9
9
9
9
9
9
9
9
9
9
9
9
9
9
9
9
9
9
9
9
9
9
9
9
9
9
9
9
9
9
9
9
9
9
9
9
9
9
9
9
9
9
9
9
9
9
9
9
9
9
9
9
9
9
9
9
9
9
9
9
9
9
9
9
9
9
9
9
9
9
9
9
9
9
9
9
9
9
9
9
9
9
9
9
9
9
9
9
9
9
9
9
9
9
9
9
9
9
9
9
9
9
9
9
9
9
9
9
9
9
9
9
9
9
9
9
9
9
9
9
9
9
9
9
9
9
9
9
9
9
9
9
9
9
9
9
9
9
9
9
9
9
9
9
9
9
9
9
9
9
9
9
9
9
9
9
9
9
9
9
9
9
9
9
9
9
9
9
9
9
9
9
9
9
9
9
9
9
9
9
9
9
9
9
9
9
9
9
9
9
9
9
9
9
9
9
9
9
9
9
9
9
9
9
9
9
9
9
9
9
9
9
9
9
9
9
9
9
9
9
9
9
9
9
9
9
9
9
9
9
9
9
9
9
9
9
9
9
9
9
9
9
9
9
9
9
9
9
9
9
9
9
9
9
9
9
9
9
9
9
9
9
9
9
9
9
9
9
9
9
9
9
9
9
9
9
9
9
9
9
9
9
9
9
9
9
9
9
9
9
9
9
9
9
9
9
9
9
9
9
9
9
9
9
9
9
9
9
9
9
9
9
9
9
9
9
9
9
9
9
9
9
9
9
9
9
9
9
9
9
9
9
9
9
9
9
9
9
9
9
9
9
9
9
9
9
9
9
9
9
9
9
9
9
9
9
9
9
9
9
9
9
9
9
9
9
9
9
9
9
9
9
9
9
9
9
9
9
9
9
9
9
9
9
9
9
9
9
9
9
9
9
9
9
9
9
9
9
9
9
9
9
9
9
9
9
9
9
9
9
9
9
9
9
9
9
9
9
9
9
9
9
9
9
9
9
9
9
9
9
9
9
9
9
9
9
9
9
9
9
9
9
9
9
9
9
9
9
9
9
9
9
9
9
9
9
9
9
9
9
9
9
9
9
9
9
9
9
9
9
9
9
9
9
9
9
9
9
9
9
9
9
9
9
9
9
9
9
9
9
9
9
9
9
9
9
9
9
9
9
9
9
9
9
9
9
9
9
9
9
9
9
9
9
9
9
9
9
9
9
9
9
9
9
9
9
9
9
9
9
9
9
9
9
9
9
9
9
9
9
9
9
9
9
9
9
9
9
9
9
9
9
9
9
9
9
9
9
9
9
9
9
9
9
9
9
9
9
9
9
9
9
9
9
9
9
9
9
9
9
9
9
9
9
9
9
9
9
9
9
9
9
9
9
9
9
9
9
9
9
9
9
9
9
9
9
9
9
9
9
9
9
9
9
9
9
9
9
9
9
9
9
9
9
9
9
9
9
9
9
9
9
9
9
9
9
9
9
9
9
9
9
9
9
9
9
9
9
9
9
9
9
9
9
9
9
9
9
9
9
9
9
9
9
9
9
9
9
9
9
9
9
9
9
9
9
9
9
9
9
9
9
9
9
9
9
9
9
9
9
9
9
9
9
9
9
9
9
9
9
9
9
9
9
9
9
9
9
9
9
9
9
9
9
9
9
9
9
9
9
9
9
9
9
9
9
9
9
9
9
9
9
9
9
9
9
9
9
9
9
9
9
9
9
9
9
9
9
9
9
9
9
9
9
9
9
9
9
9
9
9
9
9
9
9
9
9
9
9
9
9
9
9
9
9
9
9
9
9
9
9
9
9
9
9
9
9
9
9
9
9
9
9
9
9
9
9
9
9
9
9
9
9
9
9
9
9
9
9
9
9
9
9
9
9
9
9
9
9
9
9
9
9
9
9
9
9
9
9
9
9
9
9
9
9
9
9
9
9
9
9
9
9
9
9
9
9
9
9
9
9
9
9
9
9
9
9
9
9
9
9
9
9
9
9
9
9
9
9
9
9
9
9
9
9
9
9
9
9
9
9
9
9
9
9
9
9
9
9
9
9
9
9
9
9
9
9
9
9
9
9
9
9
9
9
9
9
9
9
9
9
9
9
9
9
9
9
9
9
9
9
9
9
9
9
9
9
9
9
9
9
9
9
9
9
9
9
9
9
9
9
9
9
9
9
9
9
9
9
9
9
9
9
9
9
9
9
9
9
9
9
9
9
9
9
9
9
9
9
9
9
9
9
9
9
9
9
9
9
9
9
9
9
9
9
9
9
9
9
9
9
9
9
9
9
9
9
9
9
9
9
9
9
9
9
9
9
9
9
9
9
9
9
9
9
9
9
9
9
9
9
9
9
9
9
9
9
9
9
9
9
9
9
9
9
9
9
9
9
9
9
9
9
9
9
9
9
9
9
9
9
9
9
9
9
9
9
9
9
9
9
9
9
9
9
9
9
9
9
9
9
9
9
9
9
9
9
9
9
9
9
9
9
9
9
9
9
9
9
9
9
9
9
9
9
9
9
9
9
9
9
9
9
9
9
9
9
9
9
9
9
9
9
9
9
9
9
9
9
9
9
9
9
9
9
9
9
9
9
9
9
9
9
9
9
9
9
9
9
9
9
9
9
9
9
9
9
9
9
9
9
9
9
9
9
9
9
9
9
9
9
9
9
9
9
9
9
9
9
9
9
9
9
9
9
9
9
9
9
9
9
9
9
9
9
9
9
9
9
9
9
9
9
9
9
9
9
9
9
9
9
9
9
9
9
9
9
9
9
9
9
9
9
9
9
9
9
9
9
9
9
9
9
9
9
9
9
9
9
9
9
9
9
9
9
9
9
9
9
9
9
9
9
9
9
9
9
9
9
9
9
9
9
9
9
9
9
9
9
9
9
9
9
9
9
9
9
9
9
9
9
9
9
9
9
9
9
9
9
9
9
9
9
9
9
9
9
9
9
9
9
9
9
9
9
9
9
9
9
9
9
9
9
9
9
9
9
9
9
9
9
9
9
9
9
9
9
9
9
9
9
9
9
9
9
9
9
9
9
9
9
9
9
9
9
9
9
9
9
9
9
9
9
9
9
9
9
9
9
9
9
9
9
9
9
9
9
9
9
9
9
9
9
9
9
9
9
9
9
9
9
9
9
9
9
9
9
9
9
9
9
9
9
9
9
9
9
9
9
9
9
9
9
9
9
9
9
9
9
9
9
9
9
9
9
9
9
9
9
9
9
9
9
9
9
9
9
9
9
9
9
9
9
9
9
9
9
9
9
9
9
9
9
9
9
9
9
9
9
9
9
9
9
9
9
9
9
9
9
9
9
9
9
9
9
9
9
9
9
9
9
9
9
9
9
9
9
9
9
9
9
9
9
9
9
9
9
9
9
9
9
9
9
9
9
9
9
9
9
9
9
9
9
9
9
9
9
9
9
9
9
9
9
9
9
9
9
9
9
9
9
9
9
9
9
9
9
9
9
9
9
9
9
9
9
9
9
9
9
9
9
9
9
9
9
9
9
9
9
9
9
9
9
9
9
9
9
9
9
9
9
9
9
9
9
9
9
9
9
9
9
9
9
9
9
9
9
9
9
9
9
9
9
9
9
9
9
9
9
9
9
9
9
9
9
9
9
9
9
9
9
9
9
9
9
9
9
9
9
9
9
9
9
9
9
9
9
9
9
9
9
9
9
9
9
9
9
9
9
9
9
9
9
9
9
9
9
9
9
9
9
9
9
9
9
9
9
9
9
9
9
9
9
9
9
9
9
9
9
9
9
9
9
9
9
9
9
9
9
9
9
9
9
9
9
9
9
9
9
9
9
9
9
9
9
9
9
9
9
9
9
9
9
9
9
9
9
9
9
9
9
9
9
9
9
9
9
9
9
9
9
9
9
9
9
9
9
9
9
9
9
9
9
9
9
9
9
9
9
9
9
9
9
9
9
9
9
9
9
9
9
9
9
9
9
9
9
9
9
9
9
9
9
9
9
9
9
9
9
9
9
9
9
9
9
9
9
9
9
9
9
9
9
9
9
9
9
9
9
9
9
9
9
9
9
9
9
9
9
9
9
9
9
9
9
9
9
9
9
9
9
9
9
9
9
9
9
9
9
9
9
9
9
9
9
9
9
9
9
9
9

POINT_DATA 5151
SCALARS STRESS_EQV float 1
LOOKUP_TABLE default
370.69123157175807
9485.864401563562
69.90444893596236
575.0256548293356
370.6092701434248
370.3633949816518
369.9536335225754
369.3800317145923
368.64265435051016
367.74158553223504
366.67692926767154
365.44881019931563
364.0573744639835
362.50279068263575
360.78525107901487
358.9049727257026
356.8621989152334
354.6572006537875
352.29027827418827
349.7617631642157
347.07201960516784
344.2214467144132
341.21048048530815
338.0395959155929
334.70930921410115
331.2201800742556
327.5728140005641
323.7678646722554
319.8060363257565
315.688086135469
311.4148265690008
306.9871276901986
302.40591937981503
297.67219343997874
292.78700554471095
287.7514769942452
282.56679622670924
277.2342200353972
271.7550744347376
266.1307551127123
260.36272740135814
254.45252569096516
248.40175220721426
242.2120750637778
235.88522549633177
229.4229941775145
222.8272265057958
216.09981675567815
209.2427009725987
202.2578484933025
195.14725197426577
187.91291581775045
180.5568429015051
173.08101955006595
165.4873987413017
157.7778816376814
149.95429769322095
142.01838385903136
133.97176387213258
125.8159294059971
117.55222625469652
109.18185123459466
100.70587016409368
92.12527634507416
83.44112740923919
74.6548381928217
65.76879968129765
56.78772879369099
47.72182313759605
38.59501619364539
29.47070012244498
20.5569528063443
12.825524750521875
10.029511723982669
14.547856531023868
23.31237682798539
33.26992777359162
43.76187001690572
54.6563738730634
65.9367468439884
77.62733786676245
89.77564783123006
102.44824236976282
115.7315726663155
129.7354755306681
144.59896705180444
160.4987064998527
177.6610663885406
196.3794177658079
217.03926644868778
240.15559497967718
266.4298134001989
296.83930340221013
332.7836792942612
376.33305426953416
430.6794022428131
500.971271668609
596.2228424527192
732.7168735629139
948.9111520064096
1319.5620236533593
2226.7681469216895
6192.103838306857
6897.101121030715
3492.970872589854
2326.027179138249
1761.0687725769649
1410.1809054240057
1175.5840311285756
1006.4426721154666
878.6372832517951
778.3417008316433
697.2774693774293
630.1510405925902
573.4332981258956
524.6839458108723
482.16574719321
444.6114423134853
411.0775878736472
380.84967327510833
353.3787218825892
328.23784308437666
305.09179049371994
283.6752111452678
263.7768313996702
245.22777840630096
227.89283343512608
211.66379665130972
196.45439393154197
182.19632382135168
168.83615635412775
156.33287361600958
144.655896290157
133.7834783927275
123.70137876650668
114.4017355452612
105.88208031143523
98.14443249701276
91.1944111711876
85.04028929116203
79.69189279293738
75.15921169043017
71.45054151048794
68.56990995716477
66.51346069717995
65.26434534861049
64.78547430496394
65.0091409749395
65.82207645413669
67.04430898766265
68.40239284048528
69.4894600616633
70.13748589567274
70.77071356776604
71.56210081965935
72.2506682847487
72.69239685229999
72.78979711684605
72.48603130803744
71.76308203735135
70.64064755591188
69.17588783301417
67.46425285118148
65.64105976313083
63.882545814749044
62.40375916268106
61.449240153512335
61.27242526657797
62.10334561751693
64.11195539128991
67.38129878831091
71.90266557743618
77.59314643241203
84.32465060480418
91.95155034977675
100.32994446519965
109.32793760546406
118.8294518708768
128.7343923533562
138.95717265882593
149.4247346715299
160.07460084712622
170.85316535359226
181.71426993288577
192.61804345098022
203.52996265446083
214.42009000430457
225.2624501452391
236.03451401785898
246.71676660042863
257.2923400660384
267.7466986845117
278.0673652456212
288.2436813461485
298.26659577224433
308.1284765892203
317.82294355725753
327.34471822412087
336.6894895800797
345.85379355143675
354.8349048972305
363.63074028884137
372.23977151414823
380.6609478732298
388.8936269312867
396.9375128741979
404.7926017785252
412.45913316474287
419.9375472528112
427.22844738354655
434.3325671106968
441.25074150660976
447.98388225936117
454.5329561729586
460.8989667135171
467.082938273434
473.0859028536175
478.90888888987195
484.5529119739384
490.01896724245853
495.3080232286639
500.4210169911453
505.35885035246145
510.1223870974942
514.712450996642
519.1298245335422
523.3752482300804
527.4494204732321
531.3529977591894
535.086595280022
538.650787787242
542.0461106743153
545.2730612274859
548.332100000924
551.2236522776755
553.9481095831993
556.5058312228384
558.8971458184303
561.1223528230903
563.1817239961215
565.0755048226572
566.8039158654121
568.367154037511
569.7653937875052
570.9987881891022
572.0674699292854
572.9715521900011
573.7111294192925
574.2862779885411
574.6970567333854
574.9435073762921
563.8747853938402
541.767110192
520.0390947168198
498.67381654721333
477.65438291833016
456.9639391738688
436.5856779716926
416.50284939795495
396.69877224707255
377.1568468672653
357.860570174317
338.7935537311033
319.9395462292274
301.28246237697937
282.80642123951156
264.4957987446343
246.33530181308856
228.31007623478217
210.4058686091623
192.6092776522084
174.9081588215593
157.2923039118295
139.7546408282684
122.29348345813239
104.91707898555154
87.65372069811752
70.57725242314181
53.88333195740381
38.17517806977603
25.711112616244037
22.203583423760552
30.152932145241618
44.729312350579825
61.476944799243725
79.07432940349769
97.14540898148442
115.55887675828448
134.264009940289
153.24246375353835
172.490912547339
192.01378440922866
211.81985990031467
231.92053701833646
252.32888431542233
273.05909538346
294.1261603825184
315.5456608918621
337.3336377672749
359.50650370550494
359.42635770879974
337.2572332277961
315.47322973086864
294.0579590399251
272.9954120008518
252.27004858640655
231.86693402240806
211.7719500468483
191.97213305070093
172.4562354656426
153.21569986022882
134.2464431175443
115.55235215805396
97.15274519529424
79.10017552849871
61.52975476248037
44.82625628731978
30.32783099134671
22.458935111615798
25.958957352770575
38.35445006877182
54.01366816159645
70.67737837440453
87.7332306906582
104.98114219109372
122.34513924171696
139.79581274692853
157.3242832905792
174.9318554456451
192.62535938141775
210.41484388511964
228.31234529638425
246.33118981860267
264.4855779431968
282.79032624972274
301.2607009758167
319.9123071267703
338.761012265897
357.82289253834915
377.11419326705317
396.6512992781893
416.45071182599276
436.5290300564239
456.9029356351863
477.5891796160506
498.6045709284
519.9659660711566
541.6902597462204
563.7943762694543
359.185928844408
337.02802896134955
315.2559463232381
293.85336642586435
272.8043753571609
252.09355790452003
231.70614563199354
211.62824646402225
191.84721181080485
172.35224550609865
153.13545935121135
134.1938041677604
115.53284727408106
97.17481610782418
79.17771738267021
61.687926896809145
45.115639047214906
30.845279817088105
23.208067527568524
26.68747532267668
38.88672320860703
54.40266442592958
70.97687017149968
87.97131873925132
105.17309750677586
122.49998134691248
139.91926519998378
157.4201951283586
175.0029417494433
192.67361504314488
210.44178867835208
228.31917625073146
246.3188798856694
264.45494210615044
282.74206711510516
301.1954409878854
319.83061179344975
338.6634071798728
357.7098760078615
376.98624576839603
396.5088905573241
416.2943062253787
436.35909047545107
456.7199264185492
477.3935685856444
498.39683071908087
519.746574891365
541.4597016563813
563.5531410506715
358.78524455274976
336.6460530823596
314.89384095234846
293.5124168423431
272.4860260347746
251.79946187087432
231.43823374752532
211.38882722222615
191.6391193680278
172.17906672860258
153.00189595765372
134.10627783308573
115.50056891448575
97.21180835290238
79.30696558146818
61.95069727200692
45.59324024920343
31.68514896847841
24.405406688663785
27.856080285324456
39.756264579742535
55.044446537410685
71.47311058348606
88.36667193123655
105.49224660980812
122.75763574608818
140.12480890144604
157.57996072988254
175.12140707135686
192.75407605783624
210.48675988276
228.33064042039413
246.29845019957241
264.4039709868215
282.6617214049336
301.0867551333199
319.69452622844983
338.5007964780672
357.52156978678136
376.7730443411598
396.27157669550627
416.0336539834826
436.07587175127276
456.4149157358065
477.06754645536836
498.05058584493423
519.3809054191934
541.0754156219148
563.1510561455385
358.2243507786713
336.1113526429904
314.38696428158426
293.03516766235964
272.0404319047243
251.38784344016025
231.063301898483
211.05382289905333
191.34802075957245
171.9369065787157
152.81526662740833
133.9841726398857
115.45586195128847
97.26403238894098
79.48793840198657
62.31682300876395
46.25242235509121
32.81846621627476
25.988998598600894
29.40916458659526
40.93950693486812
55.92973589538035
72.16186954571745
88.91714410757889
105.93744068550367
123.11748470256362
140.41213043668168
157.8034495999244
175.287233786984
192.8667947861089
210.54985231346356
228.3468567220574
246.2700311808704
264.3327976785356
282.5494186174863
300.9347648569567
319.50416068725167
338.27327708990003
357.258056120832
376.47465581523863
395.93940889042045
415.66879088465873
435.6793948483736
455.98791065254875
476.6111076025212
497.5658194635846
518.8689312919594
540.5373676654021
562.5880820507768
357.50331228745455
335.4239939250859
313.73538764099715
292.4216996348844
271.4676884785203
250.85881935223279
230.58149579012175
210.623417274659
190.97414824702955
171.62605691264685
152.57593262353802
133.82792183307748
115.39920960287591
97.33192160230854
79.72066263023306
62.78462516513303
47.08464326805553
34.21212804239997
27.89323250200442
31.28708125843885
42.40807799003897
57.04651902928582
73.03748735202672
89.61981591549849
106.5071022941176
123.57867504823702
140.78079530680634
158.0904804262607
175.50039752245266
193.01184451560692
210.63119869156935
228.36799173193594
246.23380565008085
264.2416088687486
282.40534050227757
300.7396406939122
319.2596700662242
337.9809852506348
356.91945065671706
376.0911742015608
395.5124591964826
415.19976731967006
435.16968931519085
455.4389211583713
476.0242441501254
496.9425078881164
518.2106153953031
539.8455099188
561.8641630775178
356.62221310687494
334.5840628486113
312.93920342877254
291.67211731291104
270.76791940329076
250.21254074097604
229.99300407616028
210.09784831535592
190.51780254073793
171.24689544520257
152.2843610719828
133.6380846848587
115.33123381905214
97.41603105278273
80.0051746901354
63.352043931694745
48.08003874453749
35.83279220498537
30.057533340344925
33.433768965842646
44.13169699138077
58.38082099400236
74.09310445143821
90.47107327756935
107.19925460882578
124.1401294100759
141.23025209529527
158.44082243104987
175.76086744499983
193.18931943684566
210.7309696165163
228.39425977053082
246.1900090516998
264.13064518926797
282.229721506952
300.50160277853286
318.96125443948415
337.62409703509843
356.50590294573175
375.6227211430451
394.9908209051102
414.6266485815633
434.54679348575735
454.76796026811553
475.30694596509625
496.1806204825956
517.4059096593642
538.9997803262056
560.9792269689389
355.5811570948852
333.5916654962138
311.9985256276574
290.7865496057099
269.9412771028833
249.44919392521052
229.29805936478954
209.47740945566375
189.9793543953952
170.79988763359935
151.94112696767024
133.41534817801974
115.25269575835132
97.5170358625762
80.34152200179946
64.01670211954422
49.227991838699644
37.649355214534864
32.430349047950116
35.80044646220777
46.080434603085806
59.91747827486961
75.32091708381134
91.46669947777676
108.01155678326623
124.80056004777357
141.75983766559867
158.85419706644043
176.0686066227824
193.39933460230796
210.84937351958052
228.42592299991733
246.13892973104402
264.0002016568688
282.0228493443703
300.2209214937729
318.609159746605
337.20282904344356
356.017597092562
375.06944649715626
394.3746090374884
413.94951525056354
433.8107547438094
453.9750441571081
474.4592006608971
495.28011953244015
516.4547548009072
538.0001022652144
559.9331844114307
354.3802686323574
332.44692875340445
310.913490436423
289.76515045669515
268.987943568451
248.56900138804235
228.49693946794457
208.76245119244805
189.35924659347842
170.28558901434667
151.5469156515807
133.16052906403354
115.16449634413172
97.63572925090301
80.72976450757629
64.77597276078228
50.517629847475966
39.63414502258707
34.96985216484035
38.346529039107565
48.226191641818474
61.64083193637026
76.71243862014289
92.60197567613297
108.94134402460038
125.55848490083545
142.36878327860336
159.33028002435475
176.42357244352795
193.64202586124847
210.98665659038534
228.463291524825
246.08090925551693
263.8506281971289
281.78506567431873
299.8979182570441
318.2036786288909
336.71743923836505
355.4547525501438
374.4315290520932
393.66396095270795
413.1684636714782
432.96162985319637
453.06019233422506
473.4809936083324
494.24096009305435
515.3570800144716
536.8463840894888
558.7259284414888
353.0196934401951
331.15000106376897
309.68425701655036
288.6080996486622
267.90813130292645
247.57222295278618
227.58996890636098
207.95338300823943
188.657996337238
169.7046480142851
151.10252577377463
132.87457629605078
115.06767688334553
97.7730202175047
81.16997630007569
65.62704692711078
51.93821799844171
41.763241578577315
37.642989062475216
41.039088354762036
50.54349169666422
63.53529523291767
78.25874954911835
93.87178476451132
109.98567086477343
126.41224539958077
143.05622150272353
159.86870352533654
176.8257170798662
193.9175497611999
211.14310266629644
228.50672348656386
246.01634276967303
263.6823302420969
281.51676689236183
299.53296643737167
317.7451514112666
336.1682279328508
354.8176250614935
373.70917737887555
392.8590370745672
412.2836065277365
431.99948535917986
452.0234278575395
472.37230795920664
493.0630898211692
514.1128026166285
535.5385185962292
557.357333751271
351.49959951966656
329.7010532982869
308.3110083543809
287.315603738792
266.7020844249528
246.4591571653154
226.57752068563065
207.05067564466498
187.8761980746528
169.05780926148006
150.60887276004746
132.55857383579888
114.96341972862454
97.92993088013904
81.66224728501743
66.56699849084481
53.47944392330986
44.01631583673335
40.423972284567185
43.8517507189141
53.0097746989095
65.5857806804776
79.95072352181616
95.27071398173669
111.14135613501608
127.36002557230319
143.8211937776686
160.46905884669746
177.27498798691224
194.2260834051217
211.31903307225386
228.5566251364109
245.94567937108198
263.49576939033835
281.2184050167575
299.1264923975025
317.2339672261984
335.5555389272925
354.1065077493243
372.9026308219819
391.96002174113636
411.2950735170172
430.92439806615175
450.8647775984027
471.1331246886693
491.74644879442235
512.7218276483059
534.0763824227483
555.8272558963947
349.8201782146498
328.100279737711
306.7939522389149
285.88789712616074
265.3700799389244
245.23014289479937
225.46001836179585
206.05486375143107
187.01452678978424
168.34591742631636
150.06699280289757
132.21374383302404
114.85304896165827
98.10759347333027
82.20668481581367
67.5928433631159
55.13160336126151
46.37625411960528
43.292770368037395
46.76350528610495
55.6053747547033
67.77799372267607
81.77922169020857
96.7931524903988
112.40502824297715
128.39987197873006
144.66265848558686
161.1308990462648
177.77132841562644
194.5678242517613
211.51480639713986
228.61345087309695
245.8694224918341
263.2914641159915
280.8904886626853
298.6789766531676
316.6705652749317
334.8797607943029
353.3217323544492
372.01216063153754
390.96712418161354
410.2030121342101
429.7364555982345
449.58427256066983
469.76342266292636
490.29096932565085
511.18404744120454
532.4598353774941
554.1355304105284
347.9816453941789
326.3478991666961
305.1333223554989
284.32524325494705
263.9124291791798
243.88556116747236
224.23793841876636
204.9665489408159
186.07374179321863
167.56992162798767
149.4780473997782
131.84145017486983
114.73803107328285
98.30724701835878
82.80341524405084
68.70159160483233
56.88570547506688
48.82871974191279
46.23381009509785
49.757625138522144
58.31332325359163
70.09861255562953
83.73525195144242
98.43338104519069
113.7731695097738
129.52971401625152
145.5794993805759
161.85374183563087
178.3146779240452
194.9429898450262
211.73081819043267
228.6777032265217
245.7881302679319
263.0699905108002
280.533584090657
298.19095513989424
316.05543621997435
334.14132830849013
352.4636706233297
371.03807124000787
389.880579625471
409.00758856817646
428.4357570501212
448.18194826297827
468.2631787403917
488.69657577963204
509.49934115554424
530.6887197120877
552.2819718322424
345.98424275305945
324.4441560780641
303.32937949568964
282.6279359574122
262.32947943809796
242.4258372508227
222.91181298409984
203.7864032833055
185.05469105439462
166.730880446853
148.84332846418346
131.44320240068924
114.61997561285787
98.5302336777241
83.45258534032169
69.89029160659342
58.73351784716492
51.36172700077448
49.23493745894856
52.82076493109223
61.11907181503105
72.53537824543406
85.81009318126479
100.18565183222802
115.24215852529956
130.74738417765434
146.57053422893722
162.63707255452857
178.90497286625694
195.35181745595332
211.9675005603671
228.74993276696938
245.70241587589175
262.8319830403743
280.1483163136317
297.663020575906
315.38912370167066
333.3407240179657
351.53273584489506
369.9807016866479
388.7006505495787
407.7089887196145
427.02241373667096
446.6578451931771
466.6323679154276
486.9631844012281
507.6675742974623
528.7628593418599
550.2663726508306
343.8282392278569
322.3893219850363
301.3824128836004
280.79630094136894
260.62161578941243
240.8514430083863
221.4822329140194
202.51517328613147
183.95831612471068
165.82996758899117
148.16426403744754
131.02065997579015
114.50063577709858
98.77799481125746
84.15436355366059
71.15606620469
60.6675692956218
53.9652590625228
52.286614777448975
55.9422360765557
64.01019254103386
75.0771187347825
87.9953869563377
102.04425743641173
116.80830970225774
132.05063788278568
147.63452351734048
163.4803471966754
179.54214683753662
195.79456361952955
212.22532165327277
228.8307379169882
245.6129478132838
262.57813529323766
279.735370244878
297.09582390745
314.6722259697109
332.47847995309064
350.52938453645214
368.84042719280046
387.42762806907785
406.3074193480967
425.4965500507483
445.0120093451517
464.87096351524394
485.090703165338
505.68859822597796
526.682059024038
548.0885021791861
341.51393252499935
320.1836968391006
299.29274161917306
278.830697427812
258.7892631205187
239.16289954958137
219.94985128434422
201.15368440309598
182.78565770730367
164.86847825534207
147.44242463131192
130.5756369150249
114.38190890637576
99.05206675493662
84.90894109184676
72.4961411051089
62.68112520830996
56.63093903244305
55.38131099142369
59.11343682018854
66.97608745570174
77.71372715008991
90.28320069305894
104.0035886383298
118.46790943420531
133.4371725583985
148.77017909420553
164.3829954372497
180.22613105282616
196.27150354683087
212.5047849909893
228.92076463968277
245.52045009647725
262.30920069787345
279.295491865374
296.4900758201503
313.9053976185637
331.55517946657363
349.4541182774373
367.617660890941
386.0618334782514
404.8031093569002
423.8583044397175
443.2444928497774
462.9789374621952
483.079031660776
503.5622496611753
524.4461035042497
545.7481053631849
339.04165075702184
317.82761055048957
297.0607162387057
276.7315199454473
256.8328883900414
237.36078020338707
218.31538733066012
199.70284613263775
181.5378619379012
163.84783627389717
146.67953023299052
130.1101067439494
114.2658368549678
99.35407634898822
85.71653282144416
73.90786632877823
64.76814645016445
59.351753155017825
58.51304201816908
62.32740891017324
70.00772284961927
80.43611071396735
92.66606676102106
106.05818132662152
120.21724847633678
134.90464569717614
149.9761726200602
165.34442361208397
180.95685463386127
196.7829303906344
212.80642864079925
229.02070597445635
245.42570234552147
262.0259931793479
278.8294893863945
295.84654829736587
313.0893514135805
330.57145919736655
348.30748568874463
366.31285571003843
384.6036199480036
403.19631122540113
422.1078305125394
441.3553547129767
460.95626061492885
480.9280610216484
501.288350206721
522.0547566438162
543.2449015391762
336.41175418196167
315.3214246078111
294.68672039357796
274.49920029036963
254.75300312971774
235.44571384936634
216.57963088782031
198.16365776987627
180.2161874507717
162.7696020604401
145.8774580054556
129.62620778100114
114.1546062002646
99.68573624740367
86.57737800312444
75.3887315867056
66.92323970249092
62.121820878903755
61.677024696844455
65.57849431222934
73.09739468689153
83.23612254496817
95.13700218466732
108.20275323154081
122.05265035752433
136.45069168414537
151.25114371496775
166.3640175996805
181.73424477912528
197.32915434123237
213.13082419034015
229.1313013882785
245.3295397226234
261.7293877235427
278.3382343792638
295.1660762029841
312.2248601914897
329.5280111487952
347.09008455448287
364.9265064194255
383.05337438651793
401.48730259907785
420.245298289987
439.344661675233
458.80290320395176
478.6376739221271
498.86670590231415
519.5077605426658
540.5785831530491
333.6246370400386
312.6655337929566
292.17117264810054
272.1342096607427
252.55016621384237
233.41838864628448
214.74344738810336
196.53721488896764
178.82201331402578
161.63548148058112
145.03825071644096
129.12624871923478
114.05054825478047
100.04884004632926
87.49174089289085
76.93637656991658
69.14160455923876
64.93620527156794
64.86941569908151
68.86206959481717
76.23852591903675
86.10648515701186
97.68951323325355
110.43223145457448
123.97049579326928
138.07293723482184
152.5937077046459
167.4411455583241
182.55822678954087
197.91050152717176
213.47857549701166
229.25333590700478
245.23285268673723
261.4203208126807
277.82266283984956
294.4495588623286
311.3127588161926
328.4255848690374
345.802564081073
363.45915183234916
381.4115194695653
399.67638804777414
418.27089561198704
437.21248920905
456.51883537926824
476.2077446525261
496.29710682368125
516.8048346745873
537.7488144566536
330.68072948109136
309.8603679865453
289.5145283974883
269.63706097812235
250.22498692356248
231.27955620564364
212.80778348753174
194.82471664444134
177.35684793010222
160.4473356928489
144.1641259292873
128.61271448055186
113.95613884469543
100.44525727502412
88.459911254252
78.54859713112273
71.41898082642346
67.79075736623034
68.0871137368841
72.17434009190163
79.42549382420144
89.0407116995427
100.31758868778562
112.7417719135199
125.96724319873614
139.76901534109396
154.00246288033287
168.57516047211664
183.42872392157662
198.52731269362192
213.85031717897826
229.3876389880411
245.1365865224937
261.0997906911547
277.2837761510409
293.6979616107833
310.3539461669946
327.26498971909933
344.445627286642
361.9113771693662
379.67851584700463
397.76390100403154
416.18482971766485
434.9589226721152
454.10402788919146
473.63813929660387
493.57932675021146
513.9456750545004
534.755230200247
327.58049957435674
306.90639405867114
286.71728190844766
267.00831141009814
247.7781283383141
229.0300362656497
210.77367340137803
193.02747399396029
175.82233901052223
159.20719206018057
143.25748598712673
128.0882723087817
113.87399781975772
100.87692830079664
89.48220484056674
80.22334827160452
73.75159814152917
70.68198866945244
71.32760896206338
75.512179925467
82.6534842807744
92.03302888378643
103.0156849832932
115.12677186717205
128.0394454982176
141.5365776672607
155.47599720155824
169.76540246178888
184.34565703831376
199.17994162933576
214.24671281230866
229.5350830921029
245.0417405975636
260.7688574160311
276.72264190131915
292.9123172746651
309.3493871320493
326.04709721021635
343.0200335116872
360.2838165806987
377.8548645314279
395.7502058930543
413.9873290141792
432.5840586357147
451.5584529122607
470.9287160331785
490.71312292337
510.92995346040607
531.5974343426426
324.32445539105396
303.80411783882585
283.77996848468945
264.2485651118716
245.21031109412002
226.67072193228978
208.64224604432601
191.14691896118697
174.2202847484251
157.91725622482414
142.32092881924137
127.55577805994992
113.80688826031034
101.3458592057415
90.55896391796362
81.95874475125085
76.13612912221001
73.60696687029198
74.58886768454863
78.87300722251781
85.91836951701293
95.07830401340732
105.7787058333238
117.58287665663053
130.18376349584133
143.3733053791068
157.01289438448674
171.01120081829646
185.30894402800277
199.8687533112053
214.6684527962209
229.6965819084021
244.94936729796487
260.42864264111256
276.14039451187523
292.0937275437675
308.3001145753544
324.77284338868054
341.52660103876156
358.5771558245232
375.9411094742572
393.63570046655025
411.6786450518991
430.08800640995787
448.8820850664218
468.0793255876098
487.6982359221197
507.7573167360762
528.2749988043175
320.91314714908333
300.5540861584708
280.7031667610533
261.3584762080203
242.5223175553562
224.2025855660736
206.4147330873979
189.18461507600827
172.55264632798657
156.57992544835145
141.3572595932243
127.01828263885521
113.75771534930985
101.85411669971238
91.69055790735854
83.75306002922449
78.56964665327968
76.56323059868544
77.86924367836615
82.25468641470363
89.21660595699316
98.17197746624808
108.60197840100892
120.10598172642719
132.39697611515538
145.27691842174195
158.61173933027666
172.31187571890382
186.31849895835708
200.59412173333905
215.11625184543135
229.87308818354842
244.86057058588875
260.0803290778421
275.5382356187414
291.24336418881245
307.2072312398967
323.4432312414569
339.966209805641
356.79213509636367
373.9378403339097
391.42081835292345
409.2590547248137
427.4708897894829
446.07490262239173
465.08981186210457
484.53438968517406
504.4273862041762
524.7874622925198
317.3471694071317
297.1568889590285
277.48750113169467
258.3387520407594
239.71499645603578
221.62668540768004
204.0924780632985
187.14226915121196
170.82156192803302
155.19780332555516
140.3695032302169
126.47903852188094
113.72952488178021
102.40382314226017
92.87738423179349
85.60472413205653
81.0495855356209
79.54871980814688
81.16740964608292
85.65545146990718
92.54514907701898
101.31000124582972
111.48122760667307
122.69223088541176
134.67598783627687
147.2451832883148
160.27112285934047
173.66673958775294
187.37423093393193
201.35642738592102
215.5908460664961
230.06559110118053
244.77650411979653
259.72515957039184
274.9174341499062
290.3624700706307
306.0719115436833
322.05933309106206
338.33980419266504
354.9295520019071
371.8456954390057
389.1060318362096
406.7288627161919
424.73284904534626
443.13688895096914
461.9600127771441
481.22129171359035
500.93975722377843
521.1343292320108
313.6271632937754
293.6131614573803
274.133644319261
255.19015671701223
236.78926807894484
218.94417305398508
201.67694667443007
185.02174457833513
169.02936239533494
153.77371598566168
139.36091779002282
125.94150629390435
113.72550138807523
102.9971517532624
94.11986946008145
87.51232094253204
83.57370848409563
82.56171898597927
84.4823040919857
89.07384539063148
95.90138255873751
104.48878374210318
114.41254976367105
125.3380116501708
137.01783366334428
149.2759193417307
161.9896457273363
175.07509806499513
188.47604262300393
202.1560543471352
216.09298957202793
230.27511315513038
244.6983688711545
259.36443571575046
274.2793260300101
289.452359880348
304.8954032182762
320.6222929419012
336.6483958599613
352.9902646623199
369.66536494811436
386.69185487593273
404.08840421031533
421.87404319067696
440.0680342368458
458.68976135995285
477.75863349168606
497.2939989310737
517.3150688401572
309.7538187551204
289.9235863605471
270.64232009500114
251.9135149942791
233.74613005462658
216.1563019174573
199.16973848647388
182.82507635494505
167.17858878390965
152.3107298980692
138.33500871990339
125.40936111549306
113.74896585432734
103.63632209919714
95.41847083973174
89.47458530900003
86.14007632078666
85.60081091922416
87.81309007893853
92.50867243599976
99.2830594123029
107.7051405413553
117.39238640963491
128.0399483940063
139.4196819462681
151.36700376509773
163.76592190635648
176.53625054956314
189.62382841877857
202.99338694921272
216.62345058395604
230.50270645550415
244.62741016743993
258.99951595321636
273.6253134378172
288.5144205421035
303.6790287319534
319.13332873366886
334.8930666051008
350.9751949376255
367.3975942053909
384.1788463793554
401.33804789215196
418.8946525502886
436.8683374951554
455.2788871202756
474.14609116892785
493.4896542070327
513.3291143903826
305.7278768025898
286.08889612082794
267.0143061628818
248.50971655442532
230.58666387940235
213.26443682739702
196.57260022192472
180.55448808778982
165.27201197909892
150.81217140146174
137.2955439440659
124.88649902331416
113.80337303098628
104.32359594900066
96.7736783121577
91.49040029439719
88.74702213522804
88.6648391789623
91.15912323928988
95.95896036773321
102.68825310399826
110.95625094840348
120.41749894306491
130.79489390895586
141.87883536236157
153.51637522496446
165.59858112179185
178.0494902825909
190.8174721989286
203.8688059781245
217.18300697511935
230.74944840355204
244.56491408545853
258.63181304081075
272.9568635335683
287.5501112010676
302.4241864312144
317.59373444982737
333.07497120520355
348.885331748678
365.0431872885948
381.56761373691296
398.4781992576632
415.79488166643773
433.53780893017404
451.7272177580115
470.3833265506698
489.5262399218277
509.1758627145431
301.55013174007956
282.1098752228314
263.2504372253802
244.97972072626027
227.31204227323164
210.27006496329886
193.8874409062032
178.21241125218032
163.31265464631684
149.28164807163935
136.24656974846908
124.37704295276002
113.89230832990911
105.06127360045144
98.1860171026477
93.5587948179024
91.39312914908788
91.75287783817825
94.51992706444857
99.42393065337177
106.1153170442392
114.23961979071751
123.48494447434817
133.5999198809322
144.39273033927162
155.72203633578508
167.48627064035543
179.61410393934187
192.05684464631892
204.78268436456761
217.7724411956394
231.01643666739596
244.51220311394314
258.2627908288979
272.27550656449137
286.56096271003406
301.1323513245243
316.0048820201166
331.19534020024753
346.72173447299906
362.6030107425247
378.8588166300875
395.50930425801926
412.5749625752259
430.07647267926984
448.03458125207754
466.4699884512915
485.4032475119974
504.85467400161366
297.2214333474684
277.987362494144
259.3516082545605
241.3245617325059
223.92353752400768
207.17480834849908
191.11634916559206
175.80150703151955
161.30381576776966
147.72307203596364
135.19242738806147
123.88534835741834
114.01948432183977
105.85169078371914
99.65605097322674
95.67894188599652
94.0772120140286
94.86420722614537
97.89517398370236
102.90297504094528
109.56285107200092
117.55304403620342
126.59205314720921
136.45230668205252
146.95893517205047
157.98205501344262
169.4276563079661
181.2293706978709
193.3418000920659
205.7353823217849
218.3925345284228
231.30478338763743
244.47063099937372
257.89396023443646
271.58283324829875
285.5485765180665
299.8050754222695
314.36822294688227
329.2554825663104
344.4855363834428
360.0779974869463
376.05317111927013
392.431853301113
409.2351584902244
426.4843699890764
444.20080838499314
462.4057144693816
481.12014395346694
500.36487195773526
292.7426889948148
273.72225343211676
255.31877799982473
237.54535455542342
220.42253099747256
203.98043817812703
188.2616130288384
173.3246911073222
159.24909805239298
146.14068532813997
134.13777031008505
123.41600828620307
114.18873685933946
106.69721625440712
101.18438622238315
97.85015756596717
96.79830127911214
97.9982947535758
101.28467110040856
106.39563727927687
113.02967380512858
120.89458375155539
129.73640707140655
139.3495327992181
149.57514705682868
160.29456480246995
171.4214228383545
182.89456075336207
194.67217284123763
206.7272418841253
219.04406061579667
231.61560853840052
244.44157668386518
257.52687431207727
270.8804913249538
284.5146228536508
298.4439875354508
312.68528957393386
327.2567882178097
342.17794809124007
357.4691508829579
373.1514540164012
389.246385633773
405.77576793228127
422.7615628749046
440.2257357632776
458.1901332516151
476.67637320134315
495.70574440127956
288.11486565902817
269.3155025408617
251.15297277366875
233.64330153837466
216.81052403188903
200.68889131206365
185.32574264870232
170.7851618230535
157.15243852341015
144.5390873539787
133.08758184620416
122.97385776542193
114.40402086570973
107.60025019329096
102.77167651065982
100.07190082045496
99.55563078033862
101.15478002906468
104.68834972091123
109.90159903401778
116.51479992520083
124.26253694693234
132.91582092357544
142.2892641459091
152.2391882338427
162.65776425632586
173.46627335336456
184.6089332455746
196.04777293871132
207.75858079794273
219.72777819778076
231.9500323674917
244.42643724019442
257.16312231155024
270.1701811577599
283.46083808405814
297.0507924238659
310.9576959049026
325.2007302671812
339.80026094615005
354.77754893543215
370.15450754394806
385.95349412760754
402.19712934622515
418.9081383184355
436.1092093996257
453.822867319027
472.0713581755507
490.8765443758304
283.3389918124666
264.7681256753309
246.85529056974065
229.61969986979267
213.08915048569582
197.30228933082697
182.31149643414355
168.18643220354764
155.01814260308333
142.92326450424736
132.0471931779118
122.56397732061912
114.6694058463205
108.5632235319973
104.41862858298798
102.34377429275376
102.34862772485853
104.33346363777969
108.10625801234913
113.42066925782146
120.01742162674753
127.65541788030043
136.12832421121678
145.2693434412456
154.94900140148806
165.06991544185996
175.5609281759146
186.3717335674364
197.4683813324233
208.82968571554326
220.44442300088758
232.30916683641337
244.42661970429677
256.8043226042628
269.45365025586887
282.38902112096275
295.6272691714504
309.18713786496
323.0888669584326
337.35385033666944
352.00434860248197
367.06324427797074
382.5538304901648
398.49962624688374
414.9242130629912
431.85108892898785
449.3035365373354
467.3045033809684
485.87649187461125
278.41615915010425
260.08120239308425
242.42690558448732
225.47595013327864
209.26019126874291
193.822960636263
179.22191117234473
165.53236637493438
152.85092202193013
141.29862190188402
131.02230132347208
122.19169546505626
114.98907119978497
109.58859832761779
106.12600895330228
104.66552611287716
105.1769052649165
107.53429907263552
111.53855627533127
116.95277643236496
123.53689359420066
131.0719384287985
139.3721451511442
148.28777978838238
157.7026445347059
167.52934162974944
177.7041228739718
188.18219002079238
198.93374438877925
209.94080464049068
221.19469871435518
232.69410597917908
244.443531702532
256.4521143559319
268.73268658085533
281.30102873031626
294.17526865269326
307.3753928857237
320.9228431780611
334.84017882212333
349.150790173965
363.8786523673441
379.0481109214536
394.6836929383983
410.8099390697501
427.45125253725456
444.63176232156
462.37519826053926
480.7047762809278
273.34752411962705
255.25587831994022
237.86907323578745
221.2135661544144
205.32559126383387
190.253466179667
176.0603368232076
162.82722099762907
150.65593687716537
139.67101720524656
130.01898682988698
121.86258997476064
115.3673014257284
110.6788693084707
107.89465160873186
107.03705277747267
108.04025737905813
110.75738740577637
114.98551443249973
120.49796322355392
127.07272098072713
134.51099217167118
142.64569608471683
151.34273854112007
160.4982852143253
170.0344242226641
179.89460555080134
190.03950978276237
200.44356771185107
211.09213857048812
221.97926699032968
233.1059150984667
244.4785707687
256.1081478169207
268.00911049153655
280.19876959291184
292.6967099402018
305.5243186779785
318.70439143165504
332.26079901531637
346.2182016714439
360.6018010152406
375.4371222332139
390.74982085177055
406.56550970284195
422.90960268845134
439.80717267422267
457.2828213906097
475.3605596415339
268.1343092166302
250.29336754383473
233.18313580030093
216.83418643446362
201.28747914141633
186.59662952317856
172.83047678874107
160.0756923932664
148.43884214477117
138.0467963010306
129.04373078229006
121.58248777090427
115.80848134930955
111.83656671220862
109.72546678324696
109.45840314452104
110.93865589922366
114.00297436540751
118.44751141978126
124.05638318317591
130.62454994928106
137.97164086140847
145.94756032982195
154.43253150969548
163.33419454730364
172.5835989612118
182.13113337319976
191.94287414512172
201.9975092174846
212.28383228321783
222.79873640323433
233.54561871638552
244.5331122439736
255.77407309801217
267.2847651736843
279.08419695053846
291.19357548885824
303.6358510406533
316.4353321585983
329.61735612015036
343.20800321043345
357.2338462011759
371.7217284447607
386.6985655460772
402.1911667151039
418.2260727431566
434.82940816610886
452.0267456397827
469.8429809036552
262.77780400540814
245.19495506248953
228.37052882845606
212.33958753720472
197.14819069085144
182.8555720914769
169.53643459960136
157.28297011432687
146.205838907209
136.43283060690925
128.10343066473567
121.35746323767862
116.3170915071666
113.06426053473434
111.61945084367977
111.92978357348275
113.87224954031872
117.27144954302707
121.92503623172477
127.62829920250948
134.1921604084895
141.45310299236706
149.27648035648906
157.55560752689263
166.2087407347637
175.17535143564265
184.4124683236243
193.89143298485402
203.59517140946434
213.51596420839644
223.65365030380778
234.014187198212
244.60849565279332
255.4515272962856
266.56150539451824
277.95929966187026
289.66790491734344
301.7120005375741
314.1175732400327
326.9115900126321
340.1217112525096
353.7760366125923
367.9028778645313
382.5305544183869
397.6872081100231
413.4006345683184
429.6981289787575
446.6063444250524
464.1511612607944
257.27936582476616
239.9619993257344
223.43278854463148
207.73169989288914
192.91029644253922
179.03375465366796
166.18276811972905
154.4547977648859
143.96373048439264
134.8365555616596
127.2054145246594
121.19383481948014
116.89770386427058
114.36456630297148
113.5776973240084
114.45156423499228
116.84136480731586
120.56334750666676
125.41869042253252
131.2140834779227
137.77546063299926
144.9547442042944
152.63134716379682
160.71054336948538
169.12038232241215
177.8082119190611
186.7373721564397
195.88429842093853
205.2360928026032
214.78853532754252
224.54447350277906
234.51252196831032
244.70600944861292
255.14211983454624
265.84118441641067
276.8260914817722
288.1217871934321
299.7548478562341
311.75310853640184
324.145336735717
336.96094266003377
350.22971974430595
363.981610660472
378.24649516669945
393.05399695940895
408.4333072465271
424.41302313895113
441.0209992124405
458.2842107682194
251.64042013804612
234.5959349344865
218.37156050352206
203.01262660840987
188.57663454568063
175.13502629876388
162.77455254965497
151.59754192539066
141.71998353807004
133.26600970398317
126.35745281141331
121.09815976958735
117.55497805783037
115.74015247821407
115.60140913726518
117.02428660760998
119.8465086688413
123.87935063321581
128.92919190037225
134.81421878883884
141.3744835015827
148.47606928086643
156.01119072841266
163.89603500729956
172.06766114648113
180.48074952451296
189.10460053169075
197.92053760842896
206.91973843489015
216.10145704171276
225.47157771995887
235.04143924012152
244.82687402640292
254.84741587883434
265.1256389016448
275.6865983702709
286.5573510163673
297.7665376450004
309.34401527103773
321.32052925886586
333.7274184487977
346.59634811092224
359.9590669145373
373.8471850476899
388.2919712590092
403.32416700016
418.9738160867495
435.270108423968
452.24123640633263
245.86246048813302
229.09827558738112
213.18860985695474
198.18466603440464
184.15035010655794
171.16368243872887
159.31745370744568
148.71827005114278
139.4827940461951
131.7298735287498
125.56776718195981
121.07722696349079
118.29365838973534
117.19374958734238
117.69191198811149
119.64867217372256
122.88837289774352
127.22029350182149
132.4573798786243
138.42930091871395
144.98938412177114
152.01671552346897
159.4151713900999
167.11088913271158
175.0491949691867
183.1915656755057
191.51289629236092
199.99916461614347
208.64548940750305
217.45453794643927
226.43522573626976
235.6016521858076
244.9722229031848
254.568917701671
264.4166716394105
274.5428436308961
284.97675317698014
295.74927060779635
306.89245005581597
318.4391973322225
330.42296711512193
342.8774855025583
355.8364951472593
369.33352096783767
383.4016549069063
398.0733584534239
413.38028173040334
429.35309792822045
446.0213517884286
239.94704802148772
223.47061740504967
207.88583369535712
193.25033904980526
179.63494249633328
167.12453370000938
155.81781327849143
145.8248381854045
137.26115779819727
130.2375070606074
124.84503550265575
121.13804774733472
119.11857181513673
118.72816117006604
119.85066900416012
122.32563232275864
125.96783998975653
130.58716871410462
136.00422086759863
142.06004207099895
148.62043863493346
155.57644729486805
162.84257203453538
170.35401490556617
178.06366977829987
185.93928686542165
193.9609818425771
202.1191313290879
210.41263138808375
218.847469451186
227.43555418711068
236.19375147579882
245.14308197492434
254.30804386498193
263.7160319284985
273.39683067446015
283.38216466603546
293.7052936189467
304.40064333411937
315.5034662426789
327.049527392518
339.07481319690226
351.6152612868624
364.70651044163264
378.38366989107993
392.68110736282017
407.63225515398955
423.26943330800276
439.6236887290388
233.89581055133021
217.71464281545235
202.4652760740527
188.21242229713934
175.03432252240364
163.0229879572854
152.28274794272193
142.92598923006716
135.06494472692913
128.7989848015095
124.19839223261008
121.28784486603
120.03462719724511
120.34627661778244
122.07929659844056
125.05627946455822
129.08599057743183
133.9811340215088
139.57081560111487
145.70727514586005
152.26804401423448
159.15515153847733
166.29279092899387
173.62441583224884
181.10983170729543
188.72255666702603
196.44755057479296
204.27931731087506
212.22034200949747
220.2798101806335
228.4725549390658
236.81818412524245
245.3403467668751
254.0661061055152
263.02539345573655
272.25052320565476
281.77575429480333
291.6368876062111
301.8708919954339
312.5155542552559
323.60915026973504
335.19013602087364
347.2968580434537
359.9672834436341
373.23874977303655
387.14773495379796
401.7296471562764
417.0186341157905
433.04741091011283
227.71044114080954
211.8321252566766
196.92914652837857
183.0739889584095
170.35288184517032
158.86514822925972
148.72026449251
140.03146231551148
132.9049759480038
127.42512639839258
123.63742336442593
121.53403960888849
121.0468161199161
122.05108596827071
124.37958157172747
127.84193935157307
132.24411226144082
137.40352065118907
143.15840679867262
149.3719587507785
155.93271867953865
162.75283408500928
169.7653350594482
176.92118168078724
184.18647851426152
191.5400269393846
198.97125728529528
206.47851855618455
214.06767709320138
221.7509690942
229.5460549946686
237.47523059201427
245.56475760647345
253.844283819309
262.3463295212631
271.10582263422475
280.1596695878653
289.5463529375131
299.30554989624704
309.47776849916846
320.1040000769415
331.2253881328411
342.88291463242956
355.1171051725389
367.96775455376337
381.47367400793075
395.672460812237
410.6002903458198
426.2917299047007
221.3926962032073
205.8249350531
191.27984314195817
177.83845913044843
165.59557764120385
154.6579297027096
145.1393932181351
137.15211346401207
130.79310180523095
126.12752105399986
123.17215513532761
121.88423742249402
122.1602155665964
123.84569670785764
126.75349945923105
130.68416460298732
135.44370978264115
140.85584272696784
146.7683876652676
153.05518282022962
159.6151037584818
166.36961656009774
173.25981381020833
180.2434803182394
187.2924505396291
194.39034816402028
201.53070750645526
208.7154350564069
215.9535556228251
223.26018726075588
230.6556948754707
238.16498008176114
245.81687266329402
253.64359605899213
261.680285477374
269.964542523033
278.53601470993715
287.4359920383473
296.70701600383546
306.39249903297707
316.5363544196145
327.1826383714107
338.37520677187206
350.1573897339204
362.57168700552927
375.65948685067855
389.4608102615752
404.01408137045024
419.3559238415266
214.94439314056632
199.69504695783152
185.51998158349613
172.5096624771048
160.76803629723412
150.40919977811916
141.55034191516603
134.30004719206056
128.74227850830334
124.91854339089863
122.81303581958616
122.34621236847802
123.37999278485671
125.73335261890618
129.20323412210456
133.5847494183185
138.686516458213
144.33980768341735
150.40231102774592
156.75817471710397
163.3159648237529
170.00573370467234
176.77593281732658
183.5905493400798
190.42662104463585
197.27215882671396
204.12444567333296
210.98865709536767
217.87674339107485
224.80651822643173
231.80090543932778
238.88730402721453
246.09703881807206
253.46487097926513
261.0285482697017
268.8283799026439
276.9068251969302
285.30808896370974
294.077719864709
303.2622107997737
312.9086027117632
323.0640949893186
333.7756668565214
345.0897147343316
357.0517105487129
369.7058853949017
383.0949419417823
397.25979760806365
412.2393590191143
208.36740757898954
193.44455004432243
179.6524320041941
167.09191665550946
155.87668090874593
146.12794572696146
137.9646727885101
131.48875787591197
126.76664008948259
123.81135821057624
122.57091008961443
122.92789094854608
124.71141266337885
127.71745470026903
131.73119858176509
136.54574546105056
141.97450680110637
147.85732756744795
154.0618989982678
160.48230567987235
167.0361939308962
173.66153091327917
180.31348781460594
186.9616873430477
193.5878858132572
200.18407374593042
206.75094203200982
213.29665018618962
219.83583524105615
226.3888069157407
232.98088309558932
239.64182772344344
246.40536034464776
253.30871269365775
260.39221299858013
267.69888330703776
275.2740392771202
283.16488565126946
291.4201040891706
300.0894331616706
309.22324303141465
318.8721095611432
329.0863941853317
339.9158367623239
351.40916874615993
363.61375339904555
376.5752584961981
390.33736521027566
404.94151480464075
201.66367031252412
187.07566089381396
173.68036634008007
161.59012610480244
150.92888859850513
141.82447528516258
134.39550418837115
128.73327853373692
124.88156141289281
122.81991141219054
122.45698569898165
123.63733597143944
126.15984794725036
129.80158417662034
134.34005709100526
139.56947888475108
145.30991023557047
151.41053111405057
157.74905304361448
164.22909746748957
170.77681177079302
177.33746178453208
183.87235827646265
190.3562446749719
196.77515188135067
203.12467123206142
209.408578184933
215.63773855371335
221.82923582141711
228.00566700964404
234.19456339163028
240.42790011871915
246.74166541545927
253.1754655389858
259.7721464547806
266.57741741903897
273.6394655936385
281.0085545943937
288.73660353931274
296.87674668404475
305.482876992761
314.6091798214436
324.309665090474
334.63770771122216
345.6456064780041
357.38417110091814
369.902345600072
383.2468740772377
397.4620121806619
194.83516414637523
180.59074139653842
167.60731946299236
156.00990724280518
145.93318521453523
137.51065621244967
130.85773836419938
126.05033307222794
123.1037068839378
121.95890431007417
122.48279260653078
124.48273129122244
127.7307926101391
131.98952760388386
137.03274843309697
142.65856846509735
148.69522581249998
155.00177647159103
161.4658643226512
168.0002290365475
174.53896973585705
181.03408546293358
187.45250064350222
193.77361347342844
199.98732523561304
206.09247894485085
212.0956311577413
218.01008706184967
223.85513877495194
229.65545674975309
235.44059295641853
241.24456178131777
247.1054704711578
253.06517578290504
259.16894762837956
265.4651242579757
272.00474717567056
278.8411676954231
286.02962091180495
293.6267668267883
301.6902023025366
310.2779511565359
319.4479427835139
329.2574918737924
339.7627928470424
351.01844238819916
363.07700195945193
375.9886095314014
389.8006463327425
187.88392094639266
173.99232301101102
161.4372688745661
150.35774806701548
140.899486859756
133.2002013989752
127.36831505910413
123.45848592717884
121.45105840534565
121.24374878828033
122.66013513118452
125.47236839576875
129.42987868869966
134.28530407107226
139.8125104361266
145.81594478947846
152.13323781468165
158.63366443473578
165.21462413239044
171.79754306276413
178.32395167867003
184.7520635320425
191.0539408965474
197.21321678387184
203.223297304613
209.08595829966566
214.8102558609795
220.4116814808423
225.91150428249222
231.33625312669704
236.7172998029559
242.090511087366
247.4959425303526
252.97755085625835
258.5829052434603
264.36288089757244
270.371321554851
276.66466109468206
283.3014984221594
290.3421241937449
297.8480026447245
305.88121643953195
314.5038866995291
323.77758371074026
333.7627458484388
344.5181246648101
356.10027274943764
368.5630880027579
381.9574237021812
180.8120193721504
167.28314007887903
155.1747393903558
144.64121277055503
135.8393999683374
128.90900627698105
123.94648851716367
120.9782803538531
119.94291514371983
120.69050122902638
123.00103829109216
126.61463595601369
131.26289686515526
136.69319449455594
142.68290568572763
149.04487044257024
155.62703212561937
162.30905202253462
168.99783427772033
175.62305209173644
182.13317511514623
188.49215619313532
194.67676621917303
200.67449652270147
206.48193004132668
212.10348725551037
217.55046580953683
222.84030698614146
227.9960348873166
233.04582442070506
238.02266200955413
242.96406870391758
247.9118595571013
252.91191624566775
258.0139524352394
263.27125377061657
268.7403769874646
274.4807958205615
280.5544853255017
287.02544099553245
293.9591345192813
301.42191386446126
309.4803610810566
318.20062616159885
327.64775881723835
337.88506156764765
348.9734867686018
360.97109710142274
373.9326039612355
173.62158402466275
160.4661758846649
148.82494173919108
138.8692054843796
130.7665942484815
124.6555447368139
120.61412200164594
118.63235341813973
118.59985700644654
120.31577402460432
123.51769011702828
127.9180135492324
133.23582105877733
139.2177729978832
145.6478484137088
152.3489611100463
159.18001321441483
166.0310662123028
172.81821714714883
179.47894406988277
185.9681915931392
192.25521743471165
198.32111546079233
204.1569000237742
209.76203937320741
215.14334130070324
220.31411195354772
225.29352478005865
230.10614953339032
234.78160107882383
239.35427482471647
243.86314047595909
248.351569051007
252.86717024411712
257.4616187613363
262.1904496986398
267.11280482272275
272.29111417317114
277.79070105360756
283.6793033974435
290.0265106496695
296.90312240427966
304.3804425038219
312.52952932924654
321.42042864177733
331.1214186798971
341.69829759564396
353.213740477789
365.7267474045055
166.31478712041218
153.54472675107212
142.3939575355357
133.0523119241386
125.69726560929459
120.46132788300952
117.39598884383891
116.44551215420128
117.44366365090968
120.13662478409651
124.22238240561785
129.3910708364696
135.3548372597303
141.86394037052497
148.7116325329007
155.73220750276676
162.7959215626917
169.80311760676955
176.67872523879856
183.36758696731476
189.8306859098583
196.04218886351856
201.9871680804369
207.65986487831722
213.0623767721073
218.20367243507854
223.0988594663188
227.76864672904276
232.2389557615658
236.5406449327909
240.70931626976218
244.78517886726118
248.812945079853
252.8417368273403
256.9249798239598
261.12026388113213
265.4891481556702
270.09689184193417
275.0120938130661
280.30622945790753
286.05307957500753
292.32805449182206
299.2074260054617
306.7674893277783
315.0836857011085
324.2297223762408
334.27672904357445
345.29248789597176
357.340768288473
158.8938543803075
146.52249184020036
135.88898815914172
127.20324388562375
120.65070880665768
116.35142593597432
114.32006199781249
114.44475174568883
116.49718168868031
120.17042508583816
125.1274530346927
131.04247349369564
137.62637681001308
144.63695960122536
151.87896077957978
159.1989979797367
166.4788513268977
173.62891377220623
180.5825498355164
187.29153215690565
193.72247381518795
199.85409182478307
205.67513121309435
211.18280174545953
216.38160867074228
221.28248593142894
225.90216232933622
230.26270791452464
234.39122002371255
238.31961678782125
242.08451134983167
245.72714315320837
249.29334403726364
252.83351700360868
256.40260487770155
260.06002519115884
263.8695470210423
267.89908586739944
272.2203945771421
276.9086324170784
282.04180105789425
287.7000455033057
293.9648294372523
300.9180070377407
308.64082544965544
317.2129019199296
326.7112252133338
337.2092309732188
348.7759946945372
151.36107771108703
139.40369991978275
129.31869242231008
121.33741953890276
115.65002120014765
112.3550461743902
111.41776485686891
112.65919358256319
115.78413485303318
120.434712751928
126.24523353681634
132.88099716201364
140.05715430640197
147.54249348381927
155.15497491150967
162.75414171887604
170.23326799010394
177.51247193712953
184.5331284734691
191.25351615844426
197.64549778654583
203.69201739315145
209.3852244597076
214.72507477630222
219.7182934263846
224.37761464341327
228.72123555148363
232.77243700601267
236.5593360981078
240.11474244717482
243.4760950292886
246.68545862068186
249.78955947995888
252.8398390758303
255.8925029090821
259.0085392529016
262.25368052268584
265.69827869226253
269.41706651817015
273.48877917346465
277.99561697314925
283.02253961602975
288.65639562089154
294.98490646329617
302.09554153054785
310.0743349115032
319.00470545508085
328.9663450680502
340.03423553965104
143.718838648038
132.19328984858436
122.69364859554871
115.4737225523902
110.72295821311783
108.50614741290877
108.7241448730363
111.11991963630169
115.32887557885242
120.94703399956441
127.5880060535473
134.91555059992476
142.65421027462082
150.58664429656193
158.54528689187217
166.40289224736696
174.06402570780153
181.45813068202725
188.5341507839087
195.2564602914039
201.6018203988795
207.55711376024874
213.11766195433435
218.28597925669644
223.07085550676385
227.48669061474828
231.55302486123992
235.2942243806663
238.73929161833573
241.92177727872416
244.87977418131763
247.65597509790658
250.29777648251346
252.85740835574575
255.39206779608872
257.9640299209392
260.640706453119
263.4946187085059
266.6032500724615
270.0487438953921
273.91741740195795
278.2990716198442
283.2860918602497
288.9723523347448
295.4519602525995
302.81789616522434
311.16062455187244
320.56675783405893
331.1178554150532
135.96964874744617
124.89717008527218
116.02699196128088
109.63549507666914
105.90295518607277
104.84405225311967
106.27791924365624
109.85968111671212
115.15608184257435
121.72478422160364
129.16797399884177
137.15520908870204
145.42495874089798
153.77599555655226
162.05601096494667
170.15097109778074
177.9763839924821
185.4705601808601
192.58956221245055
199.30346770390045
205.59361474152723
211.45057048096243
216.87263120960029
221.8647160340219
226.43755654647074
230.60711373294205
234.39417371557107
237.8240879355694
240.92663276667605
243.73596948394
246.2906887889405
248.6339252166363
250.8135260416558
252.88225698432447
254.89802329435045
256.9240799435574
259.02919913988
261.28775789696704
263.7797040065502
266.59035685598354
269.810001744366
273.5332442898594
277.8581063344745
282.88486654795736
288.7146762137288
295.4480100598968
303.18303844547756
312.0140249958824
322.02985800133007
128.1162167351663
117.52259605619827
109.33530178827033
103.85183237364818
101.23031492119405
101.41399054168666
104.12133075969852
108.91246537262295
115.290410063835
122.78505825450128
130.997250699492
139.60925897085963
148.37723980845644
157.11765584866794
165.6937964962413
174.00459129862034
181.97602330825532
189.5547704697659
196.7035650287222
203.39781715546627
209.62315125180743
215.37359896974507
220.65026818299947
225.46036224942114
229.81646289579461
233.73601716357186
237.24098748218705
240.3576365717147
243.11642723329714
245.55202229504414
247.70337275375
249.61388290218724
251.33164017100285
252.90969463999167
254.40636874760423
255.8855717712284
257.4170864598568
259.07678737459065
260.94674306684516
263.1151487616055
265.67603478765227
268.728700982833
272.37684088942774
276.7273429816885
281.88878879570296
287.9697063764334
295.0766758305193
303.31241395229927
312.7739788913084
120.16155825824693
110.07872599816682
102.63984440565815
98.15925699273325
96.75352859588381
98.2674706162588
102.29974574946687
108.31291690127989
115.75612280027778
124.14452245391132
133.08786993569473
142.28725400844738
151.51937733168154
160.61930471787662
169.46586140406572
177.97048033496182
186.06905905506974
193.71611711520325
200.88061593188013
207.54295282627504
213.69278023825473
219.32740855482356
224.45062794100252
229.07183785138287
233.20540925954228
236.87022929880257
240.08939467161107
242.89003136987438
245.3032256040924
247.36405540593705
249.11171476431156
250.5897226964656
251.84620845106642
252.93426105813245
253.9123265858079
254.84462966601723
255.80158718736638
256.86017191190257
258.1041730450401
259.6242910675691
261.5179978350338
263.88909320887336
266.84689975520416
270.5050601889307
274.97993919324404
280.38867959510793
286.8470159512373
294.46699587205615
303.3547887578583
112.10917444905431
102.57745153817513
95.96832527498796
92.60384995188977
92.53064061627887
95.46233163186464
100.8609307238728
108.09562677406262
116.57671778784393
125.81932138620724
135.45182168826534
145.1990840449073
154.86024176874446
164.28924059279305
173.38002594687143
182.0559021225303
190.26205331035754
197.96030352977138
205.12541942941775
211.74246930206104
217.80490925526803
223.3131773048692
228.2736502259109
232.6978673179439
236.60195799976387
240.00623195591356
242.93490512332235
245.41594453162534
247.48102141645177
249.1655660391197
250.50891978917616
251.55458064567264
252.35053693965637
252.94968144332597
253.41029285595556
253.7965644798105
254.1791500881017
254.63568475867197
255.25122437902897
256.1185330444865
257.3381352141986
259.01804306024786
261.27307375395384
264.2236914219592
267.99434757532197
272.711351581194
278.5003729468024
285.48374702559965
293.77780793956595
103.96334383563146
95.03465848419732
89.35736497829231
87.24388907003319
88.63047487176298
93.06228922799102
99.8539669558246
108.29432881045499
117.77459110122652
127.82503123334325
138.1011155665476
148.35505625847824
158.4093182794635
168.13643067070765
177.4447465459237
186.26867741940518
194.56202355470475
202.2933790311257
209.44291601230748
216.00009073812618
221.96197436219967
227.33201673635747
232.11911915003532
236.33693596322473
240.00335365492114
243.14011457095214
245.77256508993295
247.92951622660917
249.64321021494237
250.94939016451337
251.88747189063258
252.50081763082719
252.83711050810228
252.94882603066597
252.89379222620755
252.73582269510752
252.5453964348605
252.4003444173982
252.3864857344301
252.59813667687072
253.13839675398242
254.11910055913984
255.66031963442654
257.88931142962383
260.93884991016046
264.94493753846564
270.0439871079718
276.3696601974813
284.04963369698083
95.72960564804092
87.47217272897878
82.85598879315351
82.15296017021036
85.13340376280016
91.13576629164189
99.32780899944298
108.94106712130113
119.37077022160088
130.1766700576298
141.0478734284822
151.7659891207592
162.17678011587088
172.1705626345704
181.669149210118
190.61720195005583
198.97644743497608
206.7217315550169
213.83826396673868
220.31964303546317
226.16640415042139
231.38492938867637
235.98661615394164
239.987240151399
243.4064722110912
246.267524150854
248.596909215258
250.4243095703996
251.7825480501503
252.70766452151514
253.2390992099014
253.419986187186
253.2975598474872
252.9236752446981
252.3554391157599
251.65594156245368
250.8950679001088
250.15035532744548
249.50783937040734
249.0628108417215
248.92037714567485
249.19569622513004
250.01373428613994
251.50839946606305
253.82093392091062
257.0975150566005
261.48612343277426
267.13286715835
274.1780816317262
87.41557621306028
79.9208135200548
76.53048714080059
77.42331551162269
82.13117040629375
89.75383024502516
99.32956513337075
110.06542239244614
121.38475131445844
132.88877206618676
144.3044517202573
155.44331903074786
166.1735673184406
176.40209797859936
186.06306197577672
195.11046132228503
203.51326240146304
211.25207370817992
218.31681344251234
224.70501766007368
230.42057524912082
235.472758117271
239.87546526837394
243.6466306858458
246.8077646477301
249.38361077496245
251.40190946742894
252.8932640570848
253.89110999419628
254.43179025055423
254.55474214803567
254.30280204670274
253.72263458896663
252.86529211540022
251.78690682905574
250.54951242097536
249.22198207252075
247.88105476451108
246.61240048336424
245.51164662883608
244.68525349519874
244.25108946796496
244.33852375727457
245.08783798072358
246.64877357966228
249.17809602108235
252.83617790448787
257.78277335387895
264.1723430839577
79.03236602871046
72.42525387563316
70.4710027655692
73.16888679227677
79.72511333307119
88.98717414314743
99.90266547335172
111.69389627092177
123.83446858393881
135.97552934383017
147.88359316444306
159.3992194856341
170.41147067246018
180.84232658258682
190.63704557094127
199.75804157054256
208.18085878439246
215.8914205706547
222.88407113435116
229.16012549940604
234.72675782097303
239.59612580028028
243.78466961367747
247.31254858537284
250.20319427285432
252.48296847511517
254.1809211693773
255.3286478899118
255.96024939764624
256.1123991177688
255.8245259646721
255.13912184972114
254.10218420245988
252.76380383772553
251.17890681173276
249.40815454947582
247.51899814397927
245.5868686137161
243.69646313507278
241.9430561202044
240.43372282454175
239.28831379009247
238.6399672384704
238.63490653098347
239.43126149780468
241.19670109256063
244.10479196390662
248.33020620419757
254.04316076100002
70.59712520587334
65.05182513189835
64.79997910952227
69.52675355639488
78.02210249369841
88.90230432170449
101.0851638990109
113.84954822281041
126.73641289036475
139.45100072268355
151.79860670349902
163.64673256806046
174.90322078159002
185.50342197982752
195.4024212438871
204.57013384390598
212.98806453895256
220.64705732140547
227.54565361738923
233.68883887189602
239.0870493293236
243.75536398050735
247.71283795583503
250.98195240356318
253.58816736347165
255.55957137647937
256.9266263677779
257.7220097916162
257.980558784237
257.73932351518977
257.03773923498767
255.9179287022306
254.42514857549816
252.6083946039148
250.52118039592312
248.22250216336735
245.7779956161631
243.2612790328947
240.75545580031437
238.354717438012
236.16594179488254
234.31012024189621
232.92337649064518
232.15727058295133
232.1780385375385
233.1644363970069
235.30397571240948
238.78757871989507
243.80302544394215
62.13780568450522
57.9010017488426
59.681855929947794
66.65504735168147
77.1277651020283
89.55740858308067
102.9084600071021
116.55195505358321
130.10590373442028
143.32938408872954
156.06357412509544
168.1999124645684
179.66258195968487
190.3984964882011
200.37129433839127
209.55753135235426
217.9441194666478
225.52649435050392
232.3072270003593
238.29491947829013
243.50329459434153
247.9504287701673
251.65810001542712
254.65123619358639
256.9574566367546
258.6067050476221
259.6309748972271
260.0641310337279
259.9418334717447
259.30157163628144
258.1828198403529
256.6273275015927
254.67956042598394
252.38731209119342
249.80250565885538
246.98220744103898
243.9898691743815
240.8968073767261
237.78391000228822
234.743529387565
231.88147149132067
229.31892111257238
227.19405160065438
225.6629650565416
224.89951995928084
225.09357199630142
226.4472404616969
229.16907054884598
233.46639742468403
53.70247772024293
51.126824936341166
55.331599372263796
64.72456512147434
77.13735713372985
90.99867308079368
105.3966980915882
119.81752378681294
133.95750575050394
147.6253459531364
160.69358157432322
173.0739806566228
184.70445040501278
195.54165499587205
205.5565717309628
214.73161617237213
223.05863619911477
230.53740702194654
237.1744301100361
242.98192970257125
247.97698985581658
252.18080213176322
255.61800909603556
258.31613717000675
260.30511709797895
261.61689309086677
262.2851236310279
262.3449786003166
261.8330392152676
260.78730945856717
259.2473504169729
257.25455221124463
254.8525619617773
252.08789024451386
249.01072227409963
245.67596272479324
242.1445431625153
238.48501609170995
234.7754459281677
231.10557954939907
227.57923072237975
224.3167364615259
221.45723445435857
219.1603727434076
217.60691744107493
216.99762162709513
217.5497413365395
219.49082909372197
223.0499574145496
45.37831137041024
44.96507542222923
52.01608305246278
63.901757173666496
78.12589072727621
93.25792656498719
108.56699562131156
123.66014322870367
138.3055705026029
152.3544008170004
165.70497417378078
178.28549230946516
190.04495576780803
200.9480456764643
210.97197063322704
220.1043328596865
228.34154458243097
235.68755664650024
242.15277788865276
247.7531242305403
252.5091682222892
256.4453764145137
259.58943046477
261.9716320763716
263.6243938470104
264.5818191041952
264.87937456100224
264.55366059158695
263.64228538787836
262.1838514032702
260.2180654360492
257.78598751892287
254.93043845412188
251.69659124345546
248.13277747865186
244.29154528660297
240.2310093566732
236.01653360475996
231.72277931853446
227.43613019778792
223.25746193074417
219.3051467923796
215.7180619293212
212.65819809587316
210.31225636880367
208.89142309624108
208.6284307248729
209.77119400183864
212.57289312730686
37.330741407612884
39.7688224811062
50.036721547977855
64.32387950206719
80.1402977907262
96.35228284352124
112.43050137257904
128.09212003096792
143.16487838563398
157.53333278427536
171.1156321679254
183.85251318271628
195.70156471387511
206.63390521394254
216.63201546908027
225.6881449918232
233.80301529920615
240.98468849286854
247.24754105699623
252.61131844717568
257.1002635095876
260.7423197768837
263.5684137857751
265.61182123679123
266.9076214780004
267.4922442643769
267.4031125158192
266.6783851737406
265.3568054362603
263.47766177656075
261.08087232858634
258.20720755173943
254.89867162473985
251.19906976694168
247.15479649608204
242.81588826344375
238.23739196271794
233.48110649932718
228.6177542841241
223.72962691858768
218.91371446370738
214.28525593170554
209.9815215327512
206.16543736753593
203.02838790957003
200.79121858973747
199.7022234269371
200.03094913479785
202.0572296804152
29.877880698467663
36.04088975470984
49.67847180897202
66.07337486167738
83.19649815526128
100.2859514272726
116.99413514854345
133.12532089278076
148.5513544045929
163.18065286929914
176.94526728688567
189.79480603695117
201.69318436401167
212.61659518634968
222.55201850803337
231.495969723994
239.45335758347198
246.43640179129196
252.46359736422195
257.5587295022711
261.74994906282905
265.068919869604
267.5500477857296
269.22979925886693
270.1461147820598
270.33792091787285
269.84474350444407
268.7064245811654
266.96294655816143
264.65436930725815
261.820889273995
258.50303451988566
254.74201593592954
250.58026284844337
246.0621809238395
241.23518152887578
236.15104393323696
230.86768348186018
225.45140699955306
219.97973524332858
214.5448505877672
209.25766897883608
204.25241304144816
199.69134669621982
195.7689955550308
192.7147339632451
190.7921743250632
190.29360705422152
191.5282144914442
23.593472208609192
34.4159881103028
51.12632624681291
69.16366478933222
87.28267933591611
105.05380905388134
122.26276693051435
138.77243763899355
154.48283500185408
169.31708719883142
183.21573827163496
196.1340249376286
208.04026248014947
218.91462502228666
228.74803861350014
237.541084138102
245.30288468251575
252.0499856448419
257.80524890307834
262.59678529992226
266.45694772315034
269.42140290142197
271.5282952301694
272.81751137390705
273.3300505657715
273.10750272205115
272.1916348539666
270.62408586633904
268.4461707302576
265.6987972614785
262.4225024178636
258.6576202882786
254.4446009836936
249.82450871093235
244.83973867936498
239.53500635000515
233.95867879095223
228.16453576894295
222.21406543627023
216.17941098360694
210.14708022069425
204.22249101349124
198.53532062756642
193.24541046498885
188.54859606291987
184.68125579575604
181.92166917664593
180.58573203034567
181.01477056141138
19.476863685638673
35.45028300774857
54.39504218560269
73.54512895835117
92.36764564998896
110.64594511869306
128.2415765265021
145.04830412384868
160.97986962015167
175.9660934423011
189.95138457708623
202.8939149598545
214.76487987673585
225.54765531366314
235.2368107725155
243.83699554429853
251.36173926878678
257.8322135457925
263.2759990160699
267.72589598217985
271.2188086639135
273.794724986424
275.4958062338323
276.3655944643664
276.4483405370531
275.78845205360085
274.4300584893554
272.41669025188764
269.7910693412256
266.59501170271284
262.86944533450816
258.6545538924917
253.99006318564858
248.9156979463233
243.47184906672615
237.70050764521915
231.6465421230916
225.35941853903537
218.8954903936355
212.321010205099
205.71603085781146
199.1793530470062
192.83460095498492
186.83731316132872
181.38253503727674
176.71170453785658
173.1166285445903
170.93730838784822
170.55003592725643
19.572906396775977
39.22309632962091
59.33552084351864
79.12824041330276
98.41139347933594
117.05235216291314
134.93838483035802
151.97121706825592
168.06654873703545
183.1544049252566
197.17937700494483
210.10051343612807
221.8908286274528
232.53647312538163
242.0356369170421
250.39726588934087
257.63966926592894
263.78908778833124
268.8782812674847
272.9451817680477
276.0316464129986
278.18233250753076
279.44370794349464
279.8632019592004
279.4884953969455
278.36694559436967
276.5451388647998
274.06856304558096
270.98139372248886
267.3263904322708
263.144903451969
258.4769978662124
253.36170977078487
247.83746019895267
241.94266631374927
235.71660745282185
229.2006267259173
222.43977794917157
215.4850630290065
208.39644488515165
201.2468595428361
194.12747243269044
187.15439376790164
180.4769189666073
174.28697776431525
168.82870137164616
164.4057236185253
161.38216120855762
160.17201136728744
24.754731229951428
45.25754610887487
65.7159014357344
85.81164614477946
105.3750663002822
124.26716557617846
142.36583335938172
159.56423991964795
175.77135824003128
190.91260362377523
204.93008321602946
217.78234688497636
229.44366704598718
239.90292814579047
249.1622258215146
257.2352779726219
264.14574250144165
269.9255234813459
274.61313183792913
278.2521503210529
280.8898370502077
282.57588817725406
283.3613687615186
283.29781200425464
282.436480524386
280.8277792163742
278.52080718825886
275.56303610544677
272.0001037795896
267.87571494311493
263.2316458562475
258.1078558683484
252.54271764615626
246.5733890546412
240.23636447026595
233.56826277968008
226.60693497345778
219.39300786875788
211.97202383330588
204.3973902089801
196.73441392631543
189.06575555119565
181.4986625111128
174.17426441926978
167.27889634015241
161.0566252698415
155.8206002474664
151.95843514117064
149.92434229192594
33.01911629119811
52.92315075102798
73.30904185874505
93.5043081331055
113.22866673610727
132.29219046211443
150.54337719704344
167.85649398441464
184.12806716062005
199.27572425243113
213.23744447217013
225.9706148617716
237.45073891754012
247.66981488607152
256.63446643959765
264.3639282025401
270.8879862212998
276.2449601269127
280.47979557318075
283.64231622768267
285.78566640046665
286.9649596057712
287.23613558047833
286.65501867856875
285.27656397367144
283.15427351915423
280.33976366423457
276.88246475270034
272.8294366592535
268.2252872838503
263.1121863106631
257.5299734054089
251.5163689498067
245.10730703705988
238.33742575998156
231.24077023311372
223.85179127452352
216.20675985021967
208.34576747645053
200.31554911252869
192.1734494001129
183.99295098046915
175.8712734393764
167.93957064970908
160.376054546768
153.42165498129168
147.39610310635686
142.70913268046922
139.85726199214628
42.50398395496076
61.75952589675357
81.93900153353935
102.13816365593405
121.95626505665643
141.13973759881208
159.49912703392422
176.88446129205042
193.1766612908195
208.2838915874976
222.1393572116948
234.69934784266513
245.9411397496258
255.86068144130596
264.4701147881118
271.79522708745714
277.8729348158943
282.7488869115134
286.4752548906506
289.1087547925574
290.70892514978027
291.3366675992546
291.0530430543717
289.9183065841128
287.9911579512597
285.328181629751
281.98344949741755
278.0082607860677
273.4509968829811
268.3570729872182
262.7689743815549
256.7263723439375
250.26632389433783
243.42357135808075
236.23097322537328
228.720118633251
220.92220635817674
212.86930884093576
204.59619706890103
196.1429789925816
187.55890890944372
178.90786144863117
170.276122380149
161.7832827853203
153.59699227458617
145.95178798641658
139.17048434722042
133.68270281062155
130.02871725477024
52.699115580460735
71.50380169916393
91.49070282786316
111.67328642362119
131.55927211413467
150.83496197601139
169.27162216944836
186.6933380712869
202.96433869323945
217.9829915722973
231.67804868488494
244.00552042674835
254.94560651471608
264.4995393027104
272.6863692565329
279.5397845238378
285.1050661817901
289.4362660912796
292.5936699823068
294.6415823706228
295.6464463573661
295.67529225010884
294.7944948504423
293.068809961251
290.56065553996604
287.3296011671399
283.4320303337771
278.9209428129961
273.8458685803484
268.2528700931608
262.184616160152
255.68051829100727
248.7769297423446
241.5074192310475
233.90314666209304
225.9933890167319
217.80629344904713
209.36997560746124
200.71414002677594
191.87248436232133
182.88627121083547
173.80962252140608
164.71731865399303
155.71614501799345
146.96101142995482
138.67682449165065
131.18556860272727
124.93364928020478
120.50567390075152
63.453017028267396
82.02493296864552
101.90359401821148
122.09899890356172
142.05859837745615
161.4179669022024
179.9116415117411
197.3384869536228
213.5465842813502
228.42537301310162
241.90042917017368
253.92909298507095
264.4962989828372
273.6104410526488
281.299302893832
287.60615225436175
292.58610413313534
296.30283736572505
298.8257185086135
300.22735611439214
300.5815820498019
299.9618363299794
298.4399182459807
296.085058669262
292.96326524887866
289.1368926185866
284.6643926557098
279.6002044443822
273.9947493032171
267.8945027095931
261.34212211390866
254.37661767183107
247.0335622990369
239.34534898294555
231.3415182388914
223.04919889854133
214.49373397686182
205.6996046059643
196.69182570753418
187.49807746129198
178.1519718961835
168.6980550087804
159.19943540974984
149.74932027574002
140.4881650106113
131.62829886834245
123.48682655577106
116.52308684535592
111.36554002543795
74.72439419727354
93.27297472680993
113.16266265266574
133.43363696316095
153.49644822236078
172.9459443431765
191.48417122638915
208.88704115317245
224.98833901041192
239.67056985868618
252.8583932635524
264.51294354025913
274.62642967573464
283.2168831482501
290.3231137297911
295.99999076178244
300.31416146560963
303.3402852888662
305.15782363642785
305.84838767483984
305.49361777076217
304.17354780422176
301.9653955416998
298.94271504693324
295.1748470622915
290.7266068091042
285.65815439425614
280.0249999730551
273.8781033476844
267.26403543817025
260.2251770033583
252.799938345708
245.02299302860283
236.92552973731426
228.53554065814959
219.87818414721474
210.97628707852533
201.85109284956496
192.52342205471595
183.01550618737053
173.3538991953229
163.5740962266874
153.72783448612148
143.89456309347133
134.1992501027148
124.83933327620667
116.12328004049212
108.5191018779198
102.69751508162601
86.52337460934314
105.25142516201001
125.2917231503558
145.7245587317513
165.93833186873388
185.49560642314827
204.07065301012796
221.41971568545014
237.36527382535317
251.7860227209677
264.60902795470395
275.8026359796205
285.3696849718963
293.34097908611034
299.7691455771293
304.7230226653197
308.2826961531971
310.5352521158372
311.5712613769222
311.48196853999565
310.3571275201191
308.28340675841054
305.3432787780444
301.6143079814754
297.1687551334023
292.0734247188507
286.3896906969526
280.1736459747653
273.47633053768504
266.34400230831574
258.8184234980343
250.93714378241742
242.7337706742453
234.23822792285844
225.4770160289094
216.473507105814
207.24833251143465
197.81996087376342
188.20562430885627
178.4228448484684
168.4919630365726
158.4403121271968
148.30907141465784
138.1644526188294
128.11580356772333
118.3443785899456
109.14712144151156
100.99665740011704
94.60342258379711
98.89259862419047
118.0039236561501
138.35000240465806
159.04923126657374
179.475738868107
199.16614911850544
217.77164113220016
235.03287905152322
250.76516755711475
264.8477602079035
277.21466363556885
287.8459491757925
296.759361099128
304.0023338163825
309.6446223141626
313.77173001218085
316.4792525109327
317.8681808453929
318.04114248032386
317.09950996008774
315.1412769484934
312.2595870344331
308.541798425161
304.0689736440826
298.9156942393956
293.1501136998119
286.8341754538063
280.0239358751456
272.76994405933
265.1176406254034
257.1077471134171
248.77662613608177
240.15660101080104
231.27623316284502
222.16056760522122
212.83137339490713
203.30743037055936
193.6049507845987
183.73828294759076
173.72113762564578
163.56873054368612
153.3014873333448
142.95138167517223
132.5726889781371
122.2600956452351
112.17879703947688
102.61288158152797
94.03661550148396
87.1971589181237
111.90123016650483
131.60919710257718
152.431912997202
173.51786596449313
194.22984665504708
214.08298993342237
232.7100018254659
249.8409321105092
265.2893682782422
278.9409723949968
290.74267296079245
300.6920622853904
308.8271147797053
315.21653336343127
319.9510290553465
323.1357497810838
324.883961191908
325.31197875325597
324.5352716474756
322.6656085967087
319.80909057980807
316.06490984449306
311.52468236737326
306.2722165017044
300.38359973261606
293.92750528207677
286.9656389438586
279.5532630242621
271.739748286854
263.56911644901703
255.08054545268809
246.30881805401603
237.2847020857375
228.0352591520529
218.58408903553172
208.95153190681387
199.15487281564546
189.20862809863294
179.12504980681527
168.91507659604696
158.59011329813615
148.1652824287033
137.66524185565126
127.13444943454336
116.65511099918632
106.37823159287035
96.5759351159908
87.72325593913638
80.6012990577434
125.64475093871002
146.181217933599
167.66983426751898
189.27798189399422
210.35663789333896
230.40254167518884
249.03479487852985
265.97902516889167
281.05428389048313
294.160365198415
305.26487761752
314.39025207049616
321.60119840540074
326.99314476024614
330.6820652539873
332.7959221929482
333.46777838960105
332.83050200590725
331.0128988034451
328.1370610993734
324.31670988287686
319.65631601239534
314.250808914373
308.18570959485436
301.53755415681525
294.3745014067113
286.75704200327147
278.738746417291
270.3670048331995
261.68372450715844
252.72595969721993
243.52645693960955
234.1141051500653
224.5142869883568
214.74913671769443
204.83772264655983
194.79619250596016
184.63795309907252
174.37401006160198
164.0136847535217
153.56608020547682
143.0429362307356
132.46398761486674
121.86678951466523
111.3244982350454
100.97770379308729
91.09011878661912
82.13954503935285
74.93888096068639
140.2483188459837
161.87334421610151
184.23998563754995
206.52135312207585
228.05386505316318
248.3183249610704
266.92598045313883
283.6061120362579
298.1927911825222
310.6101178224281
320.8563591982865
328.9879059149571
335.104013622764
339.3331021523964
341.82109012330784
342.7219527921692
342.1904581144515
340.37687906962515
337.4233951896868
333.4618678177964
328.61268388459115
322.98439570212304
316.673927009757
309.76715987919226
302.3397581411308
294.4581183015021
286.1803677066482
277.55735222326143
268.6335726684388
259.4480416364411
250.03504127672494
240.42476906463673
230.64386381067104
220.71580937250428
210.66122040159374
200.49802525201386
190.24157933497233
179.90477319587535
169.4982525710945
159.03095854074505
148.51135324199805
137.9499735591848
127.36445249558176
116.78905683055952
106.29245705828731
96.01039185620972
86.20430419125731
77.35956616685854
70.3186474318737
155.87320061991772
178.8862821857616
202.37185775701477
225.49399463975584
247.57042730281756
268.06878036809735
286.6000849558795
302.9082772341422
316.8553591618407
328.4031645227698
337.59338058635575
344.5275868489607
349.348776205672
352.22533855724805
353.3379839691189
352.86966578559094
350.9982753151304
347.89171712871985
343.7049127778565
338.5782888387324
332.6373532786332
325.9930298212881
318.7424884345339
310.97027280848175
302.7495788327426
294.1435806111203
285.20673308335495
275.98600422326626
266.52200665657404
256.8500099648696
247.00082235657325
237.00153510388762
226.8761264287215
216.6459247246903
206.32993579557854
195.94504749818756
185.50614133917617
175.02616991169165
164.51631121133724
153.98640270209606
143.4460200059755
132.90685411961138
122.38756546486982
111.92325975963442
101.5835168152913
91.50607300831926
81.95797052116487
73.43825078126685
66.81414349360647
172.72666635359445
197.4805002470322
222.3621500606251
246.51016024847337
269.2189175917407
289.9472100723358
308.3169194968651
324.1021556586659
337.2105296908737
347.65937048971307
355.5500003263594
361.0428032245686
364.33504285949215
365.6425154779352
365.1853667048141
363.1778585430225
359.82155623427604
355.3012744511008
349.7831206284819
343.41404526952476
336.3224128925539
328.6192157461696
320.39965058536717
311.7448603294325
302.72370616331693
293.39448315291224
283.80652637799614
274.00167779082943
264.0155990807005
253.87892495564185
243.61825623189856
233.25699443226273
222.81602055807753
212.31422167505244
201.76887160117982
191.19587866057768
180.60992783295305
170.02457271471366
159.4523847959545
148.90536172264595
138.39596516164764
127.9394633586052
117.55880825592749
107.29429785569717
97.22214167647641
87.48927394393027
78.37618816870302
70.39995740770782
64.4413741573602
191.0764439726657
217.99452321290295
244.5948179348806
269.97179950410026
293.39236634236903
314.31434068763406
332.3873366153516
347.4380511216834
359.44415122687525
368.5019476074794
374.79279611236973
378.5520382541215
380.04281591987115
379.53571516122815
377.2941568742827
373.56482306332634
368.5721307018239
362.51573531651053
355.57015741902666
347.8857953005531
339.5907655888218
330.79317115337454
321.5835240016376
312.03714794302977
302.2164558062629
292.1730441993819
281.9495804587033
271.5814760399113
261.0983517250367
250.5253053509805
239.88399431576545
229.19354441783582
218.47129491015926
207.73338828591656
196.99521385058833
186.2717189232258
175.5776143273195
164.92752804689113
154.336213532786
143.8190165496748
133.39298160726605
123.07930001139371
112.90838471155807
102.92991566358762
93.23207797516501
83.97725609468857
75.4648725762141
68.22902874243675
63.14385797262743
211.27169435609997
240.8715911079023
269.5697925730541
296.3956195370149
320.5865616725103
341.61401170490717
359.18176545436097
373.20197982753723
383.75636623540834
391.0511313476113
395.3729002535113
397.05049430506347
396.42493230789614
393.82801027921244
389.56853481329887
383.92468871321887
377.1409039231101
369.42779447825245
360.96399527235917
351.8990569770507
342.35681186988853
332.4388324071504
322.2277554348442
311.7903491067465
301.1802678368422
290.440482932841
279.60540095271233
268.70269427943833
257.75487317123344
246.78062854030333
235.7959719288404
224.8151949759645
213.85166619863983
202.91847924321823
192.02896535340744
181.19708592510636
170.43773252894925
159.7669883385165
149.20245814771903
138.76387463706868
128.47437285146182
118.36315851790702
108.47089481592408
98.86018974906656
89.63534184005402
80.97804533868486
73.20747878371483
66.86600048491601
62.79327313851851
233.77377138224654
266.6987840351942
297.94442601260585
326.4509333310538
351.4297578329191
372.39236106006155
389.1387486568453
401.7151960953342
410.35473165592236
415.4136858484684
417.3142977575441
416.4989312056265
413.397490272411
408.4069396388035
401.8805097890306
394.12387092444305
385.39585575313845
375.91184440311645
365.8484736557509
355.3487947561569
344.52735089273534
333.4748860541732
322.26255355941106
310.9455883730497
299.5664618265152
288.15756514382963
276.74347941446547
265.34289114996545
253.9702086443196
242.63692771239695
231.35278762967383
220.12675025057342
208.96782808932522
197.88578140848907
186.89170129395455
175.9984974294976
165.2213196354314
154.57796800238174
144.0893996282902
133.78054160675634
123.68180676934597
113.83204405325193
104.28424369845195
95.11630987726119
86.45073613213738
78.48875860615358
71.564205611895
66.21162514782976
63.20684332518634
259.2022050867995
296.26539147352236
330.5941152060924
361.01301295837135
386.72202956192547
407.3203859633975
422.7716625322312
433.3286012192756
439.44090088425565
441.66620458714317
440.5970856435049
436.8089848608837
430.82822383953544
423.1161322703963
414.0645021411126
403.9980889105667
393.18091172096774
381.8241552897975
370.09432712006975
358.12092902649295
346.0032957151981
333.8164903256254
321.6162784650874
309.4432673548448
297.32632225481615
285.28537582148067
273.33373822997135
261.480003059604
249.72962960428848
238.08626824040658
226.5528826211764
215.1327111441271
203.8301005954569
192.651237504002
181.604798425147
170.7025409816299
159.959866618047
149.3964103073783
139.03676365905423
128.91153644229883
119.05914197159089
109.52901003089832
100.38746927348974
91.72838849208526
83.69179269546348
76.49444068782833
70.47415618999524
66.13783335905181
64.17427065304437
288.40518403484043
330.6519551857506
368.70254439593134
401.2389160104235
427.4867627268552
447.2184308515065
460.66976177986885
468.40747995753105
471.18690292379443
469.8294669371696
465.13424558090435
457.82455057339195
448.5230784932055
437.7466779880514
425.91265142687047
413.35063864837383
400.316281182696
387.0045322367338
373.5615853738951
360.0950576357541
346.6824218094165
333.37785383511647
320.2177253489158
307.22497872225154
294.41260251016354
281.78639548506294
269.3471759765781
257.0925640725278
245.01843889768074
233.1201519483571
221.3935600220378
209.8359271662914
198.44673388476673
187.22842347615637
176.18711030541323
165.3332744568482
154.6824747191351
144.25613317819068
134.08249053621307
124.19791984949383
114.64894706918881
105.49560295848985
96.81717464293621
88.72205733344359
81.3640674094284
74.967488010908
69.85998647781145
66.50216658941466
65.48417216035625
322.57088966321294
371.3698380875108
413.8987459587413
448.675914228019
475.0361157653026
493.0779722398513
503.48578927438734
507.298808740685
505.6951781129903
499.83047609621843
490.74067335468527
479.29938261189284
466.21187170229433
452.0293741094738
437.1719455391772
421.95285335794836
406.60099818207
391.28000296347454
376.10375076651405
361.148683380348
346.463364769934
332.0758357416344
317.99923452103144
304.23608174284993
290.7815512093211
277.6259794555534
264.7568105610061
252.160127501768
239.821886142212
227.72894089400086
215.86993040599498
204.23607595122502
192.82193336826933
181.6261308549988
170.65211955513698
159.90896256322262
149.41219298457906
139.1847876910396
129.25833890429726
119.67457496525145
110.48750633845293
101.76668114363511
93.60234860105926
86.11372000639233
79.46177702820272
73.8675339684115
69.63381566665409
67.16166249145206
66.94341053802648
363.40982124730056
420.5870170169622
468.4699062041751
505.4165398594543
531.0489265020502
546.0688377970025
551.8951330048808
550.2684751671554
542.9344079095422
531.4487562127496
517.0941662182279
500.8722493366826
483.53492619280803
465.62968031168185
447.5446888320918
429.5479002299002
411.8184845177854
394.4710989292953
377.5741329600248
361.1632059584735
345.2510512953986
329.83471015287154
314.9007512326316
300.4290573474827
286.39558112751644
272.7743664634457
259.53905375669757
246.66402946126482
234.12533858041724
221.90144858746498
209.97393151738197
198.32811537591348
186.95374483579866
175.84568328429646
165.0046830396125
154.43824801278336
144.16161428319185
134.19888159321258
124.58434778590755
115.36413752496938
106.59828935225077
98.36358637970096
90.75759181901381
83.90454656965616
77.96385660420114
73.14147327281546
69.70290723025497
67.98346287496356
68.38795523467505
413.4659790272714
481.5072251614721
535.699042920768
574.3173620388918
597.6485439378746
607.5041261878084
606.4987071237233
597.3890612084517
582.6419762232638
564.2451023972694
543.6904879119732
522.0430272709343
500.03394284223793
478.14798998782516
456.69417952939403
435.8591577735342
415.7459164514554
396.40119923185546
377.8346165634405
360.0318452505546
342.9636780614324
326.59219283763343
310.8749378340466
295.76776079296485
281.22671913040773
267.2093761075522
253.67569625093884
240.5886902897738
227.9149167469203
215.62491791469833
203.69364798675423
192.10093760078874
180.83202983610352
169.87821623438518
159.2375964765685
148.9159810374908
138.92795184258003
129.29809157836013
120.062388798728
111.26982620599573
102.98416960900343
95.28600572080131
88.27514307137334
82.07360647036437
76.82962339432338
72.72318555763046
69.97385587648816
68.85121122110718
69.68719954379608
476.6776374421627
559.0330880925748
620.4126210679583
659.2925395935506
677.4370766232713
678.701899182821
667.6206089971071
648.353036095845
624.1863579723093
597.4764205135898
569.799152775347
542.1560441734684
515.1519049434677
489.1284322966567
464.2575571565278
440.60426531164563
418.1679385902392
396.909165860132
376.7669306892383
357.66950246961613
339.5412398130705
322.306757512952
305.8934063172874
290.23268577582843
275.2609960607763
260.91999538168017
247.15673930499403
233.92371990000083
221.17888508131915
208.88569458365407
197.01325393863368
185.53655842129245
174.4368729028373
163.70226905198524
153.32833662561075
143.31907871409496
133.6879893050795
124.45929235592226
115.66929146810588
107.36773639234693
99.61906083334065
92.5033041642509
86.1165473663826
80.57087144448792
75.99434440071573
72.53253064658726
70.35448800616055
69.66754440807392
70.74443680119721
559.4401139121762
660.9909174006526
729.8716256292851
765.6547709081252
773.3597477253987
760.6145737008977
734.9279963868871
702.187533843534
666.3968342296289
630.0112218453645
594.4333144150536
560.4001663425622
528.2478894132162
498.0794343533602
469.8673561672748
443.5153968732604
418.894762241069
395.86507972756306
374.28616717502393
354.0243321569184
334.9554493326812
316.9661714476418
299.9540911339589
283.82734555746214
268.5039596191758
253.91110499529435
239.9843812016215
226.66718264836697
213.91019111320227
201.67101933849548
189.91402425127427
178.61030477308444
167.73789722622644
157.28217904013
147.23648661369512
137.60294282648096
128.39346963397946
119.63092586509111
111.35025363774866
103.59943547820549
96.43996694699382
89.94647522433525
84.20515938475623
79.31107038294697
75.36512661798244
72.47336423023796
70.753167045262
70.35341615085811
71.49558554562093
672.8539362848437
800.4680286531772
875.228525215449
900.2924482750396
888.0532800628265
853.0038149847045
806.7800757235572
756.8918560732155
707.3967064710787
660.2772722537846
616.3540897696618
575.8370408496037
538.6323199454087
504.50818203561585
473.18212381410535
444.365294207544
417.7838867422567
393.188291416095
370.35586521820284
349.0904985234215
329.22069171456286
310.5970565425371
293.0897191151124
276.5858627788457
260.9875204612307
246.2096583039831
232.17855852401698
218.83049426093933
206.11068421086753
193.9725152621052
182.37702426904073
171.29263362720053
160.69513785257604
150.56793811464775
140.90251609774714
131.6991239058499
122.96763757307774
114.72847121961266
107.01337062260134
99.86579926577228
93.34051776467453
87.50190434218722
82.4207046423588
78.16943145122985
74.81773303877851
72.43074012566551
71.07566252273496
70.8449092393501
71.9072978401397
837.4405302751463
1000.8568354262482
1073.4714445403947
1070.840302237637
1021.9599571824367
952.7297212751799
879.4009660182212
809.0995159156853
744.5226739931204
686.2880668644034
634.1325307204384
587.467097316679
545.6253686452262
507.96853505481255
473.9244501627346
442.99713193803245
414.7636515652125
388.86628232655113
365.00348132422266
342.921244575472
322.40542077710984
303.27513065861535
285.37724869404417
268.5818321346036
252.7783655941138
237.872696976114
223.78455753883503
210.44557837564156
197.79773440339034
185.79216375101973
174.38832460148637
163.5534625459286
153.26236851950992
143.4974088514416
134.24880219098767
125.51509884918637
117.30378057116675
109.6318363924099
102.52607948070859
96.0228592762896
90.16673079580943
85.00765906250457
80.59661263343443
76.98009237836249
74.19523946839325
72.26832209032379
71.22049709904672
71.08810032014262
71.97479300570177
1097.7935620411147
1304.8737176624702
1349.0852092151727
1281.440016134481
1167.8132250271358
1051.7436942507513
946.1954454466357
854.0062026697739
774.4428459628708
705.7959159722054
646.2848598913785
594.3352742109153
548.635407519319
508.11798841454095
471.92216765411365
439.3546159510315
409.8557382642906
382.97210476279014
358.3345601301131
335.6410414556375
314.64314118353855
295.1355931636628
276.94802346494043
259.93845443785324
243.9881708336822
228.99765150190365
214.88334342025385
201.57511107109983
189.01423735520612
177.15188532038417
165.94795502224133
155.37028790683456
145.39418224115084
136.00218612686314
127.18412685749784
118.93731254453208
111.2667985486328
104.18554251529262
97.71417894174482
91.88004549341464
86.71504184898785
82.2520028505051
78.51966888440202
75.53713893724695
73.30972486665237
71.82862619348356
71.07560454147216
71.03333585287169
71.71943638357695
1545.784662698767
1802.9524302921313
1727.1019172639628
1509.869365231064
1305.735122154609
1135.8536041140774
997.9786057392403
885.8359166121539
793.5649565842791
716.5895834992235
651.4751190528018
595.6650475611073
547.2466087173796
504.77485369945487
467.14598726400976
433.5072851846678
403.19287568053744
375.67759736648895
350.5434988266493
327.45523969162565
306.14181987111755
286.38285647692294
267.99816618258836
250.83977807869286
234.78575495544516
219.73537690934867
205.60536510407843
192.3269119340421
179.84334772186392
168.10832067102743
157.08440071082794
146.74204173906543
137.05885151681298
128.01912339007808
119.61357671708126
111.83922942827489
104.69928190417086
98.2028236253122
92.36408809149381
87.20090141464657
82.7319532738248
78.9726661403621
75.92987688189153
73.59635288389629
71.9472004292347
70.94074234754885
70.52414454303903
70.63460006271389
71.18752870473006
2579.3522576935165
2645.2341385114823
2113.973266659442
1697.9437123343482
1402.5456441342844
1186.8263976142455
1024.716680361831
898.9628100233529
798.7144829177226
716.8933299613473
648.7486078996592
590.994442388351
541.2978332781922
497.96368108606237
459.7354549866553
425.665378044819
395.02769159134203
367.25933954953973
341.9185466407364
318.65534074618415
297.190213605156
277.29843142578903
258.79833552734203
241.5425054961661
225.41100627592286
210.3061736304654
196.1485508049364
182.87369870711933
170.429678835706
158.77506289611347
147.87736213202044
137.71179675481545
128.26034330040383
119.51100529992388
111.45724863138518
104.09752419619906
97.43476352355289
91.47567596485402
86.22960487610366
81.7066353886618
77.91463270777226
74.85499810898914
72.51724288745619
70.87306278970848
69.871457732029
69.43741652677097
69.47646525620553
69.8775936004975
70.46220903115972
5111.972250476156
3333.6076155860756
2304.7863698156098
1767.028354217192
1422.9395898800074
1188.617967952668
1018.5189201915192
889.4197723410393
787.8958190287474
705.7594427235631
637.7345253059549
580.2791385912758
530.9326702919373
487.93696273354703
450.0058008530688
416.1793495319328
385.72918569364606
358.0945812392017
332.83869249494
309.6177800566783
288.15916526759855
268.24517104962797
249.70124106209485
232.38702687897043
216.18961650805326
201.01832975800062
186.80067486567296
173.4791758710785
161.00885982681493
149.3552486672682
138.49273981918012
128.4032869968983
119.07531069082393
110.5027776428977
102.68438974023994
95.62281368291676
89.3238612320177
83.79549412144507
79.04647910831576
75.08446475773962
71.9132086530268
69.52867393906911
67.91375514832484
67.03148935974771
66.81677532231106
67.16697832796322
67.93247798770972
68.90686670326329
69.77704556755351

SCALARS STRESS_XX float 1
LOOKUP_TABLE default
370.67389076208485
-5303.786109370248
0.1934555634767925
-606.8069584594923
370.59190251021283
370.34594682355066
369.9360509750577
369.3622606402788
368.6246402282618
367.72327334436716
366.6582633847291
365.429734261876
364.03783126079475
362.48272202434543
360.7645976668955
358.8836740143977
356.8401929686088
354.63442399300084
352.2666657167403
349.73724765266036
347.04653202409304
344.19491569415976
341.1828321903864
338.0107538156677
334.67919383522064
331.18870872742093
327.5399004843291
323.73341894566954
319.7699641472966
315.6502886627028
311.3751999131305
306.94556241838075
302.36229995703985
297.6263976008529
292.73890358343806
287.7009309591784
282.51365900301494
277.1783342961772
271.6962714370445
266.0688533096652
260.2975308355677
254.3838221267988
248.32931094949976
242.13564439839433
235.80452967225426
229.3377298294635
222.73705839054887
216.00437264031586
209.1415654673108
202.15055556067472
195.03327576433912
187.7916593657995
180.42762406987126
172.94305337693208
165.33977504836346
157.61953629815062
149.78397529749225
141.83458851597678
133.77269334641173
125.59938536680949
117.31548947777293
108.92150401169474
100.41753673365292
91.803231433885
83.07768353627853
74.23934280030429
65.28590075576736
56.214159952983266
47.019881400754066
37.69760565432779
28.240441841594894
18.639817394444723
8.885179267931347
-1.0363651758731922
-11.140482887466426
-21.446145312644646
-31.976280069378248
-42.758578519202686
-53.82650509914821
-65.22057015724214
-76.98995027940202
-89.1945716626842
-101.90781751250175
-115.22008679983895
-129.24353027601256
-144.11843872091725
-160.02198844076156
-177.18041192686943
-195.88624832498323
-216.52330323024896
-239.60361870717168
-265.8237174046328
-296.15287759806995
-331.97672480237816
-375.34149925622614
-429.3894732610336
-499.1991514823811
-593.4696576185091
-728.6685889995429
-938.0616920871794
-1307.9577997712963
-2038.4683016871945
-3915.8487061965866
-2760.986228816123
-225.34907227929904
-143.25454812758574
-42.94767087661995
-24.097347057373526
-13.234978996001672
-8.389358527583624
-5.5796888254120915
-3.9064878106831884
-2.8341167751833325
-2.118744310348532
-1.6235280211048888
-1.2706838760827992
-1.0131006913656364
-0.8212224218121804
-0.6758411460865688
-0.5641117780933058
-0.47722411612191706
-0.40900077744110774
-0.3550251736202412
-0.31208449598774024
-0.2778051746377699
-0.2504090770154477
-0.22854720664707884
-0.21118418698564057
-0.19751663937417874
-0.1869145455998975
-0.1788784027732504
-0.17300732957209064
-0.16897478899284835
-0.1665095626805133
-0.16538022921987405
-0.16538177135810272
-0.16632312369009128
-0.16801449496827914
-0.1702531460357406
-0.17280592118518
-0.17538610003676602
-0.1776208267482673
-0.17900303473890844
-0.17881752231991577
-0.17602285266161743
-0.16905513450640441
-0.15548914249585088
-0.131431755781092
-0.09044903262792126
-0.022169562970777434
0.08529172976431099
0.1718287424377536
0.6018968827039988
1.6515602977320967
2.950416030327508
4.11321457575532
4.856656700364798
4.993091850526877
4.404962807756897
3.023838435242677
0.8158478881015476
-2.228206297914628
-6.099647773088288
-10.77671887066641
-16.228053474938694
-22.41526461995545
-29.294923638399855
-36.8201096748842
-44.94164676473268
-53.609106461482995
-62.7716287520967
-72.3785976109898
-82.38019684819793
-92.72786490863378
-103.3746627007969
-114.27556553979659
-125.38768832928619
-136.67045181211284
-148.08569684457743
-159.59775302987836
-171.17346757379795
-182.78219983076613
-194.39578664793555
-205.98848326360917
-217.53688416200936
-229.0198279244582
-240.4182897481184
-251.71526493162952
-262.89564625661706
-273.9460978317201
-284.8549276158621
-295.6119605050011
-306.20841355550476
-316.63677462968406
-326.8906854874539
-336.96483011270664
-346.85482885479576
-356.557138782983
-366.06896049431737
-375.3881514822366
-384.51314606095224
-393.4428817494437
-402.17673194484314
-410.7144446574056
-419.05608703589667
-427.20199538052736
-435.1527303195465
-442.90903681355434
-450.4718086468231
-457.8420570655844
-465.0208832295152
-472.00945415229853
-478.80898181942035
-485.4207051863614
-491.8458747763805
-498.08573961407455
-504.1415362485709
-510.014479637735
-515.7057556823377
-521.2165152160062
-526.547869273547
-531.7008854756989
-536.6765853833397
-541.4759426885357
-546.0998821224046
-550.5492789724735
-554.8249591137023
-558.9276994672098
-562.8582288106002
-566.6172288725829
-570.2053356526717
-573.6231409135639
-576.8711938005677
-579.9500025482998
-582.860036239832
-585.6017265887584
-588.1754697180425
-590.5816279134964
-592.8205313335515
-594.892479658866
-596.7977436682336
-598.5365667298163
-600.1091661979951
-601.5157347080403
-602.7564413622952
-603.831432802377
-604.7408341633114
-605.4847499062485
-606.0632645268772
-606.4764431376096
-606.724331921899
-595.5577859096672
-573.2180755590153
-551.1889942733521
-529.4572367693227
-508.0094507311735
-486.8322405673357
-465.9121714377018
-445.2357734855409
-424.78954621102133
-404.5599629273867
-384.5334752437235
-364.69651752216134
-345.03551126120345
-325.5368693602063
-306.1870002239983
-286.97231166984346
-267.8792146026195
-248.89412642758674
-230.00347417303976
-211.1936972987187
-192.4512501684073
-173.7626041685818
-155.1142494579804
-136.49269633523616
-117.88447621484835
-99.2761422046884
-80.65426928078688
-62.005454057747365
-43.31631415655298
-24.57348717356003
-5.763629257583501
13.126586694348493
32.11047320976705
51.20133076618558
70.41245064956945
89.7571181233346
109.24861588176901
128.90022775858642
148.72524265773473
168.73695866993302
188.9486873353189
209.3737580085742
230.0255222796411
250.9173583999326
272.062675660423
293.47491866489673
315.1675714390855
337.154161313258
359.4482625137657
359.36797821030757
337.07727629489364
315.0940690117907
293.4047832668208
271.995892995909
250.8539155486402
229.96540778154238
209.31696192580975
188.8952012919157
168.686775870553
148.67835788667068
128.8566373602779
109.20831772413695
89.72011154531424
70.37873639412376
51.17091090022652
32.083351032231
13.10276663377185
-5.7841417546734535
-24.59068576226949
-43.33019171999422
-62.01600283905615
-80.66148101963832
-99.28000827718104
-117.88498777574685
-136.4898444616187
-155.108025293201
-173.7529990656181
-192.43825583167342
-211.17730592329517
-229.98367858044412
-248.87092019711503
-267.85259219717227
-286.94226855530894
-306.1535329810672
-325.49997578753965
-344.9951904688221
-364.6527700138113
-384.48630298699663
-404.5093694103007
-424.73553648370637
-445.17835418565585
-465.8513507981669
-486.7680284049762
-507.9418584148632
-529.386277166178
-551.1146816716887
-573.1404255667529
-595.4768153269853
359.12713412949967
336.846629533159
314.87356938071673
293.19438399149465
271.79555111651575
250.66359224721492
229.7850686363021
209.14657709592265
188.7347456358298
168.53622900137265
148.53770416821328
128.7258658476765
109.08742205292481
89.60908977304747
70.27759079856534
51.07964773813161
32.00198026272497
13.03130161026664
-5.845684620159004
-24.642287358750387
-43.371830617348756
-62.047655684758936
-80.68312294895505
-99.29161333344089
-117.88652933771337
-136.48129567492893
-155.08935950280312
-173.72419024639413
-192.39927901435559
-211.1281376127322
-229.92429716347252
-248.80130633709945
-267.772729212149
-286.85214277669786
-306.05313408985074
-325.38929712447907
-344.8742293153329
-364.5215278399228
-384.344785662559
-404.35758737562253
-424.57350487556363
-445.00609291452395
-465.6688845724276
-486.57538669785436
-507.73907536984876
-529.1733914366213
-550.8917361906026
-572.907467242892
-595.233894663613
358.7257568218535
336.46224596133266
314.5060955430905
292.8437416323263
271.4616683936687
250.3464042747466
229.48451790605148
208.86261378285963
188.4673277924806
168.28532264715506
148.3032832798168
128.5079122569225
108.88592525879751
89.42404667456842
70.10900535532866
50.92753056526237
31.86634816692593
12.912177073554005
-5.948274002652483
-24.728309480697458
-43.44124949675357
-62.10043212743663
-80.71921523432054
-99.3109779170526
-117.88912156553508
-136.46707050421986
-155.05827222468952
-173.67619720536388
-192.33433831981844
-211.0462098380076
-229.82534602739935
-248.68529936342424
-267.6396383617854
-286.70194504770467
-305.88581207993576
-325.20483955043363
-344.6726314837132
-364.302792062982
-384.10892161316036
-404.1046123746328
-424.3034441050256
-444.7189795496467
-465.3647598252837
-486.2542997656807
-507.4010832807428
-528.8185587855604
-550.5201347589225
-572.5191754946821
-594.8289971129827
358.16389074429054
335.9241673121238
313.99168597677897
292.3528909671399
270.9942755428504
249.90237800195405
229.06377741066868
208.46508912202103
188.09296014736663
167.9340644418071
147.9750981612191
128.2027749454333
108.60382127833155
89.1649719720248
69.8729658187952
50.714541450603356
31.67643344211328
12.745368689970718
-6.091936902947774
-24.84878141300282
-43.53847952860559
-62.174364812265026
-80.76979157601352
-99.3381363578664
-117.89279899016148
-136.44720325292548
-155.01479710872266
-173.60905251791846
-192.2434648359333
-210.93155179688756
-229.6868520904737
-248.52292354145186
-267.453340904139
-286.4916932868044
-305.65158122336805
-324.9466134131608
-344.39040315241067
-363.9965644839658
-383.7787080953144
-403.7504369981249
-423.9253420263669
-444.31699719337144
-464.9389549521959
-485.80474140762306
-506.92785153171224
-528.3217444391289
-549.9998387821972
-571.975508329517
-594.2620777957725
357.44159856901746
335.2324523830741
313.3303948634933
291.7218809407747
270.3934157675707
249.33155049878692
228.52287780150604
207.95402716274614
187.6116600600497
167.4824650566701
147.5531528798619
127.81045153718335
108.24110152184484
88.83185115458062
69.56945210567572
50.4406551368629
31.432206099021116
12.530842217933987
-6.276711303303367
-25.003744340343356
-43.66356454020667
-62.26949963260749
-80.8348993446289
-99.37313690688465
-117.89761014221291
-136.42174213039257
-154.95898144571782
-173.5228019663744
-192.1267022574848
-210.7842045321472
-229.50885319729983
-248.31421299369288
-267.2138667420973
-286.22141271037026
-305.35046161846026
-324.6146333016927
-344.0275530555078
-363.6028476876594
-383.35414130746335
-403.2950508848375
-423.4391816156402
-443.8001221333865
-464.391439611275
-485.22667480269496
-506.31933707210374
-527.6828994724856
-549.3307939297815
-571.2764065986614
-593.533073458
356.5589616154484
334.38717740733966
312.52229240018295
290.95077491945773
269.6591449595428
248.63396968361417
227.86185866312218
207.32945892638034
187.02344988243976
166.9305381829673
147.03745258146716
127.33093884527064
107.79775477170912
88.42466535614436
69.19843815549541
50.10583888684984
31.133627296953335
12.268553334384189
-6.502646347376249
-25.193251531470167
-43.81656120266021
-62.38589591802936
-80.91459976898297
-99.41604192303187
-117.90361773670575
-136.39074943380743
-154.89088634586506
-173.41750471417777
-191.98410705540175
-210.60422109503807
-229.29139827564615
-248.05921184888288
-266.92125456328324
-285.89113596184416
-304.9824793063082
-324.20891814788143
-343.58409256678624
-363.1216451062842
-382.8352164298928
-402.7384407340576
-422.8449409520663
-443.16832378876916
-463.7221746296468
-484.52005237199194
-505.5754842300804
-526.9019605705039
-548.5129298384513
-570.4217936399948
-592.641902049569
355.5160804046219
333.3884365290048
311.56746519756575
290.0396510156737
268.7915319536419
247.80969451252508
227.0807686415581
206.59142247843334
186.32835697997368
166.2783005071663
146.42800342468183
126.76423277094295
107.2737670506514
87.94339119755017
68.75989175106336
49.71005228626426
30.780649132627445
11.958447412988665
-6.769802569704135
-25.4173685738528
-43.99753926848043
-62.52362667307842
-81.00896817448957
-99.46692810975564
-117.91089890686028
-136.3543017782581
-154.81058696425117
-173.29323352607622
-191.81574869074922
-210.3916667521226
-229.03454753495112
-247.75797443080717
-266.5755520175479
-285.5009032758543
-304.5476664191626
-323.72949135619217
-343.0600358075986
-362.552961101666
-382.2219276769464
-402.080590323254
-422.14259319602667
-442.4215646429555
-462.93111188577797
-483.68481560457496
-504.69622447624977
-525.9788497233723
-547.5461597344531
-569.4115748214338
-591.588462184624
354.3130753353909
332.23634238172286
310.466016764308
288.9886024818294
267.790658835769
246.85879520676048
226.17966559718127
205.73996301296785
185.52641375387824
165.5257716775637
145.7248124984036
126.1103281779219
106.66912145913697
87.38800059275972
68.25377429886969
49.25324700325686
30.37321438340074
11.600459255090783
-7.078252173496612
-25.67617365705822
-44.20658185797538
-62.68277886448776
-81.11809426936445
-99.5258867987965
-117.91954548414489
-136.31249037203818
-154.71817277052273
-173.15007503130715
-191.62170987055453
-210.1466192327122
-228.7383727040716
-247.41056548472977
-266.1768159302255
-285.05076267592085
-304.04606135963616
-323.17638096100154
-342.45539977821693
-361.8968010660791
-381.5142683622073
-401.32148053183306
-421.33210656519486
-441.55980016556015
-462.01819416994886
-482.7208948493418
-503.68147613961276
-524.9134738594091
-546.4303799762235
-568.2456369871202
-590.3726324855464
352.9500874814451
330.9310267692435
309.21806807491964
287.79773817048675
266.6566213012678
245.78135351586656
225.15861677963517
204.77513294680432
184.61765766231113
164.67297426014161
144.92788772011482
125.36921874073985
105.983797980926
86.7584605185285
67.68004056929877
48.73536650510111
29.911256205738994
11.194512774743561
-7.428079354873221
-25.969757902679696
-44.44378579181935
-62.863453753850635
-81.24208247540804
-99.59302427749525
-117.92966432083327
-136.26542133346098
-154.61374785902666
-172.9881300261887
-191.40208684195278
-209.8691690135066
-228.40295730512432
-247.01706043873895
-265.7251125487629
-284.54077020368373
-303.47770900922603
-322.54961981042584
-341.7702045123396
-361.1531715420141
-380.7122309773935
-400.4610893723393
-420.41344431054347
-440.5829787251757
-460.98335502540203
-481.628209075742
-502.53114407892554
-523.7057244182415
-545.1654695208765
-566.9238478092403
-588.9942708128783
351.42727950772763
329.4726414459126
307.8237582190926
286.46718305855495
265.38952906103333
244.5774630135279
224.01769902185617
203.69699202063003
183.60213123770296
163.71993368131365
144.03723771309566
124.54089676532747
105.21777325558219
86.05473274685119
67.03863839649149
48.15634573237942
29.394697789921388
10.740520639401598
-7.819380671377157
-26.2982257380637
-44.70926196662237
-63.06576727228143
-81.38105229958526
-99.66846215560557
-117.94137765082701
-136.21321604466166
-154.49743129481786
-172.80751381160894
-191.15698972031373
-209.55941963632506
-228.02839695955993
-246.5775456964991
-265.220517819807
-283.9709901773421
-302.84266096446413
-321.8492457757118
-341.00447325437153
-360.3220803611033
-379.8158072858582
-399.49939203063946
-419.38656469447494
-439.491041495995
-459.8265185734342
-480.40666560697525
-501.24511931336195
-522.3554768683075
-543.7512893182366
-565.4460550488343
-587.4532133841825
349.7448367046912
327.86135899480047
306.2832451296146
284.9970788321745
263.98950629172907
243.24722942243363
222.75699894956904
202.50560740355962
182.4798820970213
162.66667815459766
143.05287166009907
123.62535297996098
104.37102031653873
85.27677353946372
66.32950833787507
47.51611073133625
28.823451972278026
10.23838386825283
-8.2522654522533
-26.661695310698292
-45.00313576977776
-63.28985043281605
-81.53513874170578
-99.75233776659496
-117.95482348339155
-136.15601153695968
-154.36935749005005
-172.60835655992415
-190.88654284608396
-209.21748805411585
-227.6147997220818
-246.0921189573267
-264.6631176931637
-283.3414954764348
-302.1409757985385
-321.07530198476115
-340.1582326588745
-359.40353680254475
-378.82498843190496
-398.4363609169775
-418.25142097362044
-438.28392236147835
-458.5475993262684
-479.056159829852
-499.82327861691545
-520.8625901732714
-542.1876816369579
-563.81208572998
-585.7492737856533
347.90296813831253
326.0973738006335
304.5967063853122
283.38758452838334
262.4566921260291
241.79077096397737
221.37661320206954
201.2010537970631
181.25096294119103
161.51323858792
141.97479913069043
122.62257629436981
103.44350829320757
84.42453330350321
65.55258329315234
46.81457824508051
28.19742080647502
9.68799139043969
-8.72685624742328
-27.060298939464154
-45.325547529029656
-63.53584977534409
-81.70449273253266
-99.84480459736905
-117.97015602353048
-136.0939609013653
-154.22967660433505
-172.39080370497246
-190.59088516418632
-208.843504999252
-227.16228643689553
-245.56088955883712
-264.0530084485771
-282.652367849566
-301.3727193457622
-320.22783707799897
-339.2315130113693
-358.3975517710696
-377.7397650668921
-397.271965729994
-417.00796138929655
-436.96154781877055
-457.146501992123
-477.57657488641945
-498.265484082027
-519.226906212972
-540.4744693283267
-562.0217452325958
-583.8822418809867
345.9019079130871
324.18090311408713
302.76434008505794
281.6388772290161
260.79124117804133
240.20821872783029
219.8766486593317
199.7834135335327
179.9154315392937
160.25964846754562
140.80302987877639
121.53255352429873
102.43520207529593
83.49795620745124
64.70778808277072
46.051655264482896
27.51649509556583
9.089219565860542
-9.24328931150425
-27.494183598308695
-45.676652991739
-63.80392783836033
-81.88928159593222
-99.94603273959103
-117.98754611180743
-136.0272337167595
-154.07855496148335
-172.1550163476915
-190.2701706187194
-208.43761536718858
-226.67099110981965
-244.98397883631984
-263.3902970402563
-281.90369824092966
-300.537965005743
-319.30690548461035
-338.22434846959425
-357.3041379946677
-376.5601274934709
-396.00617353606333
-415.65612916910277
-435.52383688838916
-455.6231212777095
-475.9677813531641
-496.5715826587226
-517.4482491654591
-538.6114550342844
-560.0748163100042
-581.8518826232048
343.7419165448613
322.1121882031503
300.78636578787905
279.75115280144223
258.9933240980997
238.49971705543584
218.25722266967682
198.25277666405475
178.47335069253734
158.90594371425414
139.53757360667183
120.35526907859975
101.34606193721173
82.49697975617995
63.795038985833074
45.22723853983233
26.780553887045457
8.441931671870085
-9.801715118653213
-27.963511427147253
-46.056623827662506
-64.09426365063689
-82.0896895275796
-100.05620935447271
-118.00718167513136
-135.95601648707805
-153.91617547384521
-171.90117166858917
-189.92456855445982
-207.9999786075624
-226.1410612889741
-244.36152049224077
-262.6751014533551
-281.09558713081543
-299.6367940636253
-318.3125677166508
-337.1367773239303
-356.123310242183
-375.2860658294387
-394.63894886664775
-414.19586254346484
-433.970701034106
-453.97734169413684
-474.22963691456994
-494.7414056766681
-515.5264248578801
-536.5984203474361
-557.9710580388717
-579.6579347763354
341.4232824395634
319.89149558672244
298.66302551337697
277.7246266798577
257.06312815046886
236.66542393088224
216.5184632714681
196.60924102905537
176.92478817213072
157.45216250661403
138.17843969142703
119.09070460551078
100.17604312028823
81.42153432395071
62.814243237400504
44.34121405451379
25.989463933372924
7.745977359498358
-10.402298903393225
-28.468460264012833
-46.46564814825673
-64.4070532349327
-82.30591808153258
-100.17553914179302
-118.02926817868871
-135.8805130774024
-153.74273806419453
-171.62946333717298
-189.55426411551775
-207.53076911346182
-225.57265844539143
-243.6936609680254
-261.9075510656693
-280.22814488453366
-298.66929602201094
-317.24489067793877
-335.96884227548117
-354.85508556072523
-373.91757019251537
-393.17025383656807
-412.62709478146803
-432.30204409859783
-452.2090373730877
-472.36198603898345
-492.77476835878326
-513.4612200952607
-534.4351249322245
-555.7102047104095
-577.3001095551456
338.9463234729949
317.5191183445007
296.3945847958071
275.55953467978463
255.00085780626983
234.7055113714719
214.66050940129742
194.85291230467578
175.26981662453534
155.89834506548058
136.7256368684371
117.73883859430303
98.9250953702689
80.27154264420048
61.76529848536849
43.39345646213738
25.14307912073572
7.001192083389208
-11.045221221843612
-29.00922419164057
-46.903931034521385
-64.74251011465371
-82.53818665469473
-100.30424480249374
-118.05402906798625
-135.80094513752303
-153.5584600734616
-171.34010190672046
-189.1594586299386
-207.03017659820165
-224.96595834361813
-242.98055980913506
-261.0877870066092
-279.3014921031319
-297.63556893940444
-316.1039479842869
-334.72059072989214
-353.49948353260845
-372.4546309075973
-391.6000482864159
-410.9497542509742
-430.51776226151947
-450.31807190107577
-470.3646596655851
-490.6714693361175
-511.25240197752885
-532.1213056179265
-553.2919646732887
-574.7780891928925
336.31138866586423
314.99537749613785
293.98133378394755
273.2561338374247
252.80673534284284
232.6201658089875
212.68351108002707
192.98390401678427
173.50851343667705
154.24453339330435
135.17917286696022
116.29964592812915
97.59316242722295
79.04691925459524
60.64809220701302
42.383828488922816
24.241239869506188
6.207396510442907
-11.730678526858274
-29.58601409051525
-47.37169506408934
-65.10086581301252
-82.7867329578321
-100.44256748263778
-118.081706188151
-135.71755249983548
-153.3635766410956
-171.03331518127823
-188.74036996740256
-206.49840644737
-224.32115139094591
-242.22239001322816
-260.2159625045037
-278.31575996834874
-296.5357197692729
-314.88982029080444
-333.39207510455014
-352.0565265514811
-370.8972387381757
-389.92828995272134
-409.1637645083306
-428.61774402700354
-448.30429818048106
-468.23747491270103
-488.431290175371
-508.8997172169471
-529.6566754760071
-550.7160191407428
-572.0915254487625
333.51885994713325
312.32062344163455
291.4235883777354
270.8147032641588
250.48100143961926
230.40958845182547
210.58762956694636
191.0023375133322
171.6409605526052
152.4907709607207
133.5390539913121
114.7730973832289
96.18018146460103
77.74756989588624
59.462501085496385
41.31218030341352
23.28377251031793
5.364395912946381
-12.458883749653246
-30.19905818947211
-47.869180827304305
-65.48237033316265
-83.05181346026876
-100.59076718496817
-118.1125601659858
-135.63059353664767
-153.15834104301973
-170.70934853994459
-188.29723285544628
-205.93568003217558
-223.63844295221787
-241.41933834944695
-259.2922432117723
-277.27109057300777
-295.369864692728
-313.60259562130796
-331.9833531463777
-350.52624011708474
-369.24538514343584
-388.15493466966564
-407.2690444236914
-426.6018702485936
-446.1675583273829
-465.98023481908723
-486.0539949320613
-506.4028914698963
-527.040922896123
-547.9820209762272
-569.2400380689099
330.5691539976383
309.49523745340707
288.7216913911409
268.2355450050668
248.02391575907413
228.07399561657866
208.37303747100896
188.90834188469864
169.66724423218074
150.63710233211475
131.80528464083483
113.15915906925909
94.68608247398016
76.37339086298692
58.2083903466894
40.17834885588343
22.270488640138865
4.471979552527495
-13.230066879598462
-30.848602603556145
-48.396647420127294
-65.8872926056376
-83.3337037935163
-100.74912313236618
-118.14687073841993
-135.5403454599729
-152.94302496996227
-170.36846520134773
-187.83029913765688
-205.34223496834176
-222.9180536154754
-240.5716056354284
-258.31680749604254
-276.16763722677496
-294.1381294368198
-312.2423696941226
-330.4944882567901
-348.9086531475931
-367.4990625626207
-386.2799366064361
-405.26550834870653
-424.4700142009317
-443.9076836174438
-463.59272813122766
-483.53932974388437
-503.7616286987188
-524.2737106773984
-545.0895934744055
-566.2232132176525
327.4627241643064
306.5196332091301
285.87601372928225
265.5189848886879
245.43575749961352
225.6136190159762
206.03991880660425
186.70205382023542
167.58745474107326
148.68357272089665
129.97786676094339
111.45779180483822
93.11078759160952
74.92426830650786
56.8856130568931
38.98215719032966
21.201184463495295
3.529920062363556
-14.044475532494875
-31.53491184745154
-48.954372900424886
-66.31592088799584
-83.63269909731989
-100.91793406539918
-118.18493700858077
-135.4471045445609
-152.7179187268115
-170.01094640915682
-187.339837955073
-204.71832530257927
-222.16021939159148
-239.67940695663822
-257.2898466836738
-275.0055647258298
-292.8406495692893
-310.80924623750934
-328.9255498197642
-347.20379830834804
-365.6582647283501
-384.30324854475737
-403.15306633366026
-422.222041707811
-441.5244944921784
-461.074729151481
-480.88702248100776
-500.9756105818319
-521.3546751541452
-542.0383291569372
-563.0406018977254
324.2000624337113
303.39425835248176
282.88695556593365
262.66537335367593
242.7168259058567
223.02870598874705
203.5884689797607
184.38361738771496
165.40168595997346
146.63022746396842
128.05679921662147
109.66895042176915
91.45421036252702
73.40007748297478
55.49400938212489
37.723413732328645
20.07564012476335
2.5379728361029708
-14.902375496540152
-32.258269311484426
-49.542654692527165
-66.76856309962145
-83.94911428930216
-101.09751845396421
-118.22707760861624
-135.3511862526829
-152.483331331232
-169.63709151688974
-186.82613582955452
-204.06422160632337
-221.3651918289226
-238.74297181072305
-256.2115652403013
-273.78504957322514
-291.47757075910874
-309.30333728692005
-327.2766135282095
-345.4117123552957
-363.72298701034146
-382.2248222013363
-400.9316244021906
-419.85781133782257
-439.0178006396218
-458.4259976634691
-478.0967824719801
-498.0444959927287
-518.2834253778503
-538.8277886056486
-559.691718382071
320.78170145197134
300.1195960672589
279.7549475057578
259.67508623592585
239.86744071958526
220.31951965483
201.0188946888768
181.95318372096847
163.11003489974377
144.47711140371626
126.04207707872679
107.79258299063486
89.71625493748675
71.80068195166925
54.03340580977838
36.401911556513596
18.89361903824553
1.4958754330539241
-15.80405124366089
-33.018977685169176
-50.16180992262423
-67.24554707224121
-84.28328423711119
-101.28821460044799
-118.27363074559975
-135.25292523631472
-152.23959048690608
-169.2472179476196
-186.28949662535462
-203.38021095388382
-220.533238021481
-237.762544157228
-255.08218087095426
-272.50628013509066
-290.0490489907238
-307.72476345506425
-325.54776170294986
-343.5324364909278
-361.6932267910763
-380.04460860040945
-398.60108489231607
-417.37717467991985
-436.38740116501674
-455.64627895341073
-475.1683003266853
-494.9679205713376
-515.0595423803908
-535.4574993588578
-556.1760386832541
317.20821657590903
296.6961666482171
276.48045171330824
256.5485254973627
236.88794255237084
217.4863389773505
198.3314137222307
179.41091059900955
160.71260110738217
142.22426816449016
123.93369081244455
105.82862995976313
87.89681519753859
70.12593271611122
52.50361433397809
35.01742763815804
17.654867223683272
0.4033470105278014
-16.74980639223122
-33.817359311516896
-50.81217566567237
-67.74722069449489
-84.63556380940021
-101.49038060910637
-118.32495410398693
-135.15267518942255
-151.9870424037918
-168.84166100113055
-185.73024136208835
-202.66659675939704
-219.6646404866093
-236.73838235051923
-253.90192451997933
-271.1694567157248
-288.55525071828276
-306.07365416458373
-323.7390835978243
-341.5660167301287
-359.5689838746688
-377.7625585017219
-396.1613468731661
-414.779976712187
-433.6330848687269
-452.73530394823257
-472.1012478801216
-491.7454964140444
-511.68257854687374
-531.9269549004077
-552.4929990901855
313.4802279381266
293.1245290493589
273.0639629883989
253.2861198755059
233.77869315880525
214.5294587105124
195.52625463214966
176.75696189786606
158.20948594594742
139.8717393090718
121.73162535603765
103.77702319871399
85.995773800724
68.37566730800782
50.904431605941454
33.56972209391187
16.35911265595626
-0.7399122043514192
-17.739964105480873
-34.65375645325679
-51.49410908193769
-68.27395192604172
-85.00632777896334
-101.70439419327636
-118.3814245749631
-135.05080851986656
-151.7260514346583
-168.42077347795302
-185.1487078491623
-201.92369844383109
-218.75969688512959
-235.67075893122032
-252.67104024868055
-269.7747915325311
-286.99635294435495
-304.35014783150916
-321.8506756831432
-339.51250427249397
-357.35026093008014
-375.37862288968734
-393.6123066478567
-412.0660562788235
-430.75463065048075
-449.6927894933758
-468.89527828354545
-488.37681191216586
-508.15205713034135
-528.235613775385
-548.6419948068992
309.5984025060792
289.4052823880823
269.50600976497253
249.88832543008766
230.540075586409
211.44918920994132
192.6036562634885
173.99150689447242
155.6007917297565
137.41956335883737
119.43585907657584
101.63768493630498
84.01300114463426
66.54970881138338
49.235638051129214
32.05853741760514
15.006064638982874
-1.934221389429907
-18.774867407819286
-35.52853144957302
-52.207987418653886
-68.82612865389484
-85.39597054821101
-101.93065228857168
-118.44343777940541
-134.94771580679122
-151.45699949335938
-167.98492508594444
-184.54525010819634
-201.15185089989325
-217.81871955367365
-234.559960248295
-251.3897849659155
-268.3225085694988
-285.372543205437
-302.5543919861628
-319.8826418987569
-337.371955877186
-355.0370639698475
-372.8927535299416
-390.9538583536337
-409.2352466914254
-427.7518080610572
-446.5184387960962
-465.55002627306203
-484.861431772435
-504.46747194459664
-524.3828988708069
-544.622378732837
305.56345611257086
285.53906738055946
265.80715500737574
246.35562595995705
227.1724941754806
208.2458560793238
189.5638671113916
171.11471939929044
152.88662069395218
134.8677746597333
117.04636258819694
99.41052658257823
81.94835423822978
64.6478648245822
47.49699695544848
30.483597717859638
13.595413215026632
-3.1799195332183317
-19.854879399186977
-36.44206673948319
-52.9542078492982
-69.40415836030168
-85.80490566364587
-102.16957043662639
-118.51140734737945
-134.84380500537046
-151.180285216374
-167.5345015912665
-183.9202375461832
-200.35140371920141
-216.8420348157306
-233.40628588092255
-250.05842798393235
-266.8128432851796
-283.68401944455013
-300.6865433164683
-317.8350938666973
-335.14443423558697
-352.6294028649051
-370.3049035995429
-388.18589467143016
-406.2873764724078
-424.6243780247004
-443.2119420627604
-462.0651086488165
-481.19889725689745
-500.62828727624793
-520.3681969049843
-540.4334604298141
301.3761554319246
281.52656768050906
261.9679969748596
242.6885332603116
223.6763743787792
204.91979962381464
186.40714448015711
168.1267766915879
150.06707377513283
132.21640207408933
114.56309741672587
97.09544742269983
79.80167547559324
62.66992635776279
45.68825352313156
28.84460796531067
12.126828622391452
-4.477365753535029
-20.98038334478975
-37.394764724992
-53.73318711962385
-70.00846756778951
-86.23356508210702
-102.42158189985763
-118.58576391301715
-134.73950035672624
-150.89632282504405
-167.06990367146884
-183.27405383800996
-199.52272014192795
-215.82998203394234
-232.2100478257387
-248.6772503685319
-265.2460421484616
-281.93098974904007
-298.7467676166966
-315.70815105184226
-332.83000833601886
-350.1272918959462
-367.61502839758134
-385.30830765791256
-403.2222702600242
-421.3720937578954
-439.77297736161364
-458.440125001757
-477.3887266841009
-496.6339380619986
-516.1908581748619
-536.0745053271834
297.0373198727375
277.36851109011263
257.9891698215108
238.8875871865882
220.0521623673532
201.47137407741647
183.13375341206608
165.02785822852613
147.14224917713943
129.46546747596412
111.98601449263309
94.69233316970639
77.57279130376844
60.615666663518866
43.80913390955409
27.141253258471558
10.599960816184009
-5.826939509065844
-22.151782614941737
-38.387047443794096
-54.545360965911506
-70.6395010231086
-86.6823981472098
-102.68713646305025
-118.66695377871024
-134.63524095590518
-150.60554064104548
-166.59154542358124
-182.6070954725177
-198.66617568496108
-214.78291236226744
-230.97156941134807
-247.24654404946781
-263.6223619725306
-280.11367192877543
-296.7352396226189
-313.5019408577237
-330.428753814072
-347.5307503416021
-364.8230861433851
-382.3209897141789
-400.03974989602716
-417.99470191241465
-436.2012117455742
-454.6746587288652
-473.43041623816265
-492.48383038258623
-511.85019661674164
-531.5447342234283
292.5478233545441
273.0656706078961
253.8713439947245
234.9533554874581
216.30032438507197
197.90094656780073
179.74396535135372
161.8181440958778
144.11224069339352
126.61498402568093
109.31505245281585
92.20105436186651
75.26151077622501
58.48483999827132
41.859344233056746
25.3731981185887
9.014439068705359
-7.229040681038622
-23.369500446494925
-39.41935601775695
-55.39118326685416
-71.2977205772788
-87.15187022979077
-102.96669887287473
-118.75543719771585
-134.53147892579275
-150.30837920271762
-166.0998524753916
-181.91976991144497
-197.78215640007835
-213.70118715236342
-229.69118389796967
-245.76661065321858
-261.9420690141983
-278.2322929076289
-294.6521427119362
-311.21659864288273
-327.9407532809947
-344.83980310323864
-361.92903886966224
-379.2238347062166
-396.73963571899844
-414.491943973424
-432.4963026734186
-450.76827838219924
-469.3234411375819
-488.1773423311588
-507.3454902428483
-526.8433231500713
287.908595931514
268.61886527411406
249.6152263910893
230.88643336488758
212.42134580989747
194.20889577757808
176.2380565043947
158.49781316448602
140.97713575369963
123.66495419618813
106.55013572937266
89.62146458895668
72.86762398285819
56.277180312324745
39.83856957070673
23.54008582556332
7.369871668591943
-8.684089499277086
-24.633979493781812
-40.4921498392205
-56.271124885921935
-71.98360371406272
-87.64246098085894
-103.26074686090206
-118.8516862187868
-134.42867713943767
-150.0052889242921
-165.59525964251952
-181.21249330538433
-196.87105670861362
-212.58517596390828
-228.36923271601364
-244.23776001671155
-260.20543780243383
-276.28708789813163
-292.4976684466762
-308.8522676416614
-325.3660966215799
-342.05448136581083
-358.93285341838657
-376.0167392534313
-393.32174808825084
-410.8635579461634
-428.65789977113786
-446.7205394015918
-465.06725722110264
-483.71382531990974
-502.67598202335256
-521.9694036720706
283.1206252218559
264.0289607695314
245.2215602235844
226.68744271416548
208.41572987490153
190.395610256309
172.61630585281512
155.06704091262452
137.73701316016212
120.61536752125501
103.69117240152396
86.95339853048549
70.39090034686814
53.99239986656447
37.74647294384977
21.641537808760145
5.665845740308686
-10.192526283548805
-25.945681132899914
-41.60590545256474
-57.185672155944346
-72.69764167367138
-88.1546621398403
-103.5697686897812
-118.95618203028214
-134.32730642705013
-149.69672723415897
-165.078208068251
-180.4856877056571
-195.93327675416884
-211.43525412383494
-227.00606329289656
-242.6603083364071
-258.41274965653963
-274.27829932634984
-290.2720159317227
-306.40909877138336
-322.7048812519107
-339.17482329385297
-355.8345025475919
-372.6996042028371
-389.78590916529066
-407.1092803674911
-424.68564697912257
-442.53098628572485
-460.66130301381145
-479.0926058960122
-497.84088129172403
-516.9220637081987
278.18495759691524
259.29686971836844
240.69112454874892
222.35703099165107
204.28399599699821
186.46148633274356
168.87899277160176
151.52599687009058
134.39194047304866
117.46619803241137
100.73805178448286
84.1966697873089
67.83108677834018
51.63018777428144
35.58269430079518
19.677153108839143
3.901927208789201
-11.754810967040742
-27.305084478569142
-42.7611150832951
-58.135324951920246
-73.44033711243543
-88.68897483458038
-103.89426015586415
-119.06941173476818
-134.2278421975475
-149.38315512213427
-164.54914177705686
-179.73977770478697
-194.96921920906405
-210.25179977428223
-225.60202641271997
-241.03457590300206
-256.56429085074166
-272.2061754709584
-287.97539096128617
-303.8872503062273
-319.9572123262834
-336.2008747614499
-352.63396615772217
-369.27233630757706
-386.13194498193553
-403.2288486819758
-420.5791851351861
-438.19915526149816
-456.10500234305357
-474.3129881454747
-492.83936575980954
-511.7003489642767
273.1026990786679
254.42355164064364
236.02473339666668
217.8958696518908
200.02667765524905
182.40692557062422
165.02639419856183
147.87484163486775
130.94197100310134
114.21740134795803
97.69064172658628
81.35106848669108
65.18790567379128
49.19020846720324
33.34684950568017
17.646507929512126
2.0776609376105695
-13.371422364659058
-28.712685067751295
-43.95828476105225
-59.12059429177887
-74.21220123257234
-89.2459063026382
-104.23472097424555
-119.19186447798955
-134.13076039759673
-149.06503301866007
-164.0085035660656
-178.97518643230336
-193.97928546468245
-209.03519034379005
-224.15747304874463
-239.3608843680523
-254.66035037835726
-270.07096877736393
-285.60800492278617
-301.2868873963638
-317.12320288143235
-333.1326901144851
-349.3312326466709
-365.73485013006893
-382.35968782658864
-399.22200402536794
-416.3381550476735
-433.72457751738625
-451.39776758068865
-469.37425677132336
-487.6705842384211
-506.3032650830995
267.8750158883845
249.41001249278688
231.2232344399832
213.30465208905528
195.64431975390127
178.2323317050735
161.05878129562734
144.11372340785888
127.38714036233186
110.86891137386617
94.54878558334664
78.41635863926052
62.461052750687394
46.672100085599624
31.038529344363294
15.549155301026367
0.19257107320246192
-15.042857143493968
-30.168993158146144
-45.19793197652851
-60.14199939784727
-75.01375030860655
-89.82596595566814
-104.59165046469968
-119.3240268485285
-134.03653272353023
-148.74281592172446
-163.45673015189996
-178.19233082626198
-192.96387113002638
-207.7857983708704
-222.67275060363653
-237.63955348416505
-252.7012172649936
-267.87293380485346
-283.1700734251101
-298.6081814091171
-314.2029739053681
-329.97033296344955
-345.92630040301316
-362.0870701910818
-378.4689789823479
-395.0884944616454
-411.9622011175069
-429.1067830719916
-446.53900359493366
-464.2756809412437
-482.33366016930756
-500.7297806264879
262.5031345831043
244.25730372866718
226.28750713102608
208.5840910103066
191.13747539813292
173.93810698971174
156.97641553604254
140.24277398534898
123.72746252017829
107.42063657224656
91.31229883418871
75.39227522481767
59.65019470578888
44.07547279352557
28.657298560842065
13.384624881119375
-1.7538383674275821
-16.769628446924017
-31.67453158291203
-46.480582804537164
-61.20006414352508
-75.84550152870312
-90.42966070023047
-104.96554244834756
-119.46637745589058
-133.9456209933527
-148.41694767970978
-162.894246483166
-177.39161609387716
-191.9233607563515
-206.50398660353966
-221.14819848767985
-235.87089725643835
-250.68717737657767
-265.61232476156306
-280.66181461593237
-295.85130906728455
-311.1966543170602
-326.7138770048887
-342.41917944798763
-358.3289333880731
-374.45967185332336
-390.82807872353214
-407.45097557256537
-424.34530535486186
-441.5281125026885
-459.0165190086298
-476.8276960847919
-494.9788310169283
256.9883417096329
238.9665208057162
221.21846022820364
203.7349151605975
186.50670200220142
169.52464787649402
152.77954414390086
136.26210414214154
119.96292530641712
103.87245574890875
87.98096530493689
72.27852098258593
56.75496668611802
41.39990702191866
26.202694940826046
11.15242292365498
-3.762082622255535
-18.552264117089162
-33.22983309521632
-47.806768417133725
-62.2953128008972
-76.70796805999919
-91.05748941908618
-105.35687925567021
-119.61938058598341
-133.85847057754492
-148.08785432996467
-162.32145912117954
-176.57342926798776
-190.8581216997815
-205.19010229288045
-219.58414296016028
-234.05521943849345
-248.61850966466392
-263.2893925794692
-278.08344715065334
-293.0164513583999
-308.1043808425745
-323.3634068693645
-338.8098932371428
-354.4603917075213
-370.331635518183
-386.44053051006915
-402.8041433831322
-419.4396865835427
-436.3644993211337
-453.5960242204565
-471.15177912257764
-489.04932357945546
251.3319828982755
233.53880105251162
216.0170286240379
198.75786530929182
181.75255664067302
164.99233994157802
148.4683948043732
132.17179833114318
116.0934852962054
100.2242133068215
84.55453295586223
69.07476288004668
53.774969562029554
38.644951644495706
23.674228462869742
8.852032450504241
-5.832694973067117
-20.39130445231181
-34.83543712741741
-49.1770209012194
-63.42826499495472
-77.60165323666838
-91.70993650665564
-105.76612473647366
-119.78347882313116
-133.7755027781794
-147.75593638464417
-161.7387485837856
-175.73813175894514
-189.768497027432
-203.84447059321144
-217.9808911545994
-232.19280830266106
-246.49548178822695
-260.90438147906093
-275.4351877738844
-290.1037921876547
-304.9262977728164
-319.91901899437994
-335.0984806338228
-350.4814152576784
-366.0847587524627
-381.9256433984875
-398.0213879316801
-414.38948402659906
-431.04757862507387
-448.0134515351429
-465.3049877350419
-482.9401438383278
245.53546131040252
227.97532080506605
210.68416937721742
193.653689398559
176.87559054306917
160.34155196066388
144.04316955389947
127.97190861723547
112.119062005941
96.47571390729308
81.03270919214168
65.78062823347132
50.709766992587035
35.810122094249465
21.071380542385384
6.482913668904105
-7.966225139472229
-22.28729942684933
-36.491885879192935
-50.59186828384735
-64.59942975854952
-78.52704375788369
-92.38746434102016
-106.19371615130025
-119.9590845173008
-133.69710603617017
-147.42155994646396
-161.14646053923914
-174.886050794524
-188.65479736659458
-202.46738697641214
-216.33872420424078
-230.28393061045088
-244.31834504846248
-258.45752497132145
-272.7172484728609
-287.1135167462741
-301.6625565878388
-316.3808225210089
-331.2849980679013
-346.39199565050933
-361.71895456422385
-377.2832364316429
-393.1024175156257
-409.1942772490924
-425.57678232480635
-442.2680656835662
-459.2863997444483
-476.65016323747386
239.6002353446746
222.27729170874778
205.2208568401387
188.4231367422834
171.8763426208373
155.57262902622026
139.50403774948757
123.66244775425687
108.03953132153136
92.62671647558467
77.41515565048117
62.39570045252678
47.558882275033454
32.8948984321717
18.393603399744258
4.044504684286366
-10.163237210480068
-24.240805289449867
-38.199719637136134
-52.05182865601399
-65.80929856955478
-79.48460177014688
-93.09050456229673
-106.64005481193064
-120.14656996426164
-133.6236258361982
-147.08504652757296
-160.54489572886746
-174.01746963344817
-187.51729159057808
-201.05910856304607
-214.65788938033825
-228.32882470649088
-242.08732857116792
-255.94904124346925
-269.92983316154863
-284.0458095671678
-298.31331543319425
-312.7489402139714
-327.3695218944309
-342.1921497633956
-357.2341652905883
-372.5131604462062
-388.046972766841
-403.8536764436067
-419.9515686875443
-436.35915061664394
-453.0951019079036
-470.1782484688048
233.5278154969686
216.44595607158985
199.62807676113366
183.0669511513264
166.75533190272847
150.68588458663672
134.8511280049525
119.24338130433316
103.85471807286875
88.6769274821362
73.7014824126917
58.91951438100278
44.321794972676486
29.89872338484162
15.640319591113839
1.5362225682253783
-12.42430703464551
-26.25238044432881
-39.95947121452455
-53.55740327128617
-67.05833723698058
-80.47475569402472
-93.81944801340961
-107.1054953255859
-120.34625615423826
-133.5553531682105
-146.74666143574558
-159.93429848943754
-173.13261643164557
-186.35619622962386
-199.61984426889794
-212.93859115284187
-226.3276926570643
-239.80263266982973
-253.37912787412193
-267.0731338542957
-280.90085224021914
-294.8787384347273
-309.02350940637257
-323.3521509690478
-337.88192391384655
-352.6303683057438
-367.61530521066135
-382.85483507648354
-398.3673319562002
-414.17143273354725
-430.2860204931071
-446.73020116872993
-463.5232726080577
227.31976025799977
210.4825811419861
193.90681922650052
177.58586284634254
161.51304874013275
145.6815912734779
130.08451896924393
114.71461868793358
99.56438765974974
84.62599342485773
69.8912415944103
55.35155120615813
40.99793731897208
26.821000374141367
12.810921749942091
-1.0425351472911624
-14.75001897624463
-28.32258050321105
-41.77165938389361
-55.10906847910842
-68.34697648629727
-81.49788963921083
-94.57463318405333
-107.59033328340368
-120.55839993205186
-133.49251139329712
-146.40660058247283
-159.3148437383475
-172.23165163423906
-185.17166349078093
-198.14974366244672
-211.18098108121632
-224.28069135362094
-237.4644213227015
-250.74795582443366
-264.1473262890035
-277.6788207610273
-291.3589948400019
-305.20468297228035
-319.2330094591473
-333.46139848301107
-347.9075823941698
-362.5896074462802
-377.52583611906766
-392.7349451231696
-408.23591814618334
-424.04803237135263
-440.19083778368497
-456.68412827363636
220.97767092031955
204.3884521694332
188.05807029185289
171.98057900291667
156.14994462731767
140.55997036727717
125.20422880783852
110.0760030409296
95.16823662541037
80.47349243196142
65.9839202545912
51.69123291043535
37.586690400455424
23.661091570650797
9.904772598515331
-3.692388463848138
-17.140961928566618
-30.451952379192676
-43.63678115639183
-56.7072663336059
-69.67560107551205
-82.55433123392763
-95.35633298189046
-108.09479121858652
-120.78317939848321
-133.4352413503952
-146.0649755582513
-158.686622277483
-171.3146537608005
-183.96376776700265
-196.6488844268659
-209.38514644257367
-222.18792250222793
-235.07281369872612
-248.05566265376947
-261.1525649621934
-274.3798824896018
-287.7542579773768
-301.29263033326646
-315.01224991273074
-328.93069302685626
-343.0658748462355
-357.43605980780734
-372.05986857392213
-386.9562805400932
-402.1446308425363
-417.64460077882813
-433.47620052779763
-449.65974303967874
214.50318515269737
198.16486409085195
182.08280213445425
166.2517727550665
150.66642046286793
135.321179734552
120.21020323241152
105.32729974205573
90.66588206411076
76.21892489901909
61.978932569784526
47.93791624188816
34.08738012801903
20.418316012868665
6.921205303150077
-6.413972296265744
-19.597724456086738
-32.641027272280645
-45.55530274005837
-58.35239369684328
-71.04453725227583
-83.64433767459298
-96.16473963662776
-108.61900264324655
-121.02067736845422
-133.38358452877745
-145.72179681147992
-158.04962426513265
-170.3816034474577
-182.73249051383414
-195.11725832000124
-207.55109750560555
-220.04942142223922
-232.62787467011913
-245.30234491211937
-258.08897754251154
-271.00419269976896
-284.06470402780076
-297.28753850867025
-310.6900566104025
-324.2899719173357
-338.10536933668374
-352.1547209044318
-366.45689814673227
-381.03117989017545
-395.8972543582448
-411.07521434164914
-426.58554419070583
-442.4490973502783
207.89796918440607
191.8131116667058
175.98196153764354
160.4000704616192
145.06281305726975
129.96530004857212
115.10230190600731
100.46818345942327
86.05684973859488
71.86170306807648
57.87561121643009
44.09088618394212
30.49927301524537
17.091947848353218
3.859524264306571
-9.207933114600166
-22.120888913986548
-34.890312371615025
-47.52764898378024
-60.044789630403905
-72.45403833813785
-84.76807977918405
-96.9999475223809
-109.16299395545974
-121.27086268717223
-133.3374641198835
-145.3769547590665
-157.40372070014672
-169.43236560695703
-181.47770337193793
-193.55475552760473
-205.6787533623589
-217.86514458245836
-230.12960425537193
-242.48804966787847
-254.95665863544298
-267.55189070584635
-280.29051060979464
-293.1896132244896
-306.2666492305314
-319.5394505597298
-333.02625465015257
-346.74572644531065
-360.71697699774643
-374.9595774636204
-389.49356720646244
-404.3394546654554
-419.5182095896332
-435.05124519668095
201.16370842457147
185.33447787008038
169.7564564950242
154.42603701532096
139.339379667081
124.4923190835676
109.88028303105243
95.4982235487227
81.34056077223916
67.4011394510758
53.67319790474544
40.149348911527795
26.821571794621676
13.681214770209552
0.7190064548515214
-12.074924699486186
-24.711024365396202
-37.20028106991302
-49.5541910837796
-61.784720839728045
-73.90426819836276
-85.92562380257247
-97.86193366169258
-109.72666398952262
-121.53356919053071
-133.29666375100646
-145.03019864960962
-156.74864275876675
-168.46666956715995
-180.19914941602508
-191.96114730993187
-203.7679262365921
-215.63495581091382
-227.5779259449737
-239.6127651382547
-251.75566288053625
-264.0230955613781
-276.43185518559056
-288.9990801021146
-301.7422868625641
-314.679402236429
-327.82879432113475
-341.2093015964667
-354.8402586861135
-368.7415175033459
-382.93346237564333
-397.43701766550475
-412.27364633397553
-427.4653378330736
194.30209632172432
178.73022030764554
163.4071406950869
148.3301589461537
133.4962803079502
118.90211384587855
104.54378590490725
90.41686761816182
76.5163167690514
62.83643399502729
49.370833010087665
36.11242422994755
23.053410918483063
10.185296744192872
-2.5010965534076552
-15.01560283102572
-27.36867808328514
-39.5713614509164
-51.63523229479625
-63.57236490239049
-75.3952823247497
-87.11691074420477
-98.7505356505125
-110.30976096273051
-121.80847208113569
-133.2608036931609
-144.68111299431195
-156.08395882308088
-167.48408705088207
-178.89642241644964
-190.33606685008752
-201.81830419747445
-213.3586111256653
-224.97267387408831
-236.67641040159504
-248.48599737408642
-260.41790133533317
-272.4889133055674
-284.71618595580475
-297.1172724101315
-309.710165632685
-322.5133372596677
-335.54577463894816
-348.82701474207204
-362.37717351466944
-376.2169691341607
-390.3677375490669
-404.8514385847222
-419.69065081920365
187.31482124590016
172.00155542357672
156.9347956154212
142.11282503728685
127.5335575663517
113.19443027558364
99.09231120211558
85.22342305577968
71.58328320265267
58.166659882433876
44.967544252113235
31.979137505764356
19.193852012395695
6.603325149722799
-5.801555701105993
-18.03061869363696
-30.09436538348654
-42.00392276918643
-53.77099134734047
-65.40779097271182
-76.92700622337196
-88.34173284736565
-99.66542671740464
-110.91185655146452
-122.09506147656822
-133.2293143264995
-144.32909137734651
-155.40904904168636
-166.48400786598904
-177.56894400928357
-188.67898822487805
-199.82943222198446
-211.03574214992872
-222.31357882277936
-233.67882418703084
-245.14761342522195
-256.7363719846955
-268.4618567200586
-280.34120023791934
-292.3919574332441
-304.63215310533775
-317.0803294378557
-329.75559202043814
-342.6776529800501
-355.8668696775219
-369.34427731126186
-383.1316136565466
-397.2513340580001
-411.72661468796184
180.2035511491026
165.14964020478106
150.34010991886655
135.77430413363865
121.45111359227627
107.36886021789259
93.52519871392523
79.9170362935589
66.54047090306241
53.390747858157475
40.46223438019489
27.74841111699573
15.241879375858858
2.934382493132876
-9.183160475438795
-21.120610733309128
-32.888557486958966
-44.49825959267304
-55.96158322472485
-67.29093761045914
-78.49921075906019
-89.59970695482154
-100.60608760233731
-111.53231680847256
-122.39261287256323
-133.20140663959606
-143.97330745693057
-154.72307726857053
-165.46561318515057
-176.2159386854204
-186.9892034368801
-197.80069156946126
-208.66583809607502
-219.60025304576092
-230.61975275756646
-241.74039767292288
-252.97853586010882
-264.3508514027415
-275.87441668294355
-287.5667474877422
-299.44585976130094
-311.5303267151626
-323.8393348930383
-336.39273766498684
-349.21110449851477
-362.3157642228098
-375.72884036772075
-389.47327652447296
-403.57284954300275
172.96991572897147
158.17555106738882
143.62365580087265
129.31471977798304
115.24868391123769
101.42481532410376
87.84160224304242
74.49666955956917
61.386715458016916
48.50746897373942
35.85366783556903
23.419055473846846
11.196395659891094
-0.822497104722758
-12.64671360094793
-24.286194648045047
-35.75166705125291
-47.05457322047224
-58.20699689798725
-69.22158733016335
-80.11148406329622
-90.89024434784159
-101.57177491069875
-112.17026961209505
-122.70015425145198
-133.1760395348781
-143.61268297192825
-154.0249602366104
-164.4278463108605
-174.8364065300538
-185.26579747056405
-195.73127745796285
-206.24822633020085
-216.83217396069665
-227.49883692863045
-238.264162615196
-249.14437990197445
-260.15605554723913
-271.31615521535633
-282.64210803090407
-294.1518734199308
-305.8640088842904
-317.7977372306929
-329.97301164211996
-342.41057683636666
-355.1320244059907
-368.15984027621056
-381.5174420560409
-395.22920389542827
165.61548578436373
151.0802595594233
136.78586188660037
122.73402125687196
108.92580764306354
95.36149749640893
82.0404613150883
68.96107484444067
56.12065433415873
43.51541564339851
31.140456378607674
18.98975969337188
7.0562178958002955
-4.668326389181079
-16.193024057796592
-27.527951124394136
-38.684030941490875
-49.67294991951292
-60.5070695519072
-71.19933740877195
-81.76319956129984
-92.21251665401374
-102.5614855669073
-112.8245683175838
-123.01642955602847
-133.15188371230846
-143.24585257775692
-153.31333383892982
-163.36938084474704
-173.4290936724139
-183.5076213674984
-193.62017506647922
-203.78205156394569
-214.00866675846135
-224.31559829668225
-234.71863663132277
-245.23384361064876
-255.87761762070275
-266.6667642038641
-277.61857097440947
-288.7508855407252
-300.08219502256134
-311.63170561900034
-323.41942053653145
-335.46621442771175
-347.79390231959604
-360.4253008283486
-373.3842792657696
-386.69579804660765
158.14174940842932
143.8646044608089
129.82698221578423
116.03195057596336
102.48179365500935
89.17786543811485
76.12046932668883
63.3087647812928
50.740701512927046
38.412980913563544
26.321043695329546
14.459082053679046
2.8200741065206705
-8.60416209444299
-19.822898020946507
-30.84641085052271
-41.68588972753106
-52.35333544277811
-62.8614567598145
-73.22356642227831
-83.4534796174724
-93.56541736459737
-103.5739169600417
-113.49375126154573
-123.33985824249926
-133.12728190871684
-142.87112535120835
-152.58651641626943
-162.28858621244095
-171.99246044346893
-181.71326335722324
-191.46613393037654
-201.26625376387955
-211.1288860409988
-221.0694247919915
-231.10345361411112
-241.24681290571388
-251.51567458402997
-261.92662316454516
-272.4967419799608
-283.2437032059134
-294.1858602358518
-305.34234080705556
-316.7331391216029
-328.37920503032024
-340.3025281543525
-352.52621460957283
-365.07455377565
-377.97307231694566
150.55008461371617
136.52925979800196
122.74706078159775
109.20800481041883
95.91568210648353
82.87259680977672
70.08003770319206
57.53798010977903
45.24501942829198
33.198335861639634
21.39368903251906
9.82544040869195
-1.5133991956002477
-12.631100295883765
-23.537127218353344
-34.242036236406065
-44.75736329405542
-55.09550519594333
-65.2695979770818
-75.29339590513639
-85.18115423517408
-94.94751845413805
-104.60742234172773
-114.17599675422767
-123.66849062493547
-133.10020528276738
-142.4864428286271
-151.84246898361906
-161.1834905383677
-170.52464728809667
-179.88101813269873
-189.2676408514078
-198.69954492241305
-208.19179664396768
-217.75955571765905
-227.418142371858
-237.18311402597323
-247.07035041838603
-257.09614603841567
-267.2773086087239
-277.63126225637774
-288.1761538841831
-298.93096110665
-309.9155999454647
-321.1510302860239
-332.6593568802832
-344.4639234430103
-356.5893971293731
-369.0618404062567
142.84172792222802
129.07469821333441
115.54589100375375
102.26139318800604
89.22620075976289
76.44404542130042
63.91725558672123
51.64665336485933
39.63148798897528
27.869405062077192
16.35644995932321
5.087102816694891
-5.945658228563493
-16.750269472359015
-27.33647408920637
-37.71519915073744
-47.89842183093225
-57.8990293065678
-67.73067662188257
-77.40764643996843
-86.94471417769137
-96.35702154462417
-105.65996100543897
-114.8690731824685
-123.99995872979439
-133.06820575785375
-142.08933347807601
-151.0787523769365
-160.05174092132032
-169.023438540855
-178.00885442529417
-187.02289151063323
-196.08038489959284
-205.1961538634176
-214.38506649400475
-223.66211601051063
-233.04250766540997
-242.54175513328968
-252.1757851960166
-261.96104945376345
-271.9146416883195
-282.0544193788465
-292.39912771735976
-302.96852429090785
-313.7835023865541
-324.8662106350127
-336.240166439822
-347.9303603418372
-359.9633481482147
135.01773837899708
121.50114903621525
108.22296941224371
95.1909881569857
82.41171533302877
69.8901928075828
57.62984451582054
45.63236840009718
33.89767046881286
22.4238400916849
11.207164418553926
0.24217872939653629
-10.478251365176737
-20.96282062510154
-31.22165297966402
-41.266153837575295
-51.10885132873741
-60.76323171799967
-70.24357389507813
-79.56478738759422
-88.74225780196545
-97.79170300498303
-106.72904274874332
-115.57028384113582
-124.33142239515342
-133.02836417008405
-141.67686355678094
-150.29248136394054
-158.8905612338993
-167.48622425278276
-176.09438111553186
-184.7297610536305
-193.4069566238374
-202.14048337972366
-210.9448533947795
-219.83466156583003
-228.82468359038467
-237.9299844713868
-247.16603635086005
-256.54884440360297
-266.0950794270745
-275.82221564004664
-285.7486720460006
-295.8939555263729
-306.2788036008347
-316.9253245265321
-327.85713210671395
-339.09947224206894
-350.67933788817334
127.0789563578613
113.80855029106107
100.77744269323973
87.99526956463723
75.47017305578727
63.20859343945592
51.21510749160773
39.49231532498485
28.040776058163832
16.85899109558363
5.943432318535736
-4.711388790706617
-15.112816101754785
-25.269913633661858
-35.1933064375074
-44.895003998976186
-54.38821253503359
-63.68714227557051
-72.80681535739599
-81.76287935903478
-90.57143081636134
-99.24885232543801
-107.81166609753717
-116.27640611586679
-124.6595103788674
-132.9772341193551
-141.24558437369348
-149.48027584522367
-157.696707660763
-165.90996035384774
-174.1348122147764
-182.38577401528187
-190.67714103345594
-199.02306125913503
-207.43761864028517
-215.9349302239166
-224.52925604076242
-233.2351205707165
-242.06744459718817
-251.0416862063131
-260.1739896034708
-269.48134030133014
-278.98172507533474
-288.69429488192077
-298.6395286899959
-308.8393958854497
-319.31751457313015
-330.0993027210188
-341.21211866911483
119.0259564177328
105.99649373897017
93.20804709672896
80.67226092006348
68.3990384483782
56.39631271059747
44.66987175181353
33.22324040729198
22.057618890034508
11.171876505404411
0.562597032559514
-9.775829201186443
-19.85107272427952
-29.672698822824348
-39.25197545185466
-48.60166281685035
-57.735792126295394
-66.66944059289335
-75.41850913025804
-83.99950841207942
-92.42935808990435
-100.7252030583009
-108.90424975817264
-116.98362465904901
-124.98025628781167
-132.91078149370338
-140.7914760683109
-148.6382093774201
-156.46642230549577
-164.2911275554083
-172.12693117337594
-179.98807406835962
-187.8884922510619
-195.84189451466762
-203.86185630295705
-211.96192854641328
-220.15576028212877
-228.45723389570512
-236.8806118236291
-245.44069352529579
-254.1529814659504
-263.0338547416153
-272.10074881908184
-281.3723396551351
-290.86873019761356
-300.6116369544924
-310.6245739470591
-320.93303093852865
-331.56464235255646
110.85899333233672
98.06416188200181
85.51303902033828
73.21945653097221
61.19522018245793
49.4498567111726
37.990424492509305
26.82139046740418
15.944573392047483
5.359151099590637
-4.938272673141947
-14.953548134800545
-24.694813590071412
-34.17229245834465
-43.39806222111306
-52.385804431002654
-61.15054461327532
-69.7083902785148
-78.0762744158159
-86.27171082585244
-94.31256655540518
-102.2168555758922
-110.00255676437095
-117.68745823975813
-125.28902921183519
-132.82431973547176
-140.30988813601664
-147.7617553837115
-155.19538533786198
-162.62568954216837
-170.0670551143607
-177.5333942180059
-185.03821361195872
-192.59470282535014
-200.21583958437412
-207.91451120484305
-215.70365074817735
-223.59638680324397
-231.60620579252253
-239.7471256996905
-248.0338800675959
-256.4821110164993
-265.10856987690977
-273.93132381547696
-282.9699665546964
-292.2458309451192
-301.782200742627
-311.60451847241734
-321.74058572742206
102.57794024953303
90.01025565191424
77.69011535748655
65.63373808117723
53.85498768231113
42.365092648235375
31.17244068880872
20.28245127540213
9.697525875943656
-0.5829272688605762
-10.56239955937805
-20.247127497680594
-29.645886647004062
-38.76974457213354
-47.63178371174453
-56.246805083280414
-64.63102321879299
-72.80176186424498
-80.77715884148547
-88.57588717008684
-96.21689816711434
-103.71919086794743
-111.1016108070398
-118.38268001363403
-125.58045904819994
-132.71244104931776
-139.79547708326731
-146.84573158409006
-153.87866632752687
-160.9090511780545
-167.95099976178824
-175.0180282252199
-182.12313531616675
-189.27890214589252
-196.49761013848251
-203.79137582617892
-211.17230129109709
-218.65263916973927
-226.2449712152492
-233.96239944420364
-241.8187488708869
-249.828780746954
-258.00841507344506
-266.37496093103334
-274.9473528809578
-283.74639132169693
-292.79498424375015
-302.11838730669683
-311.74443856991775
94.18221772930478
81.83291124920213
69.73632191975106
57.91127894433396
46.37387589107832
35.1371585977162
24.210902070595893
13.601479458731426
3.3118223697289633
-6.658531766419806
-16.313312692244168
-25.659320599565095
-34.70617143968247
-43.46599712477952
-51.95311388042619
-60.183671771284935
-68.17529764133822
-75.94674250517639
-83.51754292603891
-90.90770424516485
-98.13741180086916
-105.22677459287831
-112.195604285674
-119.06323105951684
-125.84835664431695
-132.56894392539328
-139.2421417908264
-145.88424338515966
-152.51067562180089
-159.13601765917488
-165.77404603314858
-172.4378042292467
-179.139694643235
-185.89159108913702
-192.70497024516715
-199.5910606586915
-206.5610081420569
-213.62605656703252
-220.79774319400428
-228.08810774223676
-235.50991441225622
-243.0768860037622
-250.80394912791058
-258.7074892881177
-266.80561429542485
-275.11842409167025
-283.668284574615
-292.4801024532001
-301.58159750797364
85.67071215159616
73.52960428071238
61.64794790049996
50.04743419841569
38.746576343128666
27.760361069754797
17.100006209906503
6.772827446504482
-3.217787163713142
-12.872300731989561
-22.194858740936745
-31.193040482476583
-39.877545383498976
-48.26183002831943
-56.36171195899436
-64.19495581891996
-71.78085623963118
-79.13983021618577
-86.29302974102374
-93.2619833309697
-100.06827292999964
-106.73325061981336
-113.27779771080748
-119.72212717752407
-126.08562907909351
-132.38675757577911
-138.6429574082178
-144.87062722359823
-151.08511687946233
-157.30075579362438
-163.53090949765323
-169.78806175233552
-176.08391986033948
-182.42954113024845
-188.8354787789066
-195.31194588181566
-201.86899627280036
-208.51672153865798
-215.26546343985942
-222.12604120235534
-229.10999316242334
-236.2298321994005
-243.49931425484164
-250.93371900956166
-258.55014146834924
-266.3677927841312
-274.4083081382786
-282.69605888002866
-291.25846541420634
77.04168166257159
65.09703894820404
53.42040392222129
42.03661390019163
30.966812344426387
20.228058635145885
9.833064576843196
-0.2099389735887176
-9.897207876380659
-19.229370785250374
-28.211207999782232
-36.85133907341129
-45.16183749925834
-53.157791954260205
-60.85683362952898
-68.278648255587
-75.44448973819578
-82.37671007136214
-89.09831760850233
-95.63257305645087
-102.00262988581032
-108.23122336579335
-114.34041023284075
-120.3513591522419
-126.28419065931604
-132.1578641699407
-137.99010890758254
-143.79739516694494
-149.59494217587388
-155.396758876248
-161.21571416909512
-167.06363351127044
-172.9514191664995
-178.88919186369714
-184.88645206865488
-190.95225950451112
-197.09542994049332
-203.32474859066065
-209.64919971244603
-216.07821215817017
-222.6219207047998
-229.29144296283656
-236.09917153929908
-243.0590809012897
-250.18704805188742
-257.501185687826
-265.02218595789714
-272.77367227972064
-280.7825558992304
68.29264742243043
56.53101954452476
45.04808068206376
33.8721366814411
23.027195654806505
12.532529592142785
2.4023883268735613
-7.354130811949592
-16.733061719956126
-25.73540732736741
-34.36685274181791
-42.63737409484689
-50.56076606310892
-58.15411211614972
-65.43722122777147
-72.43205329026691
-79.1621530594575
-85.6521094262462
-91.92705344415438
-98.01220510234772
-103.93247553489849
-109.71212836342387
-115.37450129223922
-120.94178697266833
-126.43487054342314
-131.87322011943823
-137.27482580080274
-142.65618244779307
-148.03231145210952
-153.4168169600828
-158.8219724055242
-164.25883372944037
-169.73737624837779
-175.26665273953324
-180.85497090401373
-186.51008892031595
-192.23942828799565
-198.05030356965747
-203.95016895580048
-209.94688179356953
-216.04898333068766
-222.26599692560728
-228.60874386080212
-235.0896766668136
-241.72322951760347
-248.5261847920377
-255.51805431067248
-262.721473049579
-270.1626023016913
59.42026740617396
47.826300890746516
36.52418455147894
25.546060115803847
14.919061575512611
4.664821347600749
-5.200839494959458
-14.668033904651013
-23.73275072429453
-32.39663025316928
-40.66659473063158
-48.55435978241402
-56.07585570189187
-63.250588313285476
-70.10096828724612
-76.65163546143793
-82.9288013336712
-88.95962883620311
-94.77166413936966
-100.39233089750806
-105.84849330015565
-111.16609071310809
-116.36984370340774
-121.48302888937623
-126.52731833939345
-131.5226781186247
-136.48731998218108
-141.43770005142454
-146.38855849780123
-151.35299470726096
-156.34257302741298
-161.3674549379862
-166.436554272823
-171.55771291074097
-176.73789510517295
-181.9833993095798
-187.30008695687258
-192.69362815181108
-198.1697646246531
-203.73459056616832
-209.39485211430045
-215.1582662873689
-221.0338600570667
-227.0323300245074
-233.16642280379665
-239.451335729037
-245.90513688054276
-252.5492026743152
-259.40867037177264
50.42018935927151
38.976413559994555
27.84054566042586
17.048983548247044
6.632278756067286
-3.385421155856033
-12.986706691727115
-22.161014697579553
-30.904520255322566
-39.21983186429779
-47.11551769759222
-54.60549632934099
-61.708328307976124
-68.44644541873872
-74.84535275306382
-80.93283523156953
-86.73819552953496
-92.29154495386396
-97.62316320125862
-102.7629374938906
-107.73988665035215
-112.58177141293291
-117.31478892906776
-121.96334670489594
-126.54990957779385
-131.09491221317484
-135.61672921201318
-140.13169499996116
-144.65416613754277
-149.1966194313203
-153.76978013978328
-158.3827755718815
-163.04331040315535
-167.75786103263667
-172.53188723457401
-177.37006019500643
-182.27650674565217
-187.2550702049561
-192.3095887008245
-197.44419217756834
-202.66361947942409
-207.97355695275968
-213.3809999191964
-218.89463814147433
-224.5252660333989
-230.28621785395066
-236.1938274724718
-242.26791149728123
-248.53227362005774
41.286878682593056
29.973458733775185
18.987392957714757
8.369818141594651
-1.8449706732366287
-11.630151012349014
-20.966730938847675
-29.84363325123471
-38.257519837746855
-46.21238285986891
-53.71893925989127
-60.793871535123955
-67.45896070489036
-73.74015715184512
-79.66663203279184
-85.26984687322853
-90.58267249960248
-95.63858132129332
-100.47092977130453
-105.11234094778443
-109.59419152672666
-113.94620205855153
-118.1961259106669
-122.36952936712005
-126.48965366070169
-130.57734886094946
-134.65106941607468
-138.72692158434307
-142.81875383566918
-146.93828241797533
-151.09524554715355
-155.2975810000255
-159.55162319284295
-163.86231706067431
-168.2334471784546
-172.66788155805312
-177.16783040413497
-181.73512080659773
-186.37148888664967
-191.07889129647413
-195.85983820025857
-200.71774993788745
-205.6573394933831
-210.6850226589346
-215.80935740286253
-221.04151341633354
-226.39577212811858
-231.8900566410931
-237.5464900543518
32.01341596094304
20.807866260809167
9.953089425820114
-0.5044822701025788
-10.526445885106558
-20.083142374684353
-29.15403632756683
-37.72776229237707
-45.80185801367998
-53.38222078913072
-60.482335016228596
-67.1223262973113
-73.32790020025769
-79.12922235020292
-84.5597916946939
-89.65535146890946
-94.45287357148631
-98.98964266966712
-103.30245717307389
-107.42695585079534
-111.39707171969414
-115.24460911679097
-118.99893563752755
-122.68677780326128
-126.33210775855986
-129.95610778725165
-133.57719975255588
-137.21112749277106
-140.8710815419625
-144.56785712632697
-148.3100380742052
-152.10420096674193
-155.9551354707562
-159.86607828443175
-163.83895945743694
-167.87466100246897
-171.97328868858892
-176.13445869655203
-180.3576014256798
-184.64228517553852
-188.98856268806844
-193.39734363029788
-197.87079602789612
-202.41277942665712
-207.02931216416158
-211.72907457801293
-216.52394926025272
-221.42959859173135
-226.46607875359487
22.5912574834396
11.468107851418782
0.7238189606560081
-9.589237381989623
-19.428143309752176
-28.760244788666647
-37.56354839115933
-45.826710189562384
-53.54864616111557
-60.73781335033624
-67.41122528790511
-73.59327324494897
-79.31442693804091
-84.60988500486167
-89.51823806004526
-94.0801967383722
-98.33742518375564
-102.33150816371712
-106.10306836992876
-109.69104021914487
-113.13209802643587
-116.46022996370286
-119.70644471587798
-122.89859503411276
-126.06130119822002
-129.21595743599084
-132.38080529798367
-135.57105956890922
-138.79907426450188
-142.07453841672628
-145.4046935365041
-148.79456675139545
-152.24721557169914
-155.76398199795796
-159.3447552230616
-162.98824349579726
-166.69225680350746
-170.45400290739187
-174.27039993484968
-178.13840921066142
-182.0553923001932
-186.01949634983043
-190.03007174711638
-194.08812588719422
-198.19681642486273
-202.36198681315614
-206.592746181833
-210.90209469334997
-215.30759443231096
13.009950334616367
1.9403552289568964
-8.716785701014182
-18.902413343482415
-28.5686412170297
-37.67967309251475
-46.21220806110109
-54.155344332781006
-61.51002405093055
-68.28808623837952
-74.5110120128964
-80.20845483985266
-85.41664921934762
-90.17678500273183
-94.53342317042988
-98.53301425943664
-102.22256453797061
-105.64847907287127
-108.85559624574303
-111.88641586331528
-114.78051320162875
-117.5741242175982
-120.29988259948708
-122.98668698904281
-125.6596761845864
-128.34029099301023
-131.0464032286338
-133.79249479761359
-136.58987256052114
-139.44690750536338
-142.36928952352525
-145.3602916522865
-148.42103996506327
-151.5507873235964
-154.74719094788358
-158.0065952178163
-161.32432231270082
-164.69497424098384
-168.11275053161123
-171.57178636891322
-175.0665162661258
-178.59206849820657
-182.1446954572486
-185.72224485474277
-189.3246762758675
-192.9546269905522
-196.61803014681914
-200.32478751615065
-204.08949783331843
3.2567913279585854
-7.791929681131338
-18.38808735254156
-28.465064343544427
-37.969501799074976
-46.86233744232051
-55.119204101959454
-62.730209357770434
-69.69915694886535
-76.0423016494167
-81.7867494434779
-86.96862350914215
-91.6311146033332
-95.82252380101512
-99.59438867227904
-102.99976353997663
-106.09170292974456
-108.921976749296
-111.54002759315303
-113.99216575230245
-116.32098637251995
-118.56498568194215
-120.7583489337812
-122.93088114485744
-125.10805224734997
-127.31113031248135
-129.55737951504625
-131.86030304173477
-134.2299148573836
-136.6730278821126
-139.19354953244272
-141.7927786430494
-144.46970046824376
-147.22127875531243
-150.0427458015318
-152.92789298237838
-155.8693655053941
-158.85896613703608
-161.88797339836856
-164.94748025527423
-168.02875965568785
-171.12366340141176
-174.22506078967575
-177.32732321894065
-180.4268605242037
-183.52271418594358
-186.6172117451393
-189.71668575884374
-192.83225945399738
-6.683583975043097
-17.748489024753777
-28.312977850019593
-38.30185762911555
-47.65574127202464
-56.33221815318625
-64.30622208937012
-71.56963169216715
-78.13018995224965
-84.00986873249008
-89.24282727933196
-93.87312163012265
-97.9523155275491
-101.53712613131182
-104.68721312091003
-107.46319146311612
-109.92491950388238
-112.1300877329146
-114.13311128980833
-115.98431192387041
-117.72936286379263
-119.40896254689304
-121.0586997167739
-122.70907217713065
-124.3856236175797
-126.10916660483412
-127.89606438182528
-129.75854900772484
-131.70505821592997
-133.74057790793606
-135.86698128729427
-138.08335919938332
-140.3863392688433
-142.7703939428358
-145.22813960306098
-147.75063055930144
-150.32765304006682
-152.94802530305714
-155.59991074167698
-158.27115139702258
-160.9496296165608
-163.62366574293023
-166.28245967092082
-168.91658387325072
-171.5185350610265
-174.0833510058062
-176.60929820576536
-179.09863503317885
-181.5584537663469
-16.82969992054902
-27.952868964615995
-38.518522227394854
-48.4417002880316
-57.6563803908752
-66.11678983190656
-73.79770561877663
-80.69379760923073
-86.81813954891749
-92.20006082183302
-96.8825383539718
-100.91933324889816
-104.37206331339328
-107.30737533338424
-109.79434520616327
-111.90219507841192
-113.69837890445308
-115.24705454589926
-116.60793360647423
-117.83548038249147
-118.9784184304601
-120.07949649643753
-121.17546376154766
-122.2972062698233
-123.47000081350208
-124.71384841835798
-126.04385607045509
-127.47064184916385
-129.0007447721814
-130.63702617668906
-132.379054244486
-134.223467307498
-136.16431488412204
-138.193378069998
-140.30047302880095
-142.47374299044475
-144.69994544971513
-146.96474223833013
-149.253000872845
-151.5491160993753
-153.83736088566698
-156.10227626154875
-158.32910937719686
-160.50430892446295
-162.61608663598147
-164.655052926355
-166.61493386298048
-168.49337555428815
-170.29284073719782
-27.203850187561507
-38.433152746813064
-49.036740753034124
-58.91849059042259
-68.00508984143656
-76.24749845449702
-83.62112170181527
-90.12478577209703
-95.77869448585275
-100.62160564014812
-104.70749456863629
-108.10197203966027
-110.87869869688508
-113.11599616914971
-114.89380369035496
-116.29107587985112
-117.38366802412183
-118.2427136387346
-118.93346723544889
-119.51456342313257
-120.0376309127031
-120.54719514724492
-121.08080431266362
-121.66931858430435
-122.33731001918444
-123.10352921001211
-123.98140370867624
-124.97954164932904
-126.10222156513635
-127.34985591308347
-128.7194212591842
-130.2048524895892
-131.79740191426438
-133.48596685601572
-135.25739141045923
-137.09674965274633
-138.9876187677752
-140.9123514836409
-142.85235786016358
-144.78840697051623
-146.70095933740575
-148.5705411508762
-150.3781712914662
-152.10585198955943
-153.73713354302066
-155.25776286571818
-156.65642473341808
-157.92558343019607
-159.06243109793144
-37.83284824584833
-49.2228626699093
-59.90556406747437
-69.7720222716663
-78.74094713702132
-86.76029317881631
-93.8072165256515
-99.88652629446482
-105.02788708946044
-109.28210310950624
-112.71684393233038
-115.41216096887524
-117.45610048001184
-118.94065522250963
-119.9582238408627
-120.5986750947665
-120.94705031046531
-121.08188647804545
-121.07410584707671
-120.98639521834043
-120.87298750146564
-120.77975690996425
-120.74454465003372
-120.79764161069873
-120.96236630268595
-121.25568855856565
-121.6888612293582
-122.2680326492288
-122.99482167795736
-123.86684459541199
-124.87818909319972
-126.01983525527605
-127.28002695059882
-128.64459969280173
-130.0972729569277
-131.619916356328
-133.19280011816952
-134.79484106472674
-136.40385588705982
-137.9968339368167
-139.55024208094113
-141.04037436029847
-142.44375924380398
-143.73763713819426
-144.90052045606564
-145.91284791812785
-146.75774383901432
-147.42189190880507
-147.89653145563787
-48.74895882901228
-60.36207795612869
-71.17000679478451
-81.04907711556588
-89.90932368291254
-97.69621108189133
-104.39023886379886
-110.00464541239248
-114.58158101661348
-118.18721000549176
-120.90622773816824
-122.83624823589591
-124.082446723314
-124.7527457302958
-124.95373049613744
-124.78738283842402
-124.34864156704934
-123.72373653526667
-122.98920325396197
-122.21146363825852
-121.4468523267811
-120.74197298161982
-120.13428108280465
-119.65280562180533
-119.31893920972169
-119.1472426740157
-119.14622514191174
-119.31907336268702
-119.6643144591169
-120.17640452893936
-120.84624179456412
-121.66160764219707
-122.60754223020278
-123.66666368937355
-124.81944155347114
-126.04443616830467
-127.31851660512665
-128.61707017652336
-129.91421710606616
-131.1830442851416
-132.39587237602305
-133.52457077514913
-134.54093509555875
-135.41714180468531
-136.12629439404265
-136.64307489117027
-136.9445135957264
-137.01088860283983
-136.82676498285042
-59.99106371462093
-71.89883076339726
-82.88361860628049
-92.80474984440315
-101.56292213984631
-109.10200654986636
-115.40809483539527
-120.50613619021377
-124.4547004261234
-127.33951024972723
-129.2663994588316
-130.35429128380025
-130.7286755712568
-130.51592175076598
-129.83862065042572
-128.81202031838478
-127.54151984480897
-126.12111471475639
-124.6326461393158
-123.14569047402728
-121.71792709760427
-120.39583774335209
-119.21561177858302
-118.20415604086263
-117.38013157093908
-116.7549610815783
-116.33376933208982
-116.11623345941516
-116.09733189206162
-116.26798912704112
-116.61561987391181
-117.12458037148929
-117.77653753412055
-118.55076839487722
-119.42440341822484
-120.37262791889307
-121.36885624402728
-122.38489369015694
-123.39110142405787
-124.35658000049759
-125.24938742531077
-126.03680807020342
-126.6856890450735
-127.1628607896364
-127.43565855579857
-127.4725610074524
-127.2439612712833
-126.72308437139313
-125.88706307041684
-71.60613352295545
-83.89086347372174
-95.11028981801788
-105.10405991940127
-113.76298429484552
-121.03080591384119
-126.90237698075364
-131.4187687164413
-134.66009655405412
-136.73696268834814
-137.78140529830938
-137.9381262916919
-137.35658628038277
-136.18434734557684
-134.56184512230453
-132.6186050730161
-130.47079509681322
-128.21992947783983
-125.95250238279111
-123.740323796128
-121.64134707698818
-119.70080621631222
-117.95251514182087
-116.42021591389127
-115.11889415584292
-114.05600690162875
-113.23258968014733
-112.64422627214124
-112.2818767632858
-112.13256804157027
-112.17995654081133
-112.40477654478448
-112.7851893643727
-113.29704969224028
-113.9141058213466
-114.60815048113275
-115.34913900939159
-116.10529157869996
-116.84319631770728
-117.5279304445173
-118.12321695298309
-118.59163491695605
-118.89490201603172
-118.99424832089508
-118.8509005605181
-118.42669586609084
-117.68484319661685
-116.59084918576502
-115.11362297205916
-83.65110303127945
-96.40785933553619
-107.92651284614796
-118.0239175813006
-126.58068683170009
-133.5427491905392
-138.9181790444293
-142.7701142955076
-145.2069077178351
-146.37078304085838
-146.42620015955583
-145.54892546440885
-143.91651707516337
-141.70063214672243
-139.06129175008175
-136.14302650484942
-133.07268332864857
-129.9585966274027
-126.89080385928492
-123.94200025827823
-121.16896562491137
-118.61424507928801
-116.30791650604408
-114.26932437161685
-112.50869964024069
-111.02861760530683
-109.82526980500884
-108.88954372604407
-108.20791593546714
-107.76317187440225
-107.53496994429949
-107.50026968625023
-107.63364457188344
-107.90749978394096
-108.29221480255926
-108.7562299376304
-109.26609536692092
-109.78650088385763
-110.2803044978874
-110.70857828557865
-111.0306904377428
-111.20444322256863
-111.18628747538105
-110.93163507543647
-110.39529147933823
-109.53203051799592
-108.29733309354623
-106.64830993648128
-104.54482609654404
-96.19528404800468
-109.53429905126633
-121.42423345247249
-131.65552621498352
-140.09873398938495
-146.70554971031112
-151.50355976649996
-154.58600191593507
-156.09821402145872
-156.2225715300664
-155.16354238068246
-153.13413063353408
-150.34453815368394
-146.99343873790036
-143.26189486163096
-139.30968535638846
-135.27365687695846
-131.26764849051375
-127.38354358809586
-123.69305163268514
-120.24989242028488
-117.09213142751463
-114.2444860289036
-111.72048329016658
-109.52439861867731
-107.65294099312506
-106.09667626461082
-104.84119709952803
-103.86805855368036
-103.15550386001546
-102.67900730381261
-102.41166124613288
-102.32443333324494
-102.38631834000873
-102.5644073823751
-102.82389569058873
-103.12804894345223
-103.43814742927323
-103.71342706721722
-103.91103659694704
-103.98603098676715
-103.89142224016922
-103.57831016549802
-102.99611711893766
-102.09295197509891
-100.81612930068684
-99.11286954963074
-96.93120473035032
-94.22111119056132
-109.32350239210004
-123.37315325267159
-135.7144697130371
-146.10731913196892
-154.41313730422513
-160.59485128257253
-164.70844571699638
-166.888144253898
-167.32771366163632
-166.2604410563471
-163.93997762859442
-160.62364312122602
-156.55911059398122
-151.97477486453437
-147.07363194600052
-142.03018956958257
-136.9897792205635
-132.069613959379
-127.36099226113755
-122.93214811736728
-118.83136232895289
-115.09005987449619
-111.72571282486327
-108.7444433799652
-106.14327731607796
-103.9120368187732
-102.034886627822
-100.49156200071803
-99.25831420553425
-98.30861152548732
-97.61363297182838
-97.1425894253199
-96.86290371043837
-96.740277784634
-96.73867219808135
-96.82022048610104
-96.94509932621999
-97.07137418472004
-97.15483980634488
-97.14887524872458
-97.0043341827129
-96.66949278391186
-96.09007958811154
-95.20941395114485
-93.96868191648977
-92.30737991891056
-90.16395732062921
-87.47668775073997
-84.18479616116508
-123.14022204739933
-138.05070296068112
-150.93193608729553
-161.508543897384
-169.63513492581995
-175.29417876637183
-178.58265154802626
-179.69055414385844
-178.8750481113668
-176.43383246134962
-172.68069118520805
-167.92515370628294
-162.457193220572
-156.53703210438525
-150.38952437549486
-144.20225400510574
-138.12638125824915
-132.27931983194938
-126.74846769220386
-121.59538957421186
-116.86002205014749
-112.56462212174841
-108.71729907489676
-105.31505644618593
-102.34633030937783
-99.79304729642477
-97.63224653426428
-95.83731901026596
-94.37891977659078
-93.22560585712806
-92.34424784538878
-91.70025739774593
-91.25766703768363
-90.97909343270832
-90.82561088044838
-90.75655828272272
-90.72930044070307
-90.69896306688928
-90.61816045168344
-90.43673520684115
-90.10153088678604
-89.55622048865571
-88.7412167250927
-87.59369332292351
-86.04775005158552
-84.03475716971872
-81.48391676071924
-78.32307816752542
-74.47984164747481
-137.77503287672025
-153.7228992829625
-167.24099010865248
-178.01361609593488
-185.89313121966524
-190.89414084252672
-193.17252590118537
-192.9942065557687
-190.69927296882724
-186.66662642931806
-181.28298788329846
-174.918525384389
-167.9098422673999
-160.5499127459372
-153.0838419441128
-145.70902669457547
-138.5782973749382
-131.80480921482268
-125.4677204937568
-119.61797222364825
-114.28372752573888
-109.4752214092581
-105.18891120921299
-101.4109111252088
-98.11975093811327
-95.28852902133272
-92.88654178710061
-90.88047241322371
-89.2352159441686
-87.91440897358731
-86.88072223220875
-86.09596481370707
-85.52104018303635
-85.11578686551067
-84.83873092426191
-84.64677298743229
-84.49482961388117
-84.33544710104873
-84.11840536407215
-83.79033019650822
-83.29433402610846
-82.5697081727709
-81.55169352686221
-80.17136131135435
-78.3556407864086
-76.02753572783418
-73.1065752552259
-69.5095458227866
-65.15154857054509
-153.39004898626405
-170.58384868317063
-184.8433264374069
-195.80735538032445
-203.33440447284983
-207.49031951272872
-208.51547239396706
-206.7791673057076
-202.7298065816252
-196.84808583039083
-189.6081683948742
-181.44921624532503
-172.757461596793
-163.85751202015075
-155.0108289778927
-146.41916262042338
-138.23095303531846
-130.5491212750719
-123.43912613596297
-116.93656816681617
-111.05394282100704
-105.786374220198
-101.11631095504725
-97.01725341148648
-93.45662615530634
-90.39792404386745
-87.80225844526174
-85.62941829915287
-83.83854504351699
-82.38850389961866
-81.23801847978402
-80.34562206298176
-79.66946751307944
-79.1670287142953
-78.79471942675164
-78.50745041627265
-78.2581423747092
-77.99721033880024
-77.67203490596732
-77.22643646703413
-76.60017092635154
-75.72846900538747
-74.54164627020575
-72.964817430616
-70.91775592383678
-68.31494758812431
-65.0658940487014
-61.07572539741567
-56.2461806240797
-170.19002685893506
-188.87727086997828
-203.98798393127322
-215.1111654574708
-222.1260879859851
-225.17891362528997
-224.6312030710078
-220.99308672070367
-214.8539939934494
-206.82111170091034
-197.47164284459728
-187.32088337934812
-176.80505061232503
-166.27601013161149
-156.00443007095438
-146.1880874338969
-136.96267648392882
-128.4132216022278
-120.58489036787226
-113.49255205673333
-107.12881565425718
-101.47052947123011
-96.48386452951615
-92.12816919909233
-88.35880054401194
-85.12912868165151
-82.39188784182315
-80.10002028622668
-78.20713174657985
-76.66765210374064
-75.43677372860775
-74.47022246106731
-73.72390239985134
-73.15344510627864
-72.71368603155508
-72.35808553099169
-72.03810836207424
-71.70257379446934
-71.29698820151415
-70.76287317587295
-70.03710486024158
-69.05128446921893
-67.73116614027985
-65.99617649268052
-63.7590705345434
-60.92578020544782
-57.39552332362858
-53.06124936876638
-47.810500808840025
-188.43642291810025
-208.91216987439395
-224.98440976241062
-236.1900760125054
-242.4544901157227
-244.0486021661677
-241.50799307525273
-235.5345254555989
-226.9002227890809
-216.36732098526767
-204.631315912483
-192.28759160068066
-179.81809716046706
-167.5926947085943
-155.87969885798617
-144.8610314802977
-134.64868427873643
-125.30040175806037
-116.83347086136536
-109.23618457414497
-102.47696965266249
-96.51139702758611
-91.28739111864914
-86.7489727128872
-82.83884578626964
-79.5000953354455
-76.67721493421556
-74.31663681689474
-72.36689722346776
-70.77853657005508
-69.50380754271123
-68.49624369925074
-67.71012567000311
-67.09987066265676
-66.61936289800875
-66.2212371756896
-65.85612447622451
-65.4718669696498
-65.01270977736749
-64.41847822717942
-63.623752237798485
-62.55705417053335
-61.14007351245434
-59.28696174626454
-56.903744189839074
-53.887912245712116
-50.12827782156661
-45.50518815235808
-39.89120835590805
-208.46726804042868
-231.08456078391447
-248.21953254356146
-259.3602247767104
-264.5210230373225
-264.1661088382753
-259.0813361452312
-250.22903984730516
-238.61538627754436
-225.188653030502
-210.77468770196944
-196.0465342417171
-181.5202128706023
-167.56739016735781
-154.43681505407
-142.27855044251487
-131.16724267314035
-121.12246100103769
-112.12537762909282
-104.1318052586565
-97.0819918475818
-90.9077189092125
-85.53726035517577
-80.89870183215461
-76.92203756770832
-73.54037603820981
-70.6905084667736
-68.3130294291976
-66.3521471482977
-64.75528111058208
-63.4725145404505
-62.45594706664616
-61.65897688081402
-61.0355303914269
-60.53924969797971
-60.12264329926835
-59.73620267506435
-59.32748628913453
-58.84017285346597
-58.21308723642493
-57.37920528421177
-56.264648476189905
-54.78768660271951
-52.85777782025197
-50.37469193589395
-47.22778545263684
-43.29552480908977
-38.44538320882818
-32.53425829165732
-230.7258172059336
-255.908026461311
-274.1799909927969
-284.9956079655589
-288.53156854991283
-285.55134713305995
-277.2011564582643
-264.7953618864793
-249.63556296407535
-232.88576521226722
-215.5058905451526
-198.23294784015928
-181.59424137991508
-165.9378071490696
-151.46888192922
-138.28534477905924
-126.40849929412917
-115.80791520935159
-106.4204191968808
-98.16398597246506
-90.94749974773413
-84.67733566730632
-79.26158280524805
-74.6125702029699
-70.64820357231827
-67.29248866224341
-64.47551191112723
-62.133068194298616
-60.20606534548502
-58.639791396791495
-57.38309926084283
-56.38754167113528
-55.60647411322415
-54.99413335765148
-54.504692692786946
-54.091291086765516
-53.70503159962536
-53.29394393204031
-52.801906688807904
-52.167526547383915
-51.322974067679546
-50.192779784853485
-48.69260061652974
-46.72797756409965
-44.19312414428221
-40.96981392771588
-36.92647601238835
-31.91765540187434
-25.78403983665265
-255.80275643269565
-284.0573350136955
-303.48070771528666
-313.531321897771
-314.6734945695137
-308.13544777248717
-295.582055176882
-278.79856695620185
-259.44939685661876
-238.93469673555734
-218.33523371893386
-198.42005984931936
-179.6893848446911
-162.43078943972708
-146.77485786700097
-132.74318004896134
-120.28636096743344
-109.31231305444282
-99.70629024581176
-91.34444086853642
-84.10254243749333
-77.86129799578265
-72.50926036507339
-67.94417026604762
-64.07326741214102
-60.81296078783004
-58.0881176640692
-55.83114070184984
-53.9809396320141
-52.4818609639818
-51.282610187134885
-50.33518172775736
-49.59379947425958
-49.013862872591226
-48.550888989348636
-48.1594385854217
-47.79201349672543
-47.39791302507743
-46.92203823334587
-46.30363469308905
-45.474966142593395
-44.35991385320645
-42.872500369637024
-40.91534444996407
-38.37807146609915
-35.13573692073456
-31.047375782299106
-25.95486636113892
-19.682380885125795
-284.4999246633894
-316.431633360076
-336.90050045980666
-345.457123527544
-343.0697938110238
-331.6909316584878
-313.7290829456907
-291.5873740724276
-267.3554613785989
-242.66565541405953
-218.67600451186172
-196.1284861990939
-175.4378016816212
-156.78179230034326
-140.17896272342313
-125.54849515571648
-112.75349887734907
-101.63044099912234
-92.00813324793167
-83.71927558945433
-76.60692777764092
-70.52765594479087
-65.35258192331159
-60.967167393534034
-57.270279558333655
-54.172886598466356
-51.59659688525348
-49.47216704412567
-47.738046257271776
-46.33898743094688
-45.22473290830243
-44.34876844640228
-43.66713098815347
-43.13725126674041
-42.71681017299096
-42.36258729692453
-42.02928064047072
-41.66827785834033
-41.2263611897325
-40.644330048666404
-39.855526455741845
-38.784248628183235
-37.344037473129966
-35.43582217598444
-32.94592152864487
-29.743929344007856
-25.680580219993736
-20.58580504241213
-14.267332653832163
-317.9292119747138
-354.2472838725614
-375.42334590297287
-381.2879688497102
-373.6912697339719
-355.7172955446243
-330.8299355901557
-302.2149353970199
-272.41902747596316
-243.2519884438592
-215.85645475887924
-190.85135028237738
-168.48485949322992
-148.7649108334316
-131.5574923545259
-116.65473879953822
-103.81902463766316
-92.80974041514156
-83.39834897359563
-75.3758967704261
-68.55588646610097
-62.77443885846062
-57.888975703879986
-53.776182944996144
-50.329705007587265
-47.457824240340145
-45.081257485107486
-43.13112781993676
-41.547126001938864
-40.27585146428068
-39.26930946358951
-38.48353445795151
-37.8773071457341
-37.410932097431086
-37.04504360214875
-36.739408739002265
-36.4516985655324
-36.13620059779678
-35.742448268155684
-35.2137453011683
-34.48556390452274
-33.483793706456936
-32.12281196985567
-30.30333557686675
-27.91000890631014
-24.80869770331836
-20.843528243151834
-15.833865532592055
-9.57166930558067
-357.67099880272826
-399.1757219651996
-420.27748368971794
-421.48303662611187
-406.19255238299945
-379.257446392633
-345.60550611522916
-309.34934683825975
-273.4419700655696
-239.72410305778658
-209.1588903730146
-182.1029707113873
-158.5372117159116
-138.23496584622995
-120.87291575411123
-106.09847032683412
-93.56755888940972
-82.96364630838828
-74.00550288017236
-66.44862220416181
-60.08331084441748
-54.73124091505432
-50.2414806028748
-46.486545732879314
-43.35873725450122
-40.76687073502464
-38.63341693470086
-36.892027620128815
-35.485399861369295
-34.3634243367942
-33.481562289152265
-32.79939809660925
-32.279317932920215
-31.885268659538
-31.58155448377822
-31.331631965528835
-31.096866820111487
-30.83521890175971
-30.4998249174376
-30.03745153429069
-29.38679333143054
-28.47658757064881
-27.223506277444606
-25.52976110012051
-23.280320233576145
-20.33961098213142
-16.547619242255305
-11.715476958578613
-5.621009241391797
-406.0370284241725
-453.5487095045652
-472.9464718212266
-466.25256336979453
-439.61224823473657
-400.6134443855852
-356.1204747710839
-311.19668548760256
-268.9743814484882
-231.0321947332656
-197.901386957387
-169.49895201443408
-145.43115457260404
-125.18100149346125
-108.21317741725215
-94.02673998224446
-82.1773370890474
-72.28284952210204
-64.0207410542024
-57.12178762649904
-51.36268456502768
-46.55878062705688
-42.55749563347615
-39.23261098161942
-36.479437901120974
-34.210784061306796
-32.35360779096732
-30.846244348028044
-29.63609598981117
-28.677689422410253
-27.931016684494704
-27.360086828593108
-26.93162518362897
-26.613864383326266
-26.3753769153183
-26.18390307614
-26.005131450974865
-25.801392033900655
-25.530225527262758
-25.14279653551347
-24.582122476251918
-23.781090540497097
-22.660223547340884
-21.125118079065434
-19.06340169301894
-16.34095001021124
-12.797039595027647
-8.238246206233761
-2.4314241935956424
-466.52581871267
-520.6586657967642
-535.0763038441753
-515.1247210520528
-471.8389003328587
-416.9360966907404
-359.58771049868966
-305.49390678320816
-257.41860646197665
-216.19052260118974
-181.57761479561543
-152.87164575684224
-129.21909290077835
-109.78658504945358
-93.83121941889188
-80.72133590069961
-69.93382150372597
-61.04182724022974
-53.69980393575991
-47.629019249243925
-42.60480327550712
-38.445842915946685
-35.00543074253321
-32.164415852531306
-29.825567721722344
-27.90908076668285
-26.348983431208318
-25.09025526324968
-24.086491824850825
-23.297987958899974
-22.690134539635494
-22.232042829422593
-21.895324714865872
-21.652967211499405
-21.478246491366825
-21.343631077012578
-21.21962659991372
-21.073516648130877
-20.86795696553748
-20.559384949441917
-20.09621373692097
-19.416788140839046
-18.447078838917783
-17.098057035556458
-15.262581729653292
-12.81140792264318
-9.587632869917684
-5.398788833667392
-0.006345051150980829
-544.64192141983
-605.1659020477862
-608.0684465843696
-566.0059705241779
-498.70887058874996
-423.7164448903532
-352.28461462090655
-289.6869647345384
-237.30050818827266
-194.53557920829698
-160.06080668952805
-132.41435075078513
-110.26350388808292
-92.48655807092469
-78.17623678079859
-66.61354963421122
-57.23434076263665
-49.597614433716274
-43.35866340472842
-38.24742827320308
-34.05153312800298
-30.60317098091501
-27.769029988862656
-25.4425682946624
-23.53808059050788
-21.986122266944808
-20.729958140521582
-19.722782075266274
-18.925514277912278
-18.30502826243731
-17.832692753286025
-17.483137842437465
-17.233171640511827
-17.06078506188017
-16.94418947287739
-16.86083569946703
-16.78636428405431
-16.693437042700225
-16.550400539087804
-16.319735477748207
-15.956255376349135
-15.40503565117993
-14.599076609241987
-13.45670589012699
-11.878632146432617
-9.744234184185164
-6.9060020498189125
-3.1802753049257175
1.66750298518894
-649.4766852772264
-713.5083698021633
-691.7681820328248
-613.2342145042753
-512.6358323888799
-414.4204237188841
-329.8632780318558
-261.4841125269962
-207.77937205022974
-166.10524589449315
-133.85180921160747
-108.82875088660877
-89.31612622552129
-74.00351720045751
-61.90511569361533
-52.281916866011485
-44.579044185999734
-38.3779936496633
-33.36117365980623
-29.285871383213653
-25.965204744545318
-23.2541688788189
-21.03937330635007
-19.231449255900387
-17.75939186883388
-16.56630881454836
-15.60619470964272
-14.841455751193042
-14.240983311810401
-13.778627718519818
-13.431960293993015
-13.181237333353769
-13.008497025095565
-12.896731448561198
-12.829082084276767
-12.78800973636922
-12.754389196087683
-12.70647631829381
-12.618691997771958
-12.460166748706989
-12.192996570346711
-11.770184159479633
-11.13328923283029
-10.209884865416294
-8.910948818890642
-7.128054593799268
-4.729179996299988
-1.549856001746659
2.6254909728763787
-796.6938526087973
-853.6011396259617
-780.7337371171134
-643.7735056890943
-501.2012003382133
-380.99878064374025
-288.61246863889346
-219.94747359193244
-169.39356317894584
-132.07633945875727
-104.30696844278671
-83.42597590045418
-67.54882074355248
-55.34299500686125
-45.86159938123032
-38.425929934452526
-32.5444694201165
-27.857324332517795
-24.098033768868763
-21.067149541312695
-18.61379954502206
-16.622693963088047
-15.00487068188772
-13.691032137973263
-12.626694601684246
-11.768616391107484
-11.082135857038859
-10.53916073331444
-10.116625553311291
-9.795284990876006
-9.558745834193004
-9.392663838900079
-9.284047182273111
-9.220617739107894
-9.190186218820509
-9.17999811226807
-9.176004862026712
-9.162009127062696
-9.118625347031287
-9.021989323596701
-8.842148892349964
-8.541084649504798
-8.070370307438102
-7.368626720766231
-6.359176885863774
-4.9485147777230285
-3.025374313323897
-0.456438562784518
2.932208778035971
-1015.2173374301613
-1030.7509484091206
-853.8826296479406
-631.7522650060165
-447.6266953968214
-317.2691630536896
-228.02065391253333
-167.0464306634667
-124.8356615172701
-95.09101210547107
-73.73220016502056
-58.11372002989273
-46.498715847768445
-37.72798354235981
-31.013935320197252
-25.811880548340685
-21.738625709679226
-18.5202111273325
-15.957799353054291
-13.905039278427324
-12.252800118453674
-10.91871396497448
-9.839904570949873
-8.967858748052738
-8.264758655600929
-7.70082287687617
-7.25235192553369
-6.900270136484137
-6.629019392376048
-6.425702350126116
-6.279400978216755
-6.1806148381898875
-6.120775493434397
-6.0918004532688705
-6.085653158682575
-6.093875148900423
-6.107052784351926
-6.11417356247531
-6.101816008349661
-6.053102978320084
-5.946334267266471
-5.7532114004148
-5.436605112433956
-4.947967762107119
-4.224916020892868
-3.1904274074032566
-1.7562342257262369
0.17012320337234055
2.690566068664957
-1354.5706245110605
-1225.1248238549529
-852.6461423164582
-535.5335356255213
-342.13818906481947
-225.52414201841486
-154.162296146856
-108.94679321689728
-79.29376103009162
-59.20927910723961
-45.21140118431362
-35.20824385349808
-27.902344722350513
-22.464515733836024
-18.350226528960633
-15.192976907460341
-12.740559635373028
-10.815910841719887
-9.292453470551987
-8.078207060539974
-7.1053284678630995
-6.323092214738342
-5.693093905390331
-5.185917380319385
-4.778782098197617
-4.453857025914655
-4.197033798614935
-3.9970198127647745
-3.8446558379512545
-3.732391450470219
-3.653870451279504
-3.6035907188838436
-3.5766106743257318
-3.568278888325949
-3.5739649589317484
-3.5887688142437746
-3.607181846194557
-3.6226661742349453
-3.6271069283471213
-3.610075624654522
-3.5578201202195734
-3.451871835605253
-3.267151730948684
-2.969526829828241
-2.51312400192264
-1.838938314998705
-0.879810995462595
0.4168042302059556
2.0522234811439013
-1901.8388070486915
-1305.919373022677
-646.1757180552283
-347.5207017064782
-200.0475654547585
-123.83961366804643
-81.19031385743713
-55.768300208647375
-39.77465304047443
-29.26097755669217
-22.09347555331918
-17.05663888555754
-13.425535078808416
-10.750599282695582
-8.743464844204631
-7.213654882122931
-6.032073030422005
-5.109213665281324
-4.381755522927563
-3.8040867809020824
-3.3428158248157693
-2.973136991574048
-2.6763759296021696
-2.4383010185443617
-2.247941775022653
-2.0967484981731666
-1.9779849988308165
-1.8862824703774663
-1.8173057003797588
-1.7674977887231194
-1.733879267472627
-1.7138837871954689
-1.7052164116400057
-1.705722658346133
-1.7132570254278399
-1.7255388775568203
-1.739980979540455
-1.7534710824331166
-1.762078739894477
-1.7606462694367293
-1.7422020201460686
-1.697103203053688
-1.6117753631912528
-1.4668880665913697
-1.2349071802338782
-0.8777153889957701
-0.3484759904204173
0.38315550824248046
1.2262477462992312
-2501.284821956499
-757.9016509797237
-306.36394067643505
-138.90111200511927
-73.95893683091018
-43.605351061308696
-27.785549277207465
-18.7295986255495
-13.187559397056845
-9.612646427522641
-7.208796582705972
-5.536767248831829
-4.340830403476218
-3.4652329005807374
-2.811465383019126
-2.315179516093096
-1.93315286756431
-1.6356374625244072
-1.4017155497254947
-1.216396317339072
-1.0687528634182968
-0.950698391155079
-0.8561651438840947
-0.780542828933978
-0.7202876193623098
-0.6726453048494747
-0.6354520252009728
-0.6069884112437336
-0.5858708212597765
-0.5709684147318885
-0.5613380703598523
-0.5561712437005859
-0.5547481343437148
-0.5563951952868997
-0.56044215405195
-0.5661743099518866
-0.5727747928809741
-0.579249422515483
-0.5843232352494931
-0.5862916364001896
-0.5827986722914611
-0.5704969321129045
-0.5445130703795158
-0.4975949564956501
-0.4187669631549804
-0.29143454582569284
-0.09236170688092837
0.1973178469538528
0.4840532495341545

SCALARS STRESS_YY float 1
LOOKUP_TABLE default
-0.034665302474707005
-6688.43095405494
-69.80652717147916
-69.96508293873615
-0.03466338396437152
-0.03465761398946654
-0.03464794942695448
-0.03463431848651055
-0.034616620608886706
-0.034594726583975444
-0.034568478682402315
-0.034537690683379196
-0.03450214805242524
-0.03446160827992628
-0.034415800972738
-0.03436442833755393
-0.034307165772119674
-0.034243662335413205
-0.034173541569529675
-0.034096402596190956
-0.03401182131042901
-0.03391935160471604
-0.03381852722237255
-0.033708863915485665
-0.03358986170600531
-0.03346100771931759
-0.033321779569689625
-0.0331716490723295
-0.03301008644370995
-0.032836565405141016
-0.03265056870323946
-0.032451594542948214
-0.0322391637634567
-0.03201282770990588
-0.03177217735880333
-0.0315168532736223
-0.03124655680387889
-0.030961062459553546
-0.03066023138643459
-0.03034402655459445
-0.030012529426244328
-0.02966595812179662
-0.02930468761163496
-0.02892927171507864
-0.02854046725697401
-0.028139260855482462
-0.02772689802061734
-0.027304915347869496
-0.026875176222233677
-0.02643990986789646
-0.026001754927925447
-0.025563807991744625
-0.025129677779823112
-0.024703546225953943
-0.02429023745795078
-0.02389529649213884
-0.023525079338320154
-0.023186857016519014
-0.022888936878526778
-0.022640804932489544
-0.022453293910039918
-0.02233878353145613
-0.022311441097961904
-0.02238751231891456
-0.02258567525891131
-0.022927474411165605
-0.023437856374496135
-0.024145834762302698
-0.025085321149220796
-0.02629616955104641
-0.027825497195980375
-0.029729365489785664
-0.03207493253918403
-0.03494322799458227
-0.03843275514667033
-0.042664201521055656
-0.0477866482271283
-0.05398582490267234
-0.0614951865136959
-0.07061092719249373
-0.08171255558790236
-0.09529143333295309
-0.11199088518462119
-0.13266339866262555
-0.15845351277709696
-0.19092008314910913
-0.23222022461397174
-0.28539217352133406
-0.35480127191993205
-0.4468622861835385
-0.5712509830304029
-0.742990203918005
-0.9863166708725473
-1.3415539151777693
-1.8817461228989032
-2.7338243397099546
-4.21678725982089
-6.721197621661005
-13.378274409895553
-22.099717324160423
-109.27805622436915
-119.76630432114129
-3367.558389946496
-5287.780249728539
-3263.003354079007
-2292.737621419701
-1741.809994445065
-1401.4747832378357
-1170.1317840458746
-1002.9327491971932
-876.1704313278742
-776.5167227335852
-695.8617069475877
-629.0099581730611
-572.4834311304747
-523.8716562031651
-481.45527516269556
-443.97824353757613
-410.5043861201998
-380.3240525039544
-352.89160948408664
-327.7825300836723
-304.6632846709506
-283.2698024309236
-263.3917960430095
-244.8611759904836
-227.54336730928168
-211.330718397857
-196.1374386407884
-181.89566664309382
-168.55238284695088
-156.066957264709
-144.4091764431639
-133.5576309084804
-123.49836995870767
-114.2237477932197
-105.73139543798708
-98.02325770292693
-91.10463369575623
-84.9831526411773
-79.66760238426295
-75.16650309113287
-71.48627826690672
-68.62881076801033
-66.5880686796626
-65.34532104009463
-64.86219954730856
-65.07045435331236
-65.85672081591969
-67.04046211839822
-68.34678844650577
-69.39798858113359
-69.82841471789547
-69.91599560253643
-70.02531985772289
-70.09573984797436
-70.13859060286009
-70.16385627408539
-70.17772534962974
-70.18394859591999
-70.18488076923592
-70.18206427928257
-70.1765512396843
-70.16908694841108
-70.16021795514553
-70.15035772693167
-70.13982759931442
-70.1288828933725
-70.11772990953835
-70.1065372059127
-70.09544324796316
-70.08456173591944
-70.07398544028379
-70.06378907786038
-70.05403157246485
-70.0447579205247
-70.03600080058641
-70.02778201324207
-70.02011380236866
-70.01300008578642
-70.00643760919996
-70.0004170282748
-69.99492391905527
-69.98993971472592
-69.9854425659158
-69.98140812228617
-69.97781023436832
-69.97462157575944
-69.97181418692887
-69.96935994355208
-69.96723095319939
-69.96539988470855
-69.9638402356806
-69.96252654390545
-69.96143454828197
-69.9605413049507
-69.95982526481886
-69.95926631773617
-69.95884580805668
-69.9585465270398
-69.9583526860379
-69.95824987425651
-69.95822500482453
-69.95826625190489
-69.95836298175641
-69.95850567964379
-69.95868587448122
-69.95889606309464
-69.95912963497011
-69.95938079870142
-69.95964451085737
-69.95991640766914
-69.96019274030856
-69.96047031392528
-69.96074643026415
-69.96101883434766
-69.96128566522407
-69.96154541046661
-69.96179686446229
-69.96203909025465
-69.9622713848724
-69.96249324796398
-69.96270435346398
-69.96290452424002
-69.96309370917297
-69.96327196258456
-69.96343942633979
-69.9635963138389
-69.96374289573139
-69.963879487406
-69.96400643807353
-69.96412412117043
-69.96423292615535
-69.96433325133752
-69.96442549740091
-69.96451006242553
-69.96458733725554
-69.96465770132745
-69.96472151974092
-69.96477914049235
-69.96483089206
-69.96487708151909
-69.96491799306207
-69.9649538866223
-69.96498499689955
-69.96501153255835
-69.96503367548722
-69.96505158034765
-69.96506537414913
-69.96507515593053
-69.96508099658503
-69.88273521921415
-69.63872733574472
-69.23942368809324
-68.69149874497151
-68.00165815526151
-67.17663611590547
-66.22319253642101
-65.1481100490029
-63.95819091009677
-62.66025383847863
-61.26113082999943
-59.76766398723621
-58.186702399828036
-56.52509910754405
-54.78970817637683
-52.987381914328026
-51.12496825159792
-49.20930830746879
-47.2472341627453
-45.24556685600278
-43.21111461807284
-41.15067135780046
-39.07101541058087
-36.97890855786515
-34.88109532488284
-32.78430256197706
-30.69523931232192
-28.620596966764694
-26.56704970656178
-24.541255230212997
-22.549855758932438
-20.59947931552064
-18.69674126714292
-16.848246120110748
-15.060589553842721
-13.340360677497541
-11.694144491216186
-10.128524530799684
-8.65008567220725
-7.2654170698669205
-5.981115199049789
-4.803786971417388
-3.7400528894093625
-2.796550201982882
-1.9799360224331295
-1.2968903668202358
-0.7541190679799215
-0.3583565194674563
-0.11636820112418889
-0.11636177099036615
-0.358336778244162
-0.7540777356918831
-1.296819803926656
-1.9798293192379113
-2.796401251547305
-3.7398564446138067
-4.803538686734843
-5.980811657951154
-7.265055798553444
-8.649665140597648
-10.128044141727392
-11.69360455879841
-13.339762395427396
-15.059934954778251
-16.847538026876126
-18.695983236842928
-20.598675577380387
-22.54901114652706
-24.54037510913522
-26.566139898207926
-28.619663668965057
-30.69428901751537
-32.78334197349253
-34.880131271959115
-36.97794791030359
-39.07006499317571
-41.149737865181194
-43.21020453080613
-45.24468635811532
-47.246389061380604
-49.20850395528505
-51.12420947218638
-52.98667293166319
-54.78905254872853
-56.52449966643686
-58.186161194866486
-59.76718223757376
-61.2607088832611
-62.65989113794757
-63.957885971079975
-65.14786044534944
-66.22299489816021
-67.17648613895477
-68.0015506243734
-68.69142757073195
-69.23938195900709
-69.63870738642566
-69.88272871551614
-0.11634243345095996
-0.3582774132177633
-0.753953450025886
-1.2966076341664063
-1.9795084995434458
-2.7959534320815003
-3.739265862200252
-4.802792289795377
-5.979899188134198
-7.263969831370121
-8.648401087920874
-10.126600218824203
-11.691981718749657
-13.337964233644197
-15.057967586492973
-16.84540994044504
-18.693705125603195
-20.596260152611915
-22.546472933930282
-24.537730231536294
-26.563405846443505
-28.61685906368028
-30.69143336342339
-32.78045540785533
-34.87723430983853
-36.97506118812692
-39.06720901187311
-41.146932734860314
-43.20746971867939
-45.24204044103995
-47.24384948474582
-49.20608679986566
-51.12192923057664
-52.98454229619823
-54.787082212973374
-56.52269814179269
-58.18453464473178
-59.76573433148842
-61.25944067311032
-62.65880095906081
-63.9569693708803
-65.14711014236117
-66.22240077426284
-67.17603526804288
-68.00122734050137
-68.69121357839205
-69.23925648894412
-69.63864739962892
-69.88270915801021
-0.11631004717040128
-0.35817800046332593
-0.7537453449105023
-1.2962524149623356
-1.9789714342083968
-2.7952038409586493
-3.7382774009079363
-4.801543155871574
-5.978372255292825
-7.262152715470805
-8.646286149251642
-10.124184505384605
-11.68926685500287
-13.334956259650134
-15.054676752094231
-16.841850459189843
-18.68989489297279
-20.592220432806307
-22.54222801960627
-24.533307080549136
-26.558833699086087
-28.61216904457911
-30.686658071232735
-32.77562849569897
-34.87239006023139
-36.9702340848295
-39.06243331146731
-41.14224204106932
-43.202896561631974
-45.23761586450358
-47.23960264385217
-49.20204457198481
-51.11811584232845
-52.98097896929788
-54.783786832362196
-56.51968494915286
-58.18181396111686
-59.76331231283234
-61.25731910259239
-62.65697708066388
-63.95543576877
-65.145854670737
-66.22140654255612
-67.1752806867446
-68.00068623242754
-68.69085536057204
-69.23904643032446
-69.63854695914523
-69.88267640750831
-0.11626437672959611
-0.3580378338724479
-0.7534519780024418
-1.2957517443193787
-1.9782145787294603
-2.794147646909625
-3.7368848348445205
-4.799783590427186
-5.976221653400888
-7.259593719001906
-8.6433080783327
-10.120783274991137
-11.685444815397188
-13.330721967441292
-15.050044678633483
-16.83684064263514
-18.684532540617774
-20.58653547980839
-22.536254650033413
-24.527083216405188
-26.552400462611455
-28.60557019896895
-30.679939444609772
-32.76883739276252
-34.86557466587925
-36.96344286369171
-39.05571440742459
-41.13564268044918
-43.19646246355403
-45.2313906621465
-47.23362732034671
-49.19635691474303
-51.11274991955516
-52.97596463298886
-54.77914925183932
-56.5154441800734
-58.17798455502299
-59.75990297202947
-61.25433238663261
-62.65440917011925
-63.9532762926659
-65.14408660453736
-66.22000618345508
-67.17421771341523
-67.99992385642247
-68.6903505767551
-69.23875037327858
-69.6384053724731
-69.88263023236308
-0.11620509275419977
-0.3578559257904388
-0.7530713323621363
-1.2951022643381371
-1.9772329795184227
-2.7927781000682295
-3.735079468254753
-4.797502849655206
-5.97343453207937
-7.256277866269421
-8.639449791297343
-10.116377384622655
-11.680494474814319
-13.325238351150958
-15.044046601354031
-16.83035410637269
-18.677590217905433
-20.579176141481536
-22.52852254503867
-24.51902741073081
-26.54407414455184
-28.597029957195264
-30.671244524917462
-32.76004893940866
-34.85675495294932
-36.95465452155915
-39.04701964938131
-41.12710253393596
-43.18813601091526
-45.22333429532499
-47.22589401412185
-49.18899552345174
-51.10580450217239
-52.969473811621654
-54.77314560927356
-56.509953702386284
-58.173026125546485
-59.75548792336791
-61.25046411807564
-62.65108283836359
-63.95047858384838
-65.14179559640624
-66.21819130650603
-67.17283982027536
-67.99893540915369
-68.68969596121494
-69.238366349923
-69.63822167276965
-69.88257030909462
-0.1161317721536399
-0.3576310080192684
-0.7526008190408859
-1.2942996664478486
-1.9760202830861786
-2.791086546574711
-3.732850157015225
-4.794687170250302
-5.9699944361309
-7.252185988496507
-8.634689429818437
-10.110942351220022
-11.674388825970079
-13.318476010514352
-15.036650884463267
-16.82235715821409
-18.669032373185914
-20.570105217642567
-22.518993077456216
-24.509099838787677
-26.533813957464226
-28.586506806735905
-30.660531313264794
-32.749220888867455
-34.845888663522814
-36.94382702337718
-39.036307455352485
-41.11658069836519
-43.177877199711816
-45.21340787324844
-47.21636515455221
-49.17992434628976
-51.097245246038575
-52.961474046236525
-54.76574549497303
-56.503185303934956
-58.16691278759947
-59.75004371631519
-61.24569336273873
-62.64697971933232
-63.947026861536216
-65.13896842827708
-66.2159511886937
-67.17113866108991
-67.99771474635318
-68.68888733453323
-69.2378918405891
-69.63799462151616
-69.88249622314673
-0.1160438984868506
-0.35736153317164465
-0.752037280689148
-1.2933386986509952
-1.9745687485721675
-2.789062448235235
-3.7301833374218845
-4.791319809382628
-5.965881358527824
-7.247294791458794
-8.629000445176452
-10.104448453575845
-11.667095100139777
-13.310399291314315
-15.027819181645
-16.81280897891942
-18.658815954353628
-20.559277679833905
-22.507619511307453
-24.49725233477895
-26.52157058893858
-28.573950575051715
-30.647749064385863
-32.736302209368745
-34.83292476326673
-36.9309096124445
-39.023527621763556
-41.104027793219785
-43.16563773598085
-45.20156444457491
-47.204995380487986
-49.169099850172785
-51.087030672568105
-52.95192612602736
-54.75691216354157
-56.49510488365
-58.159613241514336
-59.7435419835555
-61.239994786020205
-62.64207757583365
-63.942902009020145
-65.13558907926202
-66.21327282596188
-67.16910410830619
-67.99625440796771
-68.68791961922001
-69.23732378231071
-69.63772271217911
-69.88240746993057
-0.11594086243646728
-0.3570456765580481
-0.7513769962709169
-1.2922131750329235
-1.9728692641796712
-2.7866934081278494
-3.727063063464147
-4.787381096204065
-5.961071808491237
-7.241576942374477
-8.622351705855278
-10.096860862289702
-11.6585749210254
-13.300966464156671
-15.017506640090339
-16.801661851613463
-18.646890663412616
-20.546640950142546
-22.49434730358112
-24.483428714722496
-26.50728654375862
-28.559302788297366
-30.63283865870399
-32.72123346663184
-34.81780383081046
-36.91584320315057
-39.00862171590881
-41.089386349124474
-43.15136141658209
-45.187749366902885
-47.191731895084054
-49.156471357747876
-51.075112485381325
-52.940784382223164
-54.74660280294843
-56.485672694596914
-58.15109098898161
-59.735949629576
-61.233338814490075
-62.63635043471538
-63.93808168385732
-65.13163881280929
-66.21014099950258
-67.16672430101181
-67.9945456506972
-68.68678685991122
-69.23665857984238
-69.63740417515872
-69.88230345637643
-0.1158219624893917
-0.35668133872999874
-0.7506156872722372
-1.2909159879359713
-1.9709113680696184
-2.7839652031445326
-3.7234710539784786
-4.782848496502332
-5.9555388965347404
-7.235001178103525
-8.614707631350937
-10.088139801287412
-11.648784495494477
-13.290129945576359
-15.00566215282525
-16.788861445321846
-18.63319927072468
-20.532135245201516
-22.479114476235264
-24.467565174298386
-26.490896565201943
-28.54249711294483
-30.61573306059534
-32.703947294816565
-34.800458537218816
-36.89856086470271
-38.991523559329764
-41.07259128629931
-43.1349845982165
-45.17190076191376
-47.17651490312525
-49.14198146325166
-51.06143596108414
-52.9279970508825
-54.73476886708224
-56.47484364452434
-58.14130460065384
-59.72722906471051
-61.22569183650271
-62.62976875514991
-63.93254045532963
-65.12709628541654
-66.20653835859514
-67.16398570511849
-67.99257848899701
-68.68548224897567
-69.23589211969869
-69.63703698399738
-69.88218350275723
-0.11568640589279156
-0.35626614871595663
-0.749748525637628
-1.2894391234050424
-1.9686832745339835
-2.7808618245000574
-3.7193867509725607
-4.777696692283001
-5.9492524388654076
-7.2275324376130445
-8.60602835555384
-10.078240744612858
-11.63767484572902
-13.277836566864746
-14.992228664988604
-16.77434715882765
-18.61767799582828
-20.515693992688213
-22.461852066535087
-24.44959077055456
-26.472328144489126
-28.52345988932281
-30.59635787210463
-32.68436896562726
-34.78081422549059
-36.878988405552946
-38.972159811773906
-41.053570492731865
-43.11643676451499
-45.1539500660961
-47.15927814038261
-49.12556653600626
-51.04594042280803
-52.913506713010605
-54.721356479564385
-56.462567661100195
-58.13020804146733
-59.717338490050686
-61.217016446923516
-62.62229963418309
-63.92624997268718
-65.12193768017012
-66.2024455225426
-67.16087318761399
-67.99034174589723
-68.6839981584363
-69.23501978781678
-69.63661886318405
-69.88204684505082
-0.11553330975476328
-0.3557974681730087
-0.7487701437337755
-1.2877736805408482
-1.966171906465565
-2.7773655273143483
-3.7147873907061637
-4.771897678695257
-5.942179084156855
-7.219132022298174
-8.59626992396147
-10.067114653295741
-11.625192088100288
-13.264027896586233
-14.977143540731202
-16.75805253215196
-18.60025696279659
-20.497244329032426
-22.442484664821162
-24.429427996539772
-26.451502128666284
-28.50211076826345
-30.574631993161553
-32.662417066704855
-34.75878960123863
-36.857045070191916
-38.95045066770635
-41.032245513892946
-43.095641202628805
-45.133822688149124
-47.13994950581078
-49.10715732188072
-51.02855980625377
-52.89725082108552
-54.70630691732848
-56.44879012996198
-58.117751061228276
-59.70623223990928
-61.20727174181809
-62.61390705466577
-63.919179168496925
-65.11613686854886
-66.1978412045977
-67.15737010704208
-67.98782311518215
-68.68232617913137
-69.23403649125976
-69.63614729802555
-69.88189263799217
-0.11536170249582156
-0.3552723966405793
-0.7476746469280009
-1.2859098952573866
-1.963362934982058
-2.7734568909635335
-3.7096480897108286
-4.76542088074774
-5.93428246569389
-7.209757787801337
-8.58538452903114
-10.054708257657554
-11.611277764919727
-13.248640623600014
-14.960338998559592
-16.739905734187815
-18.58086073934537
-20.476707688188146
-22.420931050137483
-24.40699346028738
-26.428333438473043
-28.478363462779868
-30.550468401248672
-32.63800430262659
-34.734297548049284
-36.83264436174938
-38.92631067875281
-41.008532367350355
-43.07251580237735
-45.111438785598935
-47.118451808921506
-49.086679655015566
-51.00922333000972
-52.87916232292932
-54.6895571840257
-56.43345241455196
-58.10387965903312
-59.693861189643
-61.19641366968281
-62.60455218155167
-63.91129450217143
-65.10966560442768
-66.19270236112807
-67.15345842286824
-67.98500923667095
-68.68045716833744
-69.23293668468716
-69.63561954662717
-69.88171995876812
-0.11517052584176568
-0.35468777813997576
-0.7464556289329174
-1.283837169336337
-1.960240827551985
-2.769114892005284
-3.7039419482339326
-4.758233292768054
-5.925523382289066
-7.199364371677277
-8.573320789106635
-10.040964391165437
-11.595869236156457
-13.231607008633455
-14.941742623855081
-16.719830136073583
-18.55940897006382
-20.454000492699073
-22.397104935966446
-24.382198681038176
-26.402731910025622
-28.452126629040645
-30.52377506464271
-32.611038433098805
-34.70724608263982
-36.80569500559072
-38.899649717009716
-40.982342497162605
-43.046973993163675
-45.08671417567922
-47.094703646722756
-49.06405529343344
-50.9878562831071
-52.859170395402046
-54.671040684973505
-56.41649246872003
-58.08853663098721
-59.680173237395586
-61.18439544735125
-62.594193713029995
-63.90256024912009
-65.10249375528295
-66.18700436963923
-67.1491188263625
-67.98188578672516
-68.67838130723723
-69.23171440258972
-69.6350326544657
-69.88152781149901
-0.11495863721532018
-0.35404020934947766
-0.7451061905844902
-1.2815441056576375
-1.9567889058968682
-2.764316991278452
-3.697640173224279
-4.750299643934991
-5.91586001251215
-7.187903462015058
-8.560024076661232
-10.02582238247345
-11.578900138686501
-13.212855413076541
-14.92127796819492
-16.697744981230095
-18.53581711583605
-20.42903495996883
-22.370915839812767
-24.35495101726402
-26.374603275156577
-28.42330489194397
-30.494456005588766
-32.5814233650629
-34.67753946668299
-36.77610207108792
-38.870374096726955
-40.953583885460205
-43.01892583552849
-45.05956139702231
-47.06862042614523
-49.039202893788186
-50.96438094436289
-52.837201301588465
-54.65068801655921
-56.397845554105004
-58.071662212480184
-59.665113869679885
-61.171168048957455
-62.58278829423217
-63.89293884215859
-65.09458957564108
-66.1807212398649
-67.14433089631486
-67.9784375863637
-68.6760881699096
-69.23036329813765
-69.63438347209149
-69.88131513266987
-0.11472481262209655
-0.35332604956169433
-0.7436189627635947
-1.2790185505294254
-1.9529894150684015
-2.7590392373566743
-3.690712223794854
-4.741582593359951
-5.905248166680051
-7.175324112627113
-8.545436902269826
-10.009218513235574
-11.560300921755628
-13.192310914679338
-14.898865246665586
-16.67356616419415
-18.509997312669036
-20.401720038101182
-22.342270091731322
-24.325154742296927
-26.34385029727575
-28.39180003323016
-30.462412531762617
-32.5490604176293
-34.64507949434237
-36.74376827071379
-38.83838787355741
-40.922162340252775
-42.9882792859633
-45.029890940363615
-47.04011555007747
-49.01203914283003
-50.938717650259875
-52.81317938722658
-54.62842788486023
-56.377445075590025
-58.05319482713218
-59.648626821912
-61.15668077760275
-62.570291001906526
-63.882391272330494
-65.08592002881704
-66.17382586299856
-67.1390732832364
-67.9746487294293
-68.6735668053932
-69.22887668941792
-69.63366867646717
-69.88108079789254
-0.11446775030216827
-0.35254143262366355
-0.7419861335576989
-1.2762476441248296
-1.9488236055074601
-2.7532563888033614
-3.6831259825806946
-4.732042958893601
-5.89364158115422
-7.161573110617017
-8.529499361936026
-9.991086550565969
-11.539999468776529
-13.169896021483133
-14.874422145441901
-16.647207131540934
-18.481859364233475
-20.371962486844435
-22.311071998691528
-24.2927122854938
-26.310374081688888
-28.357512362084435
-30.427544656340068
-32.513849780239674
-34.60976697660463
-36.708595457816614
-38.80359434274095
-40.88798298064495
-42.95494165601548
-44.997612668955185
-47.009101786967804
-48.982480064592316
-50.910786029528104
-52.787028233781335
-54.60418816950566
-56.3552235500388
-58.0330719560265
-59.63065484602397
-61.140881931066154
-62.55665590956316
-63.87087755711943
-65.07645116359645
-66.16629030389737
-67.13332392604505
-67.97050273405738
-68.67080583502894
-69.2272476146637
-69.63288479643414
-69.8808236299428
-0.11418607503819445
-0.3516822812735647
-0.740199480942735
-1.273217880377974
-1.9442718296780086
-2.7469420577171455
-3.6748479560670084
-4.721639984080138
-5.880992261070915
-7.146595403169167
-8.512149655545137
-9.971358363282473
-11.517921815999836
-13.145531496092062
-14.847864752962174
-16.61857991978962
-18.451311884552368
-20.339668121200745
-22.27722518342553
-24.25752565912254
-26.27407558135368
-28.320342289101017
-30.389752728750675
-32.47569218716511
-34.571503445850205
-36.67048634676616
-38.76589775978262
-40.85095194304421
-42.9188212891808
-44.9626374514837
-46.975492845724276
-48.950442524551406
-50.880506424764825
-52.75867198707651
-54.57789715048288
-56.33111372455408
-58.01123114256774
-59.6111405988525
-61.12371957326154
-62.54183674355063
-63.85835728491398
-65.06614855315065
-66.15808614249528
-67.12706030612611
-67.96598272055711
-68.6677935670333
-69.22546889757271
-69.63202824276567
-69.88054240814196
-0.11387834320413504
-0.35074432433964375
-0.7382504114820136
-1.2699151774355855
-1.9393136553689878
-2.740068877272364
-3.665843507772035
-4.710331648114991
-5.867250877542739
-7.130334591209678
-8.493324685243518
-9.949964632006678
-11.493992979592596
-13.11913730332909
-14.819108629819652
-16.58759634706758
-18.418263608965184
-20.304743237156593
-22.240634118477942
-24.219498092460178
-26.234857320823462
-28.280192128033814
-30.348939300905613
-32.434490833793035
-34.53019310630858
-36.62934648112127
-38.725205309502364
-40.810978334158094
-42.87982948080608
-44.92487903227931
-46.93920518050598
-48.915845954163935
-50.847801523288645
-52.7280368825839
-54.549484917981566
-56.305049862667815
-57.98761114933254
-59.59002766631093
-61.10514242459405
-62.52578764147004
-63.844790245598745
-65.0549778044604
-66.1491848711793
-67.12025974326188
-67.96107161906546
-68.66451813078076
-69.22353322389202
-69.63109534385376
-69.88023587954922
-0.11354304915521496
-0.3497231171323598
-0.736130005366995
-1.2663249598525539
-1.9339279979462098
-2.7326086966466754
-3.656077128738737
-4.698075024205028
-5.8523672256014
-7.112733497924838
-8.472960743645963
-9.926835664613376
-11.468137904378052
-13.090633696072942
-14.788070033511563
-16.554169376265065
-18.382624892760766
-20.267096240662024
-22.20120587825412
-24.178535897123837
-26.192625363334574
-28.23696815148419
-30.30501125605648
-32.39015356206861
-34.48574505838856
-36.585086478310984
-38.68142935209987
-40.767976458988244
-42.837882668815965
-44.88425616611423
-46.900160051767585
-48.87861432130401
-50.81259822160965
-52.6950529904834
-54.518884986496715
-56.27696921837305
-57.96215328524053
-59.567261739746876
-61.085100886280514
-62.50846402588547
-63.830137158161726
-65.0429051470887
-66.13955835454419
-67.1128997389522
-67.95575241147165
-68.66096763374186
-69.22143323122093
-69.63008238762845
-69.87990277250984
-0.11317863258032901
-0.3486140652603922
-0.7338290696134493
-1.262432254592433
-1.9280932734182414
-2.724532806213581
-3.645512749403178
-4.68482669212446
-5.836290750549081
-7.0937348208922
-8.450994302241607
-9.901902329532481
-11.440282548503134
-13.059942455475532
-14.754667315951338
-16.518214669265998
-18.344309418912104
-20.226639503006197
-22.158852133553236
-24.134550590004764
-26.147291548931666
-28.19058292875212
-30.257882229544254
-32.3425953453631
-34.43807582781389
-36.53762458214511
-38.63448997724204
-40.72186835474905
-42.79290492587381
-44.84069504743228
-46.85828587233475
-48.838678374336375
-50.77482975010237
-52.659656205497726
-54.48603613674067
-56.24681371967386
-57.93480292293027
-59.54279196223341
-61.06354821405468
-62.489823606948036
-63.81436050695232
-65.029898111043
-66.12917935984473
-67.10495837372613
-67.95000841182436
-68.65713034362687
-69.21916161382315
-69.62898567050125
-69.87954181220069
-0.11278348689139861
-0.3474124524002846
-0.7313381997662418
-1.2582218021687233
-1.9217875753978824
-2.7158121969000604
-3.634114097769963
-4.670543211292735
-5.818971150728052
-7.073281877663488
-8.427362911597731
-9.875097120181481
-11.41035511929611
-13.026988302990489
-14.718822513554866
-16.47965235410029
-18.303236138545415
-20.183291467906553
-22.113491415708264
-24.08746130221838
-26.09877603340307
-28.140957977553896
-30.207475353930395
-32.29174110604784
-34.387112233104766
-36.486889556536276
-38.584317899868154
-40.67258666425401
-42.74483078594684
-44.79413206639568
-46.81352087003836
-48.79597818997249
-50.73443808663103
-52.62179050878132
-54.4508845109769
-56.21453188520159
-57.905511227750104
-59.51657246431173
-61.040441858419555
-62.46982752886773
-63.79742549949911
-65.01592630440076
-66.11802216683033
-67.09641476461262
-67.94382358981652
-68.65299489928
-69.2167112441682
-69.62780155432633
-69.87915173861529
-0.1123559692082523
-0.3461134724899608
-0.7286478508764844
-1.2536781845609575
-1.914988878599992
-2.7064178578131823
-3.621845109653222
-4.655181661254847
-5.800359064986617
-7.051319455354831
-8.402006225987783
-9.846355365298852
-11.37828747725235
-12.991700503194844
-14.680463151048219
-16.43840902852899
-18.259331469846153
-20.136979038120725
-22.06505168004674
-24.03719750541428
-26.047010160696658
-28.08802676329266
-30.153726363436974
-32.23752890139376
-34.33279462751658
-36.43282395706913
-38.53085773434084
-40.6200778850716
-42.69360844115039
-44.74451692672223
-46.765816100919935
-48.750466057739104
-50.69137669020695
-52.58141053131281
-54.41338598917799
-56.18008099938899
-57.87423712175054
-59.48856411036691
-61.0157449907363
-62.44844167669228
-63.779301159547835
-65.00096230240645
-66.10606326612296
-67.08724958982756
-67.93718294283393
-68.6485505537895
-69.21407531316146
-69.62652653241864
-69.8787313279806
-0.1118944119090699
-0.34471226679179523
-0.7257484193630965
-1.2487859720264645
-1.907675271309678
-2.696321115804519
-3.6086703963419318
-4.638700257218787
-5.780406854629332
-7.027794775832838
-8.37486716618541
-9.81561660122276
-11.344016726730448
-12.954014678425644
-14.639524282201995
-16.394420025542946
-18.212531783194827
-20.08764027145937
-22.013473200490836
-23.98370208929272
-25.99193970456142
-28.031738082928715
-30.09658709561865
-32.17991351647697
-34.27508055500323
-36.37538782038838
-38.474071686577574
-40.56430603373853
-42.639203347447676
-44.6918161629021
-46.715138849377084
-48.702109736032796
-50.645613588296655
-52.53848445034773
-54.37350887560542
-56.14342957379712
-57.840949507883224
-59.45873647810028
-60.989428234652884
-62.42563816096124
-63.759961570578454
-64.98498266016482
-66.09328215606676
-67.07744568880885
-67.93007292212104
-68.64378745336055
-69.21124749164964
-69.62515730566194
-69.8782794171421
-0.11139713591272482
-0.34320396662592145
-0.7226303366483258
-1.2435298906096328
-1.8998252206370374
-2.6854940221276458
-3.5945557758422524
-4.621059048595422
-5.759069489994296
-7.0026585888263
-8.345893235316645
-9.782826123521577
-11.307487013271968
-12.913874857958668
-14.595950792970472
-16.347631968687082
-18.162786202877196
-20.035227418901606
-21.95871183028221
-23.926934827251127
-25.93352851772763
-27.972059873317534
-30.03602943150844
-32.118870506356124
-34.21394886270623
-36.31456281384088
-38.41394370690179
-40.50525676738267
-42.581602280834296
-44.63601709753567
-46.66147645461757
-48.650896117808024
-50.59713485388562
-52.49299725296423
-54.33123692775559
-56.104560123720475
-57.805629781154856
-59.42707009535438
-60.96147162451896
-62.401396999015944
-63.7393872860005
-64.96796906263943
-66.07966224880329
-67.06698874573257
-67.92248191915301
-68.638696956391
-69.20822211568333
-69.62369087003717
-69.87779493165243
-0.11086246582215864
-0.34158374211889964
-0.7192841758771564
-1.2378950128140183
-1.8914178738866454
-2.6739097911286898
-3.579468875028553
-4.602220709443733
-5.736305552400248
-6.975866406419154
-8.31503800385457
-9.747936737122137
-11.26865154943188
-12.871235786173866
-14.549699994562445
-16.298005647732843
-18.110059758568966
-19.979710340663146
-21.90074266675719
-23.86687626999408
-25.871762630408796
-27.90898348716713
-29.97204971859287
-32.05440073271003
-34.149404315756435
-36.2503568915389
-38.350484149450985
-40.4429420080189
-42.52081788849513
-44.57713228226696
-46.60484060576085
-48.59683534607669
-50.545948510508524
-52.444954403221104
-54.28657276143989
-56.06347229162954
-57.768274655467756
-59.39355896018297
-60.9318668140882
-62.375708012912355
-63.717566922738655
-64.94990962623874
-66.06519189745586
-67.05586806537457
-67.91440081884215
-68.63327199717337
-69.20499439791604
-69.6221246167936
-69.87727691819522
-0.11028874717185744
-0.33984685747181587
-0.7157007731995897
-1.231866973867863
-1.8824333994534115
-2.6615432958821437
-3.5633798095689038
-4.582151430491418
-5.712078363974159
-6.947379893926849
-8.282262781530628
-9.710910725338586
-11.2274748928699
-12.826065516960647
-14.500744536413643
-16.245519247595176
-18.054336922386657
-19.92108033849825
-21.839564161176817
-23.803532110363278
-25.806654843509023
-27.84252848375086
-29.904673724609484
-31.98653544371738
-34.08148276387487
-36.182809506356485
-38.28373498720326
-40.37740511813305
-42.4568937826666
-44.515204468616915
-46.54527214997444
-48.53996542207295
-50.49208890622062
-52.39438595095476
-54.239541667861026
-56.020186350799754
-57.728899336492255
-59.35821337164635
-60.900619559727005
-62.348572965441186
-63.694498956826465
-64.93080036707363
-66.04986555653196
-67.04407745109218
-67.9058236264997
-68.6275074988103
-69.2015606682044
-69.62045644656762
-69.87672458147766
-0.10967436598768643
-0.3379887336894427
-0.711871364852275
-1.2254322158254247
-1.8728533715642683
-2.648371627112464
-3.5462619494995593
-4.560821922726982
-5.686357258395802
-6.917168433298578
-8.247538495418816
-9.671722060550772
-11.183935502689177
-12.778348323601461
-14.449075671759463
-16.190171966397216
-17.995625570515667
-19.859354446216546
-21.775202718209407
-23.736938066485628
-25.738249865188948
-27.772747984420356
-29.833962173916778
-31.9153419498666
-34.01025691256317
-36.111997430665824
-38.213775635359795
-40.30872667949065
-42.38991022798028
-44.45031215812731
-46.48284646136831
-48.48035735172051
-50.43562159964928
-52.341351123242084
-54.190195881077855
-55.97474712388126
-57.687541072614096
-59.32106310040564
-60.86775250395337
-62.32000795674277
-63.67019374034887
-64.91064685231419
-66.03368508856562
-67.0316161949615
-67.89674817613003
-68.62140084043918
-69.19791864641357
-69.61868489922094
-69.87613732631937
-0.10901777107572741
-0.3360050194214672
-0.7077877414924032
-1.2185782623725423
-1.8626612031366498
-2.63437472153462
-3.5280927795346493
-4.5382085443190086
-5.659119006610419
-6.885210876472147
-8.210847795340186
-9.630358881227231
-11.138028602301876
-12.728087955817706
-14.394706911434216
-16.131988061942383
-17.933961412011293
-19.794580224262084
-21.707717833292612
-23.66716533357108
-25.66663004345874
-27.69973464750643
-29.760016921959238
-31.840929951754536
-33.93584275532497
-36.03804124231952
-38.14072943915333
-40.23703093021411
-42.31999047595281
-44.38257578365491
-46.41767942087705
-48.41812087842061
-50.376648803621606
-52.28594344145258
-54.13861933544819
-55.92722835350688
-57.6442631178207
-59.282160929316554
-60.83330828622618
-62.29004610530774
-63.64467575988911
-64.88946605114096
-66.01666123084699
-67.01849019083404
-67.88717692783901
-68.61495238417997
-69.19406775058317
-69.61680930069954
-69.87551480540901
-0.10831749894392573
-0.3338916705467092
-0.7034424217917206
-1.2112940275029551
-1.8518426314220413
-2.619536066149422
-3.5088548630817282
-4.514294563145333
-5.630349413253077
-6.851497507642911
-8.172187409281253
-9.586826261934464
-11.089769379515348
-12.675311279199828
-14.33767810483475
-16.07102136925179
-17.869412930882138
-19.72684110739437
-21.637207820345466
-23.59432665952936
-25.59192175185155
-27.623627321123035
-29.68298782750936
-31.76345858035834
-33.858406727734724
-35.96111253607794
-38.06477088517777
-40.16249291834447
-42.247307803499524
-44.31216457708776
-46.34993405993421
-48.3534108525601
-50.315315434120855
-52.22829640811017
-54.08493295452493
-55.877737563443276
-57.59915914152755
-59.24158659561788
-60.79735300907758
-62.258740537605654
-63.61798615744095
-64.86728840327338
-65.99881523646218
-67.00471318136243
-67.87711786259835
-68.60816606746688
-69.19000944405134
-69.61482992864589
-69.8748569731257
-0.10757220158534153
-0.33164503926235156
-0.6988288469032184
-1.2035701610501306
-1.8403862614286162
-2.6038434863958706
-3.488536920463643
-4.489071568160135
-5.600045101035288
-6.816032235755776
-8.131570773784254
-9.541149305754974
-11.039196558066003
-12.620072335311713
-14.278059990408366
-16.007360335652255
-17.80208689185633
-19.656262359412516
-21.563816186582052
-23.518583103800466
-25.514302489724074
-27.544618436719862
-29.603080386567566
-31.683144214254565
-33.7781736477435
-35.881441924591115
-37.98613359940474
-40.085346433335076
-42.172093315126354
-44.23930418124564
-46.279827923159075
-48.286434289857155
-50.2518158140127
-52.16858981037547
-54.02930051471758
-55.826421449607544
-57.55235812129279
-59.199451167359015
-60.75998008870104
-62.22616771185984
-63.59018553569104
-64.84416012340654
-65.98018070458772
-66.99030815055507
-67.86658548292111
-68.60105006650733
-69.18574762481188
-69.61274819874278
-69.87416414623584
-0.10678067782395217
-0.32926197376274047
-0.6939415976656882
-1.19539943465659
-1.8282841727660504
-2.587290026096074
-3.4671350325156887
-4.462541044520663
-5.56821550157361
-6.77883504019907
-8.089030967442122
-9.493376591699747
-10.986376377537994
-12.562456864153656
-14.215959262240617
-15.941133624209272
-17.73213446467502
-19.58301769365091
-21.487738715989654
-23.440151543397906
-25.434008763377754
-27.462962211339182
-29.52056419665078
-31.600269142540814
-33.6954355106558
-35.79932789664093
-37.90511919868847
-40.00589278060821
-42.09464457147634
-44.16428506528793
-46.20764120678676
-48.217458172935366
-50.186401082403684
-52.107056687642064
-53.97193512796664
-55.773471841640955
-57.50402975519977
-59.15590188726554
-60.72131451954335
-62.192431101983026
-63.56135706988664
-64.8201457597877
-65.96080561511314
-66.97530887393154
-67.85560192831227
-68.5936175369898
-69.181289060984
-69.61056687339413
-69.87343707217364
-0.10594190824155092
-0.32673992952485165
-0.6887766366837198
-1.186777171911686
-1.815532596203397
-2.5698749280828075
-3.4446539817059367
-4.434716128690367
-5.534885073255543
-6.739944694824985
-8.044623977837286
-9.443584012871968
-10.931407022440016
-12.502587335171071
-14.15152420393779
-15.872516341409995
-17.659758026870897
-19.50733662266959
-21.409231328712877
-23.359312996030425
-25.35134481939472
-27.378983731167303
-29.435782324731903
-31.515191146882547
-33.61056121144943
-35.715146603783296
-37.82210706491204
-39.924510466341374
-42.0153351091535
-44.08747180626159
-46.13372573231092
-48.14681805175639
-50.1193873616871
-52.04399101153143
-53.913106387970096
-55.719132276239066
-57.45439043169717
-59.11112751756815
-60.68151758234662
-62.15766526743462
-63.531609948673434
-64.79533102608457
-65.94075458291707
-66.95976163810121
-67.84419821439037
-68.58588743823773
-69.17664387626392
-69.60829029455994
-69.87267700511377
-0.1050550938618251
-0.32407709279261354
-0.6833315775939219
-1.1777017268693761
-1.8021326662718486
-2.551604725472391
-3.421108744710965
-4.405623561563164
-5.500095769366132
-6.699421798847101
-7.9984323352805795
-9.391879044511366
-10.8744235460685
-12.440628537746848
-14.084950945898324
-15.801736950354856
-17.585218710970196
-19.429512606990023
-21.328618788927034
-23.27642183544944
-25.26669230745826
-27.293088994590565
-29.349161657260556
-31.42835408052131
-33.52400727138452
-35.629362650869844
-37.73756511483231
-39.841665862654665
-41.93462491877988
-44.00931330062363
-46.05851481567823
-48.07492749940983
-50.05116473520425
-51.97975612721939
-53.85314822463082
-55.663705222913975
-57.403709793758544
-59.06536421906246
-60.640792025381785
-62.122040335097296
-63.50108316622189
-64.76982592525523
-65.92011134728044
-66.94372714199832
-67.83241560478156
-68.577885446922
-69.17182608878798
-69.60592464294388
-69.87188579092229
-0.10411969908135532
-0.32127251756940467
-0.6776059840151092
-1.1681750155444242
-1.7880912573133543
-2.532494454267681
-3.3965261513568237
-4.375305859631297
-5.463909781762975
-6.657352145929547
-7.9505691512358645
-9.33840548591439
-10.81560333900417
-12.376793787330442
-14.016490408070062
-15.72908493678835
-17.508844768178022
-19.349912079082053
-21.24630434069488
-23.19191598077238
-25.180520955814345
-27.205775998662155
-29.26122431616204
-31.340299527228442
-33.43632964997688
-35.542540969158615
-37.652061641729404
-39.75792492601654
-41.853071950556796
-43.930353970561285
-45.98253409247641
-48.00228847992685
-49.982207087853645
-51.91479400451443
-53.79246751137934
-55.6075600023812
-57.35231793313941
-59.01890199675567
-60.599387747794566
-62.08576691805951
-63.46994968686104
-64.74376818339104
-65.89898151119868
-66.92728259147856
-67.82030712456667
-68.56964496648317
-69.1668542075033
-69.60347822531618
-69.8710659615015
-0.1031354992184923
-0.31832627758315013
-0.6716017008620376
-1.1582031052681145
-1.7734219112061105
-2.512568999481106
-3.370946726889729
-4.343823726537835
-5.426412588442425
-6.613850466244008
-7.901182603366508
-9.283348725311853
-10.755172198114849
-12.311351809923487
-13.94645599712305
-15.654919302430034
-17.431040827903654
-19.26898442596007
-21.162780358535983
-23.10632814875936
-25.09340034936175
-27.11764695899288
-29.17260022981935
-31.25167962764067
-33.34819672737858
-35.455359853882044
-37.56627830708769
-39.673966043093834
-41.771344717186935
-43.85124603064726
-45.90641336005679
-47.929502684143635
-49.913082861073
-51.8496353453602
-53.7315534677342
-55.551141436330084
-57.300613249856326
-58.972091742891465
-60.557608011871736
-62.04910149518332
-63.43842100304079
-64.71732701081488
-65.87749554475019
-66.91052399843414
-67.80793922355343
-68.56120823836117
-69.16175188980864
-69.60096179164479
-69.87022083898248
-0.10210263314206713
-0.31523963427629553
-0.6653232210567097
-1.147796867697501
-1.7581458660882205
-2.4918645885629243
-3.3444267365645857
-4.311258730272629
-5.387716337204992
-6.569064581030744
-7.850460914109041
-9.226941582421205
-10.693411058964212
-12.24463437478695
-13.875232134671071
-15.579677968412822
-17.35229814087259
-19.187273022238138
-21.078640107194346
-23.02029826542288
-25.00601290762162
-27.029421759834392
-29.084040954275338
-31.1632711654955
-33.260403546627444
-35.368625251735054
-37.481024363009126
-39.59059407981411
-41.690236064346706
-43.77276287952368
-45.8308994963251
-47.85728388816809
-49.844466771484434
-51.78491059223079
-53.67098789688004
-55.49497926396406
-57.24907100853338
-58.92535290550789
-60.51581620891915
-62.01235227286884
-63.406752105164166
-64.69070720643433
-65.85581206558857
-66.89356869497976
-67.7953935976361
-68.55262756048917
-69.15654866368894
-69.59838888400162
-69.86935465065257
-0.10102166122180734
-0.31201522224564116
-0.6587780911572914
-1.1369727017614473
-1.7422931962211816
-2.4704304474112124
-3.317040453980688
-4.277716274371835
-5.347963601580645
-6.523180014335177
-7.798637876154372
-9.169470790688322
-10.63066346164526
-12.177044753635945
-13.803283702125942
-15.503888180653448
-17.273205903009238
-19.105427414755873
-20.994590714752448
-22.93458714216375
-24.919168167516574
-26.941952738059875
-28.99643484587432
-31.07599101168806
-33.17388740884587
-35.28328638616654
-37.397252187644455
-39.50875570963612
-41.61067817882082
-43.69581368044624
-45.756870512267895
-47.78647138547089
-49.777152538975
-51.721361878374424
-53.61145629442556
-55.43969835682057
-57.19825261886679
-58.87918180663419
-60.474443200233985
-61.9758855474811
-63.375246878870406
-64.66415361866144
-65.83412140793956
-66.87655807171637
-67.78276917507831
-68.54396661796378
-69.15128071765076
-69.59577621903765
-69.8684726551659
-0.09989362912715194
-0.30865725399659993
-0.6519773597285763
-1.125753333659123
-1.7259040745970324
-2.4483306365028614
-3.288882677784061
-4.243328895522263
-5.307331550428978
-6.476425112673427
-7.745998985210502
-9.111284189385593
-10.567343829656291
-12.109067094660592
-13.731166498302013
-15.428178019896674
-17.194463768274126
-19.024216770775627
-20.911467472962233
-22.85009153107555
-24.833818484744878
-26.85624091234027
-28.910823692937036
-30.99091302866756
-33.089744918174176
-35.200452810732294
-37.31607421661209
-39.42955609649551
-41.533758902120994
-43.62145919135742
-45.68535079200341
-47.71804453965058
-49.71206666496063
-51.65985595464986
-53.553759858229895
-55.386029757990414
-57.148815662909556
-58.83416062945463
-60.43399524957305
-61.9401325828311
-63.34426394230554
-64.63795597324213
-65.81264948878159
-66.85966054739623
-67.77018427332892
-68.53530193016792
-69.14599176127359
-69.59314410532123
-69.86758128044268
-0.0987201383275007
-0.30517174590312734
-0.6449360726183428
-1.1141687022145952
-1.7090301721003094
-2.4256460871911028
-3.260071524773661
-4.20825992523762
-5.2660365785536865
-6.429076730606569
-7.692888249130763
-9.05279870537672
-10.50394665237744
-12.04127681137119
-13.659538818169978
-15.353289131998713
-17.116895671034275
-18.94454471386183
-20.83024959055031
-22.767860684834336
-24.751076277125936
-26.773453777129454
-28.828420920842017
-30.90928654275313
-33.00925057631611
-35.12141298185955
-37.23878135305241
-39.35427700636404
-41.46073941439542
-43.55092890039797
-45.61752756831082
-47.65313849842229
-49.65028329435011
-51.60139812072276
-53.498828422173375
-55.33482256417765
-57.10152468420128
-58.79096708669818
-60.39506255716395
-61.905597011162094
-63.314222930887894
-64.61245407488339
-65.79166197692618
-66.84307477479004
-67.75777893052549
-68.5267244175251
-69.14073395838292
-69.59051689653525
-69.86668827368663
-0.09750342348420915
-0.3015667672914617
-0.6376738204665919
-1.1022569391185915
-1.6917362086094752
-2.4024768615352468
-3.230751531904696
-4.172707558520591
-5.224339453002541
-6.381466549175428
-7.639715752943499
-8.99450921645629
-10.4410566742588
-11.974352100031327
-13.589174275486606
-15.280090808185378
-17.041465093076056
-18.867465685423824
-20.752077538476364
-22.68911455880239
-24.672232943781356
-26.69494478965956
-28.750631491318494
-30.83255649688234
-32.933877029572905
-35.04765444339235
-37.16686293784334
-39.28439641788442
-41.39307334854399
-43.485639516423305
-45.5547686734956
-47.59306110028945
-49.59304018558491
-51.54714717879349
-53.44773432656484
-55.28705665915422
-57.05726274414893
-58.75038477370336
-60.358328397717464
-61.87286275933114
-63.285611230722964
-64.58804338387732
-65.77146876668567
-66.82703308457847
-67.74571741346813
-68.51834108933754
-69.135568933997
-69.58792348151464
-69.8658028638998
-0.09624643762073148
-0.2978527154097037
-0.6302153442521714
-1.0900654547968038
-1.674101673923456
-2.378944662851607
-3.201097105180148
-4.1369093794767124
-5.182551038841288
-6.3339881050617635
-7.586966071607877
-8.936998401905058
-10.379360209346613
-11.9090867156205
-13.520976008903808
-15.209595562397048
-16.96929192731934
-18.79420298643577
-20.678272141044424
-22.6152638061562
-24.598779605591826
-26.622274687779786
-28.67907362405966
-30.7623854006565
-32.86531707311815
-34.98088571485519
-37.10202835833905
-39.221609697115404
-41.332427387060335
-43.42721485540919
-45.49864159564673
-47.53931099434384
-49.54175580095118
-51.49843141489971
-53.401707225120205
-55.24385629486768
-57.01704373954894
-58.71331419889641
-60.32457885474138
-61.842602492898735
-63.258991154454364
-64.56518096269954
-65.75242875254278
-66.81180516510634
-67.73419090095221
-68.51027685248522
-69.13056885534576
-69.58539781138903
-69.86493593705852
-0.09495294618164607
-0.29404261915262353
-0.6225912055360396
-1.0776521429874428
-1.656222740051339
-2.3551956286671487
-3.1713163598467506
-4.101147402943786
-5.141038678438056
-6.287104620811842
-7.535207637205754
-8.880947702574078
-10.319657717979977
-11.846404155823551
-13.455992431504436
-15.142976373109978
-16.901671109914812
-18.726168672370804
-20.610355584079077
-22.54793173200575
-24.532429825020387
-26.557234786376522
-28.615602476136075
-30.700677198781186
-32.80550751785824
-34.92305997274841
-37.04623036924006
-39.167852394395595
-41.28070338428002
-43.377507151661135
-45.450933856872595
-47.493596978723765
-49.49804751353578
-51.45676559754496
-53.362149813168784
-55.20650450130979
-56.98202546052444
-58.68078447037741
-60.2947131307118
-61.81558655969057
-63.23500754376801
-64.54439177985388
-65.73495489498872
-66.7977019708448
-67.72342033783109
-68.5026764384819
-69.1258175858092
-69.58297946329745
-69.86410022382977
-0.0936276305230841
-0.2901524747735671
-0.6148385296364491
-1.0650867194977582
-1.6382143899949497
-2.331403443602216
-3.141655404227679
-4.065753701275565
-5.100233311545686
-6.241357742099915
-7.485103185370415
-8.82714953315897
-10.262877804464125
-11.787373425816128
-13.395434707096864
-15.081585780426789
-16.840093215504005
-18.664985495777707
-20.550074530646956
-22.488978389794173
-24.475144477679184
-26.501872410803074
-28.56233592141208
-30.64960318237678
-32.7566550254937
-34.876400610828554
-37.00169019190484
-39.12532471072825
-41.2400620437754
-43.33861980719702
-45.413674712679395
-47.45785854486057
-49.46375090832271
-51.42386896388665
-53.33065444201155
-55.17645828728173
-56.95352335019764
-58.65396560078422
-60.269754397706194
-61.792692401017014
-63.214395771000355
-64.52627534811245
-65.7195195595834
-66.78507984663827
-67.7136594510995
-68.49570644338628
-69.12141190888418
-69.5807142396476
-69.86331049950624
-0.09227620234317868
-0.28620161808136757
-0.6070018314750296
-1.0524522130964087
-1.6202127927678056
-2.3077728170841887
-3.112403129471499
-4.031116698020481
-5.060637439741759
-6.1973773073584875
-7.437421427579924
-8.776520913547696
-10.210092820681998
-11.733226583716826
-13.340696164648605
-15.026977057277767
-16.786267237097505
-18.61251111618048
-20.499425557579784
-22.440527022351027
-24.42915896340424
-26.458518637403465
-28.5216825794864
-30.611630070172453
-32.72126401536693
-34.84342875912927
-36.97092444812784
-39.096517667251796
-41.212948163877826
-43.312931573503086
-45.38915815031978
-47.43428759221338
-49.440940131592015
-51.40168413933007
-53.30902056064909
-55.15536457114581
-56.93302490544813
-58.63418137267226
-60.250861134952004
-61.77491438259507
-63.19799009863347
-64.51151266299078
-65.7066601022728
-66.77434484737054
-67.70519791383117
-68.4895574716408
-69.1174628171727
-69.57865480072061
-69.86258379555389
-0.09090553036114457
-0.28221313767437906
-0.599133935564625
-1.0398466303623106
-1.6023779605489175
-2.2845433794485057
-3.0838965797021824
-3.99768822634781
-5.022834057505051
-6.155892297840888
-7.393050122437308
-8.730118715540119
-10.162536292145143
-11.685378299679693
-13.293373895959977
-14.98092770629457
-16.742145803379536
-18.570864825830032
-20.460683151560545
-22.404993071515037
-24.39701296155713
-26.429818522840797
-28.49637225011581
-30.589550387877793
-32.70216674249027
-34.82699283225476
-36.95677397098859
-39.08424099371414
-41.20211744261649
-43.303122135485054
-45.37996713757583
-47.42535124989191
-49.43194921339875
-51.39239690766087
-53.29927289761389
-55.14507675324356
-56.92220463244111
-58.6229226823262
-60.23933887796515
-61.763373977817785
-63.18673233840531
-64.50087339331108
-65.69698466272496
-66.76595722418043
-67.69836463656532
-68.48444637079679
-69.11409685902258
-69.57686132707249
-69.86193962171312
-0.08952378074418021
-0.27821433527028816
-0.5912970041309542
-1.0273848210436256
-1.584896731321102
-2.261994060431933
-3.0565269916821443
-3.9659914694148366
-4.98749669646261
-6.117743144270473
-7.3530107509488145
-8.689156756409051
-10.121622420925595
-11.645447701230658
-13.255292821134999
-14.945465572842991
-16.709953123115003
-18.54245707341566
-20.436430532954027
-22.38511600492114
-24.381582954272577
-26.41876401656484
-28.489488915049918
-30.5865152734862
-32.70255563958927
-34.83030016486377
-36.96243451714042
-39.091652729053564
-41.2106648067147
-43.31219903736175
-45.388999040770436
-47.43381570688325
-49.43939425286165
-51.398456714074136
-53.30368026152635
-55.147671808931875
-56.92293943977566
-58.62186125155671
-60.23665227791757
-61.75933021352381
-63.18168073263518
-64.49522325917489
-65.69117811411718
-66.76043603820226
-67.6935311583139
-68.48061853907701
-69.11145753267306
-69.57540220720468
-69.86140019718795
-0.0881405738431873
-0.2742372407263449
-0.5835636903344348
-1.0152005756753884
-1.5679861292266715
-2.240448028121076
-3.0307466114433197
-3.9366299229955475
-4.9554007585813515
-6.083895600864233
-7.318475040057674
-8.655025013810569
-10.088967965531092
-11.615282824194583
-13.228532553536581
-14.922897910546784
-16.69221598932505
-18.5300221068186
-20.429593609214447
-22.383994235227462
-24.386117760816717
-26.428729763385203
-28.504506474500268
-30.60606983361849
-32.726018005515904
-34.85695077500172
-36.99148938140699
-39.122290498115945
-41.24205419583522
-43.34352585317169
-45.41949209126778
-47.46277091224313
-49.466196314563284
-51.422597741607255
-53.32477479868493
-55.165467742484026
-56.93732431542273
-58.63286356361879
-60.244437340070704
-61.76419026181022
-63.1840189575682
-64.49553151387283
-65.69000810241107
-66.75836385092173
-67.69111510102272
-68.47835028183226
-69.10970671408268
-69.57435474426208
-69.86099068900515
-0.08676715938604573
-0.27031919007808014
-0.5760184374811779
-1.0034489945282647
-1.5518971661082492
-2.220278282770593
-3.0070764184445435
-3.9102975502137953
-4.927436349119444
-6.0554564391766945
-7.290783626168199
-8.62931128879645
-10.066416852831074
-11.596988045242165
-13.215457452449545
-14.915843789755906
-16.691798226436386
-18.536654100883425
-20.443478397640042
-22.40512343782316
-24.414277348360276
-26.463512015444838
-28.545327388272696
-30.65219116988954
-32.77657310793997
-34.910973273488764
-37.04794388470475
-39.18010439246274
-41.30014969206364
-43.40085145957373
-45.475052731989635
-47.51565595729659
-49.51560483512726
-51.46786035284322
-53.3653714980877
-55.201041196741826
-56.967688091623444
-58.65800484050061
-60.2645136751363
-61.77952003036134
-63.19506512156219
-64.50287842420134
-65.69433109065307
-66.76039142646465
-67.69158364099374
-68.47795118647613
-69.1090261007079
-69.57380587299969
-69.86073945467463
-0.08541661323114624
-0.2665034777065287
-0.5687589498091459
-0.992309175912121
-1.5369191623375809
-2.201914020268614
-2.986114915330668
-3.887790334397181
-4.904622865038996
-6.033691265958051
-7.271467208160039
-8.613825706237558
-10.056067943569976
-11.59295493998728
-13.218750318625139
-14.927270303653433
-16.71193902231186
-18.565847188141568
-20.481812300945535
-22.45243860677298
-24.470175207769213
-26.52737088495156
-28.616324392126696
-30.72932918408932
-32.858711747757496
-34.996862907557684
-37.13626166852087
-39.269491338734454
-41.38924783434954
-43.48834021426424
-45.55968361843772
-47.59628489297951
-49.5912212797912
-51.53761263085015
-53.42858767882961
-55.25724496075463
-57.01660905289443
-58.699582834208776
-60.298896556943866
-61.80705456873755
-63.21628060126096
-64.51846261819017
-65.70509830341253
-66.76724236557436
-67.69545693932915
-68.47976647774888
-69.1096186491493
-69.57385287672847
-69.8606782857746
-0.08410405989582692
-0.26284009636204786
-0.5618978658831857
-0.981987281882363
-1.523384682185572
-2.185847906440811
-2.968548176912007
-3.870019480435893
-4.888125647951907
-6.0200448320504965
-7.2622706103398595
-8.61062851858339
-10.060306453215663
-11.605897091790197
-13.241450267270158
-14.960533101868593
-16.756295655976995
-18.621539870469203
-20.548789668283842
-22.530360225149845
-24.558424606071032
-26.62507617948604
-28.722385457532116
-30.842450255497546
-32.97743830504044
-35.119621688750414
-37.26140268156494
-39.395330782555504
-41.51411089653924
-43.61060277801284
-45.677811980803256
-47.70887266686704
-49.697022719832134
-51.63557168600862
-53.517862130855505
-55.337225057167885
-57.086930085910964
-58.760131153258115
-60.34980853449344
-61.8487080682223
-63.24927852450099
-64.54360814077592
-65.72336144306536
-66.77971757335791
-67.70331146113122
-68.48417930622486
-69.11170997884136
-69.57460409129493
-69.86084264865698
-0.08284692551499617
-0.2593865813259253
-0.5555646734978907
-0.9727200541455012
-1.511675201300367
-2.172644435046334
-2.955161394662677
-3.858026570013574
-4.879275077576233
-6.016164276534701
-7.26518026204979
-8.622061772698613
-10.081839627013341
-11.638889473898242
-13.286995408276919
-15.019421870596215
-16.8289912120682
-18.708164358174365
-20.649122129167164
-22.64384496667137
-24.684189052042736
-26.761957069583783
-28.86896215507953
-30.997083860595545
-33.138315249808684
-35.2848005066122
-37.428862685223564
-39.5630214487708
-41.68000083399629
-43.77272724013213
-45.834317972901914
-47.85806078274616
-49.837384922405306
-51.765824318420826
-53.63697350542529
-55.444437021411005
-57.18177300602767
-58.8424317874254
-60.419690294402606
-61.90658318729266
-63.29583166985465
-64.57977102618324
-65.75027802456381
-66.7986994426333
-67.71578309789521
-68.4916129133844
-69.11554970859264
-69.57617957982822
-69.86127191652496
-0.08166522711197999
-0.25620897947763943
-0.5499079146142396
-0.9647788700959499
-1.5022276513083224
-2.1629495819824838
-2.9468522066524088
-3.853001044226434
-4.8795885647385555
-6.023925846354325
-7.282455706462521
-8.650785511995224
-10.123737384911937
-11.695413144625181
-13.359271076313293
-15.108211483232854
-16.934667966054167
-18.83070146143397
-20.78809424935604
-22.79844138812299
-24.85323733501791
-26.943955842361667
-29.06212156657645
-31.19937217332457
-33.34751005278248
-35.49854306747199
-37.64471403111781
-39.7785188564935
-41.892713514716405
-43.98031011414889
-46.03456253918695
-48.048942191412436
-50.01710445123504
-51.932846535594464
-53.79005746721249
-55.582660905935036
-57.30455162277174
-58.949526428707145
-60.51121041165457
-61.98297938417079
-63.357879510070944
-64.62854515992854
-65.78711614646039
-66.82515561318941
-67.73356999166485
-68.50253260579028
-69.12141268643039
-69.57871175938318
-69.86200958680304
-0.08058190571825996
-0.2533829694644645
-0.5450977400546897
-0.9584744495772775
-1.4955420207521382
-2.15750201882759
-2.944646171533429
-3.856300472766952
-4.890796003947202
-6.0454657482724325
-7.316665880717271
-8.6998193238057
-10.189478793330377
-11.779406135607356
-13.462664487457362
-15.23171966834257
-17.07854723219416
-18.99474174845968
-20.971625125850377
-23.00035111667122
-25.072003517665014
-27.177685993290524
-29.308601867336527
-31.45612263938829
-33.61184436864212
-35.767631419715826
-37.915647373514815
-40.048373167529576
-42.158612745040514
-44.239486661072995
-46.28441422009982
-48.28708481150787
-50.24141916956876
-52.14152132333046
-53.981622024306745
-55.756014453896064
-57.45898302573913
-59.08472611365981
-60.62727356286363
-62.08039988282991
-63.43753407938116
-64.69166716430081
-65.83525848434995
-66.86014214291771
-67.75743494262913
-68.51744745915889
-69.12960006564379
-69.58234595697887
-69.86310347673398
-0.07962321285271123
-0.2509951651141762
-0.5413288886808605
-0.9541623514330428
-1.4921902361292902
-2.157146211616161
-2.9497148276981733
-3.8694741742429715
-4.9148693728894965
-6.083215934519432
-7.3707310681525575
-8.77259021074637
-10.283005392821412
-11.895321581458854
-13.60212685807055
-15.395372186071612
-17.266496590509515
-19.20655378485126
-21.206336611514313
-23.256496082229134
-25.34765228093054
-27.470494897015538
-29.615871663035477
-31.774863457676446
-33.93884528363749
-36.099532729759446
-38.24901386907626
-40.379766826680594
-42.48466347339446
-44.55695986795142
-46.590274186536874
-48.578552952074915
-50.51602641522571
-52.39715395235793
-54.21656034423554
-55.968963787613106
-57.649096482273904
-59.251618631767336
-60.77102670541415
-62.20155683789581
-63.53708429336063
-64.77101999911991
-65.89620525971546
-66.90480590086963
-67.78820726233474
-68.53691166008409
-69.14044017247646
-69.58724086858484
-69.86460588814379
-0.07881916212947004
-0.24914464231914657
-0.5388241847623707
-0.9522494330910964
-1.4928266010824816
-2.162847809653483
-2.963396884320928
-3.894290883778672
-4.954057323236793
-6.139945802900165
-7.447971618704486
-8.872987969231568
-10.408782617573753
-12.048194340974819
-13.783244210066123
-15.605276672385127
-17.50510555135994
-19.473160380671857
-21.499628938762264
-23.57459238895735
-25.688150029024264
-27.8305312748112
-29.99219311156856
-32.16390182157785
-34.336798316157726
-36.502446851022945
-38.6528672806607
-40.78055130733127
-42.878463405141574
-44.94002725758766
-46.95909864468151
-48.92992576386422
-50.84709797901322
-52.70548397282412
-54.500160243914216
-56.22633084753232
-57.8792392399515
-59.45407305755228
-60.94586264975879
-62.3493741983868
-63.65899829536379
-64.86863492458633
-65.97157590096356
-66.96038596485371
-67.82678391440069
-68.56152537953317
-69.15428910282264
-69.59356889082062
-69.86657373167509
-0.07820406083045484
-0.2479447407543347
-0.5378386711974024
-0.9532014897869718
-1.498200140994463
-2.1757118287527213
-2.9872232242500454
-3.9327713300725144
-5.010925802473944
-6.218811013213064
-7.552164773760257
-9.005429508202402
-10.571870792677197
-12.243717600965809
-14.012318309710734
-15.868306506498978
-17.80177087843318
-19.802423895442555
-21.85976459370014
-23.963231459169908
-26.102342159865962
-28.266817635464644
-30.446688784656345
-32.63238466620764
-34.8148017271201
-36.98535407702455
-39.13600523684187
-41.25928210251494
-43.34827208522462
-45.39660452945462
-47.39841757985518
-49.34831168070336
-51.241290861695816
-53.07269290445188
-54.83810940885862
-56.53329669705211
-58.154078419817786
-59.69624067006007
-61.155420370935374
-62.5269877010992
-63.80592334524791
-64.9866914252824
-66.0631090755744
-67.0282137771785
-67.87412976435003
-68.5919350587167
-69.17153097686673
-69.60151629095556
-69.86906859902845
-0.0778171401802954
-0.24752520492515195
-0.5386645268050527
-0.9575523463365903
-1.5091692889842339
-2.19700425932194
-3.022946564644875
-3.9872267910190096
-5.088405991369175
-6.323410896439025
-7.687611227085199
-9.174933846873135
-10.778007498635523
-12.48833124235732
-14.29645944921484
-16.192196283424416
-18.16479297396001
-20.20314178513149
-22.295961374292744
-24.431969113699047
-26.600036887378145
-28.789327800837622
-30.989412117829673
-33.19036152789056
-35.38282153047988
-37.55806228324937
-39.70800869925504
-41.82525089485685
-43.90303629680972
-45.935244826919956
-47.91634861118773
-49.841357625889195
-51.70575261083418
-53.50540646981761
-55.236495251985744
-56.89539967937397
-58.47859807174986
-59.98255142334664
-61.4035813192836
-62.7377413516476
-63.980682705812555
-65.12751464568655
-66.17266073415688
-67.10971178304021
-67.93127673865644
-68.6288329732375
-69.19257777194764
-69.61128317640106
-69.87215677027879
-0.07770330823838556
-0.24803474565354833
-0.541636954751815
-0.9659147454155432
-1.526719461414105
-2.228177890055794
-3.072576832496959
-4.060304957952971
-5.189851147040425
-6.457856274466445
-7.859213418147623
-9.387209903664761
-11.033703459398685
-12.789324092912452
-14.643693088676205
-16.58565073353205
-18.603484933413583
-20.685153717006017
-22.818495644064047
-24.991423267127793
-27.19209595694967
-29.409069529314745
-31.631421153461908
-33.84884894075507
-36.051746383988615
-38.23125243275882
-40.379278448671265
-42.48851359339875
-44.552410381047366
-46.565152190459486
-48.521604504910044
-50.417251549039165
-52.24811984615292
-54.01069004348426
-55.70179816575914
-57.31852727415414
-58.85809034281223
-60.31770502775747
-61.69446090223088
-62.9851796774918
-64.18626892189769
-65.29356983867817
-66.30219976839032
-67.20639024656646
-67.99932167180587
-68.67295592703695
-69.21786864517316
-69.623083220712
-69.87590914222024
-0.07791405554805753
-0.24964412545982917
-0.54714127951745
-0.9789934671815681
-1.5519842145318687
-2.2709033419836544
-3.138423580343689
-4.155044768373861
-5.31910432513234
-6.626849933156799
-8.072568004388083
-9.648759644791411
-11.346354552668142
-13.154952600751002
-15.063082736474868
-17.05846922864297
-19.12829610132436
-21.25946172371947
-23.4388168586427
-25.653380905758393
-27.890532514570797
-30.138172107602767
-32.38485508744448
-34.61989556090039
-36.83344127713547
-39.01652113880649
-41.16106711060947
-43.25991263587392
-45.306769801140135
-47.29618748728123
-49.223492641724924
-51.08471662679232
-52.87650837182437
-54.59603580182698
-56.240876755283956
-57.808900356457
-59.29813958433107
-60.70665559538979
-62.0323942196499
-63.27303496340118
-64.42583282666573
-65.48745328001385
-66.45380084729729
-67.31984191153364
-68.07942260000934
-68.72508291421327
-69.24786864945914
-69.6371430993646
-69.88040106194805
-0.07850855213124852
-0.2525498997812212
-0.5556215543372449
-0.9976012329112405
-1.586270858646404
-2.3271065686028845
-3.223147108065891
-4.274942283758236
-5.480579437537992
-6.835782522817313
-8.334075516191408
-9.966999719484814
-11.724373075783452
-13.594578949948371
-15.564871865202647
-17.621688349026694
-19.750952200795748
-21.938365010275795
-24.169674486600464
-26.4309149683343
-28.708616259293336
-30.989978579691012
-33.26301287176867
-35.516646908181684
-37.740798604696984
-39.92641863458648
-42.065504895066894
-44.151091615078364
-46.17721594820606
-48.13886480231345
-50.0319044531028
-51.85299520641067
-53.59949304640447
-55.26933985805189
-56.860943466236066
-58.37304841176187
-59.80459809739651
-61.15458869774318
-62.421915047971254
-63.60520860812936
-64.70266755233129
-65.71187905721789
-66.62963396180481
-67.45173414768216
-68.17279324174216
-68.78603157461085
-69.28306673926406
-69.65370158464654
-69.88571204898217
-0.07955498527279392
-0.2569789824908053
-0.5675910649563756
-1.0226780975414602
-1.631091644172622
-2.3990144133571043
-3.3298203929033603
-4.424030219945687
-5.679358711033446
-7.090847324071474
-8.651070888390255
-10.350405392752819
-12.177342045798044
-14.118832216093313
-16.16064814396933
-18.28774535860197
-20.48461436058102
-22.735611154869748
-25.025258453589732
-27.33851164578865
-29.660985808455294
-31.97914200250605
-34.28043278500222
-36.55340823315938
-38.7877848069576
-40.974480084016214
-43.105616813341186
-45.17449989174781
-47.175569814043456
-49.10433593300123
-50.957292530926786
-52.73182029506577
-54.426075339804854
-56.03886745846436
-57.56952884425029
-59.017774111796676
-60.38355209268604
-61.6668895817842
-62.86772698592294
-63.985745675821164
-65.02018677106395
-65.96966110074453
-66.8319501770294
-67.60379820125243
-68.28069538950692
-68.85665325857099
-69.32397295570135
-69.67300824573759
-69.89192538805133
-0.08113220148345324
-0.2631942522162305
-0.5836452249541773
-1.0553152332298548
-1.6882019421397103
-2.48921024900565
-3.462004490358786
-4.606974414583142
-5.921310383504685
-7.39917815023995
-9.03197941799556
-10.808681422935368
-12.716197088279124
-14.739796838906232
-16.86353382080378
-19.070665843147182
-21.344059615928977
-23.66656554108806
-26.021354187841844
-28.392208434024468
-30.763767912030403
-33.1217247369256
-35.45297143835976
-37.74570353242103
-39.98948025543058
-42.17524766552865
-44.29532864870518
-46.3433843982638
-48.31435173391398
-50.20436024902626
-52.01063277730512
-53.73137210441729
-55.36563625590443
-56.91320410448413
-58.37443248618413
-59.75010551154779
-61.041276323674275
-62.249101197547525
-63.374665601673044
-64.41880165872577
-65.38189634801827
-66.2636897928057
-67.06306306798533
-67.77781515156454
-68.40442892545063
-68.93782650835459
-69.37111467658636
-69.69532169823158
-69.89912757369044
-0.08333173452310305
-0.27150147901836785
-0.6044775008597947
-1.0967842647488972
-1.7596472443900204
-2.600702285697425
-3.623840791160814
-4.8291913827987045
-6.213231454205691
-7.769015705340537
-9.486503760751189
-11.35296555457259
-13.35344140070979
-15.471233483807595
-17.688406713709853
-19.98627919949428
-22.345885693685997
-24.74840089920137
-27.175513206892482
-29.60974298153859
-32.03470273427911
-34.43529927021103
-36.79788010983436
-39.11032812704266
-41.36210944746258
-43.544280260540425
-45.64945838934215
-47.67176531288524
-49.6067439293582
-51.4512567609248
-53.203368601405046
-54.86221685403967
-56.42787204387186
-57.9011902562751
-59.283658575656915
-60.57723399474749
-61.78417574912271
-62.90687061177613
-63.94765036198009
-64.90860042402831
-65.79135855738261
-66.59690246757856
-67.32532529896842
-67.97559816471288
-68.5453191668233
-69.03044875986895
-69.42503181451465
-69.72090734611453
-69.90740758772503
-0.08626032575825127
-0.2822579339880109
-0.6308991941635098
-1.1485736579885066
-1.8478213361012692
-2.737007867984249
-3.8201644565193487
-5.09699222824726
-6.563021552747351
-8.209909036570028
-10.025848900647802
-11.996071548097563
-14.103400390671286
-16.328838287361997
-18.652156962408515
-21.052466106920207
-23.508743081581592
-26.000308783509553
-28.507239920517243
-31.010712328417178
-33.493273836402054
-35.93904838427481
-38.33387556018585
-40.66539146028049
-42.923057824647664
-45.098146864862564
-47.18368917206777
-49.17439168957968
-51.06653205856992
-52.857834792977535
-54.54733379251238
-56.135224727168236
-57.622709872131246
-59.01183707711304
-60.3053337445701
-61.50643598234893
-62.618712498397784
-63.64588232369516
-64.59162508410503
-65.45938229206793
-66.25214799636552
-66.97224710679231
-67.62109980235581
-68.19897063409545
-68.70470124690542
-69.13542606852232
-69.48627084627051
-69.75003455913108
-69.9168559906517
-0.09004307562890723
-0.29588315470686544
-0.6638641580055508
-1.2124341130083658
-1.9555386883691228
-2.902258042831339
-4.0566445747157225
-5.4177596180982315
-6.979895588478135
-8.732960387420636
-10.662993670259123
-12.752780194107263
-14.982523914601721
-17.330547541640616
-19.773985443822003
-22.289442536457898
-24.853597485482144
-27.443734620662852
-30.038194877321637
-32.616741481163835
-35.16084069237246
-37.65386158809945
-40.081201545044266
-42.43034583149568
-44.69087062780379
-46.8543990028394
-48.91451902895347
-50.866672465257665
-52.70802141507251
-54.437299183180656
-56.05465031508972
-57.56146356950859
-58.960200406638606
-60.254220505855805
-61.447604879589036
-62.54497633510701
-63.55131636014064
-64.47177696856109
-65.3114856372371
-66.07534118990856
-66.76779833565182
-67.39263854263135
-67.9527250216627
-68.44973980618282
-68.88390124468967
-69.25366066864184
-69.55537756057839
-69.78297323060742
-69.92756380852576
-0.09482740790495514
-0.31287248712018356
-0.7044998611079747
-1.2904355133736236
-2.0861250418682022
-3.101327950410603
-4.339958181341901
-5.800166400765811
-7.474644890700695
-9.351123868246402
-11.413019444442869
-13.640188617777586
-16.009745609585902
-18.496896070550505
-21.075750540449658
-23.720085215782483
-26.404025735098923
-29.102637559762087
-31.792413978930824
-34.45165933741447
-37.06077048653214
-39.602423566651815
-42.06167605214385
-44.42599563147897
-46.685228123935204
-48.831516449533574
-50.859181874112
-52.76457753824557
-54.545922813558086
-56.203125451132586
-57.737596898646565
-59.15206464325328
-60.45038403697352
-61.63735081229469
-62.718514411575896
-63.69999133951761
-64.588277001267
-65.39005390094428
-66.1119936385326
-66.76054984934575
-67.34173907262532
-67.86090650685364
-68.32247370807674
-68.72966551022473
-69.08421379239098
-69.38603618754698
-69.63288841861615
-69.8199896645848
-69.93962119831265
-0.10078808700343012
-0.3338142234168997
-0.7541466625882338
-1.3850387896841885
-2.243531386163673
-3.34000027547205
-4.678007391614694
-6.254446884119365
-8.059959188224578
-10.079571036601815
-12.293509173399382
-14.678130431879605
-17.206910644205788
-19.851438877301405
-22.582370726348795
-25.37030369550262
-28.18654792083407
-31.003775642435038
-33.79654212956255
-36.54167867328064
-39.21856449433499
-41.8092888963695
-44.29871781244116
-46.67448024698013
-48.92689026918498
-51.048819449096364
-53.03553321875361
-54.88450283162337
-56.59520258316692
-58.168899903576374
-59.60844395306715
-60.91805651622053
-62.10312735034434
-63.170014715543
-64.12585060344878
-64.97834918083667
-65.7356161619094
-66.40595620177857
-66.99767494690929
-67.51887207647906
-67.97722150786161
-68.37973491332467
-68.7325048006856
-69.04042364429708
-69.30687591561077
-69.53340035318817
-69.7193204327491
-69.86134174629825
-69.9531158764483
-0.10813360794414978
-0.3594114262783022
-0.8144077731571716
-1.4991871449800618
-2.4324781991940645
-3.6251712499610664
-5.0801916828808
-6.792734986565865
-8.750825185316202
-10.936139877268655
-13.32503308015955
-15.889682013512536
-18.59928533145939
-21.42124706257649
-24.322291125669167
-27.269464149869425
-30.230997905013837
-33.17701565656493
-36.08007825017493
-38.915575119297905
-41.661972441224584
-44.3009353639033
-46.81734380519701
-49.199222126266434
-51.437602393673075
-53.526339360531374
-55.46189307283722
-57.24309244489966
-58.870890480247894
-60.34811921660065
-61.67925005956657
-62.87016300742407
-63.927926389925425
-64.86058715328289
-65.67697040802315
-66.38648589304219
-66.9989381740966
-67.52433676015362
-67.97270186156769
-68.35386121572185
-68.67723325004508
-68.95159183330557
-69.18480798000704
-69.38356411655319
-69.55303689599712
-69.69654505876213
-69.81515948412348
-69.90727335832582
-69.96813129825462
-0.1171143868195818
-0.39050990067789454
-0.8872132159303139
-1.6364225767369407
-2.658639062798265
-3.965111729517736
-5.55775108269002
-7.4294876772969785
-9.565021907423214
-11.94188799021012
-14.531741262149552
-17.30177342994103
-20.216164444850577
-23.23749045850709
-26.328022681783768
-29.450869632720497
-32.570933172713985
-35.655665262143714
-38.67562639845031
-41.604857633732436
-44.42108575295241
-47.105785815976134
-49.64412724614914
-52.02482951662472
-54.239951804535906
-56.284638278504175
-58.15683740775752
-59.85701019208601
-61.387838773585955
-62.75394368377468
-63.961615108171515
-65.01856106296255
-65.93367328378875
-66.71680990489233
-67.37859262296409
-67.93021495087086
-68.38325733038985
-68.74950425204197
-69.04075808879671
-69.26864406895962
-69.44440067163596
-69.57864971895262
-69.68114056085017
-69.7604629994583
-69.82372398934925
-69.8761836775091
-69.92084701842572
-69.95800801413876
-69.98474457907095
-0.12803333002656914
-0.4281342873924543
-0.9749022570381409
-1.8010356753437646
-2.9288758472158394
-4.369799975564588
-6.124201000827015
-8.182017680789967
-10.523738729994703
-13.121776283635636
-15.942088267479312
-18.945926382552972
-22.0915947175741
-25.33612076753475
-28.636762656393614
-31.952300464327593
-35.24408302346042
-38.476822342015865
-41.61914468602059
-44.64391975813848
-47.528397420028924
-50.254185474220115
-52.80710286602751
-55.17694108503707
-57.357163316315365
-59.34456670079176
-61.13892846413653
-62.74265207755627
-64.16042530157476
-65.39889810489206
-66.46638512347249
-67.37259454346528
-68.12838302998301
-68.74553452622791
-69.23655935029534
-69.61450895191817
-69.8928008981521
-70.08504808267645
-70.20488575416522
-70.26578971064974
-70.28087888500684
-70.26269554817708
-70.22295648177774
-70.1722687235896
-70.11980388213323
-70.07292555520058
-70.03676508013604
-70.01374169118934
-70.00302415178678
-0.14125957043410775
-0.4735349696557185
-1.080330388446746
-1.9982595162201986
-3.251541898199339
-4.851348385161274
-6.7958861656537115
-9.07116680474115
-11.65234948127021
-14.50551644122347
-17.589720642633143
-20.859146007209386
-24.265235778918925
-27.758670019575966
-31.29110456328202
-34.81661641096595
-38.29283101435516
-41.68173272026634
-44.950179504747744
-48.070156701969736
-51.01881215477375
-53.77831798371803
-56.33560311929385
-58.6819970221309
-60.81281967225722
-62.72694680554174
-64.42637316335984
-65.91579064948328
-67.20219302792245
-68.29451428069828
-69.20330400441114
-69.94044021923835
-70.51887761680644
-70.95242748317628
-71.25556419920211
-71.44325224603394
-71.53078694622671
-71.5336416828776
-71.46731400950964
-71.34716286163297
-71.18822898440214
-71.00503069923113
-70.81132725022289
-70.61984221180333
-70.44193982169244
-70.28724764288174
-70.16321966755078
-70.0746348575485
-70.02302715958609
-0.15724645485344113
-0.5282494965614588
-1.2070092165672133
-2.2345224387171925
-3.6368755564988495
-5.4245541300117335
-7.592690248822472
-10.122161102245926
-12.98138576757744
-16.12862426684882
-19.51456564805376
-23.084998436189046
-26.78338247835225
-30.553179508768622
-34.3398438846506
-38.09241885850547
-41.76472288802135
-45.31614200132675
-48.71206693758262
-51.92402781211007
-54.92958547123079
-57.71203905713538
-60.26000530517035
-62.566918351671745
-64.63049069368063
-66.45216745733296
-68.03659802578127
-69.391141798564
-70.525418627781
-71.45090936203161
-72.18060787581385
-72.72872285430196
-73.11042529384876
-73.34163601049468
-73.43884627883946
-73.41896392177536
-73.29917663267128
-73.09682395532705
-72.82926911419054
-72.51376174386307
-72.16728249621487
-71.80636050796468
-71.44685480471719
-71.10369092554453
-70.79054440395333
-70.51946326445812
-70.30042241037361
-70.14080369628675
-70.0447965864438
-0.17655529031647843
-0.5941836716795548
-1.3592908424934347
-2.5177801320803175
-4.0975146125921285
-6.107614371162045
-8.538950226001688
-11.365702278027438
-14.547765415848893
-18.03373215656544
-21.764167960744203
-25.674911545966015
-29.700174772141047
-33.77527347378144
-37.83888235915023
-41.83476560478477
-45.7129843412699
-49.4306198006009
-52.95207575028506
-56.24903698370576
-59.30016413077304
-62.09060139423541
-64.6113654794068
-66.85867312215929
-68.83325291987182
-70.53967582899196
-71.98572846147184
-73.18184457670569
-74.14060304433735
-74.87629498357124
-75.40455859629242
-75.74207718422807
-75.90633374044768
-75.91541411060147
-75.78784983733944
-75.54249126863738
-75.19840120144859
-74.77475915423528
-74.2907662511475
-73.76554062403926
-73.21799318472118
-72.66667360060485
-72.1295763471706
-71.62389685240194
-71.16572803716193
-70.76968803512653
-70.44847058460886
-70.21231053865984
-70.0683581308077
-0.1998869677433519
-0.6737195421433375
-1.5426129724079178
-2.857955496600497
-4.649174018878526
-6.923061685067704
-9.664641655034341
-12.83936749640243
-16.396348571185484
-20.272227910171154
-24.395331287845018
-28.68974193070381
-33.07902241778746
-37.48938875747601
-41.85222730991407
-46.10592227980348
-50.197023111662794
-54.0808244358868
-57.72145660241736
-61.0915948100363
-64.17189297903448
-66.95023863450415
-69.42091061084191
-71.58370512377846
-73.44307968391102
-75.00734971636507
-76.28796027983455
-77.29884517432492
-78.05587791862834
-78.57641331698832
-78.87891428650718
-78.98265592784873
-78.90749715670864
-78.67370927785262
-78.30185043432158
-77.81267470904216
-77.22706465089385
-76.56597604225048
-75.85038375729539
-75.10121754988947
-74.33927655498037
-73.58511121153627
-72.85886125959678
-72.18003849080962
-71.56724310838871
-71.03780294726593
-70.607325479637
-70.28915351833629
-70.09371682870024
-0.22812447627225385
-0.7698605758601511
-1.7638277761035068
-3.26752638913944
-5.311545951559586
-7.898996444666249
-11.006924751983167
-14.58941368374502
-18.58191567215898
-22.90630438360655
-27.476133252506045
-32.20165613041779
-36.994270503951945
-41.77016517125645
-46.453072019567415
-50.97612149852971
-55.28287596152656
-59.32766249054842
-63.07534962573316
-66.50071555024678
-69.58754455636382
-72.32756959020347
-74.71935593660513
-76.76719804528881
-78.4800803137691
-79.87073452421754
-80.95481201977276
-81.75017753432442
-82.27632349077969
-82.553898045364
-82.60433663766521
-82.44958479364912
-82.11189897591447
-81.61371201502938
-80.97754979945705
-80.22598623536379
-79.38162385845645
-78.4670877860302
-77.5050208836037
-76.51806806440686
-75.52883755283182
-74.55982676226105
-73.63330022571962
-72.77110686067033
-71.9944238423854
-71.32341460816403
-70.776789110978
-70.37125544876433
-70.12085342963911
-0.2623906492922563
-0.886428839830451
-2.0316475166445622
-3.762318402198275
-6.109505564770577
-9.07072292012048
-12.612174120745838
-16.673114760594487
-21.171689648578486
-26.011525502976312
-31.088394122030955
-36.296377162816235
-41.533126497706554
-46.70398927098191
-51.724926619453576
-56.52428200837718
-61.043541974319304
-65.2372797301232
-69.07248688546056
-72.52748923996491
-75.59061816681987
-78.25877724144911
-80.53601031123014
-82.43214600328935
-83.96156687694196
-85.14212989215947
-85.99424855388203
-86.54013545616357
-86.80319619915488
-86.80756093629505
-86.57773733500566
-86.13836781455224
-85.51407400463947
-84.72937201783674
-83.80864302892603
-82.77614458228308
-81.65604885560124
-80.47249470126431
-79.24964062280596
-78.011705917494
-76.78298704833112
-75.58783595895873
-74.45058659510366
-73.39541545896732
-72.44612173431331
-71.62581252749251
-70.95647921670385
-70.45845189887497
-70.14972052046066
-0.30412748209266116
-1.028335797996431
-2.3572549448689752
-4.3625850844210206
-7.07474123268698
-10.48293893497653
-14.538661124911721
-19.161803959596934
-24.248560845141796
-29.680038973923242
-35.33069159320613
-41.075846095726355
-46.797857106621855
-52.39066374310958
-57.76274367317691
-62.83861320110093
-67.5591176959911
-71.88079684930321
-75.77460721339884
-79.22425464993339
-82.22434478839875
-84.77851055505556
-86.89762918116129
-88.59820077303661
-89.90092816723666
-90.8295134884466
-91.40966975109392
-91.66833474536217
-91.63306797569197
-91.33160831922224
-90.79156927373853
-90.04024931713283
-89.10453635651938
-88.01088703741112
-86.78536348911976
-85.45371168920185
-84.04146691078196
-82.57407260193013
-81.07699951178495
-79.57585193793103
-78.09644765947237
-76.66485751763781
-75.3073898129463
-74.050503846667
-72.92063622659559
-71.94392318870634
-71.14580236986369
-70.55047838984297
-70.18023837519621
-0.35520641984885515
-1.2019587431624483
-2.7551491831182933
-5.09449595441402
-8.247980503840814
-12.192691248648037
-16.860122736595677
-22.144852382879257
-27.91521899619849
-34.02459388518882
-40.3220222030745
-46.661338734062944
-52.908239317817845
-58.945141305882885
-64.67394502890977
-70.01699283532875
-74.91661550803641
-79.33367482425506
-83.24547858165394
-86.64338290389534
-89.5303241712073
-91.91845209250985
-93.82697360513016
-95.28026768620579
-96.30629418692796
-96.93529419977446
-97.19876322257731
-97.12866929728821
-96.75688435310508
-96.11479647471343
-95.23307241766437
-94.1415424230681
-92.86918254759928
-91.44417286232073
-89.8940126942877
-88.24567641651596
-86.52579505035922
-84.76085009861295
-82.97736658100004
-81.2020922295707
-79.46214927425588
-77.78514429309226
-76.19922033817281
-74.73303414748189
-73.41563994153492
-72.27626036305033
-71.34392486074861
-70.6469565454461
-70.21229047929968
-0.41808377622775517
-1.4156710252900968
-3.244332882606015
-5.992210471959622
-9.6820614487192
-14.273399828432826
-19.670542171694628
-25.73489415765973
-32.299453251475214
-39.183549904189476
-46.20620983592077
-53.19705283785616
-60.004207642681735
-66.49920992110108
-72.57920199679631
-78.16695472048214
-83.20930282180241
-87.67456011455894
-91.5493983223563
-94.83556566716769
-97.54671218274726
-99.70549207564437
-101.34103581371633
-102.4868271507528
-103.1789810822429
-103.45489443461261
-103.35222777558874
-102.90817225847005
-102.15895512624334
-101.13954079221384
-99.88348916489625
-98.42293816387638
-96.78868251525483
-95.01032552925382
-93.11648443718852
-91.1350329090117
-89.09336656577122
-87.01867866661442
-84.93823372573382
-82.87962665503221
-80.87101419830017
-78.94130400582155
-77.12028482075637
-75.43867909752356
-73.9280972191128
-72.6208706916072
-71.54974072037179
-70.7473788844072
-70.245718628069
-0.49602299378824455
-1.6805997763647227
-3.850001437269965
-7.100805548448731
-11.44621793778813
-16.820388093497407
-23.090595888267174
-30.07471379031648
-37.560948484081024
-45.32708819480091
-53.15714393926977
-60.854130921766064
-68.24856873113849
-75.2029370106085
-81.61274390730372
-87.40505549899845
-92.53534550221748
-96.9834204699899
-100.749015936062
-103.84748819044734
-106.30587223562895
-108.15945217883738
-109.4488989078185
-110.21796845359944
-110.51171733757349
-110.37517220997898
-109.85238457572441
-108.98580280532062
-107.81589953056235
-106.38100054173111
-104.71726987662609
-102.85881397135711
-100.83787500499896
-98.68508967173419
-96.4297944829026
-94.10036236471197
-91.7245578447022
-89.32989959972812
-86.94401965030335
-84.59500810276727
-82.3117311243798
-80.1241078560393
-78.06332932819902
-76.16199932800875
-74.45417387023784
-72.97527291043143
-71.76183582751408
-70.85109172170479
-70.28031742412234
-0.5934176777247089
-2.0117260208973597
-4.605982892568486
-8.4804646967974
-13.632129724412255
-19.958554796871137
-27.27640401452392
-35.34634854884939
-43.899979920542584
-52.66484069134378
-61.38487822223901
-69.83499076001773
-77.82954058327515
-85.22556373397565
-91.92186451108753
-97.855303364213
-102.99547516288004
-107.33874031324092
-110.90230051693
-113.71875983443225
-115.83140784433766
-117.2903126190602
-118.14921259832882
-118.46313847860107
-118.28666805002281
-117.67270871718412
-116.67170647210234
-115.33119070832126
-113.69557766672405
-111.80616910547775
-109.70129562842473
-107.41656530980914
-104.98518757132443
-102.43834969871716
-99.80562905750597
-97.11542816074056
-94.39542243719089
-91.67301200747698
-88.9757691225983
-86.3318722369824
-83.77051602236624
-81.322284008639
-79.01946701063258
-76.89630619470557
-74.98913484500753
-73.33638814359419
-71.97844640704258
-70.95727531353
-70.31582788405558
-0.7162695562435033
-2.4295099217453373
-5.558320308294542
-10.212561501020504
-16.362571519038582
-23.85311953636426
-32.43147750663929
-41.78313170233281
-51.56847643018701
-61.45512086525369
-71.14250735030619
-80.37767449652463
-88.96269660560154
-96.75537366021005
-103.6651560408607
-109.64622669681027
-114.68933038833293
-118.81350617636325
-122.05846096845079
-124.47797854712056
-126.1345086000247
-127.09491762653931
-127.42729085879353
-127.19863180276249
-126.47329619894182
-125.31200657239705
-123.77131254863005
-121.90338457743266
-119.75605096554027
-117.37300823407656
-114.79415196088165
-112.05598926491467
-109.19210511764895
-106.23366305738371
-103.209927014518
-100.14879518657483
-97.07733953341108
-94.02234573391395
-91.01084851865924
-88.07065625480524
-85.23085652317425
-82.5222911501586
-79.97798467710084
-77.63350457213419
-75.52722481100625
-73.70045732744298
-72.19740930161805
-71.0649198879332
-70.35192969284195
-0.8729098072338104
-2.9623383474488616
-6.770626474401954
-12.408635471652914
-19.80394105912218
-28.724817908918787
-38.823110574864714
-49.68560713432981
-60.88395677914831
-72.0158227141633
-82.73351942844948
-92.75965991253507
-101.89162905456605
-109.99783052007638
-117.00882490487162
-122.90604226441341
-127.71005541539
-131.4696874470464
-134.25263149686407
-136.13782882872482
-137.2095749459382
-137.55317112284854
-137.25187351779815
-136.38488169003594
-135.02612854670022
-133.24366797117233
-131.09949443038272
-128.64966505531083
-125.94462634148357
-123.02967382830849
-119.94549398352534
-116.7287536094956
-113.4127141381623
-110.0278569262405
-106.60251175343492
-103.16348470470376
-99.7366838993922
-96.34774242192019
-93.02263750461023
-89.78830359564706
-86.67323438347087
-83.7080649967691
-80.9261202240404
-78.36390747357216
-76.0615242822915
-74.06293990438195
-72.41610006128906
-71.17279547854943
-70.3882313879099
-1.0751119096770996
-3.6502899169745504
-8.332246314543223
-15.223864095739692
-24.184656314173296
-34.871588106145566
-46.80494702272166
-59.4424573155125
-72.24678091208341
-84.73677846358054
-96.51892452345902
-107.30015136507087
-116.88626258353491
-125.1709784823479
-132.12023698460646
-137.75526501636017
-142.13669327300164
-145.35092177517623
-147.49917062501675
-148.6891648973445
-149.02914477988796
-148.62379046648087
-147.57164423681238
-145.96365450186553
-143.88252901874142
-141.40264986559865
-138.5903623623273
-135.50450035332517
-132.19705048859376
-128.71388916326762
-125.09554900395443
-121.37798872871062
-117.59335223255903
-113.77071101590593
-109.93678949070919
-106.11667596398107
-102.33452371360556
-98.61424688876477
-94.98021519928041
-91.45794958259893
-88.07481817953956
-84.8607277471792
-81.84879962891975
-79.07601099404522
-76.58377074055007
-74.41838522657379
-72.63135296954775
-71.27941241034924
-70.42425736850008
-1.3398513537715289
-4.551064922796815
-10.370969975697168
-18.877658996407902
-29.822555663220374
-42.69978370487423
-56.848066209075846
-71.55773090796052
-86.16087493506582
-100.09279640395278
-112.92277643311806
-124.35921656624373
-134.23722079466216
-142.49673041959767
-149.1576270770619
-154.2960139860567
-158.02391227131483
-160.47317141019803
-161.7835064670778
-162.09412349334576
-161.53823376874186
-160.2397646329701
-158.31166287259975
-155.85530246771987
-152.9606228698239
-149.70672354297483
-146.16272104951307
-142.38873700680716
-138.4369313256959
-134.3525283821139
-130.17480713618704
-125.93804221416998
-121.67239360579396
-117.40474941461811
-113.15953013602012
-108.95946500755824
-104.8263516170093
-100.7818095213487
-96.8480373390285
-93.04858070942593
-89.40911557383984
-85.95824707258646
-82.72831826539321
-79.75621376458867
-77.08412990921872
-74.76026435317839
-72.83935434784647
-71.38296770268818
-70.45943004302269
-1.692166384258151
-5.749574107766506
-13.07330858823141
-23.685781061555822
-37.16629276109621
-52.76940476513504
-69.58364644349165
-86.68555138401598
-103.25734302641497
-118.65551843889213
-132.43358566196883
-144.3311886104958
-154.243972380364
-162.1862706526072
-168.25473830463847
-172.59726333974118
-175.38869801425528
-176.8132576347552
-177.05261427009034
-176.27845519908107
-174.6483262220779
-172.30376505582134
-169.36994951275932
-165.95628912965282
-162.15755784850006
-158.0552959133736
-153.7193053342187
-149.2091315930023
-144.57547133346117
-139.86147728932806
-135.10395219452013
-130.33443628350147
-125.58020068988978
-120.86516330375571
-116.21074561806833
-111.63668954523507
-107.16185260543708
-102.8049985861838
-98.58559893641572
-94.52465788593452
-90.64557152348823
-86.97502749101189
-83.5439466891678
-80.38845977098049
-77.55089672126114
-75.08074472990816
-73.03549647032028
-71.48127028674392
-70.49304453064167
-2.169957179045557
-7.373908897776854
-16.717688324369036
-30.11148062398391
-46.8587488714113
-65.85990039428607
-85.86087349999181
-105.67272431909704
-124.31872836853542
-141.10030073661966
-155.59738272143875
-167.62847021925404
-177.19371212774487
-184.4174635169761
-189.49913154532874
-192.67544554419135
-194.1938857728542
-194.29544143831964
-193.2044533499664
-191.1234667469354
-188.23141479569728
-184.68387917655696
-180.61454555764374
-176.13726290386796
-171.34832917170655
-166.32877538832912
-161.14652075816204
-155.85833691906114
-150.51160058992355
-145.14583863074108
-139.79408366728495
-134.48406582068242
-129.23926933006288
-124.07988364139814
-119.02367790003738
-114.0868263410068
-109.28471015932664
-104.63271924824335
-100.14707483809457
-95.84569167131437
-91.74909599848235
-87.88141325963508
-84.27143607884484
-80.95377710699042
-77.97009834227333
-75.37038312830694
-73.21417361347477
-71.57163435212183
-70.5242319330826
-2.832330549137275
-9.6228432296008
-21.730385075183662
-38.84875896159467
-59.83540598443635
-83.06577956050944
-106.82367022438171
-129.60737394678318
-150.2983544702745
-168.20105577365388
-182.9956751194488
-194.65032822151684
-203.32724213309967
-209.30208079916994
-212.90318244651291
-214.4702470035488
-214.32886727066125
-212.7766328994472
-210.07703056126593
-206.45822782400833
-202.11467731134792
-197.21016861022557
-191.88146437138082
-186.24200860935875
-180.3854265317626
-174.3886811349738
-168.31483996130703
-162.21545600304776
-156.13259372208475
-150.10054382838373
-144.14727483467553
-138.29566924983374
-132.56458988376747
-126.96981844019486
-121.52490508330413
-116.2419643018425
-111.13244924624782
-106.20793376351634
-101.48092858585436
-96.96575565083859
-92.67950264005204
-88.64307889791826
-84.88239387516836
-81.42967845093726
-78.32496285668344
-75.61770266859497
-73.36849335923469
-71.65072465479706
-70.55190496318778
-3.7747277699590356
-12.81502363910447
-28.78284265323205
-50.96105383724817
-77.47845551833223
-105.93404777624079
-134.00748354057328
-159.86619292219655
-182.32294049581355
-200.80087575165567
-215.1982938380545
-225.72978474635386
-232.78790629766985
-236.84117031234177
-238.36759011008783
-237.816274630946
-235.58854067659485
-232.03139462628326
-227.43818822533487
-222.05299633003332
-216.07657738841516
-209.67267721491544
-202.974014924254
-196.08764262348288
-189.09957478930133
-182.07869445087073
-175.07999837912155
-168.1472661545894
-161.31524290213645
-154.6114214247315
-148.05750153211014
-141.67059537432334
-135.46423902811148
-129.4492631127181
-123.63456902882912
-118.02785243776785
-112.63631158727446
-107.46737474644362
-102.52947808793763
-97.83292283823701
-93.3908388595421
-89.22028211779794
-85.34349715629808
-81.78938299569938
-78.59520748758095
-75.80860740392764
-73.48986420116793
-71.71432914158108
-70.5746760870359
-5.1576876031935335
-17.48088303382942
-38.96701755762328
-68.11758512724704
-101.85907313813807
-136.65619518088081
-169.44900876932454
-198.14091618952665
-221.65586603671187
-239.73910923443577
-252.6777794521713
-261.05115373674033
-265.55061506594865
-266.86846154798667
-265.63881524386613
-262.4126204874324
-257.6525997466842
-251.73862982625343
-244.9776946607245
-237.61511416116613
-229.84534662771034
-221.82160128043168
-213.66401587895643
-205.46642000936725
-197.30182560121727
-189.2268285714012
-181.2851077528266
-173.51019117665652
-165.92763707269455
-158.55675363401926
-151.41196046857783
-144.50387682288292
-137.84020731864487
-131.42648486508892
-125.26672217039477
-119.36401734972857
-113.7211549311402
-108.34124048062152
-103.22840452428036
-98.38860909878233
-93.83058842009322
-89.56695545229128
-85.6155120994654
-82.00081691039048
-78.75609159767777
-75.92557330320109
-73.56740361648195
-71.75702107853337
-70.59073230157759
-7.264936746050445
-24.54311370675064
-54.1239321590922
-93.00416941519012
-136.11532822387417
-178.31859168576918
-215.7793651392416
-246.4008774951767
-269.58185441635464
-285.7075312038652
-295.6704842260529
-300.53279522728354
-301.3312411432887
-298.9848782065446
-294.2644360638525
-287.7942140778034
-280.0685015368115
-271.47261731549526
-262.3036573095402
-252.7888512680667
-243.10089815012515
-233.37034861083097
-223.6953908508434
-214.1494762721426
-204.78720566345766
-195.64884297438036
-186.76376064025084
-178.15306077962651
-169.8315653369219
-161.80932648764676
-154.09277578530288
-146.68560541725176
-139.58945626047392
-132.80447399715268
-126.32978533025207
-120.16394042674567
-114.30536426396098
-108.75285769391655
-103.50618783341277
-98.56680593041429
-93.93872873466896
-89.62961784557774
-85.65209547553427
-82.02535531402069
-78.77717769198429
-75.94654071306414
-73.58708867530503
-71.77165258512694
-70.59764043925753
-10.62823980600367
-35.693258515672994
-77.48360842594732
-130.0490269584955
-185.01982265934953
-235.17813204059686
-276.2172702440392
-306.7076641007098
-327.153017660739
-339.00425757371835
-343.9740629331637
-343.6767902036025
-339.48332550928376
-332.4923299788529
-323.55388511443556
-313.31101489840626
-302.24268612696727
-290.7016859985457
-278.9455426800763
-267.160733208922
-255.48117205751305
-244.0021168173589
-232.7905252710279
-221.89271963927996
-211.34003203967188
-201.1529473839464
-191.34413266998493
-181.92064306810178
-172.88552075451557
-164.23894715750885
-155.97906879939023
-148.1025877297141
-140.6051869625385
-133.48184735373047
-126.7271035121821
-120.33528152448088
-114.300759568194
-108.61829296490606
-103.28344673771602
-98.29317977323035
-93.64662350897122
-89.34609381927875
-85.39837077890846
-81.81629157536909
-78.62076063618325
-75.84343106530217
-73.5305474679405
-71.74859144484236
-70.59203933764498
-16.326481105742424
-54.2266681610768
-114.97359565112171
-186.69214218061012
-255.75776762138776
-312.80449381162794
-354.27297910904304
-380.738082118008
-394.7250905772927
-399.1650423546457
-396.68793263324676
-389.4020448458952
-378.89960629068923
-366.3416119462877
-352.5558138168714
-338.12301875525884
-323.4454369244275
-308.7980310803601
-294.3659966470564
-280.27167028299607
-266.59366250997255
-253.38038173385323
-240.6595562060656
-228.44491611806987
-216.7408653437696
-205.54573071611316
-194.85400417301835
-184.6578710663417
-174.94823210414282
-165.71536630224915
-156.9493404755706
-148.640241966
-140.77829187613833
-133.35388362179827
-126.35758452012833
-119.78013534382032
-113.61248357185823
-107.84588979275802
-102.47215242569618
-97.48400191063838
-92.87571877386443
-88.64402617001952
-84.78929333258824
-81.3170690789817
-78.23998600362924
-75.58024896103764
-73.37338169646185
-71.67457413311277
-70.56914536650231
-26.741913739447654
-87.08726160405989
-177.93057692111378
-275.5642553256558
-358.6451931892451
-417.6502935138723
-452.77630916348704
-468.84041504305833
-471.2428212732583
-464.4954275730763
-451.93836393804196
-435.9002071134685
-417.9488792474983
-399.1157666697833
-380.0660939333042
-361.2198280089724
-342.8346076729291
-325.0616408197633
-307.983038613977
-291.63662759651794
-276.03238549326227
-261.1632922009051
-247.01245893273412
-233.55777475958195
-220.77489471520101
-208.63911838760896
-197.1265253966862
-186.2146129124457
-175.88259964421994
-166.1115069105424
-156.884091581037
-148.1846820697928
-139.99895341884417
-132.31366849131498
-125.11640799875667
-118.39531178570212
-112.13885721016817
-106.33570755127307
-100.9746739887878
-96.04484791563307
-91.5359732602949
-87.43913429698426
-83.74782063137606
-80.45938305155057
-77.57682205755121
-75.11088217345325
-73.08298176148801
-71.5310217744226
-70.52195071460207
-48.046527162379306
-149.99781821126788
-289.16261944839295
-417.3072314007413
-506.83675325367454
-554.8273260134848
-571.7616151520522
-568.5435865445303
-553.3594883497165
-531.6160143158932
-506.6812897221374
-480.5791828328277
-454.4892818232055
-429.07335068960026
-404.68021497758514
-381.47206940715233
-359.50174187468804
-338.75976619714004
-319.2029512514457
-300.7716095267042
-283.39982437568364
-267.0214382481267
-251.57341087712956
-236.99756525161226
-223.2413517196024
-210.2580212355035
-198.0064500498489
-186.45076522811596
-175.5598620970466
-165.30686808777745
-155.66858450581307
-146.624923611459
-138.15835006570174
-130.25333155693454
-122.89580239392762
-116.07264578554123
-109.77120571350096
-103.97884848585343
-98.68260830867055
-93.86897151555301
-89.52388012311908
-85.63306247146926
-82.18281132279563
-79.16129078300635
-76.56029973800943
-74.37713124651445
-72.61614818155384
-71.29176642642088
-70.43994509192748
-97.45775338360309
-283.61753540384285
-493.2182011700189
-642.9866315104475
-710.2475552662803
-722.7599876664007
-705.0872012084187
-672.8449534703575
-634.7144818028949
-595.251390476132
-556.7233714594281
-520.1728734910471
-485.9989908223619
-454.2713870810871
-424.89853027179777
-397.7173705012169
-372.5405773450397
-349.18078266164207
-327.4623562952717
-307.2264572172518
-288.33251230338374
-270.65785863670845
-254.0965034064016
-238.55752053888372
-223.96336002147729
-210.24820975378867
-197.35647386711608
-185.24138961527058
-173.86378239387778
-163.19094679463979
-153.19563606300613
-143.85514019635156
-135.15043271020642
-127.06536708846716
-119.58590591811385
-112.69936892647875
-106.39369130310409
-100.65669211185343
-95.4753664146353
-90.83523708729508
-86.71983721598532
-83.11044462063026
-79.98625244481066
-77.3252032341
-75.10563295333915
-73.30840602764988
-71.91805163935175
-70.92087986382211
-70.30730488150803
-243.93929325179732
-588.433743269923
-880.5435407215219
-972.462274134885
-959.947115938591
-904.850959644285
-837.1358241596909
-769.272375892529
-705.9594490584745
-648.566117714369
-597.1042481115229
-551.0778219394534
-509.8458556191989
-472.7721285494115
-439.2815470732121
-408.8759353244533
-381.13284938439915
-355.6979815173057
-332.27582559296286
-310.6205788623006
-290.5280241085977
-271.8285842207452
-254.38150604075938
-238.07004204838142
-222.7974766577494
-208.4838504818365
-195.0632529537241
-182.4815729917987
-170.69461544422853
-159.6665065452353
-149.36832427812513
-139.77689952272294
-130.87374149327752
-122.64404663738017
-115.07575430357308
-108.15861563211361
-101.88324505015328
-96.24012770676879
-91.21856334029398
-86.8055412998458
-82.98456954805062
-79.73453380114115
-77.02875797789217
-74.83458784286012
-73.11399413983919
-71.82563794262896
-70.9275638063168
-70.37475122367928
-70.101964733147
-704.7253451845597
-1406.9050498110912
-1481.8176196249026
-1361.2085206107351
-1206.545207876948
-1064.154126685031
-942.7890659841781
-841.2300139690494
-756.1416396353077
-684.263257852744
-622.8949915856138
-569.9137012337264
-523.6759518590702
-482.9120064607933
-446.6368665110348
-414.0814271853123
-384.6407453729856
-357.8355205410143
-333.28340946790286
-310.6775634557462
-289.7704569495657
-270.36160404368457
-252.2881477180671
-235.41758638424386
-219.64210220841028
-204.87409834980463
-191.04265432127096
-178.09068197098287
-165.97261739807954
-154.65252223681978
-144.10249519632166
-134.30131431201656
-125.23324396686932
-116.88694967456246
-109.25446874339482
-102.33018681849732
-96.10976932055348
-90.58899336252958
-85.76242057384727
-81.62184615968653
-78.15445875177775
-75.34065919375689
-73.15153694002979
-71.54613840433682
-70.46897267714009
-69.8487899392131
-69.60024055436315
-69.62738659461492
-69.80666678963817
-3170.8584532465293
-2637.736207008996
-2060.521074170726
-1650.3539953765492
-1360.560699634554
-1151.1580118064724
-994.1482576913769
-872.5101896274331
-775.5413817371129
-696.3376673291298
-630.2849808113692
-574.2049268904769
-525.8476267438814
-483.5826427998278
-446.2041826930109
-412.8047601066957
-382.6910461343925
-355.32647772065974
-330.2912710653193
-307.25402243771356
-285.9511867852039
-266.1720149784551
-247.7473392010715
-230.54111381847696
-214.443957243435
-199.3681651653433
-185.2438174318274
-172.015704971376
-159.64087530611232
-148.08664562288783
-137.32896767473048
-127.35105329968071
-118.14218587426481
-109.69665331738999
-102.01274330791874
-95.09174152588318
-88.93686873419581
-83.5520815157021
-78.94064284210272
-75.1033398176607
-72.03618330289078
-69.72736338807721
-68.15315316719303
-67.27235858807921
-67.01885222810796
-67.2918794857054
-67.94471519667319
-68.77471553624633
-69.51667224311377

SCALARS STRESS_XY float 1
LOOKUP_TABLE default
0.041421648155319436
4186.899207103842
-0.2151427392488303
0.041724663233260996
0.08284100665533141
0.16567283745979422
0.24848624813480025
0.3312718576361623
0.4140200797986855
0.4967210551954984
0.5793645829623248
0.6619400531169739
0.7444363790475539
0.8268419304433151
0.9091444669573636
0.9913310726560262
1.0733880916229923
1.1553010647752089
1.23705466854789
1.3186326556108003
1.4000177982666009
1.4811918352039688
1.562135421761067
1.6428280849089214
1.7232481836537108
1.8033728756029836
1.8831780909294684
1.9626385147996026
2.041727579572754
2.1204174680858774
2.198679129614426
2.276482310418098
2.353795600236537
2.430586497059885
2.5068214927247947
2.5824661809245146
2.657485390656969
2.7318433481840194
2.8055038700010084
2.878430590402533
2.9505872271263103
3.021937888928417
3.092447429418668
3.1620818513435864
3.2308087669988126
3.298597919524827
3.3654217715588897
3.4312561682573053
3.496081081530141
3.559881444873432
3.622648088103925
3.6843787831343873
3.745079414295123
3.8047652879212794
3.863462599536676
3.921210079782814
3.9780608450613215
4.034084484035977
4.0893694173284825
4.144025577398902
4.198187465372387
4.2520176554168785
4.305710834912631
4.359498490186461
4.413654375943677
4.4685009424766235
4.5244169410009984
4.581846488039963
4.6413099469818615
4.703417087597554
4.76888311816999
4.838548362331119
4.9134025895742806
4.994615326072748
5.083573903365645
5.181931591149552
5.291668973575104
5.4151728621199275
5.555338638825604
5.715704209848764
5.90062705816802
6.1155207435976155
6.367174444471107
6.664190124886752
7.017588886533713
7.441664817423909
7.955207752556666
8.583287524614917
9.359912995126042
10.332090252555751
11.566186282961047
13.158223389556444
15.251143115761135
18.06501872854963
21.952667468219737
27.508690687256937
35.801267407254194
48.918248301544665
71.50980802020732
115.69172955445484
225.63585443839946
573.8394995440601
2514.3510413979416
2688.744499891284
847.8482445245047
385.2829732196182
214.84209325327708
138.00888185430844
96.49228151452715
71.48618923447447
55.25179328942076
44.13109912075224
36.19414157440424
30.34118479558296
25.90739182682016
22.471476750114135
19.75598893828794
17.572194370912513
15.788113681564841
14.309222463125401
13.066388128085947
12.008100544795198
11.095335040278671
10.298076157887156
9.592916190239142
8.961365290639788
8.388642503042252
7.862797999914978
7.3740674537852975
6.914391847157651
6.47705716383432
6.056422489009318
5.647714634393948
5.246874100939342
4.850442029470549
4.455481464840284
4.059529273625445
3.660577814907391
3.257088359873442
2.848041750509039
2.433036527505403
2.0124517687752332
1.5877029151866626
1.1616370789200259
0.7391456735291266
0.32812822037283024
-0.058955247846980655
-0.40251244591943836
-0.671463349561721
-0.8161457457493254
-0.7607280672795795
-0.44341002390646533
-0.44329800047152906
-0.7591249535007928
-0.8094964614414086
-0.6548999437941624
-0.3712303088862866
-0.00930841295709861
0.3978949673675102
0.8284480631756101
1.2673050507815726
1.7038747049864507
2.1305626084282707
2.541867629770388
2.933802959888192
3.303512966242039
3.6490113651176683
3.9689962949151982
4.2627151296128165
4.52986208480505
4.770497880195837
4.98498458905895
5.1739312540889575
5.338147419476313
5.478602743625029
5.596391511145397
5.692701280980048
5.768785170278504
5.8259374337748495
5.865472090755011
5.888704400314704
5.896935007443663
5.891436588494351
5.873442821921116
5.844139504634184
5.804657628657274
5.7560682284806495
5.699378808596424
5.635531162993885
5.565400402512089
5.489795014709735
5.409457790681904
5.32506746447782
5.23724092477688
5.146535871388661
5.053453803224642
4.958443238392343
4.861903080412727
4.76418605669119
4.665602167770514
4.566422096590575
4.466880536321973
4.367179404600828
4.267490919307448
4.16796051839518
4.068709610568385
3.969838149992624
3.8714270320164275
3.773540308855084
3.676227228678827
3.5795241026314417
3.4834560060012656
3.388038321202938
3.293278131157332
3.1991754717425467
3.1057244527744086
3.012914256771137
2.920730024783137
2.8291536383771194
2.738164406456221
2.647739665598865
2.557855301502391
2.4684861992150138
2.379606629458376
2.291190577143273
2.203212018345461
2.1156451516775965
2.0284645885734314
1.9416455074386239
1.8551637762303184
1.7689960469539252
1.6831198255633446
1.5975135207486963
1.51215647396493
1.427028973523624
1.3421122551846167
1.2573884902839243
1.172840764364869
1.088453047287517
1.0042101556162182
0.9200977093866486
0.8361020838505486
0.7522103569081247
0.6684102532163536
0.584690085488133
0.5010386934227086
0.4174453811767468
0.3338998530802293
0.2503921483728694
0.1669125752787764
0.08345164406219877
0.08221014016032263
0.1615207928963653
0.23750244443489582
0.3101388927887939
0.3794151915542957
0.4453177644706716
0.507834494679966
0.5669547902381903
0.622669627041512
0.6749715703550856
0.7238547767062756
0.769314977375932
0.8113494448243694
0.8499569435771459
0.885137666922629
0.9168931606900728
0.9452262353593964
0.9701408677954899
0.9916420937683996
1.0097358923681559
1.0244290633857518
1.0357290986857728
1.0436440487101104
1.0481823849454348
1.0493528593886805
1.0471643619637319
1.0416257768205837
1.0327458386301172
1.0205329895800708
1.0049952381984957
0.9861400212843756
0.9639740696575594
0.9385032788805939
0.9097325863088284
0.8776658554899023
0.8423057691594285
0.8036537321059729
0.7617097851433794
0.7164725316322647
0.6679390777690108
0.6161049880161545
0.560964257144487
0.5025092999539962
0.440730960176833
0.3756185398025375
0.30715984980062294
0.23534128361880097
0.16014791428732358
0.08156361599936057
0.16312273431908014
0.32028704897698423
0.4706698006011697
0.6143032897376464
0.7512174108789973
0.8814394095567115
1.0049936884721395
1.1219016609393861
1.2321816497074707
1.335848828809476
1.4329152062080093
1.523389644736782
1.6072779186080437
1.6845828029736132
1.7553041937829499
1.8194392552715364
1.8769825923821644
1.927926445466647
1.9722609047129775
2.0099741417758357
2.0410526561190063
2.0654815337678287
2.083244716152259
2.094325276741944
2.098705703594331
2.096368185565411
2.0872949001091157
2.0714683009408423
2.048871403427594
2.019488065928715
1.9833032651490963
1.940303363438519
1.8904763663104387
1.83381216798899
1.7703027828817226
1.6999425609292689
1.622728384510336
1.5386598445595983
1.4477393934530776
1.3499724721082271
1.2453676086670555
1.1339364860101027
1.0156939753479912
0.8906581330605775
0.7588501579208615
0.6202943058232855
0.4750177593573621
0.32305044957414997
0.16442482736759476
0.32622744524726655
0.6405389182023128
0.9412884488349098
1.2285408338218538
1.5023560241930305
1.7627886405832098
2.00988758680979
2.2436957582398556
2.4642498409661653
2.6715801973219815
2.8657108329359287
3.04665944040649
3.2144375142922605
3.3690505320845077
3.5104981957968135
3.6387747287605627
3.7538692222413133
3.8557660265973936
3.9444451817699804
4.019882882094395
4.082051970529769
4.130922457545506
4.166462060101329
4.188636756319819
4.197411351688101
4.192750052574958
4.174617043058889
4.142977061243423
4.097795971152713
4.039041326480156
3.966682922335625
3.880693331062483
3.781048418347763
3.6677278355235368
3.540715483889582
3.3999999467888036
3.245574884891922
3.0774393899791663
2.895598292392802
2.7000624170319205
2.4908487825319265
2.2679807382503556
2.0314880334407057
1.7814068129269538
1.5177795335453919
1.240654795656598
0.9500870842406962
0.6461364141986304
0.3288678748294825
0.48929597913930545
0.9607201826851941
1.4118044491795578
1.842646462050629
2.2533365522549382
2.64395697386446
3.014581327695425
3.365274127577419
3.6960905031382794
4.007076032385382
4.298266696874182
4.569688951837421
4.821359903352617
5.053287584568478
5.265471322793936
5.457902189226116
5.630563523376243
5.783431524129727
5.916475899613392
6.029660568342947
6.122944404229013
6.196282018503194
6.249624571594938
6.282920608237665
6.296116909716854
6.289159357044703
6.2619937989839904
6.214566919177904
6.146827096674412
6.058725254191803
5.95021568842819
5.821256876599456
5.671812253485452
5.501850952936631
5.311348507620226
5.100287500582392
4.868658161853212
4.616458903110006
4.343696783001399
4.050387895529618
3.7365576734821175
3.402241098771002
3.0474828111464993
2.672337106712409
2.276867817751391
1.8611480650360404
1.4252598743132976
0.9692936488842355
0.49334749053979954
0.6523099220176172
1.2807949272973005
1.8821656204119555
2.456553156087916
3.0040787284928223
3.524852610528229
4.018973391486569
4.4865274057176
4.927588343962329
5.342217038259725
5.730461410685088
6.09235657556105
6.427925084570719
6.7371773039362335
7.020111912589336
7.276716510465499
7.506968326114427
7.710835012768313
7.888275522580018
8.039241048864968
8.163676026444612
8.261519180726093
8.33270461636102
8.377162936712935
8.394822385751986
8.385610004204686
8.349452792032999
8.28627886961735
8.196018630043202
8.078605875010428
7.933978926884536
7.762081709293909
7.562864788568671
7.336286368090024
7.082313227315424
6.800921596945841
6.492097961286133
6.155839778467173
5.792156108696588
5.401068140328082
4.982609603162405
4.536827057902221
4.063780050431103
3.563541119409436
3.0361956455364423
2.4818415308034587
1.900588696367094
1.2925583879655769
0.6578822785291427
0.8152504696006052
1.6007265024145072
2.3523187541908612
3.0701926276584612
3.7545008211877025
4.405382136395715
5.022960535260243
5.607344437263011
6.158626245966893
6.676882093398008
7.162171789691275
7.614538965050307
8.034011390473324
8.42060146352576
8.774306845289079
9.095111234619733
9.382985266088774
9.637887518093216
9.859765618080484
10.048557432125387
10.20419232660507
10.326592490076932
10.415674304022069
10.471349751617488
10.493527853983052
10.482116123795045
10.437022026561332
10.358154440024151
10.245425102309813
10.098750039635348
9.918050964305351
9.703256633699466
9.454304160607997
9.171140265229324
8.853722458642073
8.502020147018335
8.116015645582316
7.695705090657093
7.241099237537348
6.752224131375959
6.229121637773823
5.67184981920682
5.080483142986652
4.4551125061806065
3.7958450626873748
3.1028038376836258
2.376127114948524
1.615967582852788
0.8224912257027617
0.9780982977505847
1.9204772804504602
2.822209275236672
3.6834948993359977
4.5045191510140485
5.285449991458544
6.0264372283094625
6.727611689152412
7.389084671854146
8.010947657397544
8.593272269930008
9.136110468100542
9.639494951148297
10.103439762996096
10.527941077534553
10.912978148248419
11.258514405554802
11.564498685688594
11.830866575221256
12.057541855875485
12.244438034866855
12.391459946628052
12.498505412328988
12.565466943982948
12.592233480832851
12.578692146042531
12.524730012019269
12.430235863147404
12.295101944849742
12.11922568814228
11.902511398747947
11.644871899717977
11.346230116311038
11.006520591536427
10.625690920319347
10.203703089583557
9.740534711081008
9.236180133097951
8.69065141628182
8.103979158245878
7.476213150851548
6.807422853491013
6.097697664955277
5.347146976109125
4.555899985461905
3.724105259396499
2.851930019235221
1.9395591376927956
0.987193828130985
1.1408334332755956
2.240008413710362
3.2917809040967985
4.2963878893205685
5.254047614068247
6.1649579464038755
7.029295096399206
7.847212675676566
8.61884108195708
9.344287191456964
10.023634340927092
10.656942580091433
11.2442491749944
11.785569342286303
12.280897194445311
12.730206876137105
13.133453871984553
13.490576466701267
13.80149733889125
14.066125270580537
14.28435695523694
14.45607888760373
14.581169319625193
14.659500267401533
14.69093955461133
14.675352878674559
14.61260588632915
14.502566245669806
14.345105702053871
14.140102105398535
13.88744139639027
13.587019538989423
13.238744386371831
12.842537466979298
12.398335676809536
11.906092863412258
11.365781286291167
10.77739293753504
10.140940705672936
9.456459364706518
8.724006369471628
7.943662437720927
7.115531898322325
6.239742784523205
5.316446650968496
4.3458180927411085
3.3280539449451774
2.2633721418927495
1.1520102156995096
1.3034351256011336
2.5592795940952486
3.7609753232143177
4.908797001349891
6.002997212082116
7.043804588530009
8.031422377579997
8.96602739710821
9.84776936740783
10.676770596498926
11.453125997822639
12.176903417901233
12.848144251041546
13.466864317830746
14.033054984135948
14.546684497560388
15.007699518599107
15.416026824350677
15.771575163352567
16.074237240888905
16.323891814957513
16.5204058839377
16.663636948017086
16.753435327233156
16.789646519821474
16.77211358527319
16.70067953717431
16.57518973136552
16.39549423528702
16.161450164669713
15.87292397364076
15.52979368414313
15.131951040304356
14.679303572933136
14.171776558495097
13.609314856230952
12.991884606144756
12.319474769405478
11.592098491895523
10.809794270273601
9.972626898768912
9.080688174101894
8.134097334822503
7.1330012104190015
6.077574055261095
4.968017042059946
3.8045573893917477
2.587447098436291
1.316961274944257
1.4658817191836124
2.878248814985446
4.229731847050397
5.520644720933524
6.751275591575526
7.921884819352204
9.032703392418698
10.083931795503606
11.075739303123482
12.008263673438467
12.881611217765768
13.695857219893359
14.451046678688812
15.147195347106987
15.784291040970974
16.36229519110441
16.881144612760387
17.34075346717298
17.74101539090112
18.08180576951089
18.362984133268863
18.584396653611122
18.745878720230916
18.84725757966211
18.88835501725443
18.868990065313096
18.788981720976288
18.648151657937433
18.446326916565265
18.18334255723314
17.859044261688798
17.47329086716436
17.025956817416787
16.51693451439391
15.9461365534256
15.313497823830755
14.618977455752535
13.862560592732772
13.044259968278695
12.164117263263973
11.222204219626649
10.218623484516279
9.153509157804416
8.027027014876808
6.8393743758213565
5.590779591615439
4.281501117853704
2.9118261468028277
1.4820687695306585
1.6281505271443404
3.196872136208182
4.697987097716574
6.131850219875361
7.498786594271962
8.799089366592831
10.033018031954153
11.200797231530014
12.302616024827493
13.338627610303805
14.308949465535953
15.213663877154303
16.052818830301028
16.826429226984484
17.534478403000662
18.17691991347092
18.75367955755132
19.264657613989772
19.70973126016579
20.088757148348744
20.401574114354673
20.648005995046866
20.827864532267352
20.940952342300406
20.98706593109656
20.965998736401676
20.877544179012443
20.72149870602407
20.497664809527407
20.205854004402394
19.84588974889085
19.417610291646902
18.92087142829952
18.355549149851555
17.72154216446734
17.01877427297819
16.247196577103942
15.406789497909635
14.497564580402543
13.519566058553313
12.472872153332224
11.35759607471356
10.17388669710136
8.921928876284188
7.601943374962932
6.214186363144945
4.75894845941973
3.236553279286815
1.6473554574417126
1.790217706579789
3.5151034528716223
5.165674687288086
6.742328970804549
8.245429821219112
9.675304313928148
11.032241267486253
12.3164899869229
13.528259535250605
14.667718501813606
15.73499523456588
16.730178502398786
17.65331855313358
18.504428532559544
19.283486230333462
19.990436118980178
20.62519165304905
21.18763779677628
21.677633749801455
22.095015841841114
22.439600568878447
22.711187745036806
22.909563745686146
23.034504818983756
23.08578044457135
23.063156719207853
22.966399750241308
22.795279038775433
22.549570835056848
22.22906144882709
21.833550497467762
21.36285407467968
20.816807821826497
20.19526988326147
19.498123725890014
18.725280801927898
17.87668303220536
16.95230508555212
15.952156428024406
14.876283113720255
13.724769286748018
12.497738362111784
11.195353851407267
9.817819797314145
8.3653807796614
6.838321454810012
5.2369655893020655
3.5616745488731425
1.8128452044760106
1.9520581357968554
3.8328942689012857
5.632724908336506
7.3519923739838955
8.991100213667998
10.550410651924267
12.030242685861035
13.43087079693122
14.752524244778986
15.995386907340237
17.15959762972144
18.24525104355845
19.252398818117722
20.181051304152408
21.03117953215808
21.80271752733784
22.49556490460877
23.1095897085232
23.644631464427825
24.10050440889389
24.477000869434725
24.773894765285483
24.990945202818747
25.127900141220852
25.184500105488915
25.16048192537638
25.055582480257076
24.869542430858367
24.602109919650896
24.253044221974065
23.822119330224893
23.30912745311043
22.7138824114391
22.036222910957733
21.276015671464755
20.43315839001773
19.507582513989277
18.499255797819004
17.408184615090583
16.234415995017876
14.978039350208682
13.639187860016516
12.218039471492107
10.714817477944738
9.129790633174325
7.46327275805257
5.715621795162942
3.887238266921111
1.9785630928834264
2.113645294240051
4.150193476670271
6.099064434704189
7.960747399099684
9.735687653950343
11.424283854333325
13.026886055645567
14.543794418840188
15.975258552969912
17.32147745424679
18.58259999931539
19.758725949616046
20.849907423163703
21.85615079024644
22.777418950203977
23.61363394740425
24.364679885813253
25.03040610336812
25.61063056923107
26.105143468978607
26.51371094502172
26.836078961915334
27.071977268254848
27.2211234289233
27.28322690362712
27.257993149374336
27.1451277259778
26.944340384981768
26.655349123315112
26.277884183381104
25.811691981696576
25.256538947691844
24.612215253685367
23.878538416071066
23.055356746234423
22.142552628039304
21.140045596288708
20.047795188437036
18.86580353919775
17.594117684665168
16.232831539815965
14.782087510357975
13.242077697101243
11.613044648284934
9.89528161309933
8.089132247745516
6.194989723819649
4.213295188247736
2.144535524002312
2.2749511453910922
4.466947143678665
6.564616034270217
8.568496244602162
10.479076589991665
12.296793484343745
14.022028929579722
15.655109242908598
17.196304478023592
18.645828494004277
20.003839624304455
21.270441897411704
22.44568676029113
23.52957525610173
24.522060608585175
25.423051166775057
26.232413665275942
26.949976757477693
27.57553478137094
28.108851719997535
28.54966532119449
28.897691344019627
29.152627901798297
29.31415987402515
29.381963361986415
29.355710164966585
29.235072255556695
29.01972623417222
28.709357743928347
28.30366582761525
27.802367208891962
27.205200479285757
26.511930171990493
25.722350702347228
24.83629015303896
23.853613880092073
22.77422791319479
21.598082121190195
20.325173110311667
18.955546819627546
17.489300774582787
15.92658595609814
14.267608239453146
12.512629353627304
10.66196730922859
8.71599624045541
6.675145604561513
4.539898681246054
2.31079031383765
2.4359460237529484
4.783098308210419
7.029298296500575
9.1751360183371
11.221145688013408
13.167802836020583
15.015522289126952
16.764656952182598
18.41549734181472
19.968271820070797
21.423147474328747
22.780231589251088
24.03957365644161
25.20116786776237
26.264956039526307
27.230830916547355
28.098639806825
28.86818850018938
29.539245427045852
30.111546016135875
30.584797213405835
30.95868212708414
31.23286476713126
31.406994850188973
31.480712643935483
31.45365382699729
31.325454342861384
31.09575522792551
30.764207395005055
30.330476354489676
29.79424685557584
29.15522742964347
28.41315481714026
27.567798257996156
26.618963623562706
25.566497365763233
24.410290256309047
23.150280885627545
21.786458887326773
20.3188678504481
18.74760787760084
17.072837742858923
15.294776599468337
13.413705183240879
11.429966454077155
9.343965614897723
7.156169444599919
4.867104879877583
2.477356779786634
2.596598526463948
5.098586785528957
7.4930253775829385
9.780558443499213
11.961767518610825
14.037168617412068
16.00721023897963
17.87227224012181
19.63266551993235
21.288632457219062
22.840348040818967
24.287921632101803
25.631399299147848
26.870766662822152
28.005952196408145
29.036830922584585
29.96322845385031
30.784925325522053
31.501661573708393
32.113141514046376
32.61903868053811
33.019000887538944
33.3126553815563
33.49961405269289
33.579478678975796
33.55184617966407
33.416313856005075
33.1724845999298
32.8199720527432
32.35840569672352
31.78743586298043
31.10673863862618
30.316020655217194
29.415023739220487
28.403529402922395
27.281363151394533
26.048398578049955
24.704561217457034
23.249832119893497
21.684251107768965
20.00791966910866
18.221003438609326
16.32373421195011
14.316411434109698
12.199403098258006
9.97314598785751
7.638145191041807
5.194972813751369
2.6442658168562105
2.7568754109005242
5.413348987059079
7.955706766210528
10.384649593610606
12.700808281088616
14.904740681423881
16.99692975869851
18.977782594457505
20.847630266240156
22.606728532721664
24.25525925844629
25.79333251049777
27.220989259855997
28.538204621318528
29.744891567706034
30.840905056564594
31.8260465105116
32.7000685959143
33.46268024835344
34.11355189741856
34.652320847596805
35.07859677616227
35.39196731324753
35.592003673188806
35.678266309850876
35.65031057223022
35.50769233926674
35.249973615192474
34.87672806865345
34.387546499799114
33.78204222009412
33.0598563292967
32.220662872946065
31.264173862213145
30.190144135333167
28.998376036797932
27.688723886843135
26.261098209337234
24.715469681376472
23.051872762813584
21.270408958275638
19.37124965862138
17.35463850312623
15.220893197866545
12.970406720677909
10.603647837981836
8.12116085447503
5.523564513290978
2.811549961898979
2.916741499262313
5.727317754588684
8.417247074005225
10.98728966267172
13.438127573468355
15.770361812839301
17.98451052086584
20.081008157473242
22.060205623375698
23.92237124211203
25.667692528291344
27.296278666875146
28.808163628928437
30.203309850730445
31.481612405543906
32.6429036003175
33.686957933072286
34.6134973510049
35.42219675375095
36.112689690850544
36.6845742076762
37.13741879872226
37.470768432090594
37.68415061372525
37.777081464022096
37.74907178356002
37.59963308784604
37.328283593842336
36.93455414310437
36.41799404766054
35.778176845363475
35.01470595110629
34.12722018930285
33.115399191143815
31.978968637244
30.71770532290197
29.331442018985868
27.820072096434853
26.183553876820667
24.421914665546865
22.5352544178056
20.523748980701285
18.38765284829462
16.127301359692964
13.743112263858933
11.23558656864067
8.605308586422842
5.852945084226425
2.9792434425510157
3.0761595911157897
6.040422212032068
8.87754585413416
11.588352774974679
14.17357821441385
16.63386757965742
18.96977478568506
21.18176167429733
23.270198431804555
25.23536492287874
27.077452857034388
28.796568704293975
30.392737277462828
31.865905900373797
33.215949084373406
34.442673638932305
35.545824146378834
36.52508873578587
37.38010509625613
38.11046667520634
38.71572901318482
39.19541617240127
39.54902722168417
39.776042745926084
39.87593135314507
39.84815615677413
39.692181214544625
39.40747790871487
38.993531254710135
38.44984612684984
37.775953390567274
36.971415930234734
36.03583456063446
34.96885380788804
33.77016754265541
32.43952444437788
30.976733270556657
29.381667899518327
27.65427210867052
25.794564043440275
23.802640324725292
21.67867973489714
19.42294641466404
17.0357924951463
14.517660081813478
11.869082499779912
9.090684703311567
6.183182746668193
3.1473822087779126
3.23509038603839
6.352587638610325
9.336497453577008
12.187706841432002
14.907006125161093
17.495086258343715
19.952537383126646
22.27984854165658
24.477408451233085
26.545507251151427
28.484339128258043
30.294005728609623
31.97452026385725
33.52581222352188
34.94773260784801
36.24005960012479
37.40250460236462
38.43471856407394
39.336298539846545
40.106794417977945
40.74571576889949
41.25253876890415
41.62671316108831
41.867669221495355
41.9748247043682
41.94759174556242
41.78538370758722
41.48762195356737
41.053742540189745
40.48320282159738
39.77548795707088
38.9301173151666
37.94665076564965
36.824694848214044
35.56390880369108
34.16401044877443
32.624781869926
30.94607490585554
29.127816380652543
27.17001304181431
25.072756148950354
22.83622564997142
20.460693872589424
17.94652864960257
15.294195787304622
12.504260777914418
9.577389648663129
6.514348833136215
3.316003944373255
3.3934924175452617
6.663735366018032
9.79399090395455
12.785213470224857
15.638250281476665
18.353838844377556
20.932605795468433
23.375066971583067
25.681628610440367
27.85258957870639
29.88814452410013
31.788387848990197
33.55331840443489
35.18284480683396
36.676791283633015
38.03490395931385
39.256857499173215
40.342262034867346
41.2906703027206
42.101584933503844
42.774465839819015
43.30873765497652
43.70379718474494
43.95902084030338
44.07377202755637
44.0474084739607
43.879289478963415
43.56878307869184
43.1152731187849
42.51816623142717
41.77689871372838
40.89094330451958
39.85981585517719
38.683081887506525
37.36036302800731
35.89134330268367
34.275775270537004
32.51348596665955
30.604382617655986
28.548458083150308
26.3457959675236
23.9965753356868
21.501074956061615
18.85967698345805
16.072869983695476
13.14125119143256
10.065527883127086
6.846517738271159
3.4851480541213027
3.5513220003419894
6.973782703894052
10.24990985666169
13.380727938517547
16.367142744399587
19.2099391596071
21.909780353863177
24.46720828530627
26.882645402284616
29.156397428514286
31.28865711673121
33.279508857128675
35.12893402906438
36.83681698833141
38.40295158733841
39.82704813140488
41.108740681489685
42.24759462126743
43.243114414755276
44.0947514893459
44.801912187916955
45.36396574252836
45.78025223071038
46.050090483664015
46.17278592321469
46.147638311341325
45.973949401956865
45.651030489691166
45.17820985427273
44.554840101614744
43.78030540407614
42.85402864231884
41.77547844967947
40.54417615707339
39.159702632427255
37.62170500283692
35.92990324071026
34.084096587364584
32.08416977804928
29.930099022185203
27.621957681750025
25.159921578837473
22.544273851364174
19.77540926337613
16.853837864021006
13.780187877157696
10.5552076918102
7.179766813050623
3.6548556233852385
3.7085331930287646
7.282642897794844
10.704132569133936
13.974099234919189
17.093508781623378
20.06319407012545
22.883854565023498
25.55605735572584
28.08023944394361
30.4567111702568
32.68566065234254
34.767159108902824
36.70116694613026
38.487540488255085
40.12603923961775
41.61633357266491
42.95801274445691
44.150593153181646
45.19352675572605
46.08620957731092
46.827990254411745
47.41817856227179
47.856053888153795
48.14087362090319
48.27188143618349
48.24831546460473
48.06941633679252
47.73443510524855
47.24264104726021
46.593329356159416
45.78582872981059
44.8195088652011
43.69378786646175
42.40813957058023
40.96210079040235
39.35527846819592
37.58735672531204
35.65810378465977
33.567378731967636
31.315138070521716
28.901442011520988
26.326460428601436
23.590478391522534
20.693901179387318
17.637258659359087
14.421208902723906
11.04654089637514
7.514176194725608
3.8251693455456905
3.865077778615976
7.590225124465787
11.156531949372082
14.565170182279097
17.817167091650106
20.913403828972417
23.854615584125394
26.641393216640296
29.27418622300321
31.753306898435618
34.07893555171639
36.25112663353729
38.26981564263653
40.13482667934757
41.84588052315308
43.402603118996396
44.80453436663673
46.05113711773072
47.14180629612251
48.075878068527736
48.85263900441571
49.471335175417146
49.931181155989464
50.23136889780484
50.371076460411174
50.34947658964417
50.16574514319134
49.81906936930956
49.30865604981143
48.63373952196308
47.793589595801194
46.787519383497354
45.61489305587168
44.27513353770543
42.7677301481775
41.0922461861828
39.248326451344525
37.23570468154945
35.05421087619735
32.70377846126016
30.18445123820249
27.496390043514324
24.639879029898122
21.61533146352736
18.423294915245968
15.064455706958949
11.539642458288792
7.849828563234666
3.996133412309971
4.020905265411656
7.896434529784521
11.60697566710877
15.153777651886074
18.53793014465915
21.760362560924317
24.82184485413126
27.722989860979126
30.464257053219136
33.04595753868486
35.468260154616544
37.73119849879882
39.834678748823514
41.778488126003424
43.56230386864507
45.185702589004734
46.648169899178434
47.94911020312219
49.087856564653194
50.0636805745832
50.875802153446294
51.523399239585785
52.00561732532762
52.321578816359875
52.47039220071744
52.45116102415285
52.26299267786234
51.90500701180864
51.37634479287398
50.67617603121724
49.80370820039702
48.75819437708093
47.5389413245389
46.145317540325166
44.576761282900506
42.83278858441775
40.91300124699654
38.81709480891895
36.54486645391795
34.09622282201367
31.471187664730998
28.66990927015021
25.692667565265168
22.5398807844101
19.212111573304497
15.710072379106647
12.034629957943944
8.186808813308298
4.167793361582666
4.175962911132676
8.201172315067993
12.055326340125461
15.739752880840634
19.255604654954944
22.60385890701903
25.7853189323798
28.80061725234779
31.65022026705426
34.334434211116886
36.853412238171295
39.20716246348581
41.395556799205416
43.418340424382876
45.27514174163154
46.965482683152274
48.488789241585856
49.84440211490707
51.031587369277844
52.04954703882935
52.89742959664246
53.57434024651073
54.07935099983702
54.411510516010864
54.56985369761471
54.55341104376878
54.36121777505551
53.992322752076305
53.44579721648792
52.720743387980804
51.816302953432654
50.73166548488078
49.46607682117718
48.01884744401427
46.38936087303734
44.5770820962687
42.58156604118784
40.402466079566445
38.03954254447457
35.49267122156617
32.76185175893196
29.847215920425057
26.749035586977698
23.46773038923152
20.003874832809423
16.358204755330323
12.531622932664716
8.525203630471493
4.340195876617529
4.330195773346853
8.504335878193134
12.501441805786321
16.322921906218664
19.969992202088562
23.44367684898311
26.744810527026672
29.87404257479338
32.83184267264801
35.61850788122105
38.23417084206922
40.6788089515455
42.95225432523847
45.05420437928886
46.98423286599066
48.74180121390752
50.32627003727582
51.736910695433494
52.97291679977772
54.03341558297969
54.917479062822025
55.624134950342665
56.152377268949
56.50117666707544
56.66949042169672
56.65627214373221
56.46048120770028
56.08109193795673
55.5171025916572
54.767544183721995
53.83148920240718
52.708060264625516
51.396438758334824
49.895873514986675
48.20568954814482
46.325296885125596
44.254199506819475
41.99200439682083
39.53843068492098
36.893318851901945
34.05663994245188
31.028504711495742
27.809172606208914
24.399060461791514
20.798750764369764
17.00899930893495
13.03074205501844
8.86510095795808
4.5133885296633345
4.483546789931616
8.805819016795061
12.945175488661931
16.903106130409782
20.680890018741714
24.279596735931356
27.70008976997583
30.94303175074277
34.00889130762185
36.89795133293121
39.61031843698461
42.145933385625014
44.50458231848988
46.68590855686632
48.68942482257384
50.514525704334275
52.16050022494728
53.626544380691804
54.91177354370565
56.015234637817116
56.935918018466346
57.67276900713887
58.224699049902384
58.59059648786366
58.76933694417559
58.75979334764741
58.56084562592736
58.17139011253159
57.59034872085327
56.81667794429437
55.84937774537225
54.687500397453995
53.33015934081485
51.77653811020853
50.02589938347116
48.077594190410494
45.931071308634216
43.58588685732537
41.041714082154215
38.29835330436258
35.355741984756236
32.21396482923538
28.873263836669416
25.33404816279286
21.596903645582525
17.662601808745176
13.532108131066545
9.206589340347628
4.687419462960275
4.635956893036574
9.105512201151853
13.386376875949408
17.480123033667958
21.3880919655621
25.11139653711034
28.650925753677612
32.00735125857177
35.181135524951266
38.172541501780245
40.9816434764069
43.60833892201964
46.052361107077
48.31329225603345
50.390577065415854
52.28353639652497
53.991380985421515
55.5132250316922
56.84809954959669
57.99496538784805
58.95272584706694
59.72023884676504
60.296328615303345
60.67979689702705
60.869433689946106
60.8640275445069
60.662375468967014
60.26329249953711
59.66562100335039
58.868239789364466
57.8700731064475
56.6700996090256
55.26736136868892
53.660973004964575
51.85013100041577
49.83412325403935
47.61233891275117
45.184278503726304
42.549564370742665
39.7079513952739
36.659337958355664
33.40377707246614
29.941487583800885
26.272865314809266
22.398493985225024
18.31915571707101
14.035840895950784
9.549757127898165
4.862336998494017
4.787365160694693
9.403302925076037
13.82489211376079
18.053787051789936
22.091389715871447
25.93885334844328
29.597088363709982
33.06677028520669
36.34834944957528
39.442062210083854
42.34794337631087
45.06583963310739
47.5954236924905
49.93620894604327
52.08756440255028
54.048729715475794
55.81883012715768
57.39689118048443
58.78185307406139
59.97258456290928
60.96789633263443
61.76655380083342
62.36728932425601
62.76881381367649
62.96982778004231
62.96903185490402
62.7651368451223
62.35687339604725
61.743001348453575
60.92231888268869
59.89367154806734
58.655961276892434
57.208155480590136
55.54929631978244
53.67851023133305
51.59501778309375
49.29814391166792
46.78732857980323
44.062137868239525
41.122275492417415
37.96759470706964
34.59811053187029
31.014012199273647
27.215675691744174
23.20367619994341
18.97880029650733
14.542057582300467
9.894691524419656
5.038189167405031
4.937709011139452
9.699076144593263
14.260564738723115
18.623910638127544
22.790574173995864
26.761745181563896
30.538350441081768
34.121063252490494
37.510314848536964
40.70630735011137
43.70902797100523
46.51826418713357
49.133619597619365
51.55453022128508
53.780280991699186
55.81002223712083
57.64278595705558
59.277501734567394
60.71301215255224
61.9480876115977
62.981440476895784
63.811738510731615
64.4376175753145
64.85769361724408
65.07057396914637
65.07486802615327
64.86919737393583
64.4522054607777
63.82256691895103
62.97899664966638
61.92025879102628
60.6451756901794
59.15263699879928
57.44160900483687
55.511144304041714
53.360391901307196
50.98860781493798
48.39516623660238
45.579571275763435
42.54146929053563
39.28066177679792
35.79711875440914
32.09099255397356
28.162631869851833
24.012595905080918
19.641668392672415
15.050871234982921
10.241477459924681
5.215023149589269
5.086924443949659
9.992714813972967
14.693236560221171
19.190305531240362
23.485437154741486
27.579853068360997
31.474490312068625
35.17001275975774
38.66682446134794
41.96508456570767
45.06472349893108
47.96546008167191
50.66681928343277
53.168150330478326
55.4686449068615
57.56735521447146
59.46321168724203
61.15504018631357
62.64157853591104
63.921492293469186
64.99338968136067
65.85583564071223
66.50736499976799
66.94649477909354
67.17173568340527
67.18160285460381
66.97462598197822
66.54935888324275
65.90438868431539
65.03834473579518
63.94990740999866
62.63781692433947
61.100882334772464
59.33799083625874
57.34811749686295
55.13033553766061
52.683827251860215
50.00789563454965
47.10197676829422
43.96565298026997
40.59866675366202
37.00093533983129
33.17256597870961
29.11387159298804
24.825386777182167
20.30788385662944
15.562388743469098
10.590196267735994
5.392884612499012
5.234946333750922
10.284100530484546
15.122748710654964
19.752784251581147
24.1757733534688
28.39296351689226
32.405294727725746
36.21341299034974
39.81768584307432
43.21821948860731
46.41487717722532
49.407298491244724
52.19491919569974
54.77699134180742
57.152603336297595
59.32069972000721
61.28010043280771
63.02951937816829
64.5675821383843
65.89284273009638
67.00379932805811
67.8989089229253
68.57660091479016
69.03528967791232
69.27338616313526
69.28930863217917
69.08149264181887
68.64840041588914
67.98852975884881
67.1004226756552
65.98267386948531
64.63393929095311
63.05294491009043
61.238495875226846
59.18948621158129
56.90490919660414
54.38386852883907
51.625590382966514
48.629436415160185
45.39491775086192
41.92170995098209
38.20966891284464
34.25884761921577
30.069513602706675
25.642166943714393
20.977558568529385
16.076708560781057
10.940924144011534
5.571816937431712
5.381708782541821
10.573114299994375
15.548942882314353
20.311161852850944
24.861382639335528
29.200871357848506
33.33056225863064
37.251073633545374
40.96272577702511
44.46556059101889
47.75936243017315
50.84367979628502
53.71784750983561
56.38100901158359
58.83213847779601
61.070062467618484
63.09348085987695
64.90098687804496
66.49108604535763
67.86221395609266
69.01275279256427
69.94104656029826
70.64541505450138
71.1241666088107
71.37560971229378
71.39806361157316
71.18986804146145
70.74939224965023
70.07504349849924
69.16527523912612
68.01859516034618
66.6335733175219
65.00885054361122
63.14314733696478
61.03527340814648
58.684138050842684
56.08876148000424
53.24828725409394
50.16199586744073
46.829319563879615
43.2498583834918
39.42339741111759
35.34992514838785
31.029652880152383
26.463034852402906
21.650789021679564
16.593918076059673
11.29373036612406
5.751860321103393
5.527145536470721
10.859637436351086
15.971662771395554
20.86525795626219
25.542072708022825
30.003383025687306
34.25010719611612
38.28282437975803
42.1017953204732
45.70698472236932
49.0980848430485
52.27453986746925
55.23557064865768
57.98019943046799
60.507274203077124
62.815492382139865
64.90342354712638
66.76953102208955
68.41219213143188
69.82971701352335
71.02036592461027
71.9823650139
72.71392059670212
73.21323199514127
73.47850305496956
73.50795248150126
73.29982316721767
72.85239070806008
72.16397132450483
71.23292941704517
70.05768499353852
68.63672120846724
66.96859225122031
65.05193181201041
62.88546234054387
60.4680052938908
57.79849254632571
54.87597910544576
51.69965724554444
48.268872131398965
44.58313896305806
40.64216162542877
36.44585277541451
31.99435524372799
27.288064569522735
22.32765242307954
17.11409060538951
11.648675244729167
5.933050738948311
5.67119047425428
11.14355260922392
16.39075575195927
21.414899098948005
26.217662133358903
30.800320322238083
35.163764016166084
39.308520052635416
43.23477555354134
46.94240340561768
50.43098892027121
53.699857186261
56.748100654482656
59.5746065277605
62.17808356932571
64.55708799049481
66.71004812930771
68.63528768660024
70.33104734264575
71.79550463466379
73.02679203205486
74.02301320097575
74.7822575015981
75.30261280947353
75.58217679581303
75.61906683984022
75.41142877919691
74.95744473104817
74.2553402374143
73.30339100298079
72.09992950196954
70.64335173329671
68.93212439972478
66.96479277749782
64.7399895282045
62.256444684281654
59.51299701396778
56.50860694084013
53.242371157128005
49.71353902923665
45.921530848107366
41.865957926387
37.54664448907902
32.96365124402734
28.117300454196076
23.008202264615676
17.63728196376026
12.005807782740973
6.1154187557468855
5.813778174624864
11.424745056046108
16.806074804332194
21.959921430529405
26.887983862061922
31.59152471668297
36.071392468562856
40.32804644870683
44.36158410890605
48.17176997633616
51.75806573516774
55.119660891201086
58.25550350546824
61.16433052203743
63.8446972625279
66.29500571393538
68.51353129558038
70.49844785387658
72.2478506984761
73.75977755866073
75.03222740305864
76.06317712772561
76.85059617588736
77.39245920642978
77.68675697666397
77.73150564721371
77.52475475304885
77.0645941138813
76.34915997964836
75.37664072252747
74.14528239581256
72.65339448240891
70.89935615152895
68.88162333193557
66.59873689396136
64.04933221048614
61.2321503393105
58.14605103651927
54.79002777171667
51.16322487235181
47.26495687521382
43.09473010868705
38.652266469802676
33.937529295004715
28.950751153554734
23.692463317165746
18.163526579352077
12.36516301336936
6.2989881688847795
5.954844570986147
11.703103975368489
17.217480725482556
22.50017379616226
27.55288920048841
32.376862241311684
36.972883360903495
41.3413269632771
45.482182568604436
49.39508765676302
53.07936156755852
56.53403984827096
59.757908474247586
62.7495374138383
65.50731306414323
68.0294691465812
70.31411571976514
72.35926603958865
74.16286107069286
75.72279152809756
77.03691740078068
78.10308497891722
78.9191414720355
79.48294736551357
79.79238671659985
79.84537563781944
79.63986925508544
79.17386745970293
78.44541979750477
77.45262985490777
76.19365951080103
74.66673342521082
72.87014413076461
70.80225808132633
68.46152299457464
65.84647680133222
62.9557584846053
59.78812105605785
56.34244687613001
52.61776547758505
48.613273999676366
44.32836028192372
39.76262860278881
34.91592797849461
29.78838286164286
24.380425997580794
18.692833109161676
12.726758987500773
6.48377446815127
6.094327702326149
11.978524120844337
17.62484465182827
23.035521248272083
28.21225234762238
33.156229049244125
37.868165114969315
42.34833009003661
46.59658482388102
50.61241866748276
54.39498763618282
57.943152854053416
61.25551863705472
64.33046962549642
67.16620644051224
69.76077941201011
72.11212000480151
74.21806965297598
76.07640579797311
77.68486501083929
79.04116316216589
80.1430126822222
80.98813702735131
81.57428253572144
81.89922791503557
81.96079165621452
81.75683770978283
81.28527979600327
80.54408474534452
79.53127528305203
78.24493268060706
76.68319969813348
74.84428423583158
72.7264640993981
70.32809326481197
67.64761000195135
64.68354718439753
61.43454507499155
57.89936683275675
54.07691693725012
49.96626267067173
45.56665873628389
40.877575023821706
35.89872745781149
30.630111783543732
25.07204005751585
19.225179514310668
13.090593380186318
6.669783095717191
6.232168569984745
12.250907616903616
18.02805092801726
23.565849034006906
28.86597553548316
33.929557708820255
38.757211182506616
43.3490778927342
47.70486650572684
51.82389449098749
55.70513104431046
59.34724009143136
62.74862265146226
65.9074579018934
68.82174236190164
71.48932669544615
73.90794972744696
76.0752693626435
77.98889019474407
79.64638769065854
81.04532892884832
82.18328996000731
83.0578699408115
83.66670226588101
84.00746298878033
84.07787687902956
83.87572150824649
83.39882979506312
82.64509146513277
81.6124538999537
80.29892285686405
78.70256354275844
76.82150251630773
74.65393087881007
72.1981091920234
69.45237453291327
66.4151500611043
63.084957434388514
59.46043236105342
55.54034352555772
51.32361506522339
46.80935271041295
41.99687362897208
36.885739936316924
31.4757957461825
25.767207542785044
19.760507552807777
13.456639685315091
6.8570074894484865
6.3683121115078904
12.52016601945984
18.427000359174084
24.09106711115949
29.51399484498692
34.696824317881855
39.64004841799782
44.343655558824565
48.80717560607037
53.02972741455269
57.010067070239955
60.74663597053815
64.23760793305776
67.48093459671001
70.47438846692896
73.2156030556493
75.70210967344818
77.93137054252631
79.90080801179606
81.60782976662034
83.04985003264466
84.22430687367675
85.12867577596288
85.76047979365012
86.1172966024204
86.19676286917809
85.99657639500327
85.51449652715307
84.74834336327072
83.69599628802105
82.35539238999218
80.72452530538037
78.80144502504464
76.58425918466712
74.0711363334525
71.2603116459571
68.15009550507078
64.73888534105762
61.02518106261811
57.00760436102632
52.68492210676871
48.056073989859094
43.12020447968732
37.876699096724685
32.325224897233404
26.465774971505464
20.298716646759395
13.824842966883978
7.045426892341582
6.502708303071683
12.786222647761349
18.821613889010354
24.611115252100486
30.156286774352004
35.458056532122455
40.51676651841319
45.33222215888402
49.903744424535255
54.230223495290026
58.31017294979996
62.14178350219644
65.72297537444985
69.05144847986725
72.12472969668755
74.94021662649828
77.49521735640623
79.7869858727345
81.81275290373149
83.56975209590554
85.05524154993886
86.26652085541038
87.20094386665788
87.85592755321366
88.2289573371103
88.31758939499957
88.11945045530115
87.63223566060975
86.85370509302567
85.78167957621278
84.41403637388775
82.74870540067992
80.78366654898781
78.51694871548699
75.94663108385127
73.07084718707014
69.88779223302846
66.39573413158061
62.59302861029509
58.47813874848909
54.04965919528854
49.30634526662273
44.247147037595184
38.8712484595288
33.178111435328184
27.167524680662858
20.839657082082294
14.195115135710648
7.23500391090412
6.635313404205997
13.049015216770268
19.211836751038128
25.125968802624673
30.792875647285918
36.21334261446589
41.38752865495406
46.315022752351894
50.99490299336641
55.425797107726524
59.605943314538905
63.53325036640791
67.20535576349907
70.61968121305435
73.7734845317792
76.66390732437135
79.28801791639908
81.64284916919658
83.72543095392473
85.53281720726038
87.06210762899357
88.31046420916351
89.27512288709354
89.95340074515113
90.34269922560105
90.44050392899202
90.24438160733774
89.75197500605918
88.9609962352651
87.86921936529063
86.47447294461999
84.77463313130815
82.76761811340643
80.4513844703494
77.8239260969691
74.88327627555634
71.62751343881878
68.05477111892087
64.16325252448189
59.951250127919806
55.41717057982606
50.55956519410907
45.377166166916794
39.86892860227687
34.03407831781864
27.87216529312756
21.38312250036968
14.567329721332708
7.425681805484196
6.766091359900976
13.308498803142498
19.597643147028172
25.635645172511815
31.423841960771107
36.9628416274275
42.25258343886879
47.29240199882453
52.08109415289843
56.61698725473082
60.898007469606455
64.92174685753264
68.68552807454661
72.18646565417296
75.4215229753228
78.38756418268441
81.08140049532935
83.49983051277573
85.63967430020477
87.49780120081364
89.07115147956131
90.35675204562985
91.35172662825822
92.05330089073047
92.45880305948928
92.56566071947898
92.37139448333642
91.87360928235188
91.06998405190747
89.95826059531487
88.53623240935708
86.8017342435744
84.75263314530417
82.38682171483167
79.70221426079718
76.69674650628515
73.36837945070441
69.71510794264
65.73497446371755
61.4260885624235
56.78665231023087
51.814992077956504
46.50959684800262
40.869163186556584
34.89264689696874
28.579321260860088
21.928841645188673
14.941316110545126
7.617381496631037
6.895015376558032
13.564649182394326
19.97904151441765
26.140211145364137
32.049331786346755
37.706794907895826
43.112278383867064
48.26481945639307
53.16289047325366
57.804475846076656
62.187148717730665
66.30814590805403
70.1644398236345
73.75280616474518
77.06988643394376
80.11224443946817
82.87641618545415
85.35895274287721
87.55645589426729
89.46560653556264
91.08318599557515
92.40609059387971
93.43133989889886
94.1560792678341
94.57757734868505
94.69321930206173
94.50049655753713
93.99699395772356
93.18037516476592
92.0483672105517
90.59874506587725
88.82931708708271
86.73791217302929
84.32236943250595
81.58053112350953
78.51023958231909
75.10933881204978
71.3756813482574
67.30714096277197
62.90163170502608
58.15713371307152
53.07172615196597
47.643627554655524
41.871243748017726
35.75322344240276
29.288521445565937
22.47646932914415
15.31685322648385
7.809998272420753
7.022069691659775
13.81746658031389
20.35608045301219
26.63979110811167
32.66956735596554
38.44553898472279
43.967075051835195
49.23286677547534
54.24101324593396
58.98910817617139
63.47432596134759
67.69350541589596
71.6432296981248
75.31990110929158
78.7198096584201
81.83919450748178
84.67429764505923
87.22140937208802
89.47690541332095
91.437275685976
93.09914495768109
94.45928580493668
95.51462443867413
96.26224009339994
96.6993587805544
96.82334228623907
96.63167334951264
96.12193799224474
95.29180598773952
94.13901045536046
92.66132755510064
90.85655723212328
88.72250592877104
86.25697214256638
83.45773566472819
80.32255128609644
76.84914770631885
73.03523232801427
68.87850256026817
64.37666419428942
59.52745734753704
54.3286903991657
48.77828225825793
42.87431321451457
36.61508451672081
29.999186705824442
23.025576593945633
15.693662625786214
8.003398183321504
7.147251558846598
14.066979888188577
20.72885539327194
27.134576317647955
33.28485898549039
39.17952012573207
44.817566097782674
50.197287027656934
55.31635380140709
60.17191586516398
64.76069784570059
69.07909312732714
73.12325269306571
76.88916775140261
80.37274491435457
83.56987295767077
86.47648046901834
89.08858396479515
91.40232632230371
93.414005623305
95.12009473174535
96.51725212831028
97.60232469465218
98.37234327956054
98.82451198821107
98.9561922152914
98.7648824956607
98.24819527508791
97.40383171181794
96.22955561083816
94.72316757000078
92.88248038390105
90.70529671046097
88.18938995864946
85.33248930576394
82.1322697005345
78.58634765407677
74.6922835653252
70.44759127008477
65.84975544236522
60.89625741223605
55.58460989362223
49.912401036838325
43.877348131514935
37.47736118325028
30.710616469414205
23.575640043214246
16.0714009970214
8.197414114321226
7.270573474105749
14.313251399840354
21.09751610174091
27.624835340728453
33.89561851299372
39.90931073044236
45.66449446458394
51.158996446683545
56.38999744712606
61.354142564794145
66.04764974020699
70.46641435749478
74.6061080106221
78.46226976779006
82.03038856136358
85.30597564600886
88.28462639234539
90.96207100467251
93.33421405917436
95.39716304420459
97.14724634016218
98.58102129864886
99.6952732658759
100.48700654334863
100.95342839063119
101.0919272525492
100.90004643986134
100.37545451212124
99.51591360872972
98.31924695327639
96.78330672125745
94.90594341644496
92.68497784982436
90.11817675951104
87.20323305313423
83.9377515970433
80.31924141936871
76.34511513779819
72.01269636633407
67.31923579713792
62.26193659277322
56.837989657881224
51.04461928579141
44.87913959099579
38.339022040607446
31.421974283154924
24.126030337989658
16.44965204978211
8.391841526970685
7.392065673160147
14.556382137849322
21.46227513535607
28.110925827183422
34.50237446034106
40.63562782195408
46.5087750197349
52.1191089036273
57.463250365973664
62.5372727739333
67.33682389483218
71.85724286420673
76.09367000472534
80.04114761810158
83.69471022563508
87.04946310940156
90.10064838969019
92.84369825041945
95.27427528066056
97.38830022633536
99.18196773432733
100.65175091698067
101.79439576513016
102.60690659317167
103.08652381159538
103.23069539439634
103.03704344564883
102.50332727598202
101.62740438206599
100.40719068547664
98.84062133687968
96.92561333218245
94.66003112319272
92.04165633952343
89.06816267333303
85.73709691601597
82.04586707613116
77.9917384512552
73.57183847191523
68.78317108167977
63.62264136231707
58.087091053393785
52.173345549523226
45.878272881558644
39.198855097176704
32.132272347636906
24.675999856895327
16.827917792081877
8.586433867554394
7.511778934719423
14.79651784849073
21.823417376980323
28.593307805741787
35.105789164425516
41.359353936845054
47.35151897661673
53.07896349090355
58.53766986892198
63.72306416141156
68.6301531559865
73.25365523002785
77.58812248204603
81.62805202536836
85.3679847547804
88.802590347165
91.92673771155779
94.73555054472807
97.22444806097877
99.38917133699664
101.22579603601115
102.7307325458435
103.90071477960426
104.7327790477365
105.22423451878458
105.37262684801826
105.17569657509614
104.63133388037029
103.73753125174447
102.49233555702267
100.89380094679893
98.93994393599533
96.6287019327087
93.95789640494164
90.9252018017598
87.5281212771558
83.76397020269235
79.62986839912519
75.12274196631716
70.23933554259233
64.9762357774263
59.32990675143505
53.29673802159067
46.873105903560855
40.05544852255709
32.84035506481416
25.22466953904906
17.205609205393216
8.780897644650944
7.629787731542683
15.0338557605286
22.181310809869938
29.072558726920228
35.70667816855049
42.08156076478594
48.19406150382682
54.04015565599585
59.61509846140102
64.91358385455732
69.92989868008448
74.65806915165125
79.09199670171026
83.2255808386261
87.05282714476762
90.5679390890776
93.76539286683321
96.63999499616236
99.18692287829134
101.40174895254842
103.28044943893471
104.81939895611518
106.01535252903635
106.86541666108377
107.36701124578082
107.5178241390866
107.31576021395941
106.75888668276369
105.84537640956293
104.57345085165367
102.94132417563483
100.9471499948515
98.58897207759362
95.86468028307598
92.77197289818625
89.30832647374835
85.47097419523978
81.25689376901269
76.66280575941313
71.68518327259837
66.32027384625052
60.56413436698334
54.41267979514929
47.86174642494608
40.90717034144208
33.54488165048045
25.771014946156242
17.582036338361316
8.974887184460442
7.746193778665441
15.268652220522588
22.536418718448886
29.54939052108866
36.30603222208175
42.80353595783245
49.03799299993295
55.00457240136747
60.69770225804657
66.11124922267639
71.23869214424138
76.07328608380354
80.60821344877702
84.83671956371731
88.75223062391822
92.34845262707083
95.61945051879242
98.55970739415062
101.1641641495155
103.42824046111708
105.34783836930887
106.91933006644611
108.13953172148132
109.00566533058094
109.51531066742461
109.66634942936724
109.45690364689645
108.88527035536244
107.949854431146
106.64910137961044
104.98143173865739
102.94517863722518
100.53852992949226
97.75947621707405
94.60576597629534
91.07486892770137
87.16394872033814
82.86984595293711
78.18907251632507
73.11781821306045
67.65197058759557
61.787148879174616
55.51875298534513
48.84202829073412
41.75214716810937
34.244307890991735
26.31385160235792
17.956397856119285
9.167999080315171
7.861130038746671
15.501231341242214
22.88931354231618
30.024668994748687
36.905042304991284
43.52681360948265
49.88519460034212
55.97443216091006
61.78801437282176
67.31887377036313
72.55958302744175
77.50253874146256
82.14012959183425
86.46488586051149
90.4696080669809
94.14747325164385
97.49211820345616
100.49769963923598
103.15893197981764
105.47110391429172
107.43007538879543
109.03225699695363
110.27457398762782
111.15441724947053
111.66958369137257
111.81820842667267
111.59869110074848
111.00961859113553
110.04968617048686
108.71761906802175
107.01209620582864
104.93167773134854
102.4747378240742
99.63940412789165
96.42350505356521
92.824526110512
88.83957636282415
84.46536605995294
79.69819646525464
74.53396289179186
68.96817195009271
62.99597401206827
56.61221189293021
49.8114867433422
42.588242120045344
34.93686715837967
26.851819697540353
18.327770100996492
9.359766363371056
7.974765256867881
15.73199482831129
23.240692657421576
30.499435954019212
37.505128177843694
44.253209002827596
50.73787859288802
56.95233007768129
62.88898402260935
68.53971885542742
73.8960916184884
78.94954402559243
83.69158957054931
88.11397831161504
92.2088368900007
95.96878228333077
99.387008701947
102.45734787079309
105.17430367476268
107.53306276134539
109.52948318233517
111.16006351446775
112.42189513264744
113.31260043014593
113.8302598028078
113.97333015639677
113.74055757581058
113.1308866306253
112.14336860012213
110.77707069752617
109.03098817108744
106.9039609689383
104.39459648308768
101.5011997412535
98.2217122963399
94.55366097321235
90.49411757073476
86.03967058112912
81.18640997552401
75.92992610938452
70.26532381923924
64.1872528070935
57.689955433819804
50.767333062059826
43.41303209435075
35.62055083633917
27.383368270303666
18.695095741455923
9.549652431607054
8.087309112346837
15.961433185500088
23.59139641693973
30.97493452760547
38.107971064100965
44.984858350909825
51.598634551916774
57.941289542420144
64.00403221214486
69.77755206326866
75.25226850239235
80.41856200475802
85.26698229403829
89.78842976759651
93.97430754027555
97.81664261840879
101.30817579620825
104.442420845267
107.21369441280157
109.61711873518641
111.64859980206273
113.30478397423414
114.58299627587203
115.48116366474957
115.9977265537214
116.13154173574813
115.88177967672326
115.24781890787186
114.22913999339028
112.825221286888
111.03543843733908
108.85896937322245
106.29470629044683
103.34117600135149
99.99646987123388
96.25818447565315
92.123374054972
87.58851581889354
82.64948915896248
77.3015698552047
71.53944040841499
65.35721768543125
58.748499122952126
51.706428789243006
44.223784643802624
36.293088354637305
27.9067390224533
19.05717211135436
9.737044787752064
8.199018096032932
16.190138545119993
23.94242885927131
31.45263826530882
38.71555120088922
45.724264402237765
52.470482164410186
58.94482101974461
65.13711502658896
71.03671320830912
76.63276138752529
81.91446165934323
86.87130396299116
91.49326556134965
95.77097563943559
99.69584361011485
103.26015100236826
106.45710795274145
109.28087628810856
111.72656195673008
113.79018012890022
115.46859665447998
116.75944974880954
117.66105580443096
118.17230312177136
118.29253714750914
118.0214405343867
117.35891101855754
116.30493977536955
114.85949258230102
113.0223958058025
110.7932289495597
108.17122526417127
105.15518172738246
101.743379561882
97.93351636399868
93.72265086833568
89.10716136638862
84.08271882574812
78.64427581385125
72.78607240921032
66.5016603757788
59.78394697413345
52.625259878193376
45.0174347491505
36.95192708018617
28.419949956911847
19.41263936930758
9.921248651032053
8.310202245608643
16.418819426034652
24.29498158314225
31.934284717417132
39.33019115672264
46.47434897165413
53.35693192211533
59.966989390101205
66.2927957470499
72.3221890962102
78.0428902609631
83.44279417354737
88.51022735457482
93.23416685507084
97.60441775429611
101.6117479737805
105.24798070050673
108.50604604960216
111.37999469898791
113.86497707532459
115.95719226029034
117.65381113238558
118.9528783874379
119.85319802385462
120.35420667387808
120.45583884852896
120.15838777882729
119.46236511308615
118.36836229936549
116.8769160673578
114.9883800440652
112.70280420592405
110.01982359537402
106.9385575163952
103.45752027243876
99.5745444193403
95.28671747088877
90.5903330099685
85.4808572162477
79.95291191451474
74.00027536704975
67.61590217011862
60.79196375940863
53.51991117280209
45.7905618513084
37.59421237069348
28.9207790773095
19.759968641070717
10.101480525306794
8.421232903194952
16.64831779337983
24.650461406589617
32.42191436250982
39.95460601682968
47.238513688397624
54.262055100531505
61.0124912805054
67.47632723011048
73.63969837130631
79.4887320007997
85.00987464134502
90.19017812339527
95.0175393293201
99.48089065024024
103.57034022448272
107.2772628496526
110.59434401699785
113.51558076352778
116.03624395700362
118.1528072270082
119.86284805549131
121.16492658025585
122.05844749069891
122.54351005587782
122.62075087076943
122.29118338351111
121.55603771516924
120.4166037390277
118.87407987564336
116.92942960316817
114.58324729347952
111.83563467144387
108.68608896000603
105.13340361742068
101.17558248972745
96.80976818632973
92.03218553104767
86.83810103581266
81.22179948056701
75.17657885027737
68.69476506824668
61.76774816403441
54.38604171401529
46.53936758240663
38.21676816011966
29.406748437372666
20.097450342749372
10.27686182425746
8.532551700049737
16.879628884968202
25.010522574193544
32.917915955082606
40.59196178923679
48.02071054055918
55.19056474934881
62.08674415595244
68.69374626375196
74.99578799629691
80.97721573144037
86.6228731325542
91.91841866800783
96.85058733512983
101.40739371344671
105.5782759170076
109.35418218036409
112.72760361623718
115.69255808047951
118.24453105955011
120.38038007470193
122.09820931435489
123.39722111556887
124.27755057983421
124.74008909243281
124.7863018811574
124.4180440560445
123.63737886570607
122.44640122743003
120.84706896761958
118.841043667462
116.42954255895074
113.61320256515924
110.39195732627132
106.76492789626133
102.73032772715396
98.28538256989941
93.42626600290964
88.14805143976788
82.44468165575071
76.30895709671773
69.73254448211105
62.706007475606484
55.218861461097234
47.25965471669127
38.816078515131345
29.875108883993857
20.423182921792154
10.446412674817045
8.644681023553058
17.113924384043063
25.37710446399323
33.42507962205779
41.245943702234285
48.82552415381899
56.14790979409075
63.19598930712725
69.95198193642044
76.39794317069264
82.51623038126738
88.28991613820274
93.70314007870921
98.74139349090848
103.39173399192188
107.64293063869721
111.48554237371755
114.91193478446846
117.91624170194271
120.49427917886666
122.64341990689465
124.36243621400838
125.65131950528756
126.51108345614827
126.94355752129992
126.95117646355827
126.53677070317178
125.70336139767352
124.45396332899412
122.79139793065627
120.71811815450381
118.23604636480454
115.3464260610805
112.0496879669349
108.34533087351863
104.2318175828077
99.70648634536167
94.76547831681538
89.40368175353571
83.6146939174839
77.39080194999079
70.72298429150706
63.60093455749417
56.013110117317346
47.94680795209202
39.388270677600616
30.32282589821625
20.7350622959929
10.609046043334406
8.758236287228792
17.352579665316014
25.75247598360857
33.946659363688255
41.92083646413565
49.65826819116256
57.140384813321305
64.34741131382826
71.25898044298796
77.85471279320257
84.11474608778191
90.02019947122523
95.55356260451657
100.6990034979351
105.4425929806054
109.77244728404179
113.67879324128049
117.15396297469975
120.19232662720695
122.79017270089268
124.94554596451465
126.65805276605948
127.92864304578193
128.75937750021205
129.15318730659212
129.11363267726415
128.64466535705265
127.75039906934146
126.43489090701976
124.7019357856382
122.55487534702243
119.9964221301893
117.02849941125778
113.65209684797179
109.86714193512826
105.6723872701655
101.06531372761546
96.04204983020077
90.59730786769389
84.72433763653808
78.41489903876646
71.65925517484457
64.44618797836513
56.763038858585084
48.59577722844056
39.929100188675655
30.7465670022034
21.03077231533039
10.763562352207272
8.873940407722886
17.597206028796588
26.139288148710797
34.48644702916886
42.62161906152846
50.52509882203581
58.1752586308558
65.54927710490307
72.6238492128025
79.37585291431222
85.78295128655509
91.82411372364658
97.48004493329458
102.73351564426683
107.56959383175311
111.97577958463248
115.94205028756969
119.46082546806392
122.52686244226616
125.13709483048514
127.29042620146092
128.98749067465388
130.23039140779522
131.02242666984728
131.36781178419864
131.27140374173544
130.73843382540792
129.77425223050227
128.38408745911855
126.57282224517293
124.34478694191907
121.70357067971167
118.65185016964809
115.1912357744037
111.32213437294054
107.04362859082559
102.35337213189658
97.2475012097448
91.72056242084327
85.7654578069746
79.3734083068117
72.5339372811739
65.2348762990473
57.46239587986844
49.20106438999807
40.43393877533779
31.142691267860656
21.307776619383034
10.908644780135614
8.992641000393178
17.84968907830809
26.540636727493794
35.04886036804459
43.35407731417463
51.43314891654853
59.26092557728124
66.81109839595874
74.0570237923398
80.97249101054021
87.53240750861438
93.71338335490631
99.49420233798028
104.85617402897984
109.7833670678558
114.26272913765999
118.28410322498934
121.84015273971842
124.92620989023675
127.54006247348434
129.6816940944076
131.3529919632613
132.5574350291102
133.2997734853031
133.58570879833528
133.42158150778306
132.81407223321932
131.76991968389643
130.29565804920023
128.39737497937423
126.08049045366187
123.34955616975729
120.2080746571282
116.65833709394059
112.70127876750374
108.33635123417844
103.56141048099587
98.37262074380895
92.76437407404725
86.72922624842087
80.25785016600545
73.33900846020614
65.95954765409415
58.10441679491782
49.75671410484729
40.89776576835743
31.50724153241894
21.56331231256363
11.042855465581264
9.115330944693213
18.1122347147779
26.960137338239313
35.63904843932414
44.124938222938944
52.39068751303583
60.407084164883656
68.14382209171072
75.5704615609705
82.65731433764405
89.37622407635445
95.70122037496255
101.60903336220494
107.07946391880583
112.09561205950314
116.64397222228271
120.71440897785926
124.30002990537722
127.39697413584801
130.0041355028139
132.12283858959893
133.75648448530808
134.91018102186962
135.59036990744326
135.80446070733407
135.56047922015279
134.86673557832313
133.73151545042893
132.16279608426558
130.16798762082624
127.75369912560426
124.92552810424944
121.68787186479096
118.04375892411403
113.99469869634304
109.54054791116899
104.67939255929653
99.40744462199035
93.7189533881907
87.60613177413904
81.05909871956221
74.06583942548761
66.61218590711013
58.68182104934084
50.25631006045207
41.315163909498274
31.83593999634207
21.794385928691106
11.164632859313292
9.243173150972696
18.387424620629236
27.402016038636443
36.26301853785218
44.942031193825414
53.40731023672466
61.62494902892131
69.56005422111329
77.17786711540478
84.44478607778989
91.3292550015694
97.80249334299683
103.83905413865804
109.41720677836125
114.51915043429355
119.131071448201
123.24306339846304
126.84893196824008
129.9459082512979
132.5342940257686
134.61706113332724
136.19942478406395
137.28840771450308
137.89240896760305
138.02078789346962
137.68347098049665
136.89058645127812
135.65212927456693
133.97765738815946
131.87601849824028
129.35510579483145
126.42164026206842
123.08097691964916
119.33693225982366
115.19163029542153
110.6453649663777
105.69647712715738
100.34124492358374
94.5737870386691
88.38597902061954
81.76738368460542
74.70519738786776
67.18421480167964
59.18681563194995
50.69297756189056
41.680320494290726
32.12418794808907
21.997772204844683
11.272290497031802
9.377530598238696
18.678283644907676
27.87121929743514
36.92778993722529
45.81448256815157
54.49416778274325
62.92750337242934
71.07432416569
78.89495503566863
86.35139346750441
93.40832040658819
100.03391196150038
106.20043857184642
111.8846513042842
117.06796611704338
121.7364656646242
125.88074425601116
129.4956249731165
132.57977896514382
135.1352759697184
137.16709265580974
138.68260192994867
139.69106234991477
140.20312263384398
140.23035223802395
139.7848053166389
138.87862220465254
137.52366994635895
135.73122133925452
133.51167045070596
130.8742815433587
127.82696775200436
124.37609562242139
120.52631168636512
116.28038754670492
111.63908043122454
106.6010067994121
101.1625273185443
95.31764233609742
89.0578978427762
82.37230282757912
75.24725985887542
67.66651167179853
59.61110749135808
51.059393762386954
41.98703488192748
32.36707042687894
22.170016231505258
11.364017488668956
9.520003024103332
18.9883621984037
28.37354835396369
37.64158123231227
46.75295162764223
55.66424140617451
64.32980088234676
72.70339738650361
80.73975674701464
88.39593254268203
95.63245463807272
102.41422680544034
108.71116135512936
114.49855511860437
119.7572247474534
124.4734294675406
128.6386159685488
132.2490232005373
135.3051849509298
137.81136581077942
139.7749621923644
141.20589509300927
142.11601589375402
142.51854110465385
142.42752696468366
141.857390397764
140.8224791377741
139.33669090206814
137.41313929139145
135.06386256178783
132.29957046531734
129.12942389767437
125.56084202980048
121.59933185254089
117.2483355553156
112.50909183103714
107.38050800190638
101.8590407575704
95.93858426100353
89.61036538793702
82.86284690841828
75.68164048207888
68.04943241257433
59.94592618201452
51.34780685380509
42.22873348285647
32.5593666953391
22.30743958802416
11.437881042744715
9.67247206231125
19.321837696568135
28.9158244448897
38.414040012778315
47.7699185023759
56.932676702429504
65.84932824902805
74.46664659650824
82.73297931065707
90.59983450454811
98.02318281668474
104.9644425467461
111.39113897092464
117.27724947628855
122.6032626296839
127.35599095125312
131.5281839312044
135.11799013668758
138.12831586030114
140.56612358731823
142.44170755795017
143.76797674884506
144.55976842443414
144.83320856810167
144.60512937228842
143.89254876277025
142.71221274124156
141.08019814090804
139.01157112402993
136.52009529291172
133.61798250490327
130.3156792450626
126.6216815959082
122.54237234595978
118.08187451093346
113.2419164352908
108.02170464590631
102.41780170795907
96.42400746022095
90.0312431667436
83.22743930403342
75.997428899004
68.32284953755293
60.18205836927743
51.550065632420356
42.39849340559887
32.69556744810402
22.40615110941193
11.491831363108822
9.837157176216234
19.68364032690924
29.506093336854377
39.25652616931657
48.880037356358734
58.31718996414783
67.50644212743799
76.386493407182
84.89842518151637
92.98753889385677
100.60482670217027
107.70804121195364
114.26236122122309
120.24067619911013
125.62353194739964
130.3987929060496
134.56108304770865
138.11106807785438
141.05463791266703
143.40204149091787
145.16701719465334
146.3659526415339
147.01709826369873
147.1398505364756
146.7541133514635
145.87974002167414
144.5360537810689
142.74144130773138
140.51301160311283
137.8663113130886
134.81508708975986
131.37108568794704
127.54388301280238
123.34073415774165
118.76643749532327
113.82320703511941
108.51054849040064
102.82513576668326
96.76068588071516
90.30783162829874
83.45399263953138
76.1832467885163
68.47620526024326
60.3098959156682
51.6576609304079
42.4890760034737
32.76989972655926
22.462062960411327
11.5237092714027
10.016685480692063
20.07961008361864
30.153880227433024
40.18246355044336
50.1005720936958
59.838565268097234
69.32489776017687
78.48893494065314
87.26348319751442
95.58691859413884
103.4048392080606
110.67120925324507
117.34900214705021
123.41038177580866
128.83648448445916
133.6168782836915
137.74878108046514
141.2361178234405
144.08848915241228
146.32011337043022
147.94879107622177
148.99492904376703
149.4806479761286
149.42898827533787
148.86321931155373
147.8062509354878
146.28014106613256
144.30568989514967
141.90210931658305
139.08675533930233
135.87491120849663
132.27960952231578
128.31148259236494
123.97863151493783
119.28650578544372
114.23778672814447
108.83226947986701
103.06673973470383
96.93484291768732
90.42694490849574
83.52998488690608
76.22732232645826
68.4985816263706
60.31949934372099
51.66178046305438
42.49297160814916
32.776360543422676
22.47091271413393
11.531256918237528
10.214179555764428
20.51669427293321
30.870509620228052
41.20777925905072
51.4519369317393
61.52126543849032
71.33249069661453
80.80417275901499
89.85970218286218
98.42976090685309
106.454164313264
113.88305810910717
120.67749400782016
126.80944779658637
132.26137022935384
137.0253752326759
141.10217259044708
144.49984596028668
147.23256452894793
149.3193005281633
150.78260752213043
151.64749762137245
151.9404407767319
151.68849673698648
150.918580359707
149.65685368155712
147.92823321485955
145.75599797125366
143.1614823161366
140.163837541577
136.77984666838404
133.02377816666763
128.90726579895625
124.43920347883406
119.62564579115431
114.46970656906174
108.97144963272918
103.1277674531522
96.93224511635854
90.37500854326095
83.44255748568727
76.11758538761813
68.37878978485463
60.20067852133964
51.55337868210582
42.402456767831566
32.70876024221392
22.428292144705495
11.512131951169177
10.433368740022914
21.003197787039735
31.669509603986814
42.351456039377
52.95837095745762
63.394186493829935
73.56183826966836
83.36736469679171
92.72345932053442
101.55230713454841
109.78761495189211
117.37582189517268
124.27654074166117
130.4623291364778
135.9179196507713
140.6390501248967
144.6310334561121
147.90719277577497
150.48726786871674
152.39587541542414
153.66108216149155
154.313128548711
154.38332194720215
153.90310396712584
152.90328542711205
151.4134350879592
149.46140370277885
147.07296269565356
144.27153627885
141.07800653648596
137.5105725120053
133.58464630349317
129.3127713512393
124.70455032974903
119.76657222917135
114.50233027607884
108.91212428458859
102.9929428541873
96.73832256550892
90.13818300261345
83.17863808384845
75.84178584532295
68.10548051375977
59.943092440929526
51.3232632476653
42.209665324336115
32.56077662627426
22.329683447128048
11.463925507740006
10.678731308664469
21.5491027210821
32.56712659405448
43.63623157758262
54.64878481882832
65.49159356229666
76.05133392776432
86.21952367992192
95.89673546789774
104.99584962501261
113.44425492678272
121.18500707464595
128.17703726275334
134.3945609624556
139.82586869794986
144.4716885411908
148.343299213375
151.46054898171207
153.8499048218636
155.54262353979647
156.5731054081445
156.97746373668997
156.79232184565748
156.05383240771283
154.79690270664554
153.05460230236065
150.85772601773627
148.2344841948666
145.2102930156344
141.80763968755898
138.0459999491885
133.94178827683635
129.50832412409895
124.75580034183243
119.69124252902425
114.31845042927696
108.63791462595836
102.64670373823078
96.33831913174433
89.7025158875315
82.72509047562504
75.3876373052574
67.66727810660943
59.53636996062484
50.96219973326699
41.9066746670607
32.3260208933911
22.170503594511572
11.384184397064386
10.955677621437573
22.166479879948277
33.58298578776942
45.08949000450387
56.557829824754805
67.85428711625298
78.84631534343038
89.40859110208291
99.42800815954513
108.80737906436694
117.46776082742183
125.34945626433088
132.4118470776712
138.63228196869713
144.00427325324952
148.53525399645403
152.2441228356127
155.1587644598128
157.31368837058324
158.7478835215319
159.50294610489834
159.62150453076674
159.14594034456096
158.11738613884057
156.57497044867551
154.5552738782546
152.0919589484983
149.21553715847236
145.9532394962076
142.32896032464132
138.363248630465
134.07332467026006
129.47310384326514
124.5732130420835
119.3809877427789
113.90044071111848
108.13219547520089
102.07337971989426
95.71747557873658
89.05412551857209
82.06889421086035
74.74298853049255
67.05293967117129
58.97025334699864
50.461036167153146
41.485608498264114
31.998116408866103
21.94615753650105
11.270437826527402
11.270788118912412
22.870023154531232
34.740945467470425
46.74440672607193
58.72725607935273
70.53106245620354
82.00049654217142
92.99071524050902
103.37326900516408
113.04026440772735
121.90672464473056
129.9112701477765
137.01537173053416
143.20150336786472
148.4705444138659
152.83876223821002
156.3346593670658
158.99590766217517
160.86652710221347
161.99440642528458
162.42921206822567
162.22069252817315
161.4173574577322
160.06549319106637
158.20846706084626
155.88626973266457
153.13524593478274
149.9879677877498
146.47321019318562
142.61599352469707
138.43766457693627
133.95599201056663
129.18525719822802
124.13632537176463
118.81668531970597
113.23044866221481
107.37830204321159
101.25740754393725
94.8612483593948
88.1794184056325
81.19735614915709
73.89602466320495
66.25154179360796
58.234766405496835
49.810848993571994
40.93875744358104
31.57079135370474
21.65210094209781
11.120229025332387
11.632125478358788
23.677749797054027
36.070211530716435
48.641429772955014
61.20764844537897
73.58054355547327
85.57772503537498
97.03176644316147
107.79716364421999
117.75493082481421
126.81483481244936
134.91550562756618
142.0228198942514
148.1270301216368
153.2391172943062
157.3867954849285
160.6105166699455
162.95973098104668
164.4895671229266
165.25801915484618
165.32366390984095
164.743888893397
163.5735819970505
161.86421893843175
159.66327876097714
157.01391893471475
153.95484701310147
150.52033342450576
146.74031838384406
142.64057416081354
138.24289148086962
133.5652653902379
128.622061405815
123.42414723775059
117.97897893253202
112.29063308928448
106.35977901903014
100.18358651322725
93.75556642497509
87.06534269519479
80.09835591422055
72.83550011788633
65.25269637682528
57.32040891575082
49.00311202381397
40.2587188585727
31.037986308979868
21.28391320511921
10.931152119062437
12.04964812571802
24.611927062459003
37.606804765794905
50.83021188265311
64.06065931391625
77.07349568271204
89.65413659765848
101.6091184132868
112.77423625725285
123.019473788628
132.25083925141166
140.40953196434498
147.46904956007901
153.4309117568428
158.31964403035568
162.17756670835328
165.0598046242425
167.02979672061036
168.1554625912234
168.50608406005085
168.14988773086336
167.15226746835913
165.57455983973415
163.47327554836616
160.8996908691073
157.89971083033436
154.51392712684873
150.77780618440994
146.72195493766372
142.37242286583836
137.75100824654663
132.8755443324203
127.76014730957131
122.4154126456729
116.84855000976944
111.06344958847012
105.0606745701262
98.83737603948975
92.38712772101017
85.69967911454853
78.76062675023678
71.55100470196736
64.04679727457912
56.21837901612464
48.02988995868775
39.438557241130624
30.393977906091163
20.837381480679802
10.70089463016107
12.53576391055206
25.700311263858648
39.39551129240571
53.37215154248415
67.36189838217665
81.09575069883729
94.32079153493653
106.81371528450524
118.390231822061
128.91010445816852
138.27814367445984
146.44187597249214
153.3868115621943
159.1302642654184
163.71457699629497
167.20043055724796
169.66071143703465
171.17522235871806
171.8263593105936
171.69575956369778
170.8618462838493
169.39815089991177
167.3722762721702
164.8453637335976
161.87193821426598
158.50002248233108
154.77143024090466
150.72216598852668
146.38287582435336
141.77930714865187
136.93274635166966
131.86041226219123
126.57578965130406
121.08889182276457
115.4064446369266
109.53198655312215
103.46588074084406
97.2052362713021
90.74373609385933
84.07137013951669
77.17407267130814
70.03326410425404
62.625299117472196
54.92082512175798
46.884058127243655
38.47198679201569
29.63351981761789
20.3085966314286
10.427286031838735
13.106080111987337
26.97782337341626
41.492502256063915
56.3437642502844
71.20469602848773
85.75191534380892
99.68688398149797
112.75242103815677
124.7433597447536
135.51125457375542
144.96382503646163
153.06031774200903
159.8041645210025
165.23426222555398
169.41598281323436
172.4327276473581
174.37853848749717
175.35201562983877
175.4515932204697
174.7720865468113
173.40234833179278
171.42383774601328
168.90990326969603
165.9255966648455
162.5278609031034
158.76596351345162
154.68207446108926
150.31191217190818
145.6854017664402
140.82730584699607
135.75780062163813
130.49297928719022
125.04527103158621
119.42376833165896
113.63445793211096
107.6803524354244
101.56152017751018
95.27501131514556
88.81467806793341
82.1708870694391
75.33012200581874
68.2744753717083
60.981029470181745
53.42112893559022
45.559550237826265
37.35357791725884
28.752002631022535
19.694062171379443
10.108352889076961
13.78043234286031
28.48884289748621
43.96889174324982
59.841196327687825
75.7050338927595
91.1700759326073
105.88361361723666
119.55060023162451
131.9453392500961
142.91506602868603
152.37673433324164
160.30890456861215
166.74075892500198
171.7400533513048
175.40140553919898
177.83584762296567
179.16213924324182
179.4999938306959
178.96513424582997
177.6659546982509
175.70150355119432
173.1604926872335
170.121062553064
166.65107159292668
162.80872338652466
158.64338763632176
154.19650865641586
149.50252584010082
144.58975468814964
139.48119502971272
134.19524602278818
128.7463163941398
123.14532410477055
117.40008300946786
111.51557577434257
105.49411284691494
99.33537704787912
93.03635269382927
86.59113732827637
79.99063336356845
73.22211644261667
66.26867735687179
59.10853517569466
51.714221148412115
44.05163622299588
36.07898989640595
27.745634600370316
18.99081765557024
9.742381310570556
14.584315800487236
30.290390365388106
46.91562705413457
63.986326379703485
81.00804085215591
97.50775978186668
113.06878473180262
127.3547881339019
140.12190950177515
151.21983347987313
160.58421315583715
168.2234277687869
174.20260249797695
178.62730144303822
181.62858596579278
183.35041152545887
183.9397403003897
183.5393232172113
182.2828496932927
180.29204437017364
177.67526650207728
174.52720172659667
170.92929841053993
166.95067175224955
162.64926649651463
158.07312756822023
153.26167512233718
148.24691666082572
143.054555320735
137.7049719363063
132.214070765202
126.59398639191235
120.85365355721409
114.99924351776804
109.0344707804435
102.96077325117625
96.77736740593663
90.48117833991911
84.06664271821359
77.52538094063254
70.84573345356827
64.01215534146317
57.0044634309067
49.796931546529585
42.357232732113545
34.64523262551077
26.611645995105025
18.196578550266103
9.327987753591218
15.550906893069644
32.456607634129384
50.45029738513245
68.93509451499283
87.2965926494177
104.95945538837918
121.43212677081323
136.3351419577869
149.4122638496279
160.52673309940465
169.6467407422765
176.82475217625233
182.1748262218186
185.85102929536586
188.0288560262893
188.89051755349936
188.6141831698841
187.36678023164384
185.2997243243059
182.54689459415658
179.22421824601923
175.43032892509856
171.24787936759896
166.74519805171653
161.97807250403451
156.9915153994367
151.82142454559312
146.49608697140877
141.0375038642808
135.46253008366392
129.7838320208158
124.01067274521155
118.14953524365454
112.20459426371652
106.17804563153791
100.0702994875464
93.8800410538211
87.60415957098058
81.23754310026166
74.77273412361495
68.19943845118632
61.503878088788845
54.667977782625535
47.66837547200142
40.47524954367572
33.050961379848644
25.34852087571186
17.309895538107924
8.864199734414372
16.723967537182148
35.08516722503584
54.72674591134887
74.88898767597775
94.80273587108299
113.76600748608737
131.20116794703986
146.6870682969775
159.96650891883888
170.93382402867016
179.60954966446513
186.109205637932
190.61188620778867
193.33243134829706
194.49908352041967
194.33708333077158
193.05772627401427
190.85193400683954
187.88725988302627
184.30731745495964
180.2327870057723
175.76334873931245
170.98007245226506
165.9479445963832
160.71833023474306
155.3312521336958
149.8174276247167
144.20004197426874
138.49626027864338
132.71849280312975
126.87543460295082
120.97290166410639
115.01448441095067
109.00203641157736
102.9360122366883
96.81566417603116
90.63910317986092
84.40322513680208
78.10349951021414
71.73361348395223
65.28496118264934
58.74596438565241
52.10120878782815
45.33037890667992
38.40697618908403
31.296810043400235
23.956261775108764
16.330337610146234
8.350548791088766
18.162096855018362
38.30660467844932
59.94884360756484
82.11103674027741
103.8228814783169
124.22613867157534
142.64715419433952
158.63090371029014
171.93968302602002
182.52581190186808
190.48989335149793
196.0350458425296
199.42459447192
200.94739256397028
200.8921735467467
199.53047483498293
197.10670156536827
193.8335856889621
189.89138652450478
185.4294610772294
180.5691662894364
175.40736435634238
170.02005417160075
164.46584087467295
158.78908817241071
153.02268598918988
147.19042067069418
141.308966351647
135.38953190985288
129.43920379061439
123.46202480178981
117.45984535319263
111.43297821138472
105.38068168566355
99.30148984948909
93.19340225450594
87.05393975806791
80.88006759616697
74.66798165604148
68.4127489593038
62.107788580331814
55.74417459935518
49.30973845095766
42.78794482833481
36.15651443407063
29.38577035081367
22.43669515683372
15.258705388130027
7.787179263573794
19.945087840292892
42.298174918110064
66.39054533763868
90.9483130446869
114.73795585954363
136.71009544585704
156.0898323222483
172.40763575282142
185.47999346784206
195.35737879721754
202.2582355830715
206.50387629743068
208.46343449152616
208.51264227630236
207.00638191520483
204.26286372039795
200.55654189832012
196.1169773128878
191.13134894733153
185.7489117914322
180.08624306882274
174.2325509073032
168.2546327555213
162.20128206725803
156.1070750017104
149.99554683845125
143.8818088356466
137.7746739152838
131.67836322758802
125.59386151606769
119.51998116872616
113.45418523367584
107.39320981358584
101.33351681094634
95.27159926997093
89.20415362710645
83.12812599533407
77.04063305183563
70.9387520041157
64.8191682528167
58.677663481991786
52.508420739112765
46.303116557349114
40.04976378163869
33.7312639316662
27.323627512650358
20.79382891733621
14.097284206588922
7.174978305616574
22.183658814549055
47.304875941465944
74.42559669245225
101.86383499236135
128.03987014684787
151.67473798478477
171.89862101046637
188.2671531035985
200.70762251469657
209.42700229016802
214.81123517807833
217.3358927859913
217.49789323349728
215.76987312265572
212.57411503595125
208.2711262114542
203.15798947409854
197.4724952533393
191.40016963254757
185.082307859904
178.62388818839517
172.10077342648526
165.56594936678027
159.0547521018325
152.58914562602422
146.18116162075995
139.8356289884837
133.55231726392304
127.32760522688011
121.15576958003473
115.02997157052054
108.94300348104143
102.88784262833933
96.85804801041738
90.84802391157311
84.85316537182821
78.86989218984664
72.89557078801745
66.92831653765757
60.96666266829653
55.0090751920092
49.05328575350521
43.09540537328897
37.12877154325494
31.142470201095705
25.119466236798417
19.03427792461745
12.85015099685739
6.5157353394774224
25.03475572487895
53.67212458420519
84.57233557337405
115.4820994028665
144.36551816035654
169.67779824358684
190.4852604519964
206.44305193257313
217.6785901617624
224.63719086501544
227.93420943737183
228.23821478656794
226.19219897725264
222.3688740487466
217.25153292366122
211.23160036621647
204.61565110467237
197.63681897961175
190.46741674037958
183.23099125058687
176.01296922751945
168.86961039927564
161.83529319829665
154.92830623539658
148.15537303309048
141.51514092934005
135.00084394205848
128.60231874683643
122.30752078667277
116.10365775651618
109.97803178889092
103.91865986412431
97.91472393210597
91.95688737484404
86.03750212963645
80.150720454516
74.29251646652591
68.46061482608742
62.65431692626372
56.874208264626546
51.12172370333456
45.39853905356315
39.70574644257458
34.042755836859406
28.405845732831246
22.78626558904816
17.167780022830176
11.523555585931277
5.812343410029081
28.72636002251201
61.89792402899056
97.56252988179328
132.65414948475933
164.53837851016652
191.38550797349382
212.278566982633
227.1041383324722
236.32575241518617
240.7362659535382
241.25118643584682
238.76664661265258
234.0791265542768
227.85187667335856
220.6111644315941
212.7586322717932
204.59043997250308
196.31765938010975
188.0850753500577
179.98721981997585
172.08140092402067
164.39795048904415
156.94809802853916
149.72991633181755
142.73275026754695
135.9404796300006
129.33390101115114
122.8924530599335
116.59545789933972
110.4230094659716
104.35660619931058
98.37959939455943
92.47750813393613
86.63823566027838
80.85220920892819
75.11245476393034
69.41460927806477
63.75686512237813
58.13983457919613
52.56631573649091
47.040934594737145
41.569630299985334
36.15893880280545
30.81501144169692
25.54227568768414
20.341606020691977
15.207833447339645
10.126406541184227
5.069061379601235
33.5991416547971
72.7186888423234
114.4491223510614
154.5498326920003
189.6140220610282
217.5603000703408
237.66397474520073
250.26703303321716
256.36648618484594
257.2370261751208
254.16246693588454
248.2835444268539
240.53567759595853
231.64295935571292
222.14084105463888
212.4094775411616
202.7077448046019
193.20331602937242
183.99728146140166
175.14336186169436
166.66242636767788
158.55320920285473
150.8000793204502
143.37859023677885
136.25939220915672
129.4109555348596
122.8014424838767
116.39997737799189
110.17749692654371
104.10731231135642
98.1654769149267
92.33102574861381
86.58613191631812
80.91620977492965
75.30998224868947
69.75951985446933
64.26025058496141
58.81093237792017
53.413573245537705
48.07327818396434
42.79799652074579
37.59813736145653
32.48601130243383
27.475037522662273
22.578617867067067
17.808516233175364
13.17249733472346
8.670905388367078
4.2918659067646185
40.179305675891314
87.25524222075953
136.77774274527155
182.78505546020313
220.9153676780381
248.99982104520961
266.8570907670194
275.6469387086955
277.1655015877368
273.31056797637615
265.7740537654928
255.91866127171141
244.7676157879682
233.0483925815837
221.25336633238274
209.6985917895335
198.57324364272353
187.97815248216395
177.95446047212397
168.50425899704936
159.6051034153193
151.22002563190233
143.3043198499221
135.8100586994993
128.6890372789934
121.89464362284072
115.38300710398558
109.11367018647661
103.04995351601247
97.15913120519728
91.41249590774885
85.78536710471928
80.25707745616609
74.81095857273215
69.43433730349815
64.11854530986048
58.85893740799159
53.65490740955349
48.5098838747081
43.431282638252
38.430388757906556
33.52213777830942
28.724762709967166
24.05926113634069
19.54859984630721
15.216488988094445
11.085409360064254
7.173392466044798
3.48893775663774
49.31220287927807
107.27066587599144
166.8628893825986
219.5846898738363
260.01673056003017
286.3677511884066
299.65984611171814
302.41727845559564
297.54556408240717
287.66232662377325
274.8319772030085
260.5462889407223
245.8137966224258
231.27580218678546
217.31204436923673
204.12432678324808
191.79792232070778
180.3446198418344
169.73195102958786
159.90254342916495
150.7866473024458
142.31004957405332
134.39892520627774
126.98268743686319
119.99555249001666
113.3772958847439
107.07351566729113
101.03560933504099
95.22059895316514
89.59089113405373
84.11402700032265
78.76245642661729
73.5133569634756
68.34850828123751
63.2542259100212
58.22135219617621
53.24529683901445
48.32611357717967
43.468593500222184
38.68234970890369
33.98186420933384
29.386468294883258
24.920233462871476
20.61175578983702
16.493800618659552
12.602688534277553
8.977085734705534
5.655494367762431
2.671351581667065
62.42196925018249
135.64418369745454
208.23214527117972
267.94878538430913
308.57008518495655
329.8000808060324
335.02249114632457
328.853163022539
315.5570019324043
298.41655812630813
279.6884712800735
260.80008950676313
242.58489172543653
225.4810084012167
209.67681208583753
195.21013188861966
182.03284373680336
170.05154882282216
159.1524569408753
149.21613189550882
140.12586729390426
131.77213569288048
124.05466698831508
116.88313413203554
110.17705418901616
103.8652783875604
97.88529768091777
92.18249870648879
86.70944847672035
81.42525163420662
76.29500336947362
71.28934886121573
66.38415296961067
61.56027967251383
56.803477861927846
52.104367506391455
47.458516979638596
42.86659793021471
38.3345981726647
33.874066275166804
29.50235595143925
25.242838787687578
21.12506768414323
17.184906144154454
13.464675865585392
10.013348626373984
6.8865707409375965
4.14569671753444
1.8540772228463196
82.05038864480218
177.28192564847132
266.31377781531705
331.6738459405664
367.7158809347234
378.0780903030135
370.3272329508941
351.8717594049782
328.2629283497128
303.06779760185395
278.3443382675697
255.15381754912983
233.95210954062287
214.84984034341835
197.7734108652955
182.5601437097069
169.0123955727488
156.9270579498952
146.11068659707195
136.3864399315491
127.59648021591173
119.60196423821692
112.28184265353018
105.53115391534591
99.25918839863489
93.3877196243661
87.8493981014044
82.58634707299122
77.54896945792194
72.69496037664997
67.98851330712861
63.3997062736627
58.904055244714016
54.4822236952309
50.119879132351954
45.80768854618621
41.54144452154687
37.322311390352645
33.15717563811611
29.059076622122525
25.047683983504328
21.149782474602475
17.399736769826795
13.83996233860788
10.521546649988702
7.5053043551755945
4.863475087141463
2.6814995087490483
1.0574613016733356
113.08298025517892
240.91966998624633
349.3577631746974
414.71595542702244
436.4946508765013
427.07798929768865
400.3863318834583
366.606576053422
331.67854450915274
298.59749005733886
268.62425967796196
242.09555682690132
218.89630257377672
198.71640650625545
181.18312269481999
165.92537831724974
152.60218700385798
140.9127232605545
130.5974449857585
121.43517764867963
113.238671377376
105.8498680997461
99.13544907673908
92.98289089563772
87.29708797455743
81.99752017958684
77.01591158224846
72.29431742169936
67.78357869615503
63.44209109861457
59.23484399162332
55.13269420881127
51.11184795503182
47.153531630414015
43.24383883734627
39.37374590623716
35.53929156519889
31.741917124724267
27.988960594185322
24.29429007853045
20.679047804509125
17.172458740247507
13.812650040095141
10.647467778399307
7.735448027986088
5.147500672298331
2.9703383738732203
1.312312842653031
0.30944647116354873
165.7452784359382
342.80851365236435
468.9197037158673
518.285305412521
508.2109190812795
467.3126791639667
416.53755059479977
366.3774838653118
321.0986667834641
281.8740073240941
248.53249184994084
220.40665748894997
196.71303322129882
176.7082990905342
159.74317456225
145.27202002017887
132.84488718687112
122.09396360098302
112.71948707408525
104.47707385626278
97.16701761983182
90.62553714309934
84.71773846006937
79.33200648648818
74.3755564608631
69.77091372032561
65.45313256246433
61.36760375971659
57.46833335826499
53.71660258131596
50.07994068760377
46.53136046427882
43.04882058169235
39.614891087343025
36.21660845273484
32.845515148491394
29.497885710108363
26.17514616496417
22.884495243862702
19.639731599201472
16.46227760917914
13.382363354310469
10.440295627796814
7.687713685956558
5.188834384920891
3.022215077957
1.284986977311436
0.10310740021045392
-0.35111623801249636
264.3172805230796
513.1739477107348
636.1201376498202
631.6756947036222
563.3460063453227
481.8918724619474
406.8991150829983
343.65913768003827
292.0620211607386
250.40659866997794
216.7851646724903
189.51841196375165
167.24444763420553
148.89438154319834
133.63947598479743
120.83871016847687
109.99492313113088
100.72045142738591
92.71095810500182
85.72573236794008
79.5729086774811
74.0983629424289
69.17734002513848
64.70810942668038
60.607131999558646
56.80535886261118
53.24538519059489
49.87925571160825
46.6667730352265
43.57419995316056
40.57327671387511
37.64049697059211
34.756603829187036
31.906281792623723
29.078032604293256
26.264233892866677
23.461389643957013
20.670590948088112
17.89821350726114
15.156882880088935
12.466734571781501
9.856974470629435
7.367690895607984
5.051769894122025
2.9766598589635427
1.2259131647239188
-0.09790922290929682
-0.861784406728834
-0.8697616137030412
469.95762227747286
803.2702943414129
837.8077719001371
707.0681492713526
565.0027337112924
448.42393954358795
359.4385386897755
292.53451058009125
241.99488226374268
203.36401284557408
173.41715748961172
149.86497348574213
131.08050661112253
115.89694077115799
103.46701794697978
93.16716557278892
84.53217297871643
77.21037343605398
70.93256995877185
65.49022997235723
60.71999251337642
56.49252425301472
52.70440827505128
49.27217423880892
46.127859476980966
43.21567836755497
40.48950433263596
37.91095581739563
35.44793802485081
33.07353481610018
30.765175860356003
28.504026769101017
26.274567294537476
24.064336661205118
21.86383719409674
19.666598775046868
17.469418283432322
15.272800868649924
13.081644148564115
10.906221877533927
8.763537726728906
6.679124561069541
4.689339329607788
2.844101716439201
1.209761103237366
-0.12869429920147143
-1.0669079328367772
-1.4771532237959526
-1.1710494507216727
973.5365424914276
1228.7497569686811
923.8410128217863
652.8896825811971
469.9422887508176
349.44954605150565
268.45895044208635
212.27441122087555
172.08219451633207
142.5230947762343
120.24935168260536
103.10365515048946
89.65422426657365
78.92473560982693
70.23302259217388
63.09191174380521
57.146583358409146
52.13399617293414
47.85599289030202
44.16109585505322
40.93194720005486
38.07649123497266
35.52168534316378
33.20894957270275
31.090831629524537
29.12853485709892
27.290068390410195
25.54885288012586
23.882665422290017
22.272842005594168
20.703680275818794
19.162003235492392
17.63685802957864
16.119334911205787
14.602501141056448
13.081454078684871
11.553508195036711
10.018543434872372
8.479558813901418
6.943497164669017
5.422436299097902
3.9352785951198848
2.510107842059728
1.1873863499169608
0.0240245982619908
-0.902263842768259
-1.4907546155815605
-1.6229778941061603
-1.1592823677237123
2012.653789165907
1159.5914652485083
645.054980621223
397.40017331977737
265.56386357978533
189.3505181682624
141.75512687337923
110.23358530902964
88.36729466481412
72.6286001534623
60.9531279320648
52.07034848116361
45.16474549174321
39.694071081764584
35.2867632179276
31.68151604437778
28.690344244616895
26.175273275686607
24.033210072360333
22.185876697487217
20.5729631726075
19.147377147008676
17.871889385272283
16.716726980382735
15.657821865703022
14.675520210284475
13.753621306552835
12.878655904487953
12.039341609893023
11.226171864586211
10.431108260074131
9.647355507695796
8.869205645580772
8.091943969494038
7.311814491845839
6.526048160681611
5.732963379441166
4.93215655800594
4.124811950607347
3.314177146397207
2.506276838343166
1.7109784434391877
0.9435865004805428
0.2272347849910043
-0.4035528137151888
-0.8978136183084857
-1.1823342421924683
-1.1618325254972597
-0.7527632024116019

SCALARS STRAIN_EQV float 1
LOOKUP_TABLE default
0.002117494675742151
0.09413545712682744
0.000399703032664935
0.0031361691055552957
0.002117027121521585
0.002115624512318876
0.002113287008896669
0.002110014880477031
0.0021058085066671403
0.0021006683801543706
0.002094595110168978
0.002087589426711834
0.002079652185545295
0.00207078437394226
0.0020609871171865133
0.002050261685819058
0.0020386095036181145
0.0020260321563001686
0.0020125314009267667
0.0019981091759968994
0.001982767612199079
0.0019665090437912297
0.0019493360205762623
0.0019312513204275837
0.0019122579623125709
0.0018923592197567598
0.0018715586346791718
0.0018498600315185972
0.0018272675315595815
0.0018037855673569984
0.0017794188971405303
0.001754172619070038
0.0017280521851955753
0.001701063414960988
0.0016732125080756468
0.001644506056559087
0.0016149510557520465
0.0015845549140689917
0.0015533254612538588
0.0015212709548927165
0.0014884000849265445
0.0014547219759072406
0.0014202461867482115
0.0013849827077371797
0.001348941954617331
0.0013121347596030902
0.001274572359288987
0.0012362663795555864
0.0011972288177896535
0.001157472023047901
0.0011170086752591742
0.0010758517652368284
0.0010340145782774042
0.000991510685618344
0.0009483539502759917
0.0009045585572148221
0.0008601390831049253
0.000815110629282044
0.0007694890549575851
0.0007232913698168053
0.0006765363824344478
0.0006292457658021171
0.0005814458179519738
0.0005331704138688573
0.0004844660714319022
0.0004354009314925687
0.0003860813657354913
0.00033668438827925095
0.00028752525695129873
0.00023921001272888073
0.00019300888085486831
0.0001518032005147624
0.00012198683308344593
0.00011336900582818748
0.00013072419557142245
0.00016812207996244648
0.00021677585669445986
0.0002716536509372165
0.00033062454993441437
0.0003928606876817442
0.00045811753144854226
0.0005264561398491832
0.0005981374210219349
0.0006735877684809993
0.0007534000559230184
0.0008383577675055299
0.0009294801479032802
0.0010280921248008597
0.0011359281458080133
0.001255286284040198
0.0013892606136527337
0.0015421005816750495
0.0017197843986994491
0.0019309728019364042
0.002188658446266772
0.002513266840189955
0.00293848284535956
0.0035258188775546765
0.004390297873289821
0.005839957243358087
0.00858290871118472
0.016851128064071026
0.05872066714926336
0.06387648273920297
0.02572483117693102
0.015077666051116422
0.01083588603109507
0.008455066350793542
0.0069522714813007765
0.005901550940331122
0.005123792242096907
0.004521826564108046
0.004040110890794813
0.0036441450820633744
0.0033114465926058923
0.0030267302992635792
0.0027792583416210615
0.002561279263309653
0.002367070377039349
0.002192326738559156
0.002033758699544646
0.0018888193705528101
0.0017555155688620944
0.0016322738763186505
0.001517843952073729
0.0014112275662056038
0.0013116257286680333
0.0012183987660118972
0.0011310358056017618
0.0010491311914294843
0.0009723660742021955
0.000900493912337394
0.0008333289656766607
0.0007707371078887832
0.0007126284559440112
0.0006589514314158172
0.000609687932685393
0.0005648493015876188
0.0005244726927787194
0.0004886172699849582
0.00045735933338378657
0.0004307850282331409
0.0004089787656936716
0.0003920050636711102
0.00037988138475702294
0.00037253974043137574
0.0003697749371084514
0.0003711765739986746
0.0003760401901118642
0.0003832540573851821
0.0003911771794818006
0.0003973885936045499
0.00040192324794418016
0.0004077098158994526
0.000414700770625719
0.0004206695611244915
0.00042440875543035323
0.0004251523661686902
0.00042243338853742
0.00041601496869327173
0.00040585139315448194
0.00039206773916715843
0.0003749561944701717
0.0003549909984371781
0.00033286704803374087
0.0003095694058191992
0.000286478135886136
0.0002654919871503641
0.0002490901458946185
0.00024014171497666975
0.00024126556885187633
0.00025391717725326533
0.0002778912201450262
0.0003116859743598554
0.00035331770811200915
0.0004009347413573514
0.0004530466468444873
0.0005085211982785247
0.0005665076229684389
0.0006263588957415031
0.0006875723180163771
0.0007497481305801279
0.0008125615453169447
0.0008757438826252586
0.0009390696901943207
0.0010023477630630882
0.0010654147216981077
0.0011281302874607767
0.0011903737025607806
0.001252040936479325
0.0013130424446181686
0.0013733013241078386
0.0014327517628237461
0.0014913377109839424
0.0015490117266336373
0.001605733960881124
0.0016614712584965524
0.0017161963560617982
0.0017698871643275884
0.0018225261244933883
0.0018740996302427535
0.0019245975088467231
0.00197401255569444
0.0020223401173726004
0.0020695777189794597
0.0021157247317920994
0.0021607820777505378
0.002204751967507001
0.00224763766903671
0.0022894433040212842
0.0023301736694169963
0.002369834081805432
0.0024084302422943535
0.002445968119905486
0.002482453851543178
0.002517893656783849
0.0025522937658707945
0.0025856603594343504
0.0026179995185838002
0.002649317184137713
0.002679619123873268
0.0027089109067792473
0.0027371978833964873
0.002764485171421506
0.0027907776458319803
0.0028160799328712568
0.002840396407299414
0.0028637311923850467
0.002886088162170619
0.0029074709455975374
0.002927882932127722
0.002947327278541038
0.002965806916627756
0.002983324561532763
0.0029998827205386675
0.0030154837021017468
0.003030129624984238
0.0030438224273454393
0.0030565638756735176
0.0030683555734604085
0.00307919896953428
0.003089095365979299
0.0030980459255819464
0.0031060516787555763
0.0031131135299013084
0.003119232263170936
0.0031244085476056878
0.0031286429416276422
0.0031319358968661384
0.0031342877613057332
0.0031356987817445386
0.0030724479150556166
0.0029462853333129726
0.0028226279576665883
0.002701366891427822
0.002582393036369462
0.0024655971390860456
0.0023508698413925973
0.002238101734911687
0.0021271834203478303
0.0020180055724294465
0.0019104590121977747
0.0018044347893326053
0.0016998242787213788
0.0015965192978116879
0.0014944122549641948
0.001393396345000876
0.0012933658181505888
0.0011942163659377802
0.0010958456987798138
0.000998154448726327
0.0009010476467079751
0.0008044372665788366
0.000708246874284555
0.0006124207579435411
0.0005169435627363077
0.00042188789601713513
0.000327550730325772
0.00023495501814765825
0.0001485785995205622
9.3904406831104e-05
0.00011140925452811586
0.000187740893851671
0.00028058538963053256
0.00037790637003969486
0.0004775035808248101
0.0005787946645496517
0.0006816106401011255
0.0007859265325505548
0.0008917783595142967
0.0009992316967246092
0.0011083679605929197
0.0012192777704628267
0.0013320574756907236
0.0014468072254889526
0.0015636298443709698
0.0016826301522957607
0.0018039145415895237
0.0019275907075557747
0.0020537674735997104
0.0020533128247536316
0.0019271652035091258
0.0018035251282386437
0.0016822844071892648
0.0015633361559372382
0.0014465750387070626
0.00133189763557553
0.0012192030133654505
0.001108393635724172
0.0009993768590824657
0.0008920674873228979
0.0007863923480641594
0.0006822990002952404
0.0005797736331475714
0.0004788817701960314
0.00037987441241992134
0.000283524076838068
0.0001925400819305308
0.00011969638592518745
0.00010344386838041436
0.00015549659169505697
0.00023944728082512406
0.00033081078202509503
0.00042443000524659683
0.0005190098202976937
0.0006141417863449309
0.0007097007306695908
0.000805674276756934
0.0009021022276984673
0.0009990512954585241
0.0010966032701878378
0.001194848968550936
0.0012938849123494164
0.0013938113967023988
0.0014947313092510146
0.001596749375824631
0.0016999716584219144
0.0018045052077029057
0.0019104578129028945
0.0020179378147344683
0.0021270539599311717
0.0022379152839075776
0.0023506310128219633
0.0024653104793769583
0.0025820630486705965
0.0027009980517270103
0.002822224725237215
0.0029458521566602773
0.003071989234281734
0.0020519489373387054
0.0019258887691597424
0.0018023569996954401
0.0016812473322381288
0.0015624553132258345
0.0014458787713643952
0.0013314184754905183
0.0012189791436866236
0.0011084710338560208
0.0009998125332131226
0.0008929345421487142
0.0007877882591690281
0.0006843598465775636
0.0005827001819375601
0.00048299120378579737
0.00038571334005898226
0.0002921433653079557
0.0002061718105202351
0.00014153655001366053
0.00012825464234797771
0.00017446705978152
0.0002524076633990282
0.00034039417579399985
0.0004319634847433333
0.0005251586185462142
0.0006192756839988388
0.0007140443653607155
0.0008093739556800846
0.0009052586889344927
0.001001737170781984
0.0010988730475570761
0.0011967449989450315
0.0012954411999849054
0.0013950560824008314
0.0014956883494002579
0.0015974397075164573
0.001700414025616488
0.0018047167573229956
0.0019104545307737648
0.00201773484747846
0.002126665853972667
0.0022373561631100487
0.002349914709930452
0.0024644506321701465
0.0025810731688041258
0.0026998915722156657
0.002821015031082495
0.0029445526021005023
0.0030706131493921235
0.002049675989116424
0.0019237616383184272
0.001800410491040563
0.0016795194092553486
0.001560987984853313
0.0014447193033332714
0.001330621076817803
0.00121860736616504
0.001108601272014122
0.0010005392786553327
0.0008943785413406259
0.0007901096896946511
0.0006877806171042037
0.000587543813483592
0.0004897588384766935
0.00039523849454676667
0.0003059171600371425
0.0002268671951345554
0.00017154867195590012
0.0001616389721198308
0.00020187761215234205
0.0002725536135033421
0.00035576737926551775
0.0004442263873316447
0.0005352460217817121
0.0006277373617348238
0.0007212250901299583
0.0008155027794809392
0.0009104954456974041
0.0010061982090443726
0.0011026462834732992
0.0011998991546670484
0.001298031709417568
0.0013971289991039815
0.0014972830089472592
0.0015985905862060923
0.001701152064697786
0.0018050703220211513
0.0019104501136711768
0.002017397588986307
0.0021260199293179263
0.002236425070146886
0.0023487214820685017
0.0024630179939445045
0.002579423646960774
0.002698047571933145
0.0028189988846445287
0.002942386595678548
0.00306831953238846
0.0020464942776611556
0.001920784202134321
0.001797686162585294
0.0016771014436268352
0.0015589352880100078
0.0014430981039493895
0.0013295072438613551
0.0012180896883562005
0.0011087862079463134
0.0010015580225480538
0.0008963978575479248
0.0007933491116839244
0.0006925408343542782
0.0005942555353418717
0.0004990702872495413
0.0004081744285457745
0.00032413832497292007
0.0002527688427398976
0.0002061183005074072
0.0001993116402565124
0.00023468017415396582
0.0002983675112166905
0.0003761955239292453
0.0004608308866833737
0.0005490504734281161
0.0006393927696547859
0.0007311586487891744
0.0008240065875457419
0.000917777370204614
0.001012411722495161
0.001107908606305367
0.0012043026967745918
0.0013016515316764438
0.0014000278257939357
0.0014995146826450975
0.0016002025019434191
0.00170218691668947
0.001805567375836263
0.0019104461433343649
0.0020169275725874197
0.002125117567278287
0.0022351231710085453
0.002347052247787108
0.002461013227895284
0.002577114901796842
0.002695466250169745
0.002816176301804556
0.0029393540136386023
0.003065108168959827
0.00204240422231783
0.0019169570112943966
0.0017941848026455317
0.0016739945678725296
0.0015562987927215067
0.0014410172363465755
0.0013280795068439978
0.0012174289201011181
0.00110902843418318
0.0010028700515558246
0.0008989902340013085
0.0007974961888890755
0.0006986127555424182
0.0006027703691046789
0.0005107792360183539
0.00042419150472372286
0.00034606586332231224
0.00028239904607774667
0.00024333140127099802
0.00023922914252523807
0.00027091649759862415
0.00032848142526696876
0.00040088599264079933
0.00048131773931125657
0.0005662953749843349
0.0006540690287603205
0.0007437340348406785
0.0008348129614062943
0.0009270569895038076
0.001020346805952611
0.0011146403206896446
0.0012099435936687027
0.0013062938847721128
0.0014037493489664449
0.001502382534631705
0.0016022761432343525
0.0017035201797568336
0.001806209984463007
0.0019104448383011866
0.002016326950772721
0.0021239607084725227
0.0022334521049654755
0.0023449082992992995
0.0024584372675453643
0.0025741475229579818
0.0026921478878185103
0.0028125473051112994
0.002935454681685773
0.0030609787570168544
0.0020374063669432764
0.001912280779109922
0.001789907431443748
0.0016702002466622511
0.0015530805278496883
0.001438479363548623
0.0013263411260960936
0.001216628672748631
0.0011093312697311266
0.0010044770006937636
0.0009021528052893531
0.0008025379681324725
0.0007059622129000423
0.0006130104285713802
0.0005247180053245069
0.00044294049335851865
0.000371019561103163
0.00031470083689571197
0.0002821648551779852
0.0002804209106735897
0.0003093989314544338
0.00036181232237289735
0.0004290906996810397
0.0005052067234023834
0.0005866730419330878
0.0006715660832215718
0.0007588193284401509
0.0008478342118619765
0.0009382760287888682
0.0010299651308759068
0.0011228168079509648
0.0012168067149515944
0.0013119502011408079
0.0014082894975701908
0.0015058855096165445
0.0016048123993498687
0.0017051539098325694
0.0018070008071875059
0.0019104490579221482
0.0020155985009636035
0.0021225518595821957
0.002231413991455459
0.0023422913087471223
0.0024552913218312293
0.00257052227464558
0.002688092849297588
0.0028081119241242353
0.0029306883739696104
0.00305593090465017
0.0020315013834313568
0.001906756385496439
0.0017848553061576948
0.0016657202833176626
0.0015492829888694895
0.001435487756341799
0.0013242960974278002
0.0012156933580972822
0.0011096987494076307
0.0010063808391788474
0.0009058821230510452
0.0008084591099835834
0.0007145495852008169
0.0006248882460202828
0.0005407077046971667
0.00046407911144242316
0.000398419945294709
0.00034894100628903116
0.00032204357472809643
0.0003223915230041531
0.00034939962635116865
0.00039755183157079747
0.0004601573981464243
0.0005320341490356252
0.0006098660898305286
0.0006916682656816285
0.0007762678986760012
0.0008629707053388611
0.000951367188983355
0.0010412218833013968
0.0011324090082798228
0.001224874068393625
0.0013186102357776468
0.0014136433865614892
0.0015100223468426136
0.0016078123631113107
0.0017070906212694873
0.0018079430992258216
0.0019104623073919053
0.002014745632840893
0.0021208941019972274
0.0022290114389414556
0.0023392033362930817
0.002451576881694664
0.002566240100259681
0.0026833015850743695
0.0028028701958965722
0.002925054811806013
0.0030499641275232754
0.0020246900760220662
0.0019003848818564273
0.0017790299271397158
0.0016605568278407438
0.0015449091474687624
0.0014320463029602064
0.0013219491586776
0.0012146281870164333
0.0011101356108359148
0.001008583853475946
0.0009101741859055234
0.0008152421490294438
0.000724330839027606
0.0006383100538558239
0.0005585669098652697
0.00048728892950192226
0.00042779333270357914
0.0003846111351639405
0.00036262704603944485
0.0003648675624278313
0.0003904599997282893
0.00043510998205816877
0.00049354351469536
0.0005613755797019529
0.0006355640395284811
0.0007141545620552277
0.0007959243930685466
0.000880114266930476
0.0009662560424620336
0.0010540667956587934
0.0011433839639581722
0.0012341250718996026
0.0013262621921277893
0.0014198053681155611
0.0015147915965218477
0.0016112773340164655
0.0017093332874041699
0.0018090407143502136
0.0019104887436983133
0.002013772397164452
0.0021189911023180618
0.002226247555739768
0.0023356468400611884
0.0024472957282183857
0.0025613021281604012
0.0026777746348302088
0.0027968221656289325
0.002918553662158802
0.0030430778457134337
0.0020169733863950622
0.001893167496876095
0.0017724330453377458
0.0016547123865195208
0.001539962463029966
0.0014281595206240183
0.0013193057974278809
0.0012134391676991163
0.0011106472791254849
0.0010110886277415435
0.0009150244728688267
0.0008228677735615301
0.0007352585818279627
0.0006531787944226128
0.0005781183555074737
0.0005122839795921766
0.000458760712856015
0.000421354732166062
0.0004037036735401231
0.00040768742559826865
0.00043228187156108444
0.00047405785116165337
0.0005288096058950378
0.0005928562556727559
0.0006634745962594127
0.0007388068869206067
0.0008176300865841474
0.0008991514358659046
0.000982862938116542
0.0010684452224999823
0.0011557054019088445
0.0012445368516401276
0.0013348928624424827
0.001426769089384155
0.0015201916383788933
0.0016152088215365757
0.0017118853408853744
0.0018102981076569618
0.001910533182362303
0.002012683495992637
0.0021168471246684082
0.00222312596281562
0.0023316246879560333
0.002442449942352112
0.0025557096786004525
0.0026715126313143454
0.0027899678875333324
0.0029111845359106985
0.0030352713800198103
0.002008352399546581
0.0018851056432494036
0.0017650666709562947
0.0016481898331753612
0.0015344468960666962
0.0014238325689779393
0.0013163722598764122
0.0012121331034943492
0.0011112398492778876
0.001013898021908443
0.0009204279794787743
0.0008313151147156628
0.000747283077197836
0.0006693967116205975
0.0005991935973549276
0.000538813452417401
0.0004910216978026359
0.00045891791168087645
0.00044513615674603396
0.0004507499335912954
0.00047466521367225674
0.000514081855553716
0.0005656046367169535
0.0006261531075295319
0.0006933301688975972
0.0007654161623177975
0.000841227337455609
0.0009199664063088642
0.0010011048235202148
0.0010842992140083188
0.0011693343342439328
0.0012560845572626262
0.0013444877790816598
0.0014345275555717068
0.001526220701886174
0.0016196085483836358
0.0017147506735943907
0.001811720338301239
0.0019106011048117164
0.002011484294188816
0.002114467044760424
0.002219650808537504
0.002327140171390421
0.0024370419162837217
0.002549464271891567
0.002664516304946189
0.0027823074259552055
0.0029029469859573193
0.003026543947760894
0.001998828350448441
0.0018762009253457785
0.0017569330834027535
0.001640992422127628
0.0015283669237018645
0.0014190712654872332
0.0013131555608540725
0.0012107175902664156
0.0011119200663756526
0.0010170151476947282
0.0009263792558651441
0.0008405620359009696
0.0007603531841104396
0.0006868674554712743
0.000621635885265591
0.0005666607590099179
0.0005243387791365632
0.0004971167345432754
0.00048683193254223334
0.000493988606768186
0.0005174718463172336
0.0005549503647914207
0.0006036497595549909
0.0006609918834172275
0.000724890697363313
0.0007937863376623331
0.0008665630566832204
0.0009424435491158787
0.0010208969138487194
0.0011015685478367463
0.0011842296571145882
0.0012687416852999146
0.0013550313731669193
0.0014430731970277739
0.0015328768877314286
0.0016244784535189333
0.0017179336359542424
0.001813313071992462
0.0019106986662046064
0.0020101808320787833
0.0021118563656372536
0.0022158267853758617
0.0023221970209537533
0.0024310743665158473
0.002542567637875874
0.0026567864892345426
0.002773840856810643
0.0028938405051655634
0.0030168946580895507
0.0019884026314880908
0.001866455147840784
0.0017480348425739077
0.001633123802965189
0.001521727557290245
0.0014138821028604367
0.00130966349497888
0.001209201013224072
0.0011126953036298386
0.0010204433428577598
0.0009328724460476441
0.0008505854145773658
0.0007744171940175811
0.0007054976932887412
0.0006453016152705889
0.0005956406716832844
0.000558523802262828
0.0005358155970912523
0.0005287264610147626
0.0005373579424881952
0.0005606037091829205
0.000596490135436865
0.0006427235569013795
0.0006971419369752619
0.0007579439194827114
0.0008237366793183329
0.0008934912196394606
0.0009664694679847306
0.0010421541607134326
0.001120191688181511
0.0012003487306858442
0.0012824804024643924
0.001366507137029134
0.0014523979390008621
0.0015401581900114827
0.0016298206946367565
0.0017214390353874343
0.001815082583003237
0.0019108327034776662
0.002008779839089162
0.0021090212349963483
0.002211659148521266
0.0023167994240519234
0.00242455034871454
0.0025350217267847905
0.002648324127093626
0.0027645682694061235
0.002883864524247659
0.003006322506859999
0.0019770768006866237
0.0018558703253326355
0.001738374801546893
0.0016245880372325091
0.0015145343623068543
0.0014082722685799117
0.0013059046489421636
0.0012075925431708
0.0011135735383895895
0.0010241861440561295
0.0009399013278289214
0.0008613614099308115
0.0007894235513211179
0.0007251982641762541
0.0006700607427655213
0.0006255956690214335
0.0005934270307077097
0.000574912813529178
0.0005707733808103039
0.0005808256822567961
0.0006039894897803542
0.0006385698605555747
0.0006826497084177041
0.0007344102694353302
0.0007923040429825388
0.0008551027240879131
0.0009218745255386183
0.000991934589925159
0.0010647924961157183
0.0011401066499185806
0.001217647926144295
0.0012972718613767347
0.0013788977870491873
0.0014624932726848008
0.001548062518613081
0.0016356376498264141
0.0017252721336525074
0.0018170357554120626
0.001911010743359076
0.002007288748167876
0.002105968463975806
0.002207153736383959
0.002310952044548555
0.0024174732744032413
0.0025268287215764176
0.002639130278146276
0.0027544897687165593
0.002873018409608018
0.0029948263710880985
0.0019648525906899427
0.0018444486929695852
0.0017279561207503198
0.0016153896171547237
0.0015067934806402587
0.0014022496666303392
0.001301888414920212
0.0012059021321325686
0.001114563326251268
0.001028247258722939
0.000947459352756674
0.0008728657116077162
0.0008053214526207437
0.0007458849381280144
0.0006957964924845455
0.0006563921485777058
0.0006289285697536361
0.000614330878535975
0.0006129384929148203
0.0006243682443240937
0.0006475761664856156
0.0006810886826363846
0.0007232871205570532
0.0007726357075893513
0.0008278095485339447
0.0008877362754669006
0.0009515853485483421
0.0010187343228252755
0.0010887298453939914
0.0011612517542336706
0.0012360831289976145
0.0013130865023555645
0.0013921854237435465
0.0014733503262058091
0.0015565877212125063
0.0016419319180832118
0.0017294386427506234
0.00181918008325598
0.0019112410100439355
0.002005715710747097
0.002102705547253925
0.002202316992921322
0.0023046600444317604
0.002409846929577295
0.0025179910518515636
0.002629206127116169
0.0027436054782106344
0.0028613014612315774
0.002982405003054596
0.0019517319185277761
0.0018321927181194722
0.00171678228370576
0.0016055334865484165
0.001498511655454512
0.0013958229415333002
0.001297625005110845
0.0012041405083243015
0.0011156737734360656
0.0010326305364000232
0.0009555396857641761
0.0008850737662649878
0.0008220613278590008
0.0007674788507863021
0.000722404631575346
0.0006879168588508229
0.0006649317417014432
0.0006540097974435553
0.0006551959610606264
0.0006679679152725313
0.0006913235192774264
0.0007239681221063974
0.0007645222044179627
0.0008116836385575517
0.0008643206213065819
0.0009215047647441261
0.0009825061330199988
0.0010467698326375391
0.0011138869173487795
0.0011835662697882538
0.0012556101912211655
0.0013298943360581014
0.0014063516862539906
0.0014849599342330252
0.0015657316042967848
0.0016487063183004333
0.0017339447190538
0.0018215236692257256
0.0019115324321815085
0.002004069611965061
0.002099240684279362
0.002197155991715697
0.002297929107519156
0.002401675495317571
0.002508511409459751
0.002618552993424732
0.002731915543325817
0.002848712910692747
0.002969057024108541
0.0019377168961335252
0.0018191051131160613
0.0017048571144421315
0.0015950250640885469
0.0014896962588091085
0.0013890015048137327
0.0012931254674069142
0.0012023191704422318
0.0011169145076522053
0.0010373399400210228
0.0009641352442394403
0.000897960980168952
0.0008395952119357554
0.0007899066844979008
0.0007497925024013777
0.0007200737094682967
0.0007013580027448675
0.0006939024500054664
0.0006975258411747899
0.0007116110627568658
0.0007352004800211119
0.0007671463526845029
0.0008062629021186709
0.0008514414526159975
0.0009017165254722422
0.0009562902289066266
0.0010145293753584825
0.001075948501627059
0.0011401877895701868
0.0012069909397008775
0.0012761853278565024
0.0013476652029639105
0.0014213778987613578
0.0014973127049525332
0.0015754919525916252
0.0016559638863452824
0.0017387969552703048
0.0018240752214888952
0.0019118946487700103
0.002002360085814111
0.002095582801409592
0.0021916784617023906
0.0022907654652092172
0.0023929635704832246
0.0024983927659123486
0.002607172342118507
0.0027194201357049973
0.0028352519193763255
0.002954780918241878
0.001922809841614555
0.0018051888491244172
0.0016921847967079396
0.0015838702691291615
0.0014803553222496489
0.0013817955640349046
0.001288401702215776
0.0012004503812797084
0.0011182956477039374
0.0010423795176739128
0.0009732387364199144
0.0009115028973657479
0.0008578770187514066
0.0008131006598487602
0.0007778779519829141
0.000752781008128175
0.0007381430493887972
0.0007339713205821699
0.0007399124334558384
0.0007552869642945394
0.0007791826519901471
0.0008105740971268308
0.0008484340866482194
0.0008918147015544497
0.0009398931037521767
0.0009919880901036221
0.0010475573153450898
0.0011061841301115887
0.0011675603128355897
0.0012314683993844176
0.0012977654563347013
0.0013663690068510981
0.001437245206724211
0.0015103990832214386
0.0015858665462627746
0.0016637078697797458
0.0017440023698125926
0.001826844048173803
0.0019123380135020538
0.002000597529828455
0.0020917415746890926
0.0021858928144128996
0.0022831759242621457
0.0023837161965561673
0.0024876383917291685
0.0025950657962694294
0.0027061194583266764
0.0028209175770182544
0.0029395750255172036
0.0019070132912606904
0.0017904471711751371
0.0016787698951252483
0.0015720755503110446
0.0014704975706230057
0.0013742161545669928
0.0012834664804531242
0.0011985471606935532
0.0011198277721662674
0.0010477533754259894
0.0009828426991689216
0.0009256753540177682
0.0008768627313191906
0.0008369983924846065
0.000806588248282564
0.0007859691144033319
0.0007752338323003562
0.0007741861598253447
0.0007823431586202623
0.0007989870206162854
0.0008232505903931538
0.000854211651205219
0.0008909740207467889
0.0009327239119791883
0.000978760495190779
0.0010285058646359929
0.0010815014366303542
0.0011373969399456586
0.0011959363610091658
0.0012569434935704885
0.001320308478972658
0.0013859759204688715
0.001453934701224868
0.0015242094087989568
0.0015968531752409542
0.0016719417197524418
0.001749568393093893
0.001829840048993607
0.0019128735970366188
0.0019987931188565405
0.0020877274529390094
0.0021798081725560928
0.002275167896576144
0.002373938884714209
0.002476251877856015
0.002582235151002763
0.002692013751673436
0.0028057089006842005
0.002923437535442811
0.0018903300122797987
0.0017748836144247527
0.0016646173784501225
0.001559647917219543
0.0014601324593991492
0.0013662751742717224
0.0012783334627502877
0.001196623277981573
0.0011215218875023172
0.0010534656518312886
0.0009929395353338367
0.0009404546103376204
0.0008965105219799724
0.0008615426599217717
0.0008358590392461662
0.0008195784729944126
0.0008125862593307324
0.0008145222908810892
0.0008248077771848593
0.000842704216576891
0.0008673885893304571
0.0008980267013602057
0.0009338316250893098
0.0009741019673669181
0.0010182411082038498
0.0010657618851013736
0.0011162818535561496
0.0011695134309733235
0.0012252519530075836
0.0012833635028515061
0.0013437735107753824
0.001406456562534417
0.001471427530065369
0.0015387339686336893
0.0016084496500090013
0.001680669079551437
0.0017555028502321342
0.00183307370343304
0.0019135131866075523
0.001996958817395933
0.002083551680771978
0.002173434399719497
0.002266749430901676
0.0023636376451943953
0.002464237159287935
0.002568682389318743
0.0026771033011002013
0.0027896248343251178
0.002906366480406449
0.0018727630162416185
0.0017585020217123304
0.0016497326451447342
0.001546594975407717
0.0014492702158233016
0.0013579854213078793
0.00127301721992653
0.0011946932437673565
0.0011233893960682657
0.001059520494787482
0.001003521551026078
0.0009558174621749966
0.0009167808162732586
0.0008866811135107824
0.000865633386505968
0.000853557978922305
0.0008501634219254164
0.0008549593682641502
0.0008672978388895588
0.000886432746010272
0.0009115838129127654
0.0009419927070455503
0.000976964362998396
0.0010158919691005384
0.0010582678526703253
0.0011036840866562516
0.0011518266415408976
0.0012024661334920405
0.0012554472718793617
0.0013106782910176423
0.0013681210558898755
0.0014277821459566797
0.0014897049945972489
0.001553963042277695
0.0016206538081760273
0.0016898937692625112
0.0017618139395841179
0.001836556054856176
0.0019142692823071494
0.0019951073898925717
0.002079226321073409
0.0021667821309127597
0.002257929246395599
0.002352819018995258
0.002451598541043663
0.0025544096998939047
0.0026613884455844797
0.0027726642490676703
0.002888359729298785
0.0018543155732101168
0.0017413065624932481
0.0016341215514912482
0.001532924965148158
0.0014379218842795053
0.0013493606352980821
0.0012675332548017114
0.0011927723015378896
0.0011254420645265798
0.0010659220414613742
0.001014580993298239
0.0009717413347310991
0.0009376363129573274
0.0009123659623215241
0.000895860889511817
0.0008878636262934969
0.0008879342201618407
0.0008954804594432415
0.0009098062902089608
0.000930167748095761
0.0009558256649384107
0.0009860876895916824
0.0010203365950648738
0.0010580454934996282
0.0010987826166316652
0.0011422088853861431
0.0011880711517635346
0.0012361932915684781
0.001286466603536832
0.0013388403845831557
0.0013933131368371427
0.0014499245978064968
0.001508748631566547
0.001569886939578846
0.001633463516152465
0.0016996197659435149
0.001768510206490565
0.0018402986898320992
0.0019151550892994472
0.001993252408310151
0.0020747642764006604
0.0021598628036061623
0.0022487167678745005
0.0023414901119513045
0.002438340726636963
0.002539419497057698
0.0026448695880601867
0.0027548259444179304
0.0028694149814761706
0.0018349912265458776
0.0017233017532507625
0.0016177904425222036
0.001518646804329324
0.0014260993762857993
0.0013404155421203306
0.0012618980254456495
0.0011908764190278393
0.0011276919932548845
0.0010726744020370471
0.0010261100888022843
0.0009882043611225454
0.0009590419713173374
0.0009385536487369264
0.0009264969054463271
0.0009224573958813136
0.0009258722928922446
0.0009360713599600222
0.0009523271929886136
0.0009739051215706864
0.0010001053270949638
0.0010302933172576625
0.0010639182929917002
0.0011005211726625706
0.0011397349644335605
0.0011812801612911543
0.0012249573378423262
0.001270638504478759
0.0013182582146805458
0.0013678049954205583
0.0014193133810582379
0.0014728566520064174
0.0015285402795057726
0.0015864960298761458
0.0016468766652257953
0.0017098511786787355
0.0017756005115527004
0.0018443137119055549
0.001916184505136286
0.00199140825618832
0.0020701793086659857
0.002152688688843059
0.002239122162577022
0.002329658631186763
0.0024244688491874113
0.0025237144431569034
0.002627547207559813
0.0027361086505802764
0.0028495297612334864
0.0018147938083547623
0.001704492479505536
0.001600746186096414
0.0015037701359878833
0.0014138155256059816
0.0013311659026218952
0.0012561289699909242
0.00118902227971863
0.0011301515874359313
0.0010797816481008915
0.001038101084133215
0.001005185448656395
0.0009809649754677632
0.0009652045299780446
0.000957501863920447
0.0009573063422090946
0.0009639551829253921
0.0009767200801163273
0.0009948555230126347
0.0010176413947446657
0.001044415418458948
0.0010745942087247973
0.001107684029307957
0.0011432835384633173
0.001181081030079628
0.0012208483484244573
0.0012624331123080419
0.0013057503469738906
0.001350774186351379
0.0013975299965657854
0.0014460870694416566
0.001496551916042577
0.0015490621294177603
0.0016037807619924366
0.001660891161324914
0.001720592217837909
0.0017830939927112443
0.001848613708973908
0.0019173721012624067
0.0019895901283009153
0.002065486056358555
0.002145272921915592
0.0022291563781847365
0.002317332923926352
0.002409988505311971
0.002507297473534639
0.002609421873410036
0.0027165110321193463
0.0028287014129874818
0.0017937274555589382
0.0016848840195691735
0.0015829962105044575
0.0014883053810443698
0.0014010841490328968
0.0013216285655886515
0.001250244533153878
0.0011872272747686452
0.0011328335305817012
0.001087247806509605
0.0010505462886425266
0.0010226643356811462
0.0010033746839110404
0.0009922825754530551
0.0009888406718120133
0.0009923818466743414
0.001002163684706145
0.0010174164596914725
0.001037387027452102
0.0010613736366117921
0.0010887497439134024
0.0011189773996647754
0.0011516121801572732
0.0011863020797886904
0.0012227825797123187
0.0012608696286424057
0.0013004517433880666
0.0013414819835786363
0.0013839702165598295
0.001427975860173043
0.0014736011513893196
0.0015209849131800131
0.0015702967596465472
0.0016217316743677428
0.001675504907738057
0.0017318471578152573
0.0017910000203401047
0.0018532117133573647
0.0019187330976966352
0.0019878140249088763
0.002060700048442934
0.0021376295319848904
0.0022188311817679354
0.0023045220185945177
0.0023949057919246683
0.002490171824360192
0.0025904942617525394
0.002696031693222453
0.0028069270973976024
0.0017717966265653991
0.0016644820702191462
0.0015645485460637689
0.0014722637969052912
0.001387920113471618
0.0013118215253486187
0.0012442641946677595
0.0011855094957919931
0.0011357507613435755
0.0010950768596404827
0.001063438120596663
0.001040621641841486
0.0010262425713075988
0.0010197550865628435
0.0010204822017674182
0.0010276590087860416
0.0010404813349748903
0.0010581518797636988
0.001079918126804501
0.0011050993991445508
0.0011331031090091753
0.0011634319325744067
0.0011956842937437067
0.001229550472476425
0.0012648062189587056
0.0013013052219979695
0.0013389712974131746
0.0013777907876777041
0.0014178054027057328
0.0014591055654056499
0.0015018242307108607
0.0015461311017575647
0.0015922271549552735
0.0016403393947229837
0.0016907157800389687
0.0017436202924860401
0.0017993281445134266
0.0018581211535786298
0.001920283329783154
0.0019860967394870086
0.0020558377139419885
0.002129773469908828
0.0022081591992379876
0.0022912356680882835
0.0023792273460597926
0.002472341063560521
0.002570765174688235
0.0026746691848497364
0.002784203788682027
0.0017490061185095667
0.0016432927745111358
0.001545411871246368
0.0014556575426996805
0.0013743394100308695
0.0013017639844186734
0.0012382084998576917
0.001183887728988731
0.0011389164545653999
0.0011032727529785805
0.0010767691576326413
0.001059038914464342
0.0010495421682305073
0.001047592443195306
0.001052398857195944
0.0010631161525304523
0.0010788940166199848
0.0010989190494880654
0.0011224458513994047
0.0011488166840169533
0.0011774711854685726
0.0012079485409841845
0.001239884588518837
0.0012730059492847333
0.001307122723436253
0.0013421207651368515
0.0013779541285778775
0.001414637972658839
0.001452242012116393
0.0014908844828600688
0.0015307265262674338
0.0015719668731349636
0.00161483670989671
0.001659594628671799
0.0017065215924510612
0.0017559158825689513
0.001808088033551952
0.0018633557967993584
0.001922039205806057
0.001984455838671228
0.002050916386067459
0.0021217206334049974
0.002197153954779651
0.0022774843950417595
0.002362960387810333
0.002453809125112077
0.002550235562369106
0.002652422014095414
0.0027605282734251995
0.001725361085053609
0.0016213227519961612
0.0015255955639873237
0.0014384997520456135
0.0013603592359310935
0.001291476421655168
0.0012320990926304614
0.001182381451203974
0.0011423440076022298
0.0011118394110250379
0.001090532192522849
0.001077898673680736
0.0010732490036704865
0.0010757678794370016
0.001084566206623535
0.0010987344291448283
0.00111738965320207
0.001139711851830005
0.0011649678055540868
0.001192523929116214
0.0012218504161067164
0.0012525194068855063
0.0012841995537860981
0.0013166487836795617
0.001349706473485892
0.0013832857685078042
0.001417366415393337
0.0014519882396905595
0.0014872452469906797
0.0015232802409800078
0.0015602798108403102
0.001598469529787623
0.0016381092165992563
0.0016794881367096603
0.0017229200548458906
0.0017687380940319198
0.0018172894028904432
0.0018689296807817752
0.0019240176541572944
0.0019829096330368614
0.002045954299601734
0.002113487888520935
0.0021858299096135375
0.0022632795388223366
0.0023461127664415765
0.0024345803469578552
0.00252890654839114
0.0026292886561190094
0.002735897151210758
0.0017008670547264068
0.0015985791316704679
0.001505109758946796
0.001420804614387053
0.0013459980851337433
0.0012809806664133639
0.0012259587512237283
0.0011810108286268647
0.0011460470330426342
0.001120780762567381
0.0011047202953236787
0.001097184458753973
0.0010973405542157165
0.0011042572898421138
0.0011169626806863053
0.001134497501143087
0.0011559579770806868
0.001180525236653976
0.0012074821545957546
0.0012362200117058686
0.001266237951166766
0.0012971379757741582
0.001328617631847251
0.0013604618664588685
0.0013925349768798454
0.0014247731433153603
0.0014571777416522702
0.001489809444688505
0.0015227830083252292
0.001556262578852428
0.0015904573312275146
0.0016256172449244325
0.0016620288370896154
0.0017000106990159637
0.0017399087195604675
0.0017820909266423562
0.0018269419332620045
0.0018748570341833863
0.0019262360586516643
0.001981477137180006
0.0020409705800682673
0.002105093086215331
0.0021742024992955624
0.0022486333039045247
0.0023286930096999975
0.0024146595128171446
0.0025067794588704
0.0026052675690480527
0.0027103068374581324
0.0016755299497989867
0.0015750695880607916
0.001483965411649348
0.0014025874661138743
0.001331275848712284
0.0012702999792597544
0.001219811427095805
0.001179796718935939
0.0011500393590651594
0.0011301007763990507
0.0011193268830427048
0.0011168808779611105
0.0011217962031455186
0.0011330390668181668
0.0011495693256993729
0.0011703912954205997
0.0011945903582008003
0.0012213551527280571
0.0012499876314375615
0.0012799042661068086
0.001310631610291765
0.0013417988177044885
0.0013731289656637757
0.0014044303584178166
0.001435588465698818
0.001466558789652308
0.0014973607188277429
0.0015280722855439666
0.0015588256620195726
0.0015898031888336218
0.001621233712085308
0.0016533890048316376
0.0016865800602425464
0.0017211530674887696
0.001757484917169716
0.0017959781317038474
0.001837055177137194
0.0018811521839216085
0.0019287121804814449
0.0019801780174323554
0.0020359852230470523
0.0020965550726570843
0.0021622881685893604
0.002233558809151064
0.0023107103762815715
0.00239405189815127
0.0024838558556140133
0.002580357212296991
0.0026837535688895913
0.0016493561057041302
0.0015508023809428786
0.0014621743706046007
0.0013838648928742958
0.0013162139261116207
0.001259459139842291
0.0012136822874201797
0.0011787606778246174
0.0011543350387517837
0.0011398035086274865
0.0011343457980179752
0.0011369736642542444
0.001146597212136245
0.0011620939692102584
0.0011823696084937942
0.001206403815726088
0.0012332796837280472
0.0012621985125090883
0.0012924835604589328
0.0013235765145163925
0.0013550298660062916
0.00138649752570239
0.001417725199686468
0.0014485414056193506
0.0014788495557505003
0.0015086212379599117
0.0015378906463500998
0.0015667500095951556
0.001595345809211142
0.0016238755516082139
0.0016525848455723015
0.0016817645349710907
0.0017117476434073081
0.0017429059044164026
0.0017756456803221382
0.0018104031179810496
0.0018476384523092853
0.001887829448287817
0.0019314640652115926
0.0019790325253908458
0.002031019061793104
0.0020878936916395433
0.002150104402762349
0.0022180701373952475
0.002292174911354445
0.0023727633205396313
0.0024601375738267273
0.0025545560687925814
0.002656233412105927
0.001622352291032465
0.0015257863993127048
0.0014397494587322585
0.0013646548447155656
0.0013008353485639476
0.0012484845425489231
0.0012075977617060352
0.001177924970966735
0.0011589483697762508
0.0011498931627566239
0.0011497713962548056
0.0011574497388125104
0.0011717267078400102
0.0011914050218830947
0.0012153492679593532
0.0012425250067818706
0.0012720202811088795
0.0013030531852837872
0.0013349698972224121
0.0013672371101082856
0.0013994318457297658
0.0014312306450269083
0.0014623993242816541
0.0014927839064818548
0.001522302958748832
0.0015509413367322253
0.0015787452060347866
0.0016058181405946479
0.0016323180620247233
0.0016584547655697844
0.0016844877684046699
0.001710724210641662
0.0017375165386723237
0.0017652597071526068
0.0017943876547134284
0.0018253688447704888
0.0018587007214689705
0.001894903014432701
0.00193450993312798
0.001978061415306326
0.002026093721128417
0.0020791297772835885
0.0021376697539385366
0.0022021823845579363
0.002273097504946086
0.0023508001947022935
0.0024356267648215774
0.0025278626716497064
0.0026277422758091192
0.0015945257281619117
0.0015000312103749607
0.001416704565677883
0.0013449767659542322
0.0012851649160800192
0.0012374043006390925
0.0012015855931460247
0.0011773125926122158
0.001163893925971793
0.0011603741637798053
0.001165598647033499
0.0011782972845399292
0.0011971696853171024
0.0012209574460174104
0.0012484962095006312
0.0012787466640038665
0.0013108078789805034
0.0013439180155015897
0.0013774472831189894
0.0014108869919417855
0.001443837350199942
0.0014759956283704628
0.0015071455563017563
0.0015371483220109625
0.0015659352390592243
0.001593501980149337
0.0016199041869145452
0.0016452542238914914
0.0016697188252113014
0.0016935173717838444
0.0017169205275049104
0.0017402489527971186
0.0017638718036486814
0.0017882047181165177
0.0018137069962198093
0.0018408777010211748
0.0018702504565652693
0.0019023867988002697
0.0019378680511811445
0.001977285843242282
0.0020212315553661524
0.0020702851349470772
0.002125003860895965
0.00218591170733984
0.0022534899528918115
0.002328169592373955
0.0024103259442300622
0.002500275635894156
0.0025982759272728455
0.0015658841146195238
0.0014735471144995784
0.0013930547529280577
0.0013248517419802326
0.001269229349568947
0.0012262483595598468
0.0011956748953785407
0.001176947292153389
0.001169186602388665
0.0011712512475878817
0.0011818232451609708
0.0011995058314793897
0.0012229130300535369
0.0012507386198240924
0.0012818004393034587
0.001315062384118356
0.0013496396017919597
0.001384792864109901
0.0014199171144776204
0.0014545277515197383
0.001488246886841013
0.0015207908133078863
0.0015519592499895671
0.0015816265221854937
0.0016097346081446254
0.001636287870056161
0.0016613492368399204
0.0016850375881894406
0.0017075260835759526
0.001729041175249571
0.001749862035054242
0.001770320109409339
0.0017907984965521997
0.001811730819388369
0.0018335992531722967
0.0018569313693659816
0.0018822954867152885
0.0019102942890535102
0.0019415565847008653
0.001976727245785294
0.002016455567825872
0.002061382508001677
0.0021121274604287074
0.002169275368313043
0.0022333650199141074
0.0023048793071951254
0.002384238046231337
0.0024717936958844077
0.002567830013728353
0.0015364356453296312
0.0014463452073311912
0.001368816374017455
0.001304302665545116
0.001253057459785882
0.0012150486201758202
0.0011898962154247932
0.0011768536101303246
0.0011748416755248557
0.001182529567052818
0.0011984417373210176
0.0012210663560915608
0.0012489455601655257
0.0012807380694685327
0.001315254035954882
0.0013514675530917446
0.0013885139951218973
0.0014256786714381764
0.0014623816259928413
0.0014981617110275665
0.0015326617170472192
0.0015656154191697486
0.0015968368336221263
0.001626211662803978
0.0016536907509175401
0.001679285307349156
0.0017030636373852332
0.0017251491220448415
0.0017457191946990142
0.0017650050627382688
0.0017832919133901808
0.0018009193225298264
0.0018182815552490743
0.0018358274111167287
0.0018540592327113176
0.0018735306738848366
0.0018948428283907326
0.0019186383660046238
0.0019455934270122975
0.00197640719598787
0.002011789309305627
0.0020524455278640333
0.002099062388094199
0.002152291776979915
0.0022127365042389556
0.002280937924726183
0.0023573664843381625
0.002442415749147264
0.002536400089411336
0.0015061890359749934
0.001418437450529604
0.001344007212588966
0.0012833544254790494
0.0012366803349505929
0.0012038390726596413
0.0011842816036620114
0.0011770569253028707
0.001180874880508992
0.0011942148162137432
0.0012154516640544945
0.0012429713963406995
0.0012752580903176484
0.0013109474901404333
0.0013488511575512597
0.0013879593686997533
0.0014274310795484254
0.0014665775407245768
0.0015048439885634065
0.0015417920134562914
0.001577083916713481
0.0016104695612016771
0.0016417757682609876
0.0016708980881492259
0.0016977946791079178
0.0017224820084009726
0.0017450320987666519
0.001765571063097134
0.0017842786860875976
0.0018013888170931346
0.0018171903298798322
0.0018320283809990455
0.0018463056598102031
0.0018604832728795196
0.0018750808501103151
0.0018906754103838396
0.0019078984965866283
0.0019274311040557114
0.0019499960050638507
0.0019763472341367576
0.0020072567526847633
0.002043498644381866
0.0020858315658405678
0.002134980525076235
0.0021916193029605227
0.0022563548976098973
0.0023297152192896706
0.0024121409074041524
0.0025039816490943787
0.0014751535477975698
0.0013898367529872817
0.001318646641636846
0.0012620341212296435
0.0012201315489990209
0.001192655941765972
0.001178864691779112
0.0011775835145607242
0.0011873025071022108
0.00120631337407846
0.0012328517189948269
0.0012652151845321104
0.0013018435188471714
0.0013413607973724966
0.0013825880829584289
0.0014245368958366394
0.0014663924316496613
0.0015074928418417088
0.0015473084218367349
0.0015854227249290894
0.0016215164495961235
0.001655354280372097
0.0016867745256975658
0.0017156812556312134
0.001742038607469582
0.001765866942638368
0.0017872405716685713
0.0018062867979427339
0.0018231860556263979
0.0018381729275308248
0.001851537821587626
0.0018636290585338998
0.001874855077990322
0.0018856864070664532
0.0018966569598956376
0.0019083641579198643
0.0019214672956534447
0.0019366835486625909
0.0019547810591797714
0.0019765686708876104
0.0020028821406781524
0.0020345670334036407
0.002072458973663354
0.0021173624140691074
0.0021700294771372403
0.002231140625810312
0.002301288834609217
0.0023809685556281314
0.0024705701690146656
0.0014433390142956216
0.0013605570648357857
0.001292755807946749
0.0012403713071100536
0.001203447392534711
0.0011815378441817268
0.001173680779759807
0.0011784606275953588
0.001194141516472441
0.0012188324696380034
0.0012506419270928639
0.0012877937998954487
0.0013286969396191124
0.0013719742089183386
0.0014164632863664795
0.00146120115329466
0.0015054012912689093
0.0015484293351107374
0.001589780321885273
0.0016290589496199303
0.0016659632532452053
0.001700271587536695
0.0017318325832093246
0.0017605576791788272
0.001786415849202451
0.0018094301877732949
0.001829676073030406
0.0018472806704965226
0.0018624235739752846
0.0018753383951980438
0.0018863151092824732
0.0018957029367170878
0.0019039134929211626
0.0019114238632804332
0.0019187791675543075
0.0019265940702849278
0.0019355525884724954
0.0019464054693499712
0.001959964395071979
0.001977092360281118
0.001998689803619667
0.002025676478081211
0.002058969602070512
0.002099459472430178
0.0021479843153301794
0.0022053065417257643
0.002272092620379249
0.0023488984200393994
0.0024361611562017135
0.001410755870451701
0.0013306134871451055
0.0012663578465788093
0.0012183982706969717
0.001186667128603445
0.0011705259585678557
0.0011687669330383687
0.001179716578413692
0.0012014096807858982
0.0012317803697926072
0.0012688238436794257
0.0013107053429657334
0.0013558157801857075
0.0014027863577019872
0.0014504775447067824
0.0014979552312717058
0.0015444626946246416
0.0015893933153507747
0.0016322664045335057
0.00167270695769849
0.0017104293373721908
0.0017452245209276284
0.0017769504331328332
0.0018055248886120708
0.001830920727406555
0.0018531627995002718
0.001872326522972706
0.0018885377966224586
0.0019019740873558537
0.001912866532973516
0.0019215029000799874
0.0019282312122110004
0.0019334638121662427
0.0019376815426674517
0.001941437620566274
0.0019453606461306912
0.0019501560426528368
0.0019566050868503257
0.0019655606063134555
0.0019779384401844595
0.001994703944066234
0.0020168532202049032
0.0020453893817537444
0.0020812949598584475
0.0021255023939777094
0.002178865199809203
0.002242132665764482
0.002315930646013821
0.0024007502073081456
0.0013774151853603793
0.0013000224009686407
0.001239478131243869
0.0011961503504146103
0.0011698332754115678
0.001159664208793806
0.0011641620910725916
0.001181380855927108
0.0012091257477555002
0.0012451665920101616
0.0012874007763595654
0.0013339501339074526
0.0013831999679291928
0.0014337984365898507
0.0014846340778932046
0.0015348044393218995
0.0015835836332242777
0.001630392776533274
0.001674774864932769
0.0017163743267441143
0.0017549208945578836
0.0017902172160814077
0.0018221296055196128
0.0018505814025467477
0.0018755484996825589
0.0018970566926858785
0.001915180590122087
0.0019300438827496013
0.001941820818982688
0.0019507387582437937
0.0019570816777487866
0.00196119448731126
0.0019634879571527966
0.0019644439810040807
0.0019646207774415315
0.0019646574763794705
0.0019652773524347876
0.0019672887730006125
0.001971582765575651
0.0019791260377787267
0.0019909483849771324
0.0020081237776557867
0.0020317450864838866
0.002062893355183112
0.0021026036326323152
0.0021518303701298313
0.002211415960782448
0.002282065886946346
0.0023643330781517712
0.00134332869943362
0.0012688016203405874
0.0012121445676360441
0.001173666297970785
0.001152991918019433
0.001148999460711967
0.001159907188691262
0.0011834842560172164
0.0012173096324008732
0.0012590021436758914
0.0013063780318820508
0.0013575309370350667
0.0014108521259751355
0.0014650143759496821
0.0015189387221885738
0.0015717564848313622
0.0016227732388206526
0.0016714375975427653
0.0017173155539933396
0.0017600700970432366
0.001799445423206023
0.001835254987396208
0.0018673727022989564
0.0018957267125918867
0.001920295293196901
0.0019411045312082095
0.0019582275426151424
0.001971785046096604
0.0019819471672125758
0.0019889363771571876
0.0019930314794860938
0.0019945725427582394
0.0019939666318473863
0.0019916941092796587
0.0019883151534061966
0.0019844759675753916
0.0019809139350298564
0.001978460722122076
0.0019780420830668682
0.0019806729378402106
0.0019874462782460208
0.0019995147238882557
0.002018064204874834
0.002044280324203228
0.0020793093416690495
0.0021242171350683847
0.0021799505077655704
0.002247305405175655
0.002326905765288603
0.001308508867781881
0.0012369705750541148
0.0011843879382414974
0.001150988691951006
0.001136193050816222
0.0011385817325933415
0.0011560452916869093
0.0011860590376401021
0.0012259826383856278
0.0012732997902527034
0.0013257631903086094
0.0013814532139287447
0.0014387778008233493
0.0014964410552064339
0.0015534001373227872
0.0016088216824257098
0.0016620429948858693
0.001712539749652708
0.0017599001722733143
0.0018038049411151238
0.0018440118625895167
0.0018803444204977676
0.00191268344141353
0.0019409612766809786
0.0019651580476198497
0.001985299623664722
0.002001457102052238
0.0020137476340242938
0.002022336498294503
0.0020274403586127716
0.002029331657712838
0.0020283440915140056
0.0020248790693989907
0.002019412990432792
0.002012505041341414
0.002004805039812603
0.001997060600157107
0.001990122592715014
0.0019849475307964076
0.0019825952117770826
0.0019842197704823933
0.0019910524252594983
0.0020043747763108946
0.0020254826632171716
0.002055642259600272
0.0020960419880407437
0.0021477454428753128
0.0022116511861387305
0.002288464601053992
0.0012729689119254416
0.0012045505306110139
0.0011562423088937509
0.0011281644094978116
0.0011194909521998861
0.0011284644190665538
0.0011526217482511095
0.0011891391057084863
0.0012351677114377049
0.0012880743545646664
0.0013455664090190698
0.0014057254077170245
0.0014669857238195697
0.0015280885498414121
0.0015880300482706247
0.0016460131949757267
0.0017014069752443418
0.0017537135263722397
0.001802542481872759
0.0018475913477007141
0.0018886307397122924
0.0019254934745019886
0.001958066709355566
0.0019862865193733593
0.0020101344633356236
0.0020296358221220633
0.0020448592975708607
0.002055918039870506
0.0020629719313852604
0.0020662310960034387
0.002065960625213117
0.0020624865120228764
0.002056202755337777
0.0020475795308150515
0.0020371722065405506
0.00202563079789101
0.002013709191600604
0.002002273118438386
0.001992305431511171
0.001984906805645439
0.0019812896231361727
0.0019827627320124423
0.0019907051860386933
0.002006528213485927
0.0020316265766024072
0.00206732293279296
0.0021148111679184945
0.002175106066981921
0.0022490063636323573
0.0012367228827385572
0.0011715648547424042
0.0011277455094264317
0.0011052451635327795
0.001102944592271247
0.0011187045280586557
0.00114968435800417
0.0011927602236938234
0.0012448897275348482
0.0013033430497405704
0.0013658007593117531
0.0014303592612807275
0.001495488108770847
0.0015599704155018366
0.001622843522850775
0.0016833473070911238
0.0017408821106373686
0.0017949757963291802
0.0018452585367854987
0.0018914438202932348
0.0019333143275372677
0.0019707115930985737
0.0020035286203894842
0.0020317048368477552
0.0020552229522200227
0.0020741074209582335
0.002088424317046835
0.0020982825124199857
0.002103836113257366
0.00210528815446858
0.0021028955816859225
0.0020969755592584417
0.0020879131257612177
0.00207617016487006
0.0020622955538310995
0.002046936174380575
0.002030848199705978
0.0020149076875235873
0.0020001190114356357
0.001987619085730522
0.001978674784377755
0.0019746706188231186
0.0019770839141992126
0.0019874457413643805
0.002007287940280485
0.0020380795813981127
0.002081159492568897
0.002137673880905041
0.0022085284038454757
0.001199785738543983
0.0011380393424939355
0.0010989397032387645
0.0010822881133474263
0.0010866180734550957
0.0011093629298287461
0.001147283560547047
0.0011969602590992331
0.0012551758187348556
0.0013191258486255932
0.0013864825986431477
0.0014553701723826152
0.0015243009882501607
0.0015921040111486868
0.0016578592865518287
0.0017208437321633585
0.00178048848405428
0.0018363462797991832
0.0018880669319986754
0.0019353790900532852
0.001978076813866244
0.002016009823120502
0.002049076580502463
0.002077219604077027
0.002100422588061965
0.0021187090526376055
0.0021321423522103243
0.002140826955910751
0.0021449109798509763
0.0021445900011348717
0.0021401122195205875
0.0021317850516461155
0.0021199832387936487
0.0021051585114478326
0.002087850765602216
0.0020687005433246025
0.0020484623438440006
0.002028017889973341
0.002008387916275969
0.0019907403407199544
0.0019763919105867268
0.0019667997710676914
0.0019635392334515674
0.00196826477835176
0.0019826534390708153
0.002008333248602817
0.002046803786906883
0.0020993596185580566
0.002167028790484061
0.0011621734436482447
0.0011040026152141476
0.0010698720634611878
0.001059356556453353
0.001070581102690262
0.0011005046167185699
0.0011454726456877123
0.0012017794652027926
0.0012660557397752119
0.0013354458927830734
0.0014076319818605763
0.0014807775889889851
0.0015534445913734528
0.001624510863396981
0.0016931000761881646
0.001758525954146144
0.0018202496556783889
0.0018778478493772872
0.001930989071413377
0.001979416342659939
0.0020229344798162784
0.002061400938903859
0.0020947193537773166
0.002122835181349425
0.0021457330533888068
0.0021634355769352387
0.002176003434132378
0.00218353671714743
0.0021861775014946102
0.002184113715513525
0.0021775844063342655
0.002166886531741864
0.0021523834174776895
0.0021345150001185393
0.00211380990929321
0.002090899303393203
0.0020665321240178544
0.002041591032144505
0.0020171076903345215
0.001994275240022703
0.00197445483587604
0.001959172113373139
0.0019500988498632006
0.001949015414891726
0.001957751558022953
0.0019781070396149678
0.002011759143948069
0.0020601696078395124
0.002124506476147231
0.0011239030944884634
0.0010694866131241913
0.0010405955767041311
0.0010365207091638537
0.001054909492116805
0.0010921989717447536
0.0011443079877780328
0.0012072608027761536
0.0012775622788848812
0.001352329944581315
0.001429273115137948
0.0015066054483539584
0.0015829437661024298
0.001657217074447431
0.001728593034177815
0.0017964216053489115
0.0018601930182540428
0.0019195068551131026
0.001974049454359712
0.002023577458256273
0.002067905886393614
0.0021068995702752447
0.0021404671284016787
0.0021685569168239456
0.002191154578999297
0.0022082819596998707
0.0022199972551347922
0.0022263963559047816
0.0022276154082506733
0.00222383467688196
0.002215283841518852
0.002202248898325352
0.002185080862111447
0.0021642064657982746
0.0021401410129339156
0.002113503429405603
0.0020850333409761614
0.002055609618601993
0.002026269219024349
0.0019982242484099023
0.001972873988793526
0.0019518072776052587
0.0019367894819292883
0.0019297280414134312
0.0019326121010234268
0.0019474259277950053
0.001976042551532344
0.0020201117134593027
0.002080961485702241
0.0010849930831504171
0.0010345272067792545
0.0010111699990745064
0.0010138585822363998
0.0010396856829626479
0.0010845200436866245
0.0011438493069763872
0.0012134503058354733
0.001289731716636672
0.0013698088863237845
0.0014514348567645345
0.001532882663807948
0.0016128284494343176
0.0016902537762506988
0.0017643701453827682
0.0018345628815396014
0.0019003501835523854
0.0019613534741506657
0.0020172759800724184
0.002067887263146036
0.0021130120671021702
0.0021525223314094203
0.002186331578931549
0.002214391141225511
0.002236687871945914
0.002253243136705261
0.002264112972662651
0.0022693893943299915
0.002269202891417468
0.002263726225116172
0.002253179683752616
0.002237838007347423
0.002218039229919356
0.002194195709975276
0.002166807607399103
0.0021364789912958907
0.002103936584431295
0.002070050801480421
0.002035858135584104
0.00200258299786804
0.001971655756219556
0.0019447220082633517
0.0019236363730041875
0.0019104330299150242
0.0019072660728545628
0.001916316818006952
0.001939673072581095
0.0019791955576287895
0.002036395129630644
0.001045463311603904
0.0009991649600397284
0.0009816629931276154
0.0009914569556605378
0.0010249992844772403
0.001077546825894767
0.0011441599607458358
0.0012203974959328632
0.0013026043371475438
0.0013879182709104576
0.001474151269428457
0.0015596436636042355
0.0016431341891738882
0.0017236576337891088
0.0018004687185727863
0.001872986995620348
0.0019407574004125297
0.0020034220845505683
0.00206070026898622
0.0021123737912700515
0.0021582767238014534
0.002198287947026705
0.002232325920643606
0.0022603451500199327
0.002282334026976873
0.0022983138574547866
0.0023083389900321804
0.002312498040484588
0.0023109162767130263
0.002303759291003603
0.0022912381460864096
0.002273616238947138
0.0022512181798437763
0.0022244410268341046
0.002193768234153442
0.0021597866398090216
0.0021232066892801337
0.002084885797988314
0.0020458541933636248
0.00200734161836998
0.0019708017955106416
0.0019379295042914592
0.00191066273309969
0.001891160349381102
0.0018817455138595359
0.0018848085906161256
0.0019026720322918099
0.001937432763216891
0.001990810244688909
0.0010053354750222672
0.0009634460866587468
0.000952151478458426
0.0009694124528918089
0.0010109476162949156
0.0010713635357956905
0.0011453072695470903
0.0012281558500598893
0.001316224996538762
0.0014066989291532253
0.001497462229202288
0.001586928986641661
0.0016739027213386903
0.0017574714005876165
0.0018369319146457745
0.0019117366710271974
0.0019814560045240573
0.002045751662468518
0.002104357999032941
0.0021570685526851718
0.002203726422148277
0.002244217371473913
0.0022784649508652013
0.0023064271674737924
0.0023280944155564718
0.0023434885029815326
0.0023526627082229483
0.002355702880513671
0.0023527296641168986
0.002343901991629879
0.0023294220548906544
0.0023095420275392508
0.002284572880157356
0.00225489569263445
0.0022209759174474427
0.002183381058490445
0.0021428021600915716
0.0021000792771706965
0.0020562306056975625
0.002012484030161697
0.001970308297104892
0.001931438697589299
0.0018978891069811013
0.0018719391085698796
0.0018560832794395914
0.0018529321202792068
0.0018650632103136481
0.0018948372206628377
0.0019442114644871687
0.0009646334396355099
0.0009274236548822611
0.0009227232322828705
0.0009478327089011887
0.0009976362385297466
0.0010660598921185573
0.0011473628815431415
0.0012367833279236613
0.0013306437543121035
0.0014261976396600005
0.0015214140971496427
0.0016147859404476452
0.0017051826076542303
0.0017917445297942775
0.001873809323756596
0.001950860675795541
0.002022492899673501
0.002088386201200072
0.002148289254276018
0.002202006805279797
0.0022493907818641012
0.0022903338950872373
0.00232476507101624
0.002352646285878825
0.002373970545515008
0.002388760870694629
0.002397070241993417
0.0023989825331615375
0.002394614528703892
0.0023841191859249864
0.0023676903685911042
0.002345569351776176
0.00231805347655264
0.002285507416791825
0.0022483776001480634
0.002207210381883023
0.002162674564579475
0.002115588717609717
0.002066953356117559
0.0020179872011693682
0.001970165201153648
0.001925253470060554
0.00188533266681871
0.0018527970202632477
0.0018303127562185487
0.00182072026280912
0.001826873035347845
0.001851425379866927
0.0018966055227790978
0.0009233837506458037
0.0008911591102982066
0.0008934787788325812
0.0009268376175952044
0.000985179449307222
0.001061731387334155
0.0011504031822523481
0.0012463429652912166
0.0013459165742616705
0.0014464678681306103
0.001546060460273039
0.0016432693274427794
0.001737029938037467
0.0018265338443838634
0.0019111575934603843
0.0019904143979034995
0.002063921069570187
0.002131375149745594
0.0021925388821473083
0.0022472278247137618
0.002295302655698203
0.00233666323080045
0.002371244281664642
0.002399012371838
0.0024199638830849283
0.002434123918151498
0.0024415460925681976
0.002442313259470306
0.0024365392760881213
0.0024243719849164763
0.0024059976517610444
0.0023816471810079115
0.0023516045183622366
0.0023162177532770425
0.0022759135427158073
0.0022312155803038444
0.0021827678973424178
0.002131363738403924
0.0020779804824699985
0.002023820374223968
0.0019703553732157908
0.0019193718128238007
0.0018730064293480553
0.0018337597820205194
0.0018044675065376362
0.0017882078025150071
0.0017881307789077657
0.0018072165681742459
0.0018480015924724016
0.0008816163202125431
0.0008547242074176373
0.0008645336063622678
0.0009065606316210384
0.0009737007247068211
0.0010584795539840468
0.0011545097565258283
0.0012569035412011804
0.0013621061026723906
0.001467570584008231
0.0015714629494532847
0.0016724422462148286
0.0017695091034245942
0.001861904270205422
0.0019490411098230993
0.002030460462024724
0.002105800118563227
0.002174773867446098
0.002237156854194779
0.0022927751660331694
0.0023414982893147853
0.002383233572269917
0.002417922141206173
0.0024455359298759393
0.002466075627550836
0.0024795694562540116
0.0024860727679478518
0.002485668519513192
0.0024784687453275056
0.0024646172106846448
0.0024442934997976943
0.0024177188747243374
0.002385164340630678
0.002346961471229654
0.0023035166852946347
0.0022553298121601485
0.0022030179158432114
0.002147345406557273
0.0020892613394321987
0.0020299442699790995
0.001970853745644925
0.0019137849332367903
0.0018609183995788926
0.001814850369868791
0.0017785808330534883
0.001755431351555727
0.0017488687441748155
0.0017622333354347921
0.001798411663618274
0.0008393653665036759
0.0008182034660343132
0.0008360207460057941
0.0008871500704284083
0.0009633330716737591
0.0010564122256210295
0.0011597699120596311
0.001268540328299679
0.0013792825330119292
0.0014895751638037038
0.001597692143194324
0.001702376975394187
0.0018026936448120793
0.0018979296357256466
0.001987532733173473
0.002071069387127763
0.002148196838477101
0.0022186440898131813
0.0022821986235461523
0.0023386969085023106
0.002388017452294104
0.0024300756127059375
0.002464819676726504
0.002492227911684133
0.002512306426953715
0.002525087780781554
0.0025306303405332187
0.002529018466894727
0.002520363651270629
0.0025048067974031015
0.0024825219090631196
0.0024537215313888954
0.0024186643999275104
0.0023776658840440764
0.0023311119734244212
0.002279477745475631
0.002223351451439514
0.0021634655248429255
0.002100735844979262
0.002036310272699177
0.0019716264330327717
0.0019084763176479154
0.0018490706455903776
0.0017960882432827186
0.0017526852557341918
0.0017224291920925295
0.0017091224450076447
0.0017165018269648309
0.0017478509639397293
0.0007966707054888036
0.0007816973000007788
0.0008080937343431084
0.0008687703699501233
0.0009542192612396337
0.001055643796306026
0.0011662772759779999
0.001281335937418365
0.001397524568142834
0.0015125603920451284
0.0016248285673130713
0.0017331559486782077
0.0018366671849019368
0.0019346935423610156
0.0020267145897163693
0.0021123202834135418
0.002191185797387302
0.0022630543988769254
0.0023277254701801
0.0023850458728518326
0.00243490352795775
0.002477222511086183
0.002511959233163398
0.002539099457016859
0.0025586560211903397
0.002570667229323748
0.0025751959301946008
0.002572329370504181
0.0025621799574156103
0.0025448871272705596
0.002520620587102283
0.002489585283080029
0.0024520285620588276
0.0024082501367168763
0.0023586156486411986
0.0023035748512122444
0.0022436856993011582
0.0021796459053100544
0.0021123337175458458
0.0020428596074911327
0.001972629831893065
0.001903420760228096
0.0018374583118328657
0.001777488462295523
0.0017268118945592754
0.0016892410514197276
0.0016689307691885738
0.0016700521850446124
0.0016963384258377432
0.000753579542333513
0.0007453260038845676
0.0007809299565267398
0.0008516031791868133
0.000946511908643255
0.0010562954872951216
0.0011741324789091192
0.001295381269782199
0.0014169204932614394
0.0015366155727654725
0.001652963802277259
0.0017648728306250447
0.0018715244492746284
0.001972290309230529
0.002066678919539445
0.002154301585790781
0.0022348499443227577
0.0023080806890726784
0.0023738048224295266
0.0024318797972443943
0.0024822035467327243
0.0025247097894370843
0.0025593642439878544
0.002586161549543487
0.0026051227964174225
0.0026162936485814255
0.0026197430991991787
0.0026155629516846426
0.0026038681694081195
0.0025847982935631973
0.002558520197331456
0.0025252325324808087
0.002485172340273905
0.0024386244519489595
0.0023859345061572543
0.002327526672088175
0.0022639274922947737
0.002195797634912844
0.0021239737119949356
0.002049522519072972
0.0019738097166826485
0.0018985833708285555
0.0018260685815988352
0.0017590607206840378
0.001700989752859134
0.001655907799907944
0.0016283361189616305
0.0016229189793820944
0.0016438972043033423
0.0007101489761749247
0.0007092348259743868
0.000754734322111283
0.0008358481761982985
0.0009403733702181452
0.0010584956358612111
0.0011834439445566074
0.0013107765931740754
0.0014375693755220716
0.0015618417668266942
0.0016822017117677597
0.0017976337040765363
0.0019073723845229884
0.0020108259959049904
0.0021075289805300157
0.002197111819346033
0.002279281221486287
0.002353806616766149
0.002420510539835197
0.0024792614547045236
0.0025299681441059408
0.0025725751412494402
0.002607058903187432
0.0026334245678168206
0.0026517032318889525
0.0026619497546445862
0.002664241143502284
0.0026586756235365376
0.0026453725383310716
0.0026244732825182753
0.002596143532498019
0.0025605771290529047
0.0025180020832003287
0.0024686893364253854
0.0024129651229857453
0.0023512280719456932
0.002283972565388024
0.002211820341280228
0.002135562864078189
0.0020562174638373526
0.0019751003462554193
0.001893918577514929
0.001814879602881834
0.0017408083028963596
0.0016752448985723717
0.0016224710616145638
0.0015873845208516804
0.0015751416667561437
0.0015905552508185111
0.0006664495313760291
0.0006736004007085069
0.000729743151446114
0.0008217234414377048
0.0009359754362086351
0.0010623800293597396
0.0011943288071424815
0.0013276327620165723
0.0014595824096762984
0.0015883531732548493
0.0017126598082200586
0.0018315583814275571
0.0019443313812311268
0.0020504195062183723
0.0021493800062586774
0.002240860389935857
0.002324581172504558
0.0024003240178289836
0.0024679231383487863
0.0025272586903992682
0.002578251419806487
0.0026208581267974
0.002655067714300865
0.002680897707863529
0.0026983912171738905
0.0027076143662058513
0.0027086542628214786
0.0027016176175667997
0.00268663016199946
0.0026638370653551007
0.0026334046112914114
0.002595523481734572
0.0025504141126173555
0.0024983347499022528
0.002439593061351758
0.002374562472396639
0.0023037048189147313
0.0022276014684609506
0.0021469957548673757
0.0020628503287903927
0.0019764235969183335
0.0018893691421786162
0.0018038593956100583
0.0017227269767009635
0.0016495995438620204
0.00158897272795012
0.0015461256957110796
0.0015267650798548261
0.0015363459492203982
0.0006225701752742309
0.0006386388517077155
0.0007062280337488942
0.0008094651962271854
0.0009334988159425184
0.0010680923176750329
0.0012069139844324871
0.0013460726058718592
0.0014830844331788651
0.001616278676207563
0.0017444707736423547
0.0018667818534324994
0.0019825366099847346
0.0020912037753112334
0.0021923602138275767
0.002285668389905452
0.002370861531204104
0.00244773327298518
0.0025161299337438476
0.002575944351806852
0.002627110669526379
0.002669599726019424
0.0027034148875232982
0.0027285882496931196
0.002745177214110533
0.002753261487758011
0.0027529405897101433
0.002744331981384994
0.0027275699716173317
0.002702805591486384
0.0026702076927836334
0.00262996560629844
0.0025822938123966
0.0025274392412799286
0.002465692054034702
0.002397401085466463
0.0023229955911489063
0.0022430155746097557
0.002158153808709457
0.002069313692954636
0.001977688140398513
0.0018848652103834256
0.0017929647621564662
0.001704803838398946
0.0016240710275967295
0.0015554543659749914
0.0015046130789636014
0.0014778399451603553
0.0014813088207365707
0.0005786254969667404
0.0006046158921827149
0.0006844992439453929
0.0007993266993048351
0.0009331324386093557
0.0010757845489632835
0.0012213374405080294
0.0013662325165201927
0.001508215639282852
0.0016457635833228136
0.001777784156935993
0.001903455890791204
0.0020221394786705013
0.002133327040646029
0.0022366118548272033
0.0023316694048249546
0.002418244770259391
0.0024961435947404077
0.0025652250727349994
0.002625396078293385
0.0026766059540795197
0.0027188417135657803
0.0027521235504109017
0.002776500635236555
0.0027920472338650924
0.0027988592166807258
0.002797051055556702
0.0027867534296864447
0.002768111590470932
0.0027412846740026103
0.002706446204031235
0.0026637861066743044
0.002613514671532542
0.0025558690577880913
0.002491123180507977
0.002419602153356649
0.002341702953116317
0.0022579236660463134
0.002168904640616179
0.0020754861490476307
0.0019787886872731715
0.0018803234193426588
0.0017821402269652536
0.00168701613272727
0.001598670710201262
0.001521956514915861
0.0014629037802059777
0.0014284234296529
0.0014254903071279532
0.0005347660258194128
0.0005718592123440654
0.0006649080619671006
0.0007915761109337115
0.0009350726298140644
0.0010856178869138823
0.0012377496802543938
0.0013882642707819621
0.0015351335228329923
0.0016769715861382566
0.0018127682723047297
0.0019417508153152718
0.00206330921897192
0.0021769541954939874
0.002282292298556657
0.002379010301646922
0.002466864582404157
0.0025456732022428943
0.002615309413406498
0.0026756959086576895
0.002726799463221898
0.0027686258135012484
0.002801214731368584
0.00282463531980893
0.0028389815950714448
0.0028443684447862143
0.0028409280691331727
0.0028288070294400364
0.0028081640509108985
0.0027791687588805424
0.0027420015772111127
0.0026968550911547476
0.0026439372862711104
0.0025834772358534165
0.0025157340454365486
0.0024410102092978256
0.0023596710414854997
0.002272172584982423
0.002179101471705903
0.0020812317057240107
0.0019796053187473685
0.0018756460905697248
0.0017713170349666254
0.0016693300751518501
0.0015734027963182037
0.0014885178675045651
0.0014210584707878083
0.0013785797161748865
0.0013689446433193069
0.0004911930746046352
0.0005407732951429742
0.0006478470289350083
0.0007864932022422839
0.0009395222698411565
0.001097763582233869
0.0012563155269882454
0.0014123371349103423
0.0015640151009871388
0.0017100869791089148
0.0018496123271056382
0.0019818574589142938
0.002106234608979537
0.0022222682200507106
0.002329575131197348
0.0024278519714469975
0.002516866258316012
0.0025964493410022115
0.0026664902067820616
0.002726929655544836
0.002777754622204273
0.0028189925828293527
0.0028507060678555707
0.0028729873531656964
0.002885953424292756
0.0028897413214552144
0.002884503981133873
0.002870406699172637
0.002847624355874687
0.0028163395702508103
0.0027767419942968073
0.002729029026638304
0.002673408329025896
0.0026101026852220904
0.0025393579743151783
0.0024614553768076
0.0023767294487429054
0.002285594471489136
0.002188582634376266
0.0020863992934058886
0.0019800029321126768
0.0018707205363149549
0.0017604122420860056
0.00165169970990654
0.0015482631075092283
0.001455174336911023
0.0013791411878498775
0.0013283806075799274
0.0013117348343588623
0.0004481799735033955
0.0005118564181249789
0.000633746845843739
0.0007843649263951624
0.0009466900905620154
0.0011124042863373924
0.0012772162460978672
0.0014386403070595333
0.0015950594602232677
0.001745317180605155
0.001888528811594964
0.002023989329723097
0.002151125836843918
0.002269471680426049
0.002378651247142579
0.0024783699903614814
0.0025684069142752107
0.0026486080925525925
0.002718880519328193
0.0027791859839550103
0.002829534878287714
0.002869979963364807
0.0029006101830537233
0.002921544639623957
0.0029329268550889404
0.0029349194421321454
0.0029276993062602027
0.002911453501682149
0.002886375871793309
0.0028526646256236956
0.0028105210396205103
0.0027601495369904234
0.0027017594951400754
0.0026355692815830186
0.0025618132448781356
0.0024807527285815
0.002392692693733027
0.0022980063240012707
0.0021971711923361352
0.0020908223997784877
0.0019798308278379377
0.001865418511374922
0.0017493279344641972
0.001634065842670337
0.0015232378347422135
0.0014219580155222205
0.0013372190437238483
0.0012779061604097392
0.001253933756489955
0.0004061020030796695
0.0004857186933505296
0.0006230684057008005
0.0007854800859104522
0.0009567903182476449
0.001129735811115405
0.0013006520915418525
0.0014673857674673825
0.001628490691995642
0.0017828956072492754
0.0019297561873781522
0.0020683850051161643
0.0021982165068887534
0.002318788278610667
0.002429729898454524
0.0025307551497241944
0.0026216555085312706
0.0027022939042677177
0.00277259832136727
0.0028325551170045506
0.0028822020916868902
0.002921621430418982
0.002950932665633094
0.002970285819663512
0.0029798548769455445
0.00297983172283694
0.002970420673037111
0.0029518337096642185
0.0029242865411593585
0.0028879956174245767
0.0028431762638982333
0.002790042155414261
0.0027288064427545694
0.002659684987367495
0.002582902377439266
0.0024987017307590773
0.0024073598000437135
0.0023092096868400037
0.002204674704469954
0.002094318864378877
0.001978922468997266
0.0018595958442301744
0.0017379506159169035
0.001616355091934851
0.0014983023084118303
0.0013888960386972495
0.0012953618307559494
0.001227245349931826
0.0011956254091912552
0.00036547756676420936
0.0004630979167002814
0.0006162886137474574
0.0007901236101922364
0.0009700429118383908
0.0011499694553102225
0.0013268453692017214
0.001498811622118545
0.0016645612926044489
0.0018230849620634087
0.0019735619156928683
0.0021153107705853234
0.002247765783864371
0.0023704644263088546
0.0024830396545364175
0.0025852137898626894
0.0026767925671940876
0.0027576587509176116
0.0028277651482503732
0.0028871270752894437
0.0029358144405446647
0.002973943654258833
0.0030016695773114176
0.0030191777080889794
0.003026676780493402
0.0030243919188262425
0.003012558471043412
0.002991416624929323
0.0029612069055842205
0.002922166660792536
0.0028745276676717803
0.0028185150456081247
0.002754347746209965
0.0026822410256831042
0.0026024115125852574
0.00251508580344899
0.002420514014651356
0.002318990497874106
0.0022108851657369425
0.0020966908653745836
0.0019770954467037446
0.0018530922837886154
0.0017261508056382162
0.0015984791076834055
0.0014734198318262553
0.001356009374937564
0.001253641513706079
0.0011764967700960338
0.0011369063552080115
0.0003270236423713674
0.00044486553305597427
0.0006138795615635385
0.0007985712471283483
0.0009866746735536932
0.0011733350360985204
0.001356044132269656
0.0015331860454123073
0.0017035561185659645
0.0018661810070999786
0.0020202458704960662
0.002165063520697641
0.002300060661975155
0.0024247708010048117
0.0025388292052852903
0.0026419678502882403
0.002734009517308513
0.0028148608163605397
0.002884504219112771
0.0029429893362993807
0.00299042373243718
0.003026963576397913
0.0030528044023587254
0.0030681722165817106
0.0030733151412493695
0.003068495744033381
0.0030539841660121116
0.0030300521345021205
0.0029969679342040454
0.002954992412645853
0.0029043761178307445
0.002845357712570818
0.0027781638896534826
0.0027030111385558113
0.002620109910694506
0.002529672034191059
0.0024319227047124798
0.0023271191345240238
0.002215579162912745
0.0020977251356081817
0.0019741516883765285
0.0018457316002866333
0.0017137828901528267
0.0015803340097637095
0.0014485406321037004
0.0013233115736071654
0.0012121316050850684
0.0011257693745216173
0.0010778874002749148
0.0002917341117035354
0.00043200711304495576
0.0006162825471496519
0.0008110856886616529
0.0010069215172333022
0.001200084785465661
0.0013885266502160665
0.0015708119515004972
0.0017457970073069538
0.0019125169023063594
0.002070144183992286
0.0022179739324700103
0.0023554183315234968
0.0024820038221968306
0.002597367915622239
0.002701254520628672
0.002793507495300661
0.002874062554977804
0.0029429378714061504
0.003000223776964471
0.0030460719955239016
0.0030806847877119774
0.003104304342459985
0.0031172026818105697
0.0031196722811019217
0.003112017548029274
0.003094547255900523
0.00306756799148189
0.003031378658273268
0.0029862660738990436
0.0029325017182528844
0.0028703397314575577
0.002800016334970366
0.0027217509678477405
0.0026357496145991708
0.0025422110874600756
0.0024413374763541055
0.002333350701781374
0.0022185182878909277
0.0020971934492095235
0.00196987794900339
0.0018373219811738698
0.0017006852751000625
0.0015618001011392642
0.0014236009898255077
0.0012908075122566682
0.0011709064233159268
0.0010751832681972994
0.001018695585542742
0.00026102167036894786
0.00042555336730009286
0.0006238811190039252
0.0008279152030889524
0.001031032170897225
0.0012304982971364261
0.0014246068259055559
0.0016120325534021355
0.0017916481945896153
0.0019624682038113126
0.0021236335725072987
0.002274409910718859
0.0024141885953429714
0.002542486957117592
0.002658946005185222
0.0027633253396865316
0.0028554954616880884
0.0029354279570368916
0.0030031841375970873
0.003058902735441552
0.0031027872009897917
0.003135093079604343
0.003156115850072581
0.0031661795149842704
0.0031656261457759507
0.0031548065097623296
0.003134071846241481
0.00310376681567954
0.003064223621162778
0.003015757295765625
0.0029586621648676984
0.0028932095320239382
0.002819646706928665
0.0027381976054629375
0.00264906532432916
0.0025524373602891694
0.002448494565651428
0.0023374256116397425
0.002219449856365385
0.0020948534244785563
0.0019640466290569538
0.001827656765119914
0.0016866808836552994
0.0015427419130037718
0.0013985226152028324
0.0012584921974660096
0.0011300402395786867
0.0010248705642436225
0.0009594765968240818
0.00023707538728480018
0.00042644316843159764
0.0006369796413123331
0.0008492956857723194
0.0010592735717288694
0.0012648887445097727
0.0014646407769840723
0.001657238004744317
0.0018415226847688436
0.0020164586256976283
0.0021811361866637046
0.002334780286775198
0.002476756256759262
0.002606571725496927
0.002723874181341444
0.002828444542064208
0.0029201874059859817
0.002999118798918198
0.0030653522528898587
0.0031190839976798436
0.0031605779453450643
0.0031901510237705172
0.0032081592846051198
0.0032149850859171892
0.003211025538643453
0.003196682313294053
0.003172352831796105
0.003138422819535935
0.0030952601644143405
0.0030432100227853346
0.002982591126915204
0.0029136932870823433
0.002836776148514895
0.0027520693686373314
0.002659774541149005
0.002560069441496838
0.002453115558598239
0.0023390705092319556
0.002218107984942131
0.002090449693259101
0.00195641696633832
0.001816515559653442
0.0016715780493466014
0.0015230086395189011
0.0013732123435358996
0.0012263496855404539
0.0010896063267543197
0.0009749763256893876
0.0009003977404549381
0.00022363974988890534
0.0004353402827922409
0.0006557941701391345
0.0008754566920053002
0.0010919381977632567
0.0013036106374711073
0.001509034850115219
0.001706873362126653
0.0018958897574894089
0.0020749666779613834
0.002243125018806031
0.0023995387227244923
0.0025435433565581572
0.002674638217994579
0.0027924824929561587
0.002896886390059897
0.0029877983671518864
0.0030652896069651887
0.003129536839287749
0.0031808044805599765
0.003219426897433931
0.0032457914219004014
0.0032603225699572667
0.0032634677559144985
0.0032556846579750737
0.003237430281460956
0.0032091516848326875
0.003171278279513086
0.003124215585602228
0.0030683403199913434
0.0030039967101039306
0.002931493966150516
0.0028511049108617386
0.0027630658661875807
0.0026675780469010185
0.0025648109396524243
0.0024549085035336865
0.002337999606800551
0.0022142150848518025
0.00208371549146696
0.0019467366526561192
0.0018036657904017448
0.0016551718518869867
0.0015024350198884285
0.0013475622261474658
0.0011943522018634835
0.0010496759330674498
0.0009256596179716468
0.0008416517030573425
0.00022581906713355407
0.00045248828017130946
0.0006804597610127914
0.0009066315906921211
0.0011293535883039343
0.0013470694514704977
0.0015582554029854915
0.0017614481577782957
0.0019552838238625792
0.0021385332969412617
0.002310129878191425
0.002469187727706931
0.0026150110727026373
0.0027470948674890327
0.0028651180919808277
0.002968931149532144
0.0030585389225020474
0.003134081001710369
0.0031958104619728314
0.0032440723475786414
0.003279282792342057
0.0033019094559130577
0.003312453731325555
0.0033114349811681583
0.003299376897988236
0.0032767959605112065
0.003244191869575821
0.003202039793036338
0.0031507842232005984
0.0030908342498580862
0.0030225600738932653
0.002946290630056958
0.0028623122547684204
0.0027708684322889946
0.0026721607936485018
0.002566351752440463
0.002453569485834044
0.002333916492053942
0.002207483835170797
0.002074374729611881
0.0019347439297938889
0.001788864732439683
0.001637245945550636
0.0014808427248389259
0.0013214500946692185
0.0011624595496824493
0.0010103172138794959
0.0008770947016988815
0.0007834614125851295
0.00024582667264336574
0.00047770003132084366
0.0007110536695234084
0.0009430716265937129
0.0011718943521362587
0.0013957335522990137
0.0016128407728110501
0.0018215479332339608
0.0020203148745430457
0.0022077705784880643
0.0023827439041216917
0.002544282623252961
0.0026916610056840103
0.0028243771095483265
0.0029421414843490805
0.0030448592683394605
0.0031326077097952117
0.003205611017039544
0.0032642141998886925
0.0033088572572175807
0.003340050735510553
0.0033583533650817505
0.003364352196731892
0.0033586454246673893
0.003341827896227457
0.003314479174250899
0.0032771539290302495
0.0032303743872428396
0.003174624548162617
0.0031103458867521713
0.003037934294377606
0.0029577380585760296
0.0028700567542928384
0.0027751410152819446
0.002673193287372703
0.0025643698570888187
0.002448784740357399
0.002326516482214924
0.0021976197026048095
0.0020621446058921395
0.0019201702225651205
0.0017718620768888088
0.0016175749307856138
0.0014580423037384202
0.0012947406766889327
0.0011306189100069532
0.0009715941676096671
0.0008294723924470665
0.0007260864664442482
0.0002802618205722706
0.0005104939737302199
0.0007476297506854537
0.0009850635305827238
0.0012199970647789433
0.0014501489624309364
0.001673415955633776
0.0018878481554653434
0.0020916807876008373
0.0022833717011388655
0.002461630519151201
0.0026254351903226727
0.0027740354439339176
0.0029069444291178297
0.0030239207141519635
0.003124943190655761
0.003210181441542261
0.0032799639071613537
0.003334745815973159
0.0033750784118567146
0.00340158056942707
0.003414913482964722
0.003415758768521595
0.003404800043461353
0.00338270784390507
0.003350127602403695
0.003307670326136653
0.0032559055793217944
0.0031953563720443006
0.0031264955826771747
0.0030497435860492904
0.002965466820821618
0.002873977106769731
0.002775531619614773
0.0026703335574057227
0.0025585337073972176
0.0024402333815464836
0.00231548959857861
0.0021843240779588547
0.002046738827402739
0.0019027433697207875
0.0017524030886232112
0.0015959273214034364
0.001433835748074982
0.00126728733980321
0.0010987651436851838
0.0009335656360094452
0.0007830015954813172
0.000669831810097354
0.0003242033541274576
0.0005502913011698375
0.0007902578155339241
0.0010329504297028628
0.0012741786271170416
0.0015109576794579331
0.0017407106528480956
0.0019611310161664177
0.0021701817787307103
0.002366122074940347
0.002547530614253222
0.002713316576388695
0.0028627160236285353
0.002995275103451356
0.0031108227478860544
0.00320943608602064
0.0032914017471759108
0.0033571758655309147
0.003407345058222973
0.003442590052069044
0.003463653058388734
0.0034713094903363402
0.003466344207431173
0.003449532163940131
0.0034216231253609286
0.0033833299873320113
0.0033353201677969128
0.003278209530100345
0.003212558317619959
0.0031388686280845383
0.003057583019672718
0.002969083916510592
0.0028736935671021353
0.0027716744084504657
0.0026632298095135626
0.002548505326830231
0.002427590833538152
0.002300524238084767
0.002167298100963323
0.002027871506860788
0.0018821915158876426
0.0017302324137501773
0.001572069162077187
0.0014080197274480095
0.0012389345398020827
0.0010668217143411211
0.0008962844451532399
0.0007379109702386343
0.0006150596572059707
0.00037465247941354863
0.0005965793451533103
0.0008390629965387638
0.0010871561657527676
0.0013350589112471635
0.0015789204762018227
0.00181558150509523
0.002042305698874218
0.0022567372680767097
0.0024569116530941855
0.0026412695839953364
0.002808658815243426
0.0029583199469597455
0.0030898577027212515
0.0032032011004367077
0.0032985565856317837
0.003376358039447948
0.003437216989612895
0.003481875578382993
0.003511164036069295
0.0035259636727134635
0.003527175788286522
0.0035156964335371537
0.0034923966260226166
0.003458107421752468
0.0034136091386787696
0.003359623999306231
0.003296811483462048
0.0032257657401197366
0.003147014485000045
0.003061018898843822
0.0029681741343387147
0.002868810136218396
0.002763192581638879
0.0026515238640646118
0.0025339441881635574
0.0024105330422364585
0.0022813116175609983
0.0021462472446102587
0.002005261802667025
0.0018582477294198753
0.0017050985984977617
0.0015457683543613245
0.0013803895563974794
0.0012095210482083794
0.0010347023568208688
0.0008597967817956993
0.0006944505603658697
0.0005622060340819552
0.00043017781290044695
0.0006490062921353725
0.0008942629783772356
0.0011482136775841055
0.0014033888724319426
0.0016549454010597216
0.0018990395330941083
0.0021324327783723202
0.002352405386227289
0.002556748169881567
0.0027437635609897587
0.0029122539856588896
0.0030614925785392264
0.0031911780833814886
0.0033013784635961877
0.003392468400034235
0.0034650654523318545
0.00351996874370487
0.003558102932815368
0.003580469169695919
0.0035881038143122466
0.0035820449785863573
0.0035633064427077533
0.003532858173924204
0.0034916125067058746
0.003440414989450632
0.003380038929392693
0.0033111827443920664
0.003234469334923292
0.003150446805651039
0.00305958998322592
0.0029623022901408037
0.0028589176426888014
0.002749702147207789
0.00263485548013328
0.00251451196705826
0.00238874154701662
0.0022575510620028993
0.0021208867268597445
0.00197863936860819
0.0018306554118184266
0.0016767593843160181
0.0015167997544220863
0.0013507439552012208
0.0011788840361790281
0.0010023136207425504
0.0008241419206256873
0.000652892989626869
0.0005118036744919673
0.000490138253739837
0.0007074221945537022
0.0009562037527640653
0.0012167987912560857
0.0014800857843893383
0.0017401235752860988
0.0019922840414639317
0.002232753474165486
0.0024584052124829105
0.0026667707756249776
0.002856023789670372
0.0030249495673399366
0.003172894770974111
0.0032997001876589422
0.0034056227561306707
0.00349125344728331
0.003557436751618861
0.0036051961161779004
0.0036356681487565382
0.0036500470266288007
0.003649539436587
0.003635329569221434
0.0036085531738394077
0.0035702794032705554
0.0035214990820915384
0.003463118061626181
0.003395954432858993
0.003320738517281762
0.003238114719430551
0.0031486444864671633
0.0030528097700729525
0.0029510165203434032
0.0028435978608357345
0.0027308167025527777
0.00261286766013817
0.0024898782482667093
0.0023619094802922133
0.0022289561995130266
0.0020909478107489863
0.001947750675570771
0.0017991745640362964
0.0016449878475680098
0.0014849511127129323
0.001318890676327585
0.001146864097706528
0.0009695584238882924
0.0007893524417553747
0.0006135334052564707
0.0004645127025516155
0.0005543208227596721
0.000771894029812141
0.0010253966026916661
0.001293771589948228
0.0015662778983883878
0.00183577437434828
0.002096744509463626
0.0023447244800468853
0.0025761415747740752
0.0027882630607604358
0.0029791574644954543
0.003147637890154835
0.003293182641891735
0.0034158384291117336
0.003516114613060664
0.003594876863869111
0.00365324699994231
0.0036925136648651023
0.00371405642602673
0.003719284146079917
0.003709587193354341
0.0036863022169749036
0.0036506877517947303
0.003603908748279162
0.0035470281536246584
0.003481003825411244
0.003406689277966796
0.00332483700180608
0.003236103330558163
0.0031410540421502884
0.003040170064816623
0.002933852812922557
0.0028224288059009355
0.0027061533319936108
0.0025852130158192346
0.0024597272472885543
0.0023297485471629946
0.002195262111106279
0.0020561850426214154
0.001912366260673781
0.0017635889733176458
0.0016095794563379111
0.001450029935627255
0.00128465308187065
0.0011133113073768148
0.0009363407574401322
0.0007554551044698159
0.0005766866941210979
0.00042115767924745106
0.0006227939037034628
0.000842715839695197
0.001102560361069575
0.001380228558878305
0.001663361694252637
0.0019435027086156251
0.0022141322710834727
0.0024700589712861277
0.0027072317502568463
0.0029226636946914327
0.0031143624446180193
0.0032812366461256424
0.0034229766963009218
0.0035399187891587904
0.00363290388551949
0.003703142033586092
0.003752089705236948
0.0037813447367358727
0.003792560737757766
0.0037873807480378607
0.0037673885284823534
0.0037340750932420654
0.0036888177841929723
0.0036328692139612293
0.0035673536301944657
0.0034932685827254732
0.003411490136561863
0.0033227802227278795
0.0032277950311057927
0.003127093613822504
0.0030211460828752073
0.0029103409556763124
0.002794991334341879
0.0026753397080200966
0.0025515612529942947
0.002423765585423615
0.002291997013218888
0.00215623346218579
0.0020163844613295275
0.0018722889484742893
0.0017237143808658422
0.0015703601218223816
0.001411871362552457
0.0012478777775625617
0.0010780924290908916
0.0009025716967975588
0.0007224725716003088
0.0005426796541807898
0.00038275897133213037
0.0006958504032085043
0.0009204263349321753
0.001188674072909755
0.0014775700431189007
0.0017730760687249734
0.002065271907131483
0.0023465040250296434
0.0026107740361022824
0.002853532539263751
0.0030715716983210455
0.003262911918236703
0.0034266561582313084
0.0035628161235620745
0.0036721249797124675
0.003755852270384818
0.0038156336099000247
0.0038533232596837026
0.00387087339630169
0.0038702404456698323
0.0038533165043961176
0.0038218825182871497
0.0037775793313645834
0.0037218927159834107
0.0036561488294599583
0.0035815170461488124
0.0034990176683448067
0.003409532551241431
0.003313817146822385
0.0032125128628154647
0.0031061589443092865
0.0029952033243279158
0.0028800120666672667
0.0027608771522446055
0.002638022451962487
0.0025116077975310077
0.0023817311204439072
0.002248428694580503
0.00211167361252634
0.0019713727874968146
0.001827363073345821
0.0016794076850871313
0.0015271953276239018
0.0013703471696233367
0.0012084434375792359
0.0010410994247396412
0.00086817689032715
0.0006904262054239066
0.0005118351239366235
0.0003505189512398399
0.0007739947918713162
0.0010058415446175296
0.0012850465515154162
0.0015875894178285733
0.001897599410960123
0.0022034966641341514
0.0024963393025438903
0.0027692439889605834
0.0030171647034024406
0.0032367414962916367
0.0034261231545107546
0.003584747380664079
0.003713092778192245
0.0038124251844657573
0.0038845588120106356
0.00393164652348477
0.00395600678249922
0.003959989086297815
0.003945875622268929
0.003915814494743258
0.003871778831569836
0.0038155459985158968
0.0037486916484612623
0.0036725941172768796
0.003588445545783186
0.003497266933144398
0.0033999250471279333
0.003297149706851219
0.0031895504144197626
0.0030776316566812362
0.0029618064461082506
0.002842407840572872
0.0027196982943176406
0.002593876763681679
0.0024650835363530764
0.002333402786750275
0.002198862898706042
0.0020614346613668463
0.0019210275695741253
0.0017774847102911924
0.0016305772263597155
0.0014800004266885406
0.0013253760344381705
0.0011662709929097781
0.0010022594580024718
0.0008331057251180914
0.0006593401734723254
0.0004844454393145236
0.0003256809790499446
0.000857958435531654
0.0011001090273150506
0.0013934114808057787
0.0017125930490676465
0.002039677699123431
0.002361161593848946
0.002666633734586514
0.0029482574529312074
0.0032005292814457167
0.0034200600296675396
0.0036053017329216127
0.0037562223543736537
0.003873957805452864
0.003960474084092707
0.004018264866681672
0.004050099315985692
0.004058825155816015
0.004047224886435917
0.0040179186538822735
0.003973305308036777
0.003915532902918428
0.003846490640271612
0.0037678155052559394
0.0036809082289527813
0.0035869545209456
0.0034869486397156963
0.003381717273791691
0.003271942398753944
0.0031581822810380655
0.003040890152963933
0.0029204303183116625
0.002797091594144027
0.0026710980776722907
0.002542617267481457
0.0024117655836176483
0.0022786113364053925
0.0021431752056959466
0.002005428331767141
0.001865288220352805
0.0017226128911240369
0.0015771941852679749
0.0014287522013114145
0.0012769352237199567
0.001121335405107926
0.0009615466486397963
0.000797342401241909
0.000629247097904699
0.0004607353324190338
0.000309184844422857
0.0009487397325054141
0.0012047918546126603
0.0015160602711007352
0.0018555640588687012
0.0022027946990406133
0.0025419720094774396
0.002861008863893745
0.00315107315097425
0.0034063062311249824
0.003623493896380884
0.003801648831662869
0.003941536022603264
0.004045192223659792
0.00411548432298054
0.004155735449937744
0.004169431062766535
0.004160004282396339
0.004130691570612346
0.004084445971772173
0.004023894370301535
0.003951326337167918
0.003868704165252569
0.003777685959776047
0.0036796557693438165
0.00357575653439894
0.0034669230419615608
0.003353913129637431
0.0032373361316864534
0.0031176780680239897
0.0029953234023519047
0.002870573388233824
0.0027436611217780448
0.002614763457381179
0.002484009942087141
0.002351488902829448
0.002217250794937545
0.002081308906289026
0.0019436375314512099
0.001804167820712461
0.0016627817404348687
0.0015193051031092736
0.001373501782983672
0.0012250738955185804
0.0010736793043334366
0.0009189959025881428
0.0007609191731878985
0.0006001954332187805
0.00044082020256738097
0.0003012167691973084
0.0010476721905405585
0.0013219947413915076
0.001656030664225753
0.0020203887527335826
0.002391399235402421
0.002750544210552658
0.0030838365097138436
0.0033814640098610554
0.00363741928513667
0.0038489881249280855
0.004016114062654704
0.004140715027646629
0.004226031347752313
0.004276061703874651
0.004295115108304021
0.004287482983802164
0.004257219645792832
0.004208011646242011
0.00414311450364731
0.00406533700866291
0.003977056666522701
0.0038802536418444966
0.0037765540908715795
0.00366727668359716
0.0035534783624285382
0.003435997012263898
0.0033154898381285523
0.0031924669784365303
0.003067320329750013
0.002940347807959446
0.0028117733861310586
0.002681763278359473
0.0025504386155833724
0.0024178849074268445
0.0022841585215024316
0.002149290353405768
0.002013286823389166
0.0018761283433405902
0.001737765492390059
0.0015981134051098601
0.0014570454939299632
0.00131438901771232
0.0011699282303836967
0.0010234288256555702
0.0008747192070593719
0.0007239320097764288
0.000572258628868363
0.00042467252409558926
0.00030099190546888766
0.0011565294206354224
0.001454552009402448
0.0018173784611681674
0.0022121732854818027
0.002611209408599266
0.0029926419216755543
0.0033403697487281022
0.003643729762536861
0.003896940520323867
0.004098289068465809
0.004249169898071863
0.0043531157823457015
0.004414932404914743
0.00443999991695761
0.004433759188280359
0.004401369049753228
0.004347504406745951
0.0042762603393153315
0.004191129700978988
0.004095027486312618
0.003990341817011823
0.0038789974079626037
0.0037625222469351714
0.003642111862801751
0.0035186881108419795
0.0033929510942925425
0.0032654238941375877
0.0031364903855327668
0.0030064267272439955
0.0028754272277293105
0.0027436252927587916
0.0026111100948500187
0.002477939507050706
0.002344149734228727
0.002209761969244466
0.002074786312546019
0.001939223138272812
0.001803062094651505
0.0016662790420159833
0.0015288315623524984
0.001390654447653016
0.0012516583215146627
0.0011117386008147742
0.0009708120030892308
0.000828924795911772
0.0006865588159555454
0.0005455458706865523
0.00041211149595722
0.0003069904726608139
0.0012776836204460307
0.0016063094030609125
0.0020055750114027493
0.002437691125754161
0.0028696192167671137
0.0032754615684609965
0.003636860518917414
0.003942641962795909
0.0041878920699640184
0.004372651395765136
0.004500476356053789
0.004577091790996957
0.004609276309950857
0.004604034662968801
0.004568046479621288
0.004507345020071732
0.004427167806284865
0.004331924154272854
0.004225234749075933
0.004110010172925187
0.003988545900859716
0.0038626196469503816
0.003733582989357834
0.0036024432729797468
0.003469934355828678
0.0033365762702287326
0.0032027246664332997
0.0030686112546053036
0.002934376541172424
0.002800096085766728
0.002665801359845881
0.0025314961127293222
0.0023971689714339488
0.0022628028327218246
0.002128381459535195
0.0019938935799477656
0.001859334721165857
0.001724707024795682
0.001590017444826798
0.0014552751573929325
0.0013204899989220312
0.0011856759652081464
0.001050868908103011
0.0009161800112732262
0.0007819394614311812
0.0006490800162272208
0.0005202137125565855
0.0004028240588367642
0.0003174330576269986
0.0014143461303824207
0.0017825528831708643
0.0022280982365081702
0.0027060210190512734
0.0031762378452479677
0.0036079575042019746
0.0039806203654942085
0.004283257821824726
0.004512878394112474
0.004672373209310354
0.004768397833610259
0.004809551098749692
0.004805000493054219
0.0047635652978905525
0.00469318777222445
0.004600692958785532
0.004491740742338548
0.00437089213565121
0.004241733644147821
0.004107022958041987
0.003968834058550897
0.0038286901156686665
0.0036876791517205867
0.0035465513615615544
0.0034057990987398767
0.003265721523924985
0.003126476230137861
0.0029881201105668707
0.002850641505557961
0.0027139853650533486
0.002578072851469243
0.002442816516165543
0.0023081319238910307
0.0021739463793628224
0.0020402052319225443
0.0019068761047474352
0.0017739513307282544
0.0016414489142249247
0.0015094125534636394
0.0013779118154792133
0.0012470448109610283
0.0011169484894579225
0.000987827961554958
0.0008600312361184707
0.0007342338048438055
0.0006119004648883503
0.000496477081713096
0.0003964115846688529
0.00033064566112150353
0.0015709394553567284
0.001990674674185518
0.0024953269098050485
0.0030294625981350807
0.0035435914644340316
0.004001170083940118
0.004379936395951258
0.004670494063186698
0.004873448569818195
0.004996085743205744
0.005049331639776968
0.005045393039915577
0.004996173294458959
0.004912366830908324
0.004803058028277158
0.004675648722013167
0.004535972942030799
0.004388499977988147
0.004236563865864563
0.0040825846508141875
0.003928264782005055
0.00377475485580404
0.003622788890484845
0.003472792197774335
0.003324965991542244
0.003179352971152154
0.0030358877408699714
0.002894435365883622
0.0027548207738027908
0.002616851162029064
0.002480333095385595
0.002345085580810384
0.002210950082184823
0.002077798181192779
0.0019455373948031227
0.0018141155293843244
0.0016835239027302063
0.0015537998419898834
0.0014250291623016985
0.001297350047399583
0.001170961318545963
0.001046141452405326
0.0009232921494154595
0.0008030373113329655
0.0006864489620758698
0.0005755698900416157
0.00047461680634011276
0.00039244541503435384
0.0003452103991087624
0.0017536883279094832
0.0022412343378783116
0.0028219188695120935
0.003424853603348583
0.003987999865165789
0.0044684559583333654
0.004843672609512028
0.005108280737743342
0.005269044704084381
0.005339711241917884
0.0053368180590748476
0.005276836210252512
0.005174546501984127
0.005042338691447205
0.004890098399694429
0.004725412996829108
0.004553914546590997
0.004379651977785963
0.004205436788779035
0.004033138999333148
0.0038639281761970222
0.0036984633239080574
0.0035370390596557253
0.0033796962668610486
0.0032263048361786777
0.0030766249855428366
0.002930352431097638
0.0027871515564049662
0.0026466797719526406
0.0025086054821039216
0.0023726214657887124
0.002238455004491201
0.002105875730438695
0.001974701898268283
0.001844805592110451
0.0017161172665975304
0.0015886300037604969
0.0014624040003950226
0.0013375721963418113
0.0012143488497655384
0.0010930447536588307
0.00097409672255811
0.0008581272809990123
0.0007460683110044975
0.0006394205659000968
0.0005407957862711976
0.000454978844122926
0.0003905132372212679
0.00035998385580906665
0.0019715908166944704
0.00254969973637985
0.0032289747596121296
0.003915453913168486
0.004530575516878332
0.005025383354154778
0.005380240849039054
0.005598010557544752
0.005695348828130985
0.00569501058608347
0.005620440002940414
0.005492697419589701
0.005329166601225944
0.005143370841845005
0.004945357778081467
0.004742300896241039
0.004539122760773697
0.004339049345903689
0.004144064959499738
0.003955267628427003
0.003773137735424559
0.0035977363909464716
0.0034288493795025152
0.0032660901905818157
0.003108972945469411
0.002956963543344227
0.0028095152755007514
0.0026660935196896785
0.002526192878152785
0.0023893491915559792
0.0022551481765097983
0.002123231936902374
0.0019933042421556727
0.0018651352156306908
0.0017385659148281126
0.0016135132097020927
0.0014899753982035252
0.001368039200305827
0.0012478892751472187
0.0011298224762257576
0.0010142712230448987
0.0009018446623923137
0.0007934047258211433
0.000690210286676073
0.0005941903099042502
0.0005084373182575069
0.00043795792014012365
0.00039024529657144026
0.0003740687420238365
0.0022380799796593875
0.0029394004162378723
0.003747494878715487
0.004533579379499343
0.005198106665266393
0.005688771632272751
0.005995379041215155
0.006135868072757046
0.006141827432073562
0.006047705538804663
0.005884611513883771
0.005677767366189242
0.005446191174878568
0.005203451525698888
0.004958769079721613
0.004718097925772499
0.004485039188696695
0.004261554093525802
0.0040484940995169525
0.0038459823201850178
0.0036536814348882103
0.0034709782944289513
0.003297108994013198
0.0031312422339609012
0.0029725339255283986
0.00282016227605846
0.002673349844990646
0.0025313770914653297
0.0023935905421460695
0.002259407736976575
0.002128320440713144
0.0019998971514155316
0.0018737856320249816
0.0017497159973753743
0.0016275047849778012
0.001507060422174671
0.0013883905999064064
0.0012716123418463428
0.001156966157721192
0.001044836860956229
0.0009357859023684956
0.0008306042398461063
0.0007304019259789898
0.0006367610617792712
0.0005519865365731317
0.0004794618801558588
0.00042395621861830745
0.0003913178261127246
0.0003867779619706768
0.002574003635085665
0.003446732338984694
0.004423972656618848
0.005324062920274798
0.006023100093481629
0.006473790006913539
0.006687799239397978
0.006708518339301363
0.006588370600099858
0.006375341631509624
0.006107531948656172
0.005812562553457191
0.005509142004528988
0.005209187452652176
0.004919776483600471
0.004644696524777945
0.004385582669319695
0.004142714159101844
0.003915553784016845
0.0037031038686261768
0.0035041358183424275
0.0033173345711331563
0.003141386857566267
0.00297503299587932
0.002817095468156869
0.0026664930677461757
0.0025222463986673983
0.002383478502014993
0.0022494130623759673
0.0021193717860765525
0.0019927719906295003
0.0018691250995540806
0.0017480365328339307
0.0016292073806069996
0.0015124382270259983
0.0013976355538184895
0.0012848213258658677
0.0011741467097435235
0.0010659115275924414
0.0009605922205549399
0.0008588831022854538
0.0007617587834210316
0.000670569272286917
0.0005871792407492048
0.0005141440992461263
0.00045484099997587855
0.0004133084295307789
0.00039343624059222794
0.00039760263996445783
0.0030133011814715196
0.004130702406999206
0.005329472990063674
0.006348048370540099
0.0070410614662847395
0.007386987452496903
0.007441320836921145
0.007286748619589058
0.007001296970108449
0.006645449681749389
0.006260871429912515
0.005873907138180199
0.005499913751090615
0.005146941156310946
0.00481843589562849
0.004515081565074384
0.004235993423977458
0.0039794673296157995
0.003743435002636106
0.003525731565932841
0.0033242458160218477
0.0031369987724987206
0.0029621793895768782
0.002798155483781794
0.002643471019656643
0.0024968365407890426
0.002357116820431068
0.0022233181354398652
0.002094576554580984
0.0019701480334202545
0.0018494007699383197
0.0017318101029028604
0.0016169561721191572
0.00150452457476296
0.0013943103329787645
0.0012862256397894235
0.0011803120969913455
0.001076758547059506
0.0009759262013041871
0.0008783836428430596
0.0007849553513842986
0.0006967879254241206
0.0006154353523451226
0.0005429504851678789
0.00048192832294221037
0.00043536795476164223
0.00040617131109827115
0.0003963023123508211
0.0004061858824585783
0.003614467947051619
0.005091311878750126
0.006573893902328588
0.0076845741575869726
0.008280306545256006
0.008411450188928655
0.008212039684447305
0.007817449643661137
0.0073299374462070565
0.006815233332561164
0.006311129970292554
0.0058369664307784605
0.005400908442631119
0.005004787889396176
0.004647090266083335
0.004324711146881845
0.004033947386366693
0.003771031098516071
0.003532398254117929
0.003314807366195869
0.0031153762400407585
0.002931576105371424
0.0027612054682010674
0.0026023560906383286
0.002453377769421132
0.0023128453154434934
0.0021795293123443357
0.002052371248118238
0.0019304631155106185
0.0018130313585736197
0.0016994249857292547
0.00158910770771564
0.00148165405707525
0.0013767495892877497
0.0012741954521829366
0.001173917846561987
0.0010759831970591639
0.00098062020740951
0.0008882503335192036
0.0007995283362298305
0.0007153937250406863
0.00063713004336428
0.000566417462257525
0.0005053375969748509
0.0004562462411151073
0.000421407080411746
0.00040239078717700015
0.0003995694921906815
0.00041230127704010045
0.00448649736517771
0.006505817787289851
0.008326123534547484
0.009420652053965636
0.00973363303214898
0.00947893282826017
0.008910703242972374
0.008216857823419006
0.007506695912851209
0.0068348766942666695
0.006223938790994428
0.005679415069521155
0.005198625338804219
0.004775431585475482
0.004402667777227152
0.004073302996863855
0.003780940172482199
0.0035199790784160435
0.0032856183329076196
0.0030737871820012263
0.0028810529353676543
0.0027045262185934355
0.0025417739051821803
0.0023907433610956784
0.0022496986093329054
0.0021171676682588928
0.001991899818489808
0.001872831477553999
0.0017590594845431594
0.0016498208048477529
0.0015444779037620156
0.0014425092852073064
0.0013435049431953364
0.0012471667328642373
0.00115331394154137
0.0010618946292565651
0.0009730035898290927
0.0008869079679269765
0.0008040813908965
0.0007252462633789395
0.0006514200903455455
0.0005839523644407621
0.0005245197187616218
0.0004750194395280033
0.00043728793592272383
0.00041263461138980374
0.00040137783506441894
0.0004027907423302318
0.0004158346856656533
0.005848013293631453
0.008705301779935571
0.010828236371374976
0.011600766130286171
0.011292886665905692
0.010426115264411904
0.009388457504896258
0.008372629487573384
0.007455609121407952
0.006657174400840081
0.005972567254960142
0.005388240470850538
0.004888853198810526
0.004460087128260751
0.0040895709312019635
0.0037669971461306868
0.0034839280215233216
0.0032335099241557726
0.0030101878673655584
0.002809453796048795
0.002627636965550014
0.002461734455006082
0.0023092763149224356
0.002168219227380513
0.0020368630914138217
0.0019137858454942108
0.0017977927683034745
0.0016878773321045148
0.001583191387886884
0.0014830230454356134
0.0013867810967028678
0.0012939852431599161
0.0012042617515127605
0.0011173444964797507
0.0010330816620446946
0.0009514486452821304
0.0008725678595567478
0.0007967359460334482
0.0007244578507024815
0.0006564842027789969
0.0005938414589701315
0.0005378309215566845
0.0004899535372962931
0.00045170569278487114
0.0004242241987863921
0.00040787509151338577
0.00040203605642131666
0.00040536661691462485
0.00041676937363032426
0.008215571928413323
0.012305661773593157
0.014340747170322903
0.014062748944982686
0.012620740431438654
0.01096325818088243
0.00944819713360843
0.00816782103150095
0.007115336254319975
0.006255715208387154
0.005551217949184308
0.004969151300193362
0.004483270630385472
0.004073140346310043
0.0037230237335032527
0.0034208222270537174
0.0031572032545821266
0.0029249243324809284
0.0027183226729540354
0.0025329338652278627
0.0023652077946913603
0.0022122967053399044
0.0020718965059326106
0.0019421273940676191
0.0018214436448987267
0.0017085651986298276
0.0016024257185731628
0.0015021332795904627
0.00140694094075538
0.0013162252723794457
0.0012294715315447776
0.001146264673855332
0.0010662857950677186
0.0009893139383517753
0.0009152334780044237
0.0008440474459056988
0.0007758970503745976
0.0007110868974798987
0.0006501133539829864
0.0005936888714696865
0.0005427464311592896
0.0004983955545585648
0.0004617910784082964
0.00043388814319585606
0.00041511917851791175
0.00040513280508223113
0.00040278760210368943
0.00040651551908925577
0.00041518104912172343
0.012761473410760176
0.018430328012356632
0.01872499728022446
0.015972361349988758
0.013087102551699571
0.01072940137671945
0.008918284636739757
0.00753960931076242
0.00647970996959942
0.005651393634477
0.004992072432704545
0.004457580228605313
0.004016676077136234
0.0036470400716928555
0.0033325149460272613
0.0030612374539195097
0.002824372155139771
0.0026152469478712475
0.0024287564061715133
0.0022609448399679723
0.002108711189219
0.0019695974884002924
0.001841635383498459
0.0017232335103280101
0.001613094033052669
0.0015101503031954
0.0014135200737436834
0.0013224704008556703
0.0012363915523299226
0.0011547780903760061
0.0010772159198945397
0.0010033745661406311
0.0009330043110201385
0.0008659380902641377
0.0008020982109039393
0.0007415079025445818
0.0006843072666693943
0.0006307719478134983
0.0005813301794122648
0.0005365689732512116
0.0004972129319960965
0.0004640519675987925
0.0004377956972708792
0.0004188574484700157
0.0004071275707863511
0.0004018565859631131
0.00040176188235605036
0.0004053345506287968
0.00041127372474043973
0.02388875726841809
0.02777381764754674
0.02133010645764908
0.015792597119026357
0.012051429116094498
0.009542140112416563
0.007811822661114873
0.006571582957411228
0.00564958502333763
0.004941358203128937
0.0043815707913353
0.00392799051004813
0.003552460477397363
0.003235667996540452
0.002964025264303771
0.0027277526689260603
0.0025196676614406975
0.0023343992781344617
0.002167866395024887
0.0020169234822114777
0.0018791152076161205
0.001752503294596091
0.0016355423000306546
0.0015269891387711192
0.0014258363103123656
0.0013312620769108832
0.001242593000808785
0.001159275693326826
0.001080855618664009
0.0010069614910201607
0.0009372943055286935
0.0008716204119457054
0.0008097683051882531
0.0007516289691310824
0.0006971596324706316
0.0006463905857571373
0.000599434094583642
0.0005564931566216371
0.0005178655720766984
0.0004839354075567767
0.00045514016575379137
0.00043190053025800724
0.00041450576842501857
0.00040296729005300186
0.0003968839421318399
0.00039539074295554737
0.00039726358370186426
0.00040115940919793275
0.0004055781900689958
0.04793715756632046
0.029483783097048803
0.018333806953431047
0.012899837102525995
0.009774419983672348
0.007831303810895451
0.006517761822995198
0.0055746605476247645
0.004864357509456934
0.004308899558054153
0.003861132411385947
0.003491055276858137
0.003178751942172699
0.0029105287005402767
0.0026766885365025637
0.002470191740817914
0.0022858187783292233
0.0021196296523891336
0.0019686045727977126
0.00183039900084703
0.0017031728696390116
0.0015854691091589136
0.001476125679575419
0.001374210840915386
0.001278974838657211
0.001189813392984662
0.0011062398245494753
0.0010278636164889581
0.0009543738740310664
0.0008855266059997323
0.0008211350828516318
0.0007610627624553381
0.0007052184359766325
0.0006535533308063388
0.0006060598918911668
0.0005627717958073095
0.0005237643518934871
0.0004891537136676827
0.00045909220467377915
0.0004337556797036164
0.0004133177264980454
0.00039790577156981996
0.00038753716594052334
0.0003820395953197948
0.00038096815694776883
0.0003835391983921392
0.00038860978172540906
0.00039472535788306353
0.0003998844954434342

SCALARS STRAIN_XX float 1
LOOKUP_TABLE default
0.0017651682395804836
-0.01474573283110532
0.00011061718823840438
-0.0027796118147129017
0.0017647778163186719
0.0017636065896960342
0.0017616546895160407
0.001758922333168473
0.0017554098272050608
0.0017511175695435234
0.0017460460522985442
0.00174019586523715
0.0017335676998554862
0.001726162354071799
0.0017179807375296025
0.0017090238775035668
0.0016992929253967313
0.0016887891638170073
0.001677514014216468
0.001665469045073891
0.0016526559805958357
0.0016390767099056635
0.0016247332966874755
0.0016096279892417135
0.0015937632309027793
0.001577141670761754
0.0015597661746266055
0.0015416398361422067
0.0015227659879801098
0.0015031482129966023
0.001482790355241917
0.001461696530688476
0.001439871137528961
0.001417318865876177
0.0013940447066760307
0.0013700539596226604
0.0013453522398417152
0.001319945483079947
0.0012938399491114385
0.0012670422230401344
0.0012395592141441827
0.0012113981518713287
0.001182566578554341
0.0011530723383717158
0.0011229235620307098
0.0010921286465978373
0.0010606962298423603
0.0010286351583922888
0.0009959544489307817
0.0009626632415758625
0.0009287707444926921
0.0008942861686782703
0.0008592186517311362
0.0008235771692723173
0.0007873704325082123
0.0007506067702190145
0.000713293993207971
0.0006754392389466297
0.000637048793788484
0.0005981278896782724
0.0005586804717369678
0.0005187089324298101
0.0004782138071867392
0.00043719342529976307
0.0003956435086148284
0.00035355670888980936
0.0003109220726112902
0.00026772441942121347
0.0002239436169368253
0.00017955373042990302
0.0001345220202650932
8.880775278598263e-05
4.236078093175846e-05
-4.88016147921419e-06
-5.298952418222869e-05
-0.00010205745774353667
-0.0001521929070260157
-0.00020352744379516577
-0.00025622005565523187
-0.0003104631835774696
-0.00036649040540980005
-0.00042458631185563964
-0.0004850993358113849
-0.0005484586089441919
-0.0006151963838895054
-0.0006859782623498956
-0.0007616445512697093
-0.0008432677738552732
-0.0009322341138345222
-0.0010303611365514685
-0.0011400719327751031
-0.0012646596697016184
-0.0014087018718889621
-0.001578733390525569
-0.0017843834430269975
-0.0020404157677568063
-0.002370512436603049
-0.0028154841066826714
-0.0034488274211632256
-0.004432232311286697
-0.006056647815320259
-0.009518787720291515
-0.013355021131020203
-0.004838184506693832
0.004054485878889397
0.0029207088901948373
0.002532617272810722
0.002087568244814821
0.0017757548082816049
0.0015360878509880485
0.00135026930244184
0.0012016382413876188
0.0010800011738929553
0.0009783549613655317
0.0008918857345331039
0.0008171760127188653
0.0007517482862491616
0.0006937695140266094
0.0006418600298741875
0.0005949658359438652
0.0005522714619696509
0.0005131392102389084
0.00047706599413234983
0.00044365214431531935
0.0004125785119978827
0.0003835894238087816
0.00035647982859721844
0.0003310854899252723
0.0003072754195813619
0.0002849459783172432
0.00026401622827009787
0.00024442423127515184
0.00022612406398691068
0.00020908337446246678
0.00019328134217692222
0.00017870692857335432
0.00016535732081355073
0.00015323647879522673
0.0001423536951122087
0.00013272206881144444
0.0001243567746989048
0.0001172729771110742
0.00011148318473019198
0.00010699376205296901
0.00010380018957917639
0.00010188048004154682
0.00010118588908626658
0.00010162770562291423
0.00010305842303155038
0.0001052437282671459
0.00010780824722433913
0.00010987221416291354
0.00011259654161718813
0.00011773256593604342
0.00012408938849226697
0.0001297371844075565
0.00013334472190146968
0.00013403411629035744
0.00013125529606254627
0.0001246882927233156
0.00011417551686642574
9.967559482975535e-05
8.123149588575018e-05
5.894799915385357e-05
3.297532595361585e-05
3.496921094914285e-06
-2.9279907288695672e-05
-6.513132533367272e-05
-0.00010382283759326205
-0.00014511404373110381
-0.0001887625356203279
-0.00023452710589588754
-0.0002821703888233537
-0.00033146102149018974
-0.0003821753918184928
-0.00043409902583820686
-0.00048702765745282234
-0.000540768017846395
-0.0005951383775704561
-0.0006499688714360422
-0.0007051016341083904
-0.000760390772435407
-0.000815702198831654
-0.0008709133483702364
-0.0009259128005488435
-0.0009805998249719228
-0.0010348838684322709
-0.0010886839991029948
-0.0011419283217853834
-0.0011945533764302282
-0.001246503530482411
-0.0012977303740145107
-0.0013481921251320486
-0.0013978530517628346
-0.001446682914697718
-0.0014946564356289188
-0.0015417527929400265
-0.0015879551471339529
-0.0016332501970364698
-0.0016776277672776833
-0.001721080427021713
-0.0017636031394806621
-0.0018051929413964336
-0.001845848651401319
-0.0018855706059615097
-0.0019243604214583092
-0.001962220780861751
-0.001999155243393967
-0.0020351680755584904
-0.0020702641019143472
-0.0021044485740044395
-0.002137727055894132
-0.002170105324833898
-0.0022015892856322196
-0.002232184897401873
-0.002261898111422571
-0.0022907348189478427
-0.002318700807868005
-0.0023458017272241193
-0.002372043058648677
-0.0023974300938882816
-0.0024219679176374805
-0.0024456613949842693
-0.002468515162835888
-0.0024905336247541786
-0.002511720948689622
-0.0025320810671571915
-0.0025516176794459187
-0.0025703342555000418
-0.002588234041151138
-0.0026053200644195595
-0.0026215951426360844
-0.002637061890166364
-0.0026517227265493264
-0.0026655798848842366
-0.002678635420324562
-0.0026908912185559433
-0.002702349004152659
-0.0027130103487239855
-0.002722876678773826
-0.002731949283208828
-0.0027402293204424524
-0.0027477178250489747
-0.002754415713930738
-0.0027603237919681823
-0.0027654427571268225
-0.002769773205001908
-0.0027733156327844465
-0.002776070442635276
-0.0027780379444578692
-0.0027792183580620283
-0.0027261737299396505
-0.002620177597801046
-0.002515904687887055
-0.0024132811532546765
-0.0023122328739997007
-0.002212685479281366
-0.0021145643709556327
-0.0020177947484255714
-0.0019223016343366162
-0.0018280099007651847
-0.0017348442955705894
-0.001642729468601778
-0.0015515899974726678
-0.0014613504126415086
-0.0013719352215514
-0.0012832689316100727
-0.001195276071807582
-0.0011078812127910574
-0.0010210089852349228
-0.0009345840963630369
-0.000848531344497349
-0.0007627756315262268
-0.0006772419732023274
-0.000591855507195908
-0.0005065414988458905
-0.0004212253445677903
-0.00033583257289390787
-0.00025028884313673815
-0.00016451994168279805
-7.845177594090352e-05
7.989634013639069e-06
9.487816604033478e-05
0.000182287608704401
0.0002702916761229625
0.00035896402477303597
0.00044837827212813717
0.0005386080169708112
0.000629726861208335
0.0007218084329979196
0.0008149264109666148
0.0009091545492905017
0.0010045667033768664
0.0011012368558721247
0.001199239142698033
0.0012986478787991712
0.0013995375832664165
0.0015019830034834233
0.0016060591379270586
0.0017118412572387463
0.001711458940927307
0.001605692987770068
0.0015016329269741382
0.0013992034942957934
0.0012983296984345597
0.001198936799817385
0.0011009502876584045
0.0010042958556782488
0.0009088993768525693
0.0008146868775432174
0.0007215845113479424
0.0006295185329859425
0.0005384152725168592
0.00044820111017050137
0.0003588024520438123
0.00027014570690045544
0.00018215726428756746
9.476347416336847e-05
7.890628208002274e-06
-7.853505702978509e-05
-0.00016458745501707426
-0.00025034054203951277
-0.0003358684078278964
-0.00042124526393299286
-0.0005065454497904778
-0.0005918434364343739
-0.0006772138278354907
-0.0007627313598576585
-0.0008484708968405114
-0.000934507425833891
-0.0010209160485247072
-0.0011077719709136713
-0.0011951504908159559
-0.0012831269832755243
-0.0013717768839999372
-0.0014611756709410261
-0.0015513988441643628
-0.001642521904168628
-0.001734620328835812
-0.0018277695492132286
-0.0019220449243488092
-0.002017521715422336
-0.002114275059437019
-0.0022123799427577195
-0.0023119111748039047
-0.002412943362227793
-0.0025155508839296023
-0.0026198078672820596
-0.0027257881659564997
0.0017103120339644691
0.001604594576569147
0.0015005827334248823
0.0013982012595750931
0.0012973751853398341
0.001198029794665723
0.0011000906017658483
0.0010034833264359769
0.0009081338684186384
0.0008139682811701182
0.0007209127453677484
0.0006288935424756594
0.000537837028667201
0.00044766960938166697
0.000358317714771943
0.00026970777627846897
0.00018176620454368584
9.441936886013607e-05
7.593578323990425e-06
-7.878493515401625e-05
-0.00016479003184772568
-0.0002504956771130688
-0.00033597595209059676
-0.0004213050621373744
-0.0005065573429307935
-0.0005918072642040335
-0.0006771294310899286
-0.000762598583066144
-0.0008482895905104354
-0.0009342774488913763
-0.0010206372706357447
-0.0011074442747292562
-0.0011947737741240892
-0.0012827011610426309
-0.0013713018902836646
-0.0014606514606556546
-0.001550825394678912
-0.0016418992167168173
-0.0017339484297163458
-0.0018270484907577738
-0.001921274785634158
-0.002016702602702594
-0.002113407106271052
-0.002211463309806668
-0.0023109460492737304
-0.002411929956932152
-0.0025144894359488143
-0.0026186986361953065
-0.0027246314316260456
0.0017084006625591418
0.0016027640223880266
0.0014988325309852899
0.0013965309758536377
0.0012957844236521781
0.0011965181978202998
0.0010986578545159578
0.0010021291572585582
0.000906858050651082
0.0008127706335393353
0.0007197931319479516
0.0006278518721128545
0.0005368732539092784
0.0004467837249535855
0.0003575097556358084
0.0002689778153180715
0.00018111434991241408
9.384576103038138e-05
7.09838687532184e-06
-7.920151497198209e-05
-0.00016512778274311983
-0.0002507543635367882
-0.00033615532414673206
-0.0004214048595879616
-0.0005065772992650415
-0.0005917471107439339
-0.000676988901104311
-0.0007623774158657667
-0.0008479875354975234
-0.0009338942695367687
-0.0010201727483568005
-0.001106898212641282
-0.0011941460006372239
-0.0012819915332754114
-0.0013705102972631253
-0.001459777826272444
-0.0015498696803644984
-0.0016408614238083209
-0.0017328286014728802
-0.0018258467139905415
-0.0019199911919111027
-0.002015337369087159
-0.002111960455553525
-0.0022099355101859765
-0.0023093374134478175
-0.002410240840555103
-0.0025127202354138832
-0.0026168497857055432
-0.0027227033995166896
0.0017057250380410063
0.0016002015228442938
0.0014963825006167608
0.001394192804965549
0.001293557554065862
0.0011944021272639726
0.0010966521400293686
0.0010002334176517236
0.000905071968061852
0.0008110939541384654
0.0007182256658431853
0.0006263934925056207
0.0005355238955591078
0.00044554338200609723
0.0003563784788702107
0.00026795570886987123
0.00018020156752627213
9.304250189670231e-05
6.4048911026821575e-06
-7.978497119804335e-05
-0.00016560089226639907
-0.0002511167935552632
-0.00033640672171091567
-0.00042154485722978465
-0.000506605520716292
-0.00059166317670432
-0.0006767924350203455
-0.0007620680496827154
-0.0008475649153474309
-0.0009333580613256153
-0.0010195226432131396
-0.0011061339321885078
-0.0011932673020508848
-0.0012809982140853243
-0.0013694021998583864
-0.0014585548420654121
-0.0015485317535678719
-0.0016394085547771244
-0.0017312608495605984
-0.001824164199866598
-0.0019181940992847005
-0.002013425945780353
-0.0021099350138650275
-0.002207796426486648
-0.002307085126948061
-0.00240787585118476
-0.0025102431007572156
-0.0026142611169361948
-0.0027200038562813934
0.0017022854583315541
0.001596907356374214
0.001493232897157966
0.0013911869747047917
0.0012906947745276749
0.0011916817489133784
0.0010940735906001433
0.0009977962052530112
0.0009027756831220757
0.0008089382702501858
0.000716210339576143
0.0006245183622576612
0.0005337888795168265
0.0004439484752879069
0.00035492374992439314
0.0002666412951998376
0.00017902767081395192
9.200938259344235e-05
5.512862555044736e-06
-8.053554902286757e-05
-0.0001662096193928789
-0.000251583236889205
-0.00033673042214955304
-0.0004217253369375229
-0.0005066422905130459
-0.0005915557435156097
-0.0006765403093401049
-0.0007616707530008359
-0.0008470219874946797
-0.0009326690676889998
-0.0010186871817744745
-0.0011051516403378751
-0.0011921378631256211
-0.0012797213635835003
-0.0013679777312733332
-0.0014569826122852632
-0.0015468116877813212
-0.001637540650823562
-0.0017292451816595161
-0.0018220009216579883
-0.0019158834461093822
-0.002010968236126535
-0.0021073306499053714
-0.0022050458936285914
-0.002304188992319443
-0.0024048347609775455
-0.002507057776353843
-0.0026109323497459404
-0.0027165325012190418
0.001698082310001234
0.0015928818839999336
0.001489384050811745
0.001387513780044693
0.0012871963412045774
0.001188357277352304
0.0010909223772139869
0.0009948176461550616
0.0008999692764112523
0.0008063036169484341
0.0007137471433014631
0.0006222264277198727
0.0005316681099251394
0.0004419988687600671
0.000353145394987468
0.0002650343654717166
0.00017759241895287946
9.074613360098209e-05
4.422006515163344e-06
-8.145356468890589e-05
-0.00016695429807950962
-0.0002521540412943168
-0.0003371267830266933
-0.0004219466620462172
-0.0005066879737035392
-0.0005914251738861568
-0.0006762328804076129
-0.0007611858718272248
-0.0008463590837118898
-0.000931827602366029
-0.001017666656069733
-0.0011039516038790823
-0.001190757922057574
-0.0012781611882218386
-0.0013662370632998436
-0.0014550612714170615
-0.0015447095778422782
-0.001635257765142382
-0.0017267816077151858
-0.0018193568448889425
-0.0019130591527988538
-0.002007964115273513
-0.0021041471939875138
-0.0022016836981611065
-0.002300648754113257
-0.002401117275000514
-0.002503163931100271
-0.002606863121023307
-0.002712288944266336
0.0016931160709101074
0.0015881255515950068
0.001484836369048539
0.0013831735846963262
0.0012830625697174795
0.001184428976764013
0.0010871987102043206
0.0009912978953120458
0.0008966528468013707
0.00080319003708737
0.0007108360646266194
0.0006195176226696333
0.000529161468731893
0.0004396943950651614
0.00035104320038574385
0.0002631346630919413
0.0001758955161788769
8.925242403492312e-05
3.1319612810825013e-06
-8.253940620655119e-05
-0.00016783533797205095
-0.0002528296332538636
-0.00033759624277734403
-0.00042220927800316167
-0.0005067430177856298
-0.0005912719124102448
-0.0006758705849955676
-0.0007606138302586365
-0.0008455766106565501
-0.0009308340499305376
-0.001016461424092334
-0.0011025341499059532
-0.001189127770931431
-0.001276317941210787
-0.0013641804066913997
-0.0014527909844980365
-0.0015422255401804708
-0.001632559963081394
-0.0017238701399883796
-0.0018162319272534708
-0.0019097211215859525
-0.002004413429746662
-0.002100384437396241
-0.0021977095773753996
-0.002296464097722002
-0.002396723029757284
-0.002498561156601383
-0.0026020529825067367
-0.002707272703426414
0.0016873873134285475
0.0015826388926427953
0.0014795903389194162
0.0013781668229980492
0.0012782938366330873
0.0011798971620544888
0.0010829028400386877
0.0009872371370224535
0.0008928265116699065
0.0007995975812787967
0.0007074770883873136
0.0006163918679165596
0.0005262688151575017
0.0004370348548853878
0.0003486169118576167
0.00026094188292518717
0.0001739366109634615
8.752786080303725e-05
1.6422973175483639e-06
-8.37935341961895e-05
-0.00016885322523111921
-0.00025361051878261727
-0.00033813932148567683
-0.0004225137131181333
-0.000506807953428464
-0.0005910964862618975
-0.0006754539409727277
-0.000759955131124267
-0.0008446750504908687
-0.0009296888663887345
-0.0010150719103747326
-0.0011008996663651094
-0.0011872477562383317
-0.0012741919229989867
-0.0013618080115936342
-0.0014501719474846882
-0.001539359713104062
-0.0016294473223253288
-0.0017205107931115506
-0.0018126261185160812
-0.0019058692362358188
-0.0020003159969396813
-0.0020960421316195857
-0.002193123218238133
-0.0022916346479756318
-0.002391651591407802
-0.002493248964975598
-0.0025965013981396087
-0.002701483201642582
0.0016808967082336508
0.0015764225314810686
0.001473646529770093
0.0013724940021262173
0.0012728905812034801
0.001174762200156687
0.0010780350582259431
0.000982635585479286
0.0008884904071341313
0.0007955263078519799
0.0007036701963736221
0.0006128490708341176
0.000522989985068758
0.00043402001619318424
0.0003458662337130053
0.00025845567039074914
0.0001717152950718007
8.557198764600031e-05
-4.748370340754295e-08
-8.52164828341011e-05
-0.00017000852345382242
-0.00025449728431704214
-0.00033875662174005506
-0.00042286057938193224
-0.000506883395255005
-0.0005908995059433766
-0.0006749835480211802
-0.0007592103566748092
-0.0008436549615454349
-0.0009283925798194049
-0.0010134986066052047
-0.0010990486026469805
-0.001185118279436215
-0.0012717834817947264
-0.001359120168014709
-0.0014472043876558704
-0.0015361122571148755
-0.0016259199330983794
-0.0017167035841492745
-0.0018085393603959042
-0.0019015033617156415
-0.0019956716045285154
-0.0020911199874622173
-0.0021879242561573947
-0.002286159967512174
-0.002385902453695617
-0.0024872267862922665
-0.002590207740973911
-0.0026949197631284207
0.0016736450286746298
0.0015694771870237564
0.0014670055963454907
0.0013661557046156126
0.0012668533073410932
0.0011690245115029186
0.0010725956983317958
0.0009774934853765877
0.000883644688297755
0.0007909762827891713
0.0006994153670020401
0.0006088891248145225
0.0005193247902603465
0.00043064961339960256
0.00034279082788541776
0.0002556756204513931
0.00016923110251687964
8.338428408089863e-05
-1.9379499496217962e-06
-8.680886087514617e-05
-0.00017130187466162362
-0.0002554905976609757
-0.0003394488295323368
-0.0004232505733188027
-0.0005069700426495958
-0.0005906816660515677
-0.000674460088366345
-0.0007583801692809878
-0.0008425169789905895
-0.0009269457910214922
-0.0010117420722534937
-0.0010969814701886527
-0.0011827397975251446
-0.0012690930141049934
-0.0013561172063152756
-0.0014438885640359461
-0.001532483355241368
-0.0016219778983780314
-0.0017124485326589214
-0.001803971586435043
-0.0018966233438261343
-0.0019904800098168515
-0.002085617674052358
-0.0021821122735955364
-0.002280039554939123
-0.002379475035600112
-0.0024804939656583665
-0.002583171289638017
-0.00268758160916817
0.0016656331556995727
0.001561803676949036
0.0014596682822716513
0.0013591525911750143
0.001260182585813632
0.0011626845716497494
0.001066585137088105
0.0009718111125596623
0.0008782895294990147
0.0007859475796283622
0.0006947125749286017
0.0006045119086454695
0.0005152730176457706
0.00042692334640636757
0.0003393903128872208
0.0002526012765092686
0.00016648350842857573
8.096416427063586e-05
-4.029740537439602e-06
-8.857135272304843e-05
-0.00017273400032056133
-0.00025659120894899577
-0.000340216715161726
-0.0004236844768313446
-0.0005070686805475372
-0.0005904437460180778
-0.000673884327474795
-0.0007574653120968547
-0.0008412618154724594
-0.0009253491741286982
-0.0010098029351674489
-0.001094698843052886
-0.001180112823605238
-0.001266120965264174
-0.0013527994976943814
-0.0014402247678184463
-0.001528473213374615
-0.0016176213341113081
-0.001707745660748119
-0.0017989227218520847
-0.0018912290088000782
-0.0019847409390231297
-0.002079534817755958
-0.0021756867985453718
-0.002273272842804311
-0.0023723686787340864
-0.0024730497599754387
-0.002575391224388722
-0.0026794678534053135
0.0016568620833339815
0.0015534029223405947
0.0014516354238990402
0.0013514854037800872
0.0012528790566408246
0.001155742913038073
0.0010600037955794007
0.0009655887747033803
0.0008724251245470001
0.000780440279323307
0.0006895617905965273
0.0005997172858066514
0.0005108344283601481
0.00042284087956805344
0.0003356642626794143
0.0002492321292255357
0.00016347192785932853
7.831097584543705e-05
-6.323566670847186e-06
-9.050471951223484e-05
-0.0001743057023539693
-0.00025779995158393683
-0.0003410611340958124
-0.0004241631579881061
-0.0005071801801555915
-0.0005901866107713714
-0.0006732571146683173
-0.0007564666096368897
-0.000839890261663818
-0.0009236034771428778
-0.0010076818920950069
-0.001092201358441343
-0.0011772379273793997
-0.0012628678299190445
-0.001349167454643018
-0.0014362133227676039
-0.001524082060589945
-0.0016128503694213684
-0.001702594993123318
-0.0017933926833813428
-0.0018853201628741905
-0.001978454086520521
-0.002072871001014051
-0.002168647302889871
-0.0022658591953996455
-0.002364582644511527
-0.0024648933343922857
-0.0025668666227724227
-0.00267057749664092
0.0016473329246981662
0.0015442759527660634
0.001442907954488599
0.0013431549690233195
0.001244943431672064
0.0011482001268675812
0.0010528521404868994
0.0009588268120006959
0.0008660516869307101
0.0007744544700485673
0.0006839629797103885
0.0005945051036827778
0.0005060087567772742
0.0004184018405728585
0.0003316122054697281
0.0002455676152827961
0.00016019571455088997
7.542399870691065e-05
-8.820212774453913e-06
-9.260980015983854e-05
-0.0001760178641020502
-0.0002591177430989377
-0.0003419830277361911
-0.0004246875716984211
-0.0005073054995454109
-0.0005899112112614979
-0.0006725793835946197
-0.0007553849682077516
-0.0008384031866713114
-0.0009217095223295927
-0.0010053797090781007
-0.0010894897170927943
-0.001174115735556338
-0.0012593341524307
-0.001345221531331913
-0.0014318545855711083
-0.0015193101494350883
-0.0016076651467920341
-0.0016969965571230713
-0.0017873813790988736
-0.0018788965918423483
-0.0019716191140435515
-0.002065625761122517
-0.0021609932006688786
-0.0022577979064243017
-0.002356116111114623
-0.002456023758482999
-0.002557596454923955
-0.0026609094211686194
0.001637046918548297
0.0015344239117725507
0.0014334869087179614
0.0013341622016967108
0.0012363764973192652
0.0011400568650597987
0.0010451306853659088
0.00095152559784073
0.0008591694499841254
0.0007679902469367576
0.0006779161026284287
0.0005888751926895999
0.0005007957094427537
0.00041360581924997726
0.0003272336224539876
0.00024160711611256316
0.00015665415969176835
7.230244385076095e-05
-1.152053757864285e-05
-9.488751234023869e-05
-0.00017787145117552778
-0.0002605455858871208
-0.0003429834240273109
-0.0004252587602095331
-0.0005074456840529808
-0.0005896185847791383
-0.0006718521524853587
-0.0007542213761256539
-0.0008368015382320736
-0.0009196682064121194
-0.0010028972216587914
-0.001086564683510908
-0.0011707469321034065
-0.0012555205271490059
-0.0013409622238960035
-0.001427148946113315
-0.0015141577561610087
-0.0016020658222151841
-0.0016909503827299182
-0.0017808887082359582
-0.0018719580605978691
-0.0019642356498768784
-0.0020577985889761023
-0.0021527238462799338
-0.0022490881965388956
-0.002346968170294333
-0.0024464400021859557
-0.002547579578538483
-0.0026504623846788306
0.0016260054363225179
0.0015238480627765608
0.0014233734274813757
0.0013245081085787257
0.001227179117416388
0.0011313138422819522
0.0010368399919300972
0.000943685539451734
0.0008517786669863577
0.0007610477117322904
0.0006714211136627432
0.0005828273653089454
0.0004951949639260361
0.000408452366313309
0.00032252794651809597
0.00023734995661284697
0.0001528464906978748
6.89454522479607e-05
-1.4425475110104233e-05
-9.73388533288326e-05
-0.00017986751214359875
-0.00026208456773317497
-0.00034406343783833766
-0.0004258778533522636
-0.0005076018664074083
-0.0005893098549907946
-0.0006710765241234313
-0.0007529769036423311
-0.0008350863426245232
-0.0009174805004911516
-0.0010002353348279327
-0.0010834270859566262
-0.001167132258290874
-0.0012514275985083282
-0.001336390070571462
-0.001422096827633305
-0.001508625180869179
-0.001596052565283306
-0.0016844565025519354
-0.0017739145609806614
-0.001864504312674281
-0.001956303288043277
-0.00204938892780142
-0.002143838532645312
-0.00223972921084796
-0.0023371378240451476
-0.0024361409315462696
-0.0025368147335579775
-0.0026392350137706714
0.0016142099896694984
0.0015125497953203167
0.001412568762951815
0.0013141937923921228
0.0012173522361718443
0.0011219718379989383
0.0010279806713121382
0.0009353070784814794
0.0008438796111729344
0.0007536269723427819
0.0006644779602756
0.0005763614150285229
0.0004892061675950722
0.0004029409920537615
0.00031749456092078246
0.00023279540388355182
0.0001487718700520608
6.53520938287994e-05
-1.7536035534644803e-05
-9.996490065441722e-05
-0.00018200717898840025
-0.0002637358620722183
-0.0003452242710385834
-0.0004265460684524507
-0.0005077752665033654
-0.0005889862316021122
-0.0006702536854302718
-0.0007516527024909888
-0.0008332587042069214
-0.0009151474496068878
-0.0009973950226377084
-0.0010800778161324741
-0.0011632725124612613
-0.0012470560608856384
-0.00133150565163556
-0.0014166986867274957
-0.001502712747544778
-0.0015896255592067646
-0.0016775149517635497
-0.001766458818267905
-0.0018565350697958322
-0.00194782158751206
-0.002040396171908522
-0.002134336489380906
-0.002229720016351803
-0.002326623981199854
-0.0024251253043099403
-0.002525300536621264
-0.002627225797119102
0.0016016622384315564
0.0015005306316617055
0.001401074283869803
0.0013032204558949974
0.00120689688117446
0.0011120316985144484
0.0010185533852644247
0.0009263906914834797
0.0008354725756325261
0.0007457281422683342
0.0006570865821585244
0.0005694771151810113
0.00048282893631668047
0.0003970711649919315
0.00031213279797852637
0.00022794266601168284
0.00014442939424480223
6.152136662113883e-05
-2.085330579203738e-05
-0.0001027668124904991
-0.00018429166724877436
-0.0002655007278933771
-0.00034646721217783036
-0.00042726470981368234
-0.0005079671907191449
-0.0005886490095495364
-0.0006693849065731777
-0.0007502500049527316
-0.0008313198044855852
-0.0009126701718494303
-0.0009943773273897948
-0.0010765178284767914
-0.0011591685494491966
-0.0012424066581553021
-0.0013263095890933977
-0.0014109550131509601
-0.0014964208039404893
-0.0015827850007326658
-0.0016701257679952353
-0.001758521351558808
-0.0018480500314490902
-0.001938790071449828
-0.0020308196654926555
-0.0021242168810079974
-0.0022190595994170817
-0.002315425453999172
-0.002413391765427658
-0.002513035475336334
-0.002614433078352741
0.0015883639990494792
0.0014877922336603176
0.0013888914810167834
0.001291589406060536
0.001195814166409005
0.001101494338958692
0.0010085588472595768
0.0009169368902724293
0.0008265578730580682
0.0007373513398848568
0.0006492469101782976
0.0005621742176751957
0.000476062853085079
0.00039084231050468975
0.0003064419377777946
0.00022279089094259916
0.00013981809286322115
5.745219610099074e-05
-2.4378449955026305e-05
-0.00010574582770933453
-0.0001867222757687265
-0.00026738050919481663
-0.00034779363567128535
-0.0004280351676657927
-0.0005081790306709713
-0.0005882995676089412
-0.0006684715394803997
-0.0007487701223317733
-0.0008292709006037155
-0.0009100498569120162
-0.0009911833582983377
-0.0010727481389741565
-0.0011548212795670812
-0.0012374801828655
-0.0013208025460466383
-0.0014048663293648933
-0.001489749721271895
-0.0015755310999390577
-0.0016622889911586656
-0.0017501020226094312
-0.0018390488744887802
-0.001929208226538675
-0.0020206587015233037
-0.002113478805256242
-0.002207746863322713
-0.0023035409546987556
-0.00240093884253447
-0.0025000179024416928
-0.002600855048707899
0.001574317253351712
0.001474336409914575
0.0013760219728233907
0.0012793020582943719
0.001184105295230459
0.0010903607451736765
0.0009979978234452036
0.0009069462221080299
0.000817135835317282
0.0007284966875544285
0.0006409588651725619
0.0005544524516122929
0.0004689074665829758
0.00038425380944138575
0.0003004212069416582
0.00021733916547643284
0.00013493692787976152
5.31434348187903e-05
-2.811270923702191e-05
-0.00010890326551192989
-0.00018930038595346135
-0.00026937663388403726
-0.00034920500037627464
-0.00042885891646135023
-0.0005084122612816749
-0.0005879393662958587
-0.0006675150156369967
-0.000747214442713722
-0.000827113323128322
-0.0009072877639691623
-0.0009878142895161529
-0.001068769823378086
-0.0011502316670614827
-0.0012322774749519783
-0.001314985225672742
-0.001398433189771712
-0.0014826998936793368
-0.0015678640798736983
-0.0016540046631911814
-0.0017412006832280662
-0.00182953125279292
-0.0019190755023923449
-0.0020099125207640204
-0.0021021212915113023
-0.002195780625943327
-0.002290969092283733
-0.0023877649414814073
-0.0024862460299356582
-0.0025864897395367825
0.0015595241576812284
0.0014601651230984098
0.0013624675110583558
0.0012663599406319208
0.0011717715632373407
0.0010786319754382224
0.0009868711333995586
0.0008964192696601738
0.0008072068128035926
0.0007191643105323386
0.0006322223565746814
0.0005463115217789712
0.0004613622896791217
0.0003773049967467371
0.0002940697774817002
0.0002115865144342259
0.00012978479319874424
4.8593862373121915e-05
-3.2057401563915754e-05
-0.0001122405245369046
-0.00019202746042513064
-0.0002714906120071793
-0.000350702847436049
-0.00042973751238775887
-0.0005086684380257247
-0.0005875699449164429
-0.0006665168430205792
-0.0007455844278670934
-0.0008248484729977839
-0.0009043852187472696
-0.0009842713573986715
-0.001064584014729082
-0.001145400727934
-0.0012267994198953123
-0.0013088583697341187
-0.0013916561795715094
-0.0014752717374057014
-0.001559784176003862
-0.0016452728277033908
-0.0017318171750212597
-0.0018194967969826954
-0.0019083913111007942
-0.0019985803109687124
-0.0020901432994673876
-0.0021831596176433606
-0.0022777083693735004
-0.0023738683420075407
-0.0024717179232651033
-0.0025713350147604725
0.0015439870523065976
0.0014452804974370184
0.0013482299865326501
0.0012527646978494839
0.0011588143609797047
0.0010663091619701145
0.0009751796506286894
0.0008853566507021028
0.0007967711735224463
0.0007093543356361781
0.0006230372808449939
0.000537751107006805
0.00045342679786616554
0.0003699951601093412
0.00028738676576951425
0.00020553190004372256
0.00012436051452611115
4.380218581196255e-05
-3.621392061598298e-05
-0.00011575908134167789
-0.00019490504095954358
-0.00027372403317632696
-0.00035228879725002443
-0.0004306725899474687
-0.0005089491931985317
-0.0005871929176144092
-0.0006654786020203595
-0.0007438816091318377
-0.000822477817477105
-0.0009013436096400609
-0.0009805558568657616
-0.0010601919000382482
-0.0011403295270081574
-0.0012210469462158443
-0.0013024227565261257
-0.001384535913165731
-0.001467465689633581
-0.001551291635438442
-0.001636093529509824
-0.0017219513291276663
-0.0018089451142255042
-0.0018971550269398585
-0.0019866612063074657
-0.002077543718053081
-0.0021698824794635268
-0.002263757179409363
-0.0023592471936536895
-0.0024564314956796235
-0.00255538856337299
0.0015277084710562383
0.0014296848262532408
0.001333311434745462
0.0012385180954134806
0.0011452351764263012
0.001053393512132897
0.0009629243027383921
0.0008737590174722979
0.0007858293018628065
0.0006990668896380162
0.0006134035196823941
0.000528770858386588
0.00044510042764276205
0.00036232353865582644
0.00028037123166487756
0.00019917422159965794
0.00011866284963473695
3.8767040550636975e-05
-4.0583734234502205e-05
-0.00011946048813515458
-0.00019793474556949685
-0.00027607856304930783
-0.00035396454541512855
-0.00043166585744280027
-0.000509256231040568
-0.00058680996824039
-0.000664401940164636
-0.0007421075821216474
-0.0008200028849513095
-0.0008981643827050737
-0.0009766691367056068
-0.0010555947159913053
-0.0011350191741104094
-0.0012150210221893213
-0.0012956791981633096
-0.0013770730320250757
-0.001459282206917963
-0.0015423867158786035
-0.0016264668140196824
-0.001711602965938576
-0.0017978757881412632
-0.001885365986286313
-0.0019741542870818866
-0.002064321364708417
-0.002155947761693096
-0.002249113804231367
-0.0023438995120335596
-0.0024403845028721886
-0.002538647892119145
0.0015106911511039954
0.0014133805795059923
0.0013177140413890382
0.001223622023181578
0.0011310355971043003
0.0010398863092645999
0.0009501060712048741
0.0008616270556375798
0.0007743815969971897
0.0006883020973357857
0.000603320937987075
0.000519370397324603
0.00043638257484456965
0.0003542893217142461
0.00027302217784335597
0.00019251231545993908
0.00011269048910541698
3.3486991905282836e-05
-4.51683820765202e-05
-0.00012334636962881094
-0.00020111826458651
-0.0002785559387006115
-0.0003557318574659336
-0.00043271909118413796
-0.0005095913215277898
-0.0005864228438509256
-0.0006632885654629581
-0.0007402640000476039
-0.0008174252583687171
-0.0008948490353601875
-0.0009726125936491184
-0.0010507937435125163
-0.0011294708192182926
-0.001208722651652905
-0.0012886285370920618
-0.00136926820192967
-0.0014507217631439182
-0.0015330696842493123
-0.001616392726463016
-0.0017007718948028796
-0.001786288378832739
-0.0018730234877825363
-0.001961058579796309
-0.002050474985099646
-0.0021413539229324843
-0.002233776412163978
-0.0023278231755934735
-0.0024235745380454254
-0.0025211103184882315
0.0014929380428237039
0.0013963704112302166
0.0013014401476166325
0.0012080784987590814
0.0011162173118172167
0.001025788913037212
0.0009367259906579886
0.0008489614827804884
0.0007624284708459311
0.0006770600792542119
0.0005927893815413912
0.0005095493134260767
0.00042727259292906546
0.00034589164767206753
0.0002653385493696272
0.00018554495544561244
0.00010644205763288446
2.7960537351838627e-05
-4.996947238803687e-05
-0.0001274184188583996
-0.00020445735557660745
-0.000281157962704033
-0.00035759256222174074
-0.00043383412821989924
-0.0005099562926203336
-0.0005860333466252336
-0.0006621402381494319
-0.0007383525654510322
-0.0008147465671261285
-0.0008913991085792586
-0.0009683876650243132
-0.0010457903010111604
-0.0011236856464138015
-0.0012021528687573948
-0.0012812716417056934
-0.0013611221094794353
-0.0014417848469302956
-0.0015233408149572716
-0.0016058713109237564
-0.001689457913714343
-0.001774182423064174
-0.0018601267928007263
-0.001947373057658932
-0.002036003253368019
-0.002126099329762976
-0.002217743056745509
-0.0023110159230103136
-0.0024059990275632033
-0.0025027729641878757
0.0014744523196180978
0.0013786571667761026
0.0012844922549667239
0.0011918896704015062
0.001100782111832341
0.0010111027592429227
0.0009227851475821329
0.0008357630463266138
0.0007499703455335648
0.0006653409489188367
0.0005818086743707041
0.0004993071621883585
0.00041776979121879417
0.0003371296029562893
0.0002573192335682611
0.00017827085372074754
9.99161159967173e-05
2.2186109633280624e-05
-5.4988677751378155e-05
-0.00013167839181178558
-0.00020795383690770945
-0.00028388649572918905
-0.0003595485435289303
-0.0004350128573656065
-0.0005103530207390752
-0.0005856433239646828
-0.0006609587605906693
-0.0007363750201109438
-0.0008119684771666332
-0.0008878161773654531
-0.0009639958197798695
-0.0010405857361147127
-0.0011176648664640368
-0.0011953127315068373
-0.0012736094009245802
-0.0013526354577615479
-0.0014324719583926311
-0.0015132003877158361
-0.0015949026091485637
-0.0016776608089794313
-0.0017615574346149044
-0.0018466751262607934
-0.0019330966415947465
-0.002020904773021536
-0.0021101822571564007
-0.0022010116762541327
-0.002293475351396592
-0.002387655227367929
-0.0024836327492849166
0.0014552373876149409
0.0013602438897310724
0.0012668730298215792
0.001175057819339683
0.0010847318914157154
0.0009958293588903091
0.0009082846783264255
0.0008220325208159649
0.000737007650257446
0.0006531448096415674
0.0005703786157433431
0.0004886434624854284
0.0004078734331089374
0.00032800222116752004
0.0002489630602498333
0.00017068866223602882
9.311116380673442e-05
1.616208084993377e-05
-6.022772964761251e-05
-0.00013612810068125382
-0.000211609579766382
-0.00028674344743173283
-0.00036160173016440357
-0.00043625720828666505
-0.0005107834192157178
-0.0005852546565155848
-0.0006597459650980807
-0.0007343331328680124
-0.0008090926790376343
-0.0008841018392597992
-0.0009594385476487575
-0.0010351814156744688
-0.0011114097078327597
-0.00118820331391126
-0.001265642717591219
-0.0013438089610509733
-0.0014227836051697853
-0.0015026486848711603
-0.0015834866590961677
-0.0016653803548616541
-0.0017484129048365594
-0.001832667677863207
-0.0019182282018621183
-0.0020051780785899998
-0.0020936008897717694
-0.002183580094201381
-0.0022751989155035263
-0.002368540220369605
-0.0024636863872282214
0.0014352968951080979
0.0013411338283934602
0.0012485853072631472
0.001157585361388257
0.0010680686475780733
0.0009799702964798178
0.0008932257663023429
0.000807770704409942
0.0007235408174781116
0.0006404717507479899
0.0005584989767629242
0.0004775576938222932
0.0003975827342451461
0.0003185084824026251
0.00024026880235624847
0.00016279697482962738
8.602564314600774e-05
9.88676768436396e-06
-6.568841165609831e-05
-0.00014076940553834163
-0.00021542649840053092
-0.00028973076539490856
-0.0003637540836414976
-0.00043756913836381743
-0.0005112494244374824
-0.0005848692438314596
-0.0006585036993589301
-0.0007322286850820806
-0.000806120873632269
-0.0008802577006178378
-0.0009547173461985276
-0.001029578713807957
-0.001104921405907846
-0.001180825696560913
-0.0012573725005156399
-0.0013346433384086465
-0.0014127202976089506
-0.0014916859881565952
-0.0015716234931887696
-0.0016526163131993154
-0.001734748303445702
-0.0018181036038036214
-0.0019027665603746132
-0.0019888216381775065
-0.0020763533243030197
-0.0021654460209845523
-0.0022561839281365816
-0.002348650915038662
-0.0024429303809976096
0.0014146347416056785
0.0013213304416501035
0.001229632094172397
0.0011394748476817674
0.0010507944788780395
0.0009635272273120139
0.0008776096382348214
0.0007929784145150067
0.0007095702783300995
0.0006273218431676188
0.000546169496500454
0.0004660492933357685
0.000386896860678705
0.00030864731280447004
0.00023123517709679707
0.00015459433009005976
7.865794324832256e-05
3.3584379282887834e-06
-7.137255109502464e-05
-0.0001456042042081697
-0.0002194065383408101
-0.0002928504218544356
-0.0003660075836331583
-0.0004389506170427203
-0.0005117529793783476
-0.0005844889873616178
-0.0006572338091720233
-0.0007300634534124313
-0.0008030547553116822
-0.000876285360363595
-0.0009498337054922763
-0.0010237789977212823
-0.0010982011902108224
-0.0011731809554135775
-0.0012487996549908455
-0.0013251393060283887
-0.00140228254299449
-0.001480312574797131
-0.0015593131362245114
-0.001639368432993493
-0.0017205630795876928
-0.0018029820290435747
-0.001886710493839215
-0.001971833857059995
-0.0020584375730603732
-0.002146607056911349
-0.002236427562023304
-0.002327984045464337
-0.0024213610206554447
0.001393255086329503
0.0013008374040913168
0.001210016571399599
0.0011207289643644482
0.001032911583111625
0.0009465018736649049
0.0008614375593150986
0.0007776564823891228
0.0006950964571417477
0.0006136951343009671
0.000533389877608946
0.0004541176525157376
0.00037581492700697653
0.0002984175843828917
0.00022186084765548676
0.00014607921509734187
7.100640636141176e-05
-3.424681502849894e-06
-7.728200888467104e-05
-0.00015063442009577264
-0.00022355166232734835
-0.0002961043979109914
-0.00036836421069863187
-0.00044040360733979284
-0.0005122960141788733
-0.0005841157704232717
-0.0006559381181457571
-0.0007278391895825615
-0.0007998959920775721
-0.0008721863909030448
-0.0009447890900599293
-0.001017783611031547
-0.0010912502693331367
-0.0011652701485691521
-0.0012399250715839794
-0.0013152975681714283
-0.0013914708386960888
-0.0014685287128782896
-0.0015465556029059194
-0.0016256364499631065
-0.001705856663210767
-0.0017873020502186584
-0.0018700587378351974
-0.0019542130824931857
-0.0020398515689882945
-0.002127060696834847
-0.002215926853402961
-0.0023065361731733104
-0.0023989743826139994
0.0013711623559906532
0.0012796586101765269
0.0011897420948122255
0.0011013505310382577
0.0010144222536960425
0.0009288960196575653
0.0008447108270864178
0.0007618057465808518
0.0006801197649382918
0.0005995916420666074
0.0005201597813558165
0.0004417621136183611
0.0003643359945096189
0.00028781811515703627
0.0002121444255597214
0.00013725007017299318
6.306933496621206e-05
-1.0464394860337881e-05
-8.341866739147494e-05
-0.00015586198769031596
-0.00022786383363958566
-0.0002994946649045009
-0.00037082592596805546
-0.00044193004414380026
-0.0005128804234049117
-0.0005837514347824886
-0.0006546184039832787
-0.0007255575967596139
-0.000796646202435203
-0.0008679623158514408
-0.0009395849178536466
-0.0010115938542874323
-0.0010840698133242257
-0.0011570943007857618
-0.0012307496129917847
-0.0013051188065157414
-0.0013802856641030228
-0.001456334655887388
-0.0015333508949359025
-0.0016114200860641564
-0.0016906284667935869
-0.0017710627392739367
-0.0018528099919697593
-0.0019359576099116892
-0.0020205931723439423
-0.0021068043366626443
-0.0021946787076367706
-0.0022843036910369877
-0.002375766330970537
0.0013483612516454182
0.001257798177242253
0.0011688121950038767
0.0010813424977504866
0.0009953288745329254
0.0009107115045948605
0.0008274307638740253
0.0007454270450348399
0.0006646405917889592
0.0005850113480215273
0.0005064788220037137
0.00042898196574164956
0.0003524590692926461
0.00027684766967492943
0.000202084473811377
0.00012810529478452003
5.484500054119736e-05
-1.776252592687621e-05
-8.97844159839206e-05
-0.0001612888354440163
-0.00023234499649537948
-0.0003030231625901403
-0.0003733946474045026
-0.00044353180891782253
-0.0005135080395798368
-0.0005833977534340888
-0.0006532763709456752
-0.0007232203021459538
-0.0007933069285574758
-0.0008636145842029707
-0.0009342225358361681
-0.0010052109623610852
-0.001076660933234352
-0.0011486543854743701
-0.0012212740987339087
-0.0012946036677332438
-0.0013687274712007973
-0.00144373063632911
-0.0015196989976304937
-0.0015967190489711309
-0.0016748778874751168
-0.00175426314792648
-0.001834962926259542
-0.001917065690717739
-0.0020006601792827705
-0.0020858352820314514
-0.0021726799071708925
-0.0022612828296357333
-0.0023517325213065782
0.0013248567544125473
0.0012352604471195794
0.001147230575423117
0.0010607079402780092
0.0009756339131130731
0.0008919502145667184
0.0008095987075503082
0.0007285212056788496
0.000648659297843919
0.0005699541894366839
0.0004923465604627104
0.00041577644053122226
0.00034018310045593044
0.00026550495997565665
0.00019167951089568887
0.00011864325476906878
4.633165408407904e-05
-2.5320904197903693e-05
-9.638113400044713e-05
-0.00016691686568859554
-0.00023699705315009519
-0.00030669177371976295
-0.00037607222222580403
-0.0004452107003685376
-0.0005141806025475708
-0.0005830563991347571
-0.0006519136180510158
-0.0007208288253484009
-0.0007898796053274586
-0.0008591445405380844
-0.0009287031918219983
-0.0009986360783601923
-0.0010690246574935492
-0.0011399513038901727
-0.0012114992874425155
-0.0012837527490958444
-0.0013567966736369869
-0.0014307168583118377
-0.0015055998759965503
-0.00158153303152128
-0.0016586043096405469
-0.0017369023130634651
-0.00181651618890292
-0.001897535541879108
-0.0019800503326226158
-0.0020641507594687386
-0.0021499271222205126
-0.002237469666488594
-0.0023268684073932816
0.0013006541298078208
0.001212049986101263
0.0011250011086536794
0.0010394500534369414
0.0009553399115958035
0.0008726140720477626
0.0007912160004015069
0.0007110890352865886
0.0006321762028904387
0.0005544200501979885
0.0004777624971296613
0.0004021447074827611
0.0003275069783047328
0.0002537886470698081
0.00018092801579917437
0.00010886229106252016
3.752753862967017e-05
-3.3141348592154044e-05
-0.00010321067079716845
-0.0001727479312159711
-0.00024182183728722688
-0.0003105022945921784
-0.0003788603950273439
-0.00044696840060796917
-0.0005148997241830127
-0.0005827289082038557
-0.0006505316025274543
-0.000718384542054236
-0.0007863655248052668
-0.0008545533908356031
-0.0009230280021648393
-0.0009918702236854258
-0.0010611619047877852
-0.0011309858612208326
-0.0012014258564915989
-0.0012725665819010691
-0.0013444936341163024
-0.0014172934889959132
-0.0014910534702195673
-0.0015658617111242324
-0.0016418071080248368
-0.0017189792631964497
-0.0017974684156226925
-0.001877365357575305
-0.0019587613350848018
-0.0020417479303962115
-0.0021264169245810635
-0.0022128601386011883
-0.0023011692512956913
0.001275758930424197
0.0011881715829694514
0.0011021278305462295
0.0010175721421151664
0.0009344494755657842
0.0008527050232141993
0.000772283975836072
0.0006931313063882724
0.0006151915742395888
0.0005384087503905854
0.00046272606382502133
0.00038808586880767753
0.00031442953263123227
0.0002416973430258032
0.00016982843418584007
9.876073014365011e-05
2.8430904031910526e-05
-4.1225648368556624e-05
-0.00011027482250341348
-0.00017878380810892202
-0.0002468210832496597
-0.000314456401090705
-0.0003817607711015937
-0.0004488064362891157
-0.0005156668479239816
-0.0005824166390652756
-0.0006491315979997797
-0.0007158886425062596
-0.0007827657956313251
-0.0008498421634273389
-0.0009171979148588248
-0.0009849142638345748
-0.001053073453072254
-0.0011217587392547803
-0.0011910543786957063
-0.0012610456124967822
-0.0013318186499580052
-0.0014034606487925653
-0.0014760596905079876
-0.001549704749143112
-0.001624485651401989
-0.001700493026103947
-0.0017778182407759517
-0.0018565533231538998
-0.0019367908653375454
-0.0020186239083618777
-0.002102145805013179
-0.0021874500588331108
-0.002274630137424726
0.0012501769966564115
0.0011636302447631886
0.0010786149318681455
0.0009950776096906908
0.0009129652601372901
0.0008322250226644786
0.0007528039426472196
0.0006746487419766974
0.000597705612735068
0.0005219200344100338
0.0004472366147299984
0.0003735989538293837
0.0003009495311007942
0.00022922961376571583
0.0001583791859042508
8.833689643295852e-05
1.904002431324107e-05
-4.9575540887415205e-05
-0.00011757530506950075
-0.00018502616435926939
-0.00025199639061064625
-0.00031855560967731177
-0.0003847747744018576
-0.0004507261341486959
-0.0005164832025516936
-0.0005821207249598649
-0.000647714646849385
-0.0007133420842330715
-0.0007790812968438356
-0.0008450116646011329
-0.0009112136675939091
-0.0009777688695329165
-0.0010447599043442108
-0.001112270465298137
-0.0011803852957962416
-0.0012491901806759211
-0.0013187719366420571
-0.0013892184001995525
-0.001460618411242719
-0.001533061790259891
-0.001606639306938427
-0.0016814426378083547
-0.001757564310446498
-0.0018350976316813435
-0.001914136597195663
-0.001994775779923949
-0.0020771101946904427
-0.0021612351366359483
-0.0022472459911431625
0.0012239144551360465
0.0011384311899287018
0.0010544667471007255
0.0009719699434616079
0.0008908899530381455
0.0008111760151939037
0.0007327771665093675
0.0006556419977291976
0.0005797184366556894
0.0005049535574316614
0.0004312934162218709
0.00035868291287992826
0.00028706567778845815
0.00021638398269332548
0.00014657867402508332
7.758912692014863e-05
9.353217924916289e-06
-5.819268580833608e-05
-0.00012511372314210565
-0.00019147652375973415
-0.0002573491835303908
-0.0003228012327583516
-0.000387903599543692
-0.0004527285703383652
-0.0005173497495980779
-0.0005818420202117732
-0.0006462815061436746
-0.0007107455384516232
-0.0007753126255559684
-0.0008400624283311365
-0.0009050757402813961
-0.0009704344727479277
-0.0010362216447804933
-0.0011025213769963226
-0.0011694188884452325
-0.001237000495207358
-0.001305353609169447
-0.0013745667351607472
-0.001444729464382958
-0.0015159324618433147
-0.0015882674452991291
-0.0016618271530479036
-0.0017367052977544043
-0.0018129965033989951
-0.001890796222363442
-0.0019702006296484394
-0.0020513064912449485
-0.0021342110037659862
-0.0022190116025940006
0.0011969777145070413
0.0011125798384564413
0.001029687739971999
0.0009482526966708245
0.0008682262542639334
0.0007895599142343987
0.0007122048483532706
0.0006361116414365996
0.0005612300632606049
0.00048750887005501
0.0004148956354999675
0.00034333661067130396
0.0002727766119255833
0.00020315893530093126
0.00013442529564081573
6.651578833390419e-05
-6.311286908288957e-07
-6.70786352640113e-05
-0.00013289153424547192
-0.0001981362244966922
-0.0002628806642841631
-0.00032719432777670774
-0.0003911481571786529
-0.0004548145128696029
-0.0005182671237057715
-0.0005815810393844973
-0.0006448325864891499
-0.0007080993295219317
-0.000771460037904449
-0.0008349946595851655
-0.0008987843015436335
-0.0009629112171304476
-0.0010274587998323776
-0.0010925115827064924
-0.0011581552423900023
-0.0012244766062673032
-0.0012915636610639457
-0.0013595055608410815
-0.0014283926320871557
-0.0014983163733483526
-0.0015693694466078628
-0.0016416456574204971
-0.0017152399206374642
-0.001790248208419113
-0.0018667674771372534
-0.0019448955697197422
-0.0020247310899919914
-0.002106373245632188
-0.0021899216564863003
0.0011693734581334023
0.0010860817985661186
0.0010042824852663232
0.0009239294666603167
0.0008449768518461248
0.0007673785765271897
0.0006910880992265153
0.0006160581292988469
0.0005422403877027742
0.00046958540092607295
0.0003980423278917198
0.0003275588191236599
0.00025808090693511246
0.00018955292493089268
0.00012191745469916691
5.511529721652386e-05
-1.0914533790198889e-05
-7.623479948806367e-05
-0.0001409100076815019
-0.00020500637180282104
-0.0002685917602789701
-0.0003317356393181495
-0.0003945090120111949
-0.0004569843564373331
-0.0005192355652109681
-0.0005813378886125168
-0.0006433678831189618
-0.000705403366797122
-0.0007675233826515433
-0.0008298081706354602
-0.0008923391486431002
-0.0009551989024102672
-0.0010184711838619707
-0.001082240917063943
-0.0011465942105624077
-0.0012116183745367812
-0.0012774019408453045
-0.0013440346837148513
-0.00141160763851738
-0.0014802131157884146
-0.0015499447073788024
-0.001620897281395495
-0.001693166962382595
-0.0017668510930237379
-0.0018420481735185422
-0.0019188577747040522
-0.001997380420963552
-0.002077717438998535
-0.002159970768642513
0.0011411086332872508
0.001058942849451885
0.0009782556464004895
0.0008990038686381629
0.0008211443932268116
0.0007446337725475873
0.0006694279112031565
0.0005954817787123109
0.0005227491590116861
0.0004511824371270707
0.00038073242272711584
0.000311348209644291
0.00024297706985865718
0.00017556437990440092
0.00010905357718923978
4.338614332307592e-05
-2.1498388757327413e-05
-8.566240730416885e-05
-0.00014917017748692637
-0.0002120877839524698
-0.00027448306380049154
-0.0003364255334461627
-0.0003979863126591374
-0.00045923804882296243
-0.000520254844162273
-0.000581112188343736
-0.000641886898481265
-0.0007026570681750825
-0.0007635020267937986
-0.000824502309778318
-0.0008857396403119215
-0.0009472969222659947
-0.001009258243901692
-0.0010717088913872828
-0.0011347353707816766
-0.0011984254367398573
-0.0012628681258161018
-0.0013281537918789707
-0.001394374140810035
-0.0014616222613368923
-0.0015299926485533456
-0.0015995812164089369
-0.0016704852952086693
-0.0017428036099579065
-0.001816636235221587
-0.0018920845220464812
-0.0019692509924303693
-0.0020482391968192713
-0.0021291535301832774
0.0011121904363177067
0.0010311689195466479
0.0009516119481994649
0.0008734795044820741
0.000796731451674141
0.0007213271521473493
0.0006472251238594335
0.0005743827371364045
0.0005027559528207599
0.0004322991021112575
0.00036296470767220503
0.00029470334486873025
0.00022746354131038997
0.00016119171227548554
9.583212905725914e-05
3.132691683298359e-05
-3.2383921685382914e-05
-9.536246080066167e-05
-0.00015767278869917786
-0.00021938093079467325
-0.000280554763645394
-0.0003412639233973194
-0.0004015797124822596
-0.0004615750080076892
-0.0005213241749260915
-0.0005809029866756716
-0.0006403885555536061
-0.0006998592746263604
-0.0007593947725077431
-0.0008190758818533532
-0.0008789846219364019
-0.0009392041951892683
-0.0009998189971229584
-0.001060914638575371
-0.0011225779787921693
-0.0011848971674132134
-0.0012479616930221428
-0.0013118624355209774
-0.001376691719214885
-0.0014425433631355643
-0.0015095127247986093
-0.0015776967332812586
-0.001647193907226929
-0.0017181043531360601
-0.001790529739094075
-0.0018645732389241231
-0.0019403394416423244
-0.00201793422104681
-0.0020974645602998606
0.0010826262932495936
0.0010027660597051015
0.0009243561442385893
0.0008473599259353594
0.0007717404871072737
0.0006974602048200901
0.0006244803857807305
0.0005527609465864804
0.000482260140488416
0.00041293433095013383
0.00034473781141924247
0.00027762266989898475
0.0002115386961336022
0.00014643332852521968
8.225163729943022e-05
1.8936339944285066e-05
-4.3572155429663086e-05
-0.0001053356834175583
-0.00016641823608261406
-0.00022688586391941368
-0.0002868065676973903
-0.00034625018567735
-0.00040528828041958877
-0.00046399402905327163
-0.0005224421204662994
-0.0005807086624161663
-0.0006388711010677189
-0.0006970081549442829
-0.0007551997647452817
-0.0008135270599452186
-0.0008720723425518252
-0.0009309190878718232
-0.0009901519616157478
-0.0010498568521704029
-0.0011101209163816381
-0.0011710326367223673
-0.0012326818872713148
-0.0012951600054969814
-0.0013585598664295987
-0.0014229759554118607
-0.001488504435247815
-0.0015552432032213282
-0.0016232919331330524
-0.0016927520972122977
-0.0017637269625040732
-0.0018363215561183963
-0.0019106425935670884
-0.0019867983643139363
-0.0020648985686400334
0.0010524238352026642
0.0009737404106369219
0.0008964929780460942
0.0008206485914766786
0.0007461738006263553
0.0006730342139273206
0.0006011941105075616
0.0005306161032566717
0.00046126085423473786
0.00039308684265156827
0.00032605018464223383
0.0002601045031061181
0.00019520084498756579
0.00013128764258129796
6.831071476624665e-05
6.213303520372169e-06
-5.506385934426061e-05
-0.00011558246055862053
-0.00017540649435069395
-0.00023460213743830476
-0.00029323761539645386
-0.00035138306549725414
-0.00040911040078459786
-0.0004664931797285178
-0.0005236064853218572
-0.0005805268169494678
-0.0006373319977923909
-0.0006941010999396784
-0.0007509143887808956
-0.0008078532876521641
-0.0008650003631147521
-0.0009224393306647375
-0.0009802550801083863
-0.00103853371929303
-0.0010973626343591609
-0.0011568305641750532
-0.0012170276861315655
-0.0012780457100102487
-0.0013399779761911028
-0.0014029195540382518
-0.001466967335892442
-0.00153222012170897
-0.0015987786890117196
-0.0016667458424930639
-0.0017362264372790901
-0.001807327369608749
-0.001880157528454815
-0.0019548277014519496
-0.0020314504284086425
0.0010215908679560475
0.0009440981638453678
0.0008680271373773061
0.0007933488160595274
0.0007200334819598394
0.0006480502041473369
0.000577366426265746
0.0005079476117308412
0.0004397569478900992
0.00037275510930434314
0.00030690007914741316
0.00024214702660871725
0.0001784482371594866
0.0001157530916351809
5.4008089316628775e-05
-6.843090422499541e-06
-6.68594937855734e-05
-0.00012610277170797146
-0.00018463703878545182
-0.00024252871822957715
-0.00029984637892686524
-0.0003566605703763236
-0.00041304366086934176
-0.00046906968377648673
-0.0005248141962382919
-0.0005803541539390667
-0.0006357678049911967
-0.0006911346052885349
-0.0007465351570143421
-0.0008020511713212339
-0.0008577654555467478
-0.0009137619246942933
-0.0009701256362975846
-0.001026942847200174
-0.0010843010902202646
-0.0011422892681319458
-0.0012009977618771608
-0.0012605185494263902
-0.001320945331225844
-0.0013823736577050806
-0.001444901053870979
-0.0015086271355800318
-0.001573653711665568
-0.0016400848657016267
-0.0017080270108157745
-0.0017775889106282257
-0.001848881659103416
-0.001922018611864867
-0.001997115261359244
0.0009901353349103777
0.0009138455152412983
0.0008389632006763348
0.0007654637128187668
0.0006933213489470624
0.0006225088813248091
0.000552997118755871
0.0004847545331893811
0.00041774695282718877
0.00035193732180716563
0.00028728552517872123
0.00022374827659720408
0.00016127906498128778
9.982815533799891e-05
3.934263808876481e-05
-2.023347945570716e-05
-7.895914631306843e-05
-0.00013689611287274033
-0.00019410875499894717
-0.0002506638843477527
-0.00030663055181054497
-0.00036207985061352814
-0.0004170847251007161
-0.0004717197906300135
-0.0005260611693433388
-0.0005801863458541469
-0.0006341740461484969
-0.0006881041422378744
-0.0007420575843470351
-0.0007961163616794376
-0.0008503634920857105
-0.0009048830402710881
-0.0009597601635192047
-0.001015081183282824
-0.0010709336803945918
-0.001127406611080785
-0.0011845904404145166
-0.0012425772893181562
-0.0013014610907140737
-0.0013613377499251192
-0.001422305303938956
-0.0014844640736731696
-0.0015479168029121932
-0.0016127687771338769
-0.001679127915009791
-0.00174710482495629
-0.0018168128187418496
-0.0018883678738352162
-0.001961888535924515
0.0009580652726170983
0.0008829886105024424
0.000809305574732193
0.0007369961257301929
0.0006660388780669628
0.000596410563803741
0.0005280855662016864
0.00046103552696865474
0.0003952290286248373
0.00033063135194934907
0.00026720430688166553
0.00020490613375074304
0.00014369147033823607
8.351137909097073e-05
2.4313427811991977e-05
-3.3958183601947504e-05
-9.136245833467121e-05
-0.00014796140798756718
-0.00020381983639887913
-0.00025900511012441944
-0.0003135869234335662
-0.0003676370651906429
-0.00042122919437692554
-0.00047443863029296646
-0.0005273421626928996
-0.0005800178862683924
-0.0006325450630437304
-0.0006850040153849575
-0.0007374760514814119
-0.0007900434243395954
-0.0008427893245453897
-0.0008957979063053704
-0.0009491543455737725
-0.001002944928406884
-0.0010572571670573435
-0.001112179940723647
-0.0011678036572984407
-0.0012242204319067758
-0.001281524277487553
-0.0013398113021423057
-0.0013991799074512153
-0.0014597309814349622
-0.001521568079322702
-0.0015847975847720665
-0.0016495288436822828
-0.0017158742622537162
-0.0017839493604858443
-0.0018538727718859123
-0.001925766179799563
0.0009253887579493804
0.0008515334811346892
0.0007790584224116673
0.0007079485520814196
0.0006381871249013628
0.0005697551042181956
0.0005026306657722017
0.00043678878477651766
0.000372200907994686
0.0003088347106316026
0.0002466539359900037
0.00018561831409315494
0.00012568355389232623
6.680140231237613e-05
8.91976227412807e-06
-4.8017139009464446e-05
-0.000104068540726939
-0.00015929690769852015
-0.00021376766770914965
-0.00026754893628936434
-0.0003207112378563798
-0.0003733272315178018
-0.00042547144908831446
-0.0004772200520118098
-0.0005286506129527201
-0.0005798419268512184
-0.0006308738552555028
-0.0006818272067737772
-0.0007327836555460297
-0.000783825698733906
-0.0008350366531744442
-0.0008865006905438236
-0.0009383029096296236
-0.0009905294436116374
-0.0010432675995966255
-0.0010966060270339948
-0.0011506349110486057
-0.0012054461861550174
-0.0012611337652575806
-0.0013177937782841362
-0.0013755248142424542
-0.0014344281599244762
-0.0014946080279109025
-0.001556171765949835
-0.001619230039202028
-0.00168389697626793
-0.0017502902693489752
-0.001818531218363546
-0.0018887447083530077
0.0008921138458822305
0.000819485970061983
0.0007482255792058646
0.0006783230534631417
0.0006097666332809358
0.0005425418005945886
0.0004766307503994852
0.00041201195681127723
0.0003486598354904024
0.0002865445020510432
0.00022563162388253462
0.00016588236076343736
0.0001072533878143855
4.96969927700334e-05
-6.838761706852003e-06
-6.240982087217392e-05
-0.00011707587670004417
-0.00017090007368541094
-0.0002239486926490462
-0.0002762908232146989
-0.0003279980350585831
-0.0003791440572640406
-0.00042980447419437885
-0.0004800564452684306
-0.0005299784549273713
-0.0005796500979559473
-0.0006291519041975342
-0.000678565205606229
-0.0007279720475303021
-0.0007774551451320806
-0.0008270978849274271
-0.0008769843705759249
-0.0009271995112672517
-0.0009778291503240426
-0.00102896023096888
-0.0010806809955723915
-0.001133081214098124
-0.0011862524368764973
-0.001240288266265219
-0.0012952846411754607
-0.0013513401278540012
-0.0014085562097060841
-0.0014670375683173455
-0.0015268923471868853
-0.0015882323890199258
-0.001651173436753606
-0.0017158352878138064
-0.0017823418904399698
-0.0018508213702885246
0.0008582484967223809
0.0007868516454166991
0.0007168104571582635
0.0006481211538182522
0.0005807773317004382
0.0005147692954819375
0.0004500834949143426
0.00038670206897680696
0.00032460249951558016
0.00026375737372897994
0.00020413425227062097
0.00014569563734427885
8.83990330347291e-05
3.219708832410853e-05
-2.2962188172049734e-05
-7.71351537270937e-05
-0.0001303822098677855
-0.00018276744637800717
-0.00023435826358811254
-0.0002852249851237024
-0.00033544047254333953
-0.0003850797523320226
-0.00043421966459146347
-0.00048293854153528106
-0.0005313159226044907
-0.0005794323117111655
-0.0006273689808332285
-0.0006752078229478944
-0.0007230312561274741
-0.0007709221795417194
-0.0008189639811205882
-0.0008672405957312066
-0.0009158366119070621
-0.0009648374244253461
-0.0010143294293485598
-0.0010644002575142765
-0.0011151390418565384
-0.0011666367133589348
-0.0012189863198578503
-0.00127228336132249
-0.0013266261346246925
-0.0013821160801675055
-0.0014388581220624898
-0.0014969609928297788
-0.0015565375328427944
-0.001617704953958441
-0.0016805850559737483
-0.0017453043837446815
-0.001811994312014096
0.0008238004914825608
0.0007536357010239619
0.0006848159345443318
0.0006173437228858764
0.0005512184154038528
0.00048643546167044006
0.0004229858103100073
0.0003608554303329535
0.00030002495715942754
0.0002404694623405028
0.00018215834292505638
0.00012505532360431067
6.911856229175803e-05
1.4300847740347832e-05
-3.945012378953159e-05
-9.21914068944734e-05
-0.00014398441511376186
-0.0001948944935637406
-0.00024499047066035823
-0.0002943442028091822
-0.0003430301249749161
-0.0003911248188371789
-0.0004387066088633188
-0.0004858551951492647
-0.0005326513303556763
-0.0005791765465494479
-0.0006255129362919827
-0.0006717429909277525
-0.000717949497740596
-0.0007642154964730792
-0.0008106242946499028
-0.0008572595402060934
-0.0009042053490850941
-0.0009515464847262671
-0.0009993685856886508
-0.001047758437038795
-0.0010968042805453299
-0.0011465961581521439
-0.0011972262826264995
-0.0012487894286820032
-0.0013013833372453078
-0.0013551091248585126
-0.0014100716894788895
-0.0014663801031499068
-0.0015241479811732763
-0.001583493816515874
-0.0016445412672475776
-0.0017074193838415262
-0.0017722627621958222
0.0007887773339244255
0.0007198428418629657
0.000652244229439723
0.0005859908431423482
0.0005210882123246894
0.0004575372728834971
0.0003953337248260441
0.0003344675298713549
0.00027492255141896597
0.00021667633541892946
0.0001597000270477135
0.00010395841478335428
4.9410090596959354e-05
-3.992287375668155e-06
-5.630164509332113e-05
-0.00010757607238465476
-0.0001578783494048498
-0.00020727543696313368
-0.00025583794743511205
-0.0003036396120689167
-0.0003507567592442686
-0.0003972678167370636
-0.00044325284936153194
-0.0004887931415869982
-0.0005339708329303102
-0.0005788686121667658
-0.0006235694747278118
-0.0006681565460985072
-0.0007127129726137577
-0.0007573218797889032
-0.00080206639720873
-0.0008470297480305386
-0.0008922954003161955
-0.0009379472766765642
-0.0009840700180642854
-0.0010307492969640827
-0.0010780721746776103
-0.0011261274968577505
-0.0011750063208927682
-0.0012248023681518862
-0.0012756124934649518
-0.0013275371635052633
-0.001380680934965661
-0.0014351529225586825
-0.0014910672459311353
-0.001548543443564485
-0.001607706840644433
-0.0016686888567411535
-0.0017316272379645278
0.0007531861375897585
0.0006854771525364118
0.0006190967550382788
0.0005540616580658637
0.0004903840308163737
0.0004280706576270483
0.00036712225041394056
0.0003075329216637966
0.00024928982042155814
0.0001923729291658095
0.00013675501515145704
8.240172589842661e-05
2.9271815159214636e-05
-2.2682516990745567e-05
-7.351518826769106e-05
-0.00012328572206298075
-0.00017205867917880266
-0.00021990305335514558
-0.0002668916497961397
-0.0003131004646822703
-0.0003586080820490395
-0.0004034951025315939
-0.00044784361642316887
-0.000491736731369282
-0.0005352581629050591
-0.0005784918940073087
-0.0006215219079289741
-0.0006644319968484528
-0.0007073056473201056
-0.0007502260021629778
-0.0007932758972674552
-0.0008365379708193824
-0.000880094841616599
-0.0009240293524567615
-0.0009684248739771483
-0.0010133656637954548
-0.0010589372753034513
-0.0011052270099722837
-0.001152324406511392
-0.0012003217596578773
-0.0012493146607374349
-0.0012994025514152917
-0.0013506892812330928
-0.0014032836585977804
-0.0014572999838476895
-0.0015128585518711223
-0.001570086110503511
-0.0016291162595919364
-0.0016900897742118687
0.0007170334958983959
0.0006505419464820457
0.0005853739542543831
0.000521554199226431
0.0004591019868162632
0.00039803033415157594
0.0003383452330066065
0.0002800450974017798
0.00022312039835550336
0.00016755348281398364
0.00011331856864596045
6.0381902988811305e-05
8.70206734009853e-06
-4.176959027694027e-05
-9.108841791985694e-05
-0.00013931584022352014
-0.00018651868031075022
-0.000232768446255572
-0.00027814060416568717
-0.0003227138583193134
-0.000366569456736277
-0.0004097905382198033
-0.0004524615344036072
-0.0004946676377953836
-0.0005364943443215107
-0.0005780270765261982
-0.0006193508914207535
-0.0006605502750522676
-0.0007017090241833871
-0.000742910214049655
-0.0007842362499750812
-0.0008257689996582938
-0.00086759000215955
-0.0009097807489867691
-0.0009524230321594235
-0.0009955993536804736
-0.001039393390430755
-0.0010838905080805365
-0.0011291783171550936
-0.0011753472638664168
-0.0012224912477050206
-0.0012707082570543177
-0.001320101013230086
-0.0013707776123481532
-0.0014228521532798789
-0.0014764453386684404
-0.001531685034554706
-0.0015887067726132222
-0.0016476541773457701
0.0006803253331005479
0.0006150395933012271
0.0005510751107522466
0.0004884651893160312
0.0004272368077457671
0.00036740962422625485
0.000308995184872987
0.00025199634533748776
0.00019640690795370407
0.0001422114702809862
8.938547476171387e-05
3.7895443778813206e-05
-1.2300620127449853e-05
-6.125269260765995e-05
-0.00010901807051593067
-0.000155660626953259
-0.00020125000592527702
-0.0002458607834741719
-0.0002895716206207235
-0.00033246443129269967
-0.0003746235857945805
-0.0004161351674611348
-0.00045708629709151393
-0.0004975645367212875
-0.000537657381372107
-0.0005774518447111787
-0.0006170341421181721
-0.0006564894725316749
-0.000695901898645033
-0.0007353543235366711
-0.0007749285606317201
-0.000814705492965884
-0.0008547653170173104
-0.000895187865841517
-0.0009360530058380168
-0.0009774411011463091
-0.001019433539366267
-0.001062113311979914
-0.0011055656424774837
-0.0011498786547258551
-0.0011951440735339224
-0.001241457948641082
-0.0012889213924644014
-0.0013376413208749764
-0.001387731185026126
-0.0014393116808261441
-0.001492511421038855
-0.0015474675532192103
-0.0016043263047661547
0.0006430667335201833
0.0005789713211462044
0.0005161981330738495
0.00045478981777599334
0.0003947816100521497
0.00033620024313055306
0.00027906309718552826
0.00022337759465522553
0.0001691408445803162
0.00011633953023845863
6.495002700497273e-05
1.4938730947346851e-05
-3.373742659783653e-05
-8.113030715819103e-05
-0.0001272997672214321
-0.00017231276674367456
-0.00021624241644699652
-0.0002591669950904703
-0.0003011689657775162
-0.00034233401752599337
-0.0003827501549964684
-0.00042250685566175197
-0.000461694309999722
-0.0005004027566671552
-0.0005387219211978717
-0.0005767405636631592
-0.0006145461379999323
-0.0006522245633863617
-0.0006898601061318052
-0.0007275353690302799
-0.000765331383971308
-0.0008033278027592657
-0.000841603180508633
-0.0008802353455973598
-0.0009193018499103894
-0.0009588804929329415
-0.0009990499131011157
-0.0010398902396328742
-0.0010814837978003495
-0.0011239158602242734
-0.0011672754362393595
-0.0012116560906682717
-0.0012571567824299738
-0.0013038827122813616
-0.0013519461676393535
-0.0014014673508509733
-0.0014525751754752222
-0.0015054080131211237
-0.0015601143711670758
0.0006052617461017335
0.00054233699058584
0.0004807393079724349
0.0004205214851312252
0.0003617276468292595
0.0003043920629363884
0.0002485382307782554
0.00019417824436491343
0.00014131245226110464
8.992939624066993e-05
4.000601406051532e-05
-8.491917908858091e-06
-5.560913256169261e-05
-0.00010140004524352461
-0.00014592778975326464
-0.00018926315570042424
-0.0002314834652527848
-0.0002726714254759466
-0.0003129139895600211
-0.0003523012565270422
-0.00039092543479420636
-0.00042887989049881104
-0.0004662582970034264
-0.0005031538976892672
-0.000539658890164454
-0.0005758639364691312
-0.000611857800814645
-0.0006477271138752589
-0.0006835562606526966
-0.0007194273874230658
-0.00075542052220015
-0.0007916138024438414
-0.0008280838033351504
-0.0008649059597528718
-0.0009021550750466355
-0.0009399059097344332
-0.0009782338432932306
-0.0010172156021986869
-0.0010569300472512751
-0.001097459012956407
-0.0011388881912666703
-0.0011813080513153173
-0.0012248147858476988
-0.0012695112738739002
-0.0013155080476106844
-0.0013629242500485892
-0.0014118885674723747
-0.0014625401189859426
-0.0015150292825602957
0.0005669131607514612
0.0005051348357305672
0.0004446930183724957
0.00038565151148425326
0.0003280640214043161
0.0002719728457813613
0.00021740788293245737
0.0001643859759343615
0.00011291059240405195
6.297182923697487e-05
1.4546720990001906e-05
-3.240017839752215e-05
-7.791597791760021e-05
-0.00012205843816431253
-0.00016489481147452436
-0.00020650057937955088
-0.00024695813207815454
-0.0002863554319399872
-0.00032478469911589045
-0.00036234115252644456
-0.000399121834176898
-0.000435224539231417
-0.00047074686885350495
-0.0005057854177104785
-0.0005404351034183907
-0.0005747886411823109
-0.0006089361635245386
-0.0006429649823028105
-0.0006769594881779603
-0.0007110011812413728
-0.0007451688255810654
-0.0007795387200653691
-0.0008141850774604871
-0.0008491805040771357
-0.000884596572371589
-0.000920504479220886
-0.000956975782874233
-0.0009940832117837396
-0.00103190153857724
-0.0010705085123044432
-0.001109985841723898
-0.0011504202217679626
-0.0011919043944006776
-0.0012345382338507915
-0.0012784298446446574
-0.0013236966589767422
-0.0013704665177366338
-0.0014188787169643492
-0.001469084998642272
0.0005280222523266487
0.00046736116761727196
0.00040805142054373307
0.0003501688038345871
0.0002937773621324892
0.00023892794341308973
0.00018565712789924815
0.00013398654908781168
8.392260651999672e-05
3.545655569245484e-05
-1.143505222954205e-05
-5.6789618882535295e-05
-0.00010065748150248424
-0.00014310068165888923
-0.00018419157429939124
-0.00022401133170225047
-0.0002626483949136596
-0.0003001969213781972
-0.00033675527220142524
-0.0003724245762777702
-0.0004073074018217638
-0.00044150655905531326
-0.0004751240512642246
-0.0005082601854074012
-0.0005410128481275088
-0.0005734769484857117
-0.0006057440250726784
-0.000637902012325756
-0.000670035158856737
-0.0007022240892823085
-0.0007345460003460418
-0.0007670749819117259
-0.0007998824535732545
-0.0008330377080490968
-0.000866608553101042
-0.0009006620443364269
-0.000935265301830952
-0.0009704864039692361
-0.0010063953521769475
-0.0010430651002554612
-0.0010805726417841797
-0.0011190001484924893
-0.0011584361515935143
-0.001198976756795589
-0.0012407268820520938
-0.0012838015050664325
-0.0013283269051327824
-0.001374441881067643
-0.0014222989237772862
0.0004885884873392938
0.0004290100338951424
0.0003708040740597841
0.00031405947593887793
0.00025885145287894186
0.00020523995881882758
0.0001532685287787272
0.00010296358053107912
5.4334175021271414e-05
7.372215722444529e-06
-3.7946948244711124e-05
-8.166356299748202e-05
-0.00012383221193048807
-0.00016452032200701158
-0.00020380649996419706
-0.00024177876352959448
-0.00027853272947984053
-0.0003141698149411095
-0.0003487955013283064
-0.00038251770234254607
-0.0004154452690539093
-0.00044768665677749316
-0.0004793487706018923
-0.0005105359993484992
-0.0005413494416261128
-0.0005718863226024159
-0.0006022395961676466
-0.0006324977242774688
-0.0006627446233418155
-0.0006930597664533472
-0.000723518429881752
-0.000754192072447795
-0.0007851488369854109
-0.0008164541639597272
-0.0008481715083037238
-0.0008803631515509908
-0.0009130911022760431
-0.0009464180786218062
-0.0009804085672262524
-0.0010151299530982445
-0.0010506537148888603
-0.0010870566795247154
-0.0011244223292851251
-0.0011628421530936496
-0.0012024170320441042
-0.00124325864697988
-0.0012854908932897289
-0.001329251284970771
-0.0013746923264427863
0.0004486091874649316
0.00039007282766954227
0.0003329375168666278
0.0002773064132785899
0.0002232668127708278
0.0001708883652408134
0.00012022181834337765
7.129830586807048e-05
2.412917522391731e-05
-2.1293672802276484e-05
-6.499697738474334e-05
-0.00010702490436563777
-0.00014743749732048562
-0.00018630887031681758
-0.00022372522179709277
-0.0002597827472658703
-0.0002945855234661961
-0.0003282434292207093
-0.0003608701588699373
-0.00039258137402983133
-0.0004234930289098134
-0.0004537198942731876
-0.0004833742957467491
-0.0005125650739258082
-0.0005413967667755345
-0.0005699690092837483
-0.0005983761411634536
-0.000626707010549149
-0.0006550449599401174
-0.000683467979944629
-0.0007120490164827589
-0.0007408564178209773
-0.0007699545089549188
-0.0007994042822596862
-0.0008292641948377307
-0.0008595910644812414
-0.0008904410575201315
-0.0009218707629550186
-0.0009539383481024753
-0.000986704791449116
-0.0010202351884736026
-0.0010546001258159889
-0.0010898771183252502
-0.0011261521021776744
-0.001163520975416294
-0.001202091174904666
-0.0012419832758109213
-0.0012833325963352848
-0.0013262907864644326
0.00040807914273237843
0.0003505378368935247
0.00029443477625443453
0.00023988877431084
0.0001870002177451523
0.00013584907732092262
8.64935464550869e-05
3.8969325714974766e-05
-6.7104569015504975e-06
-5.0554726187904044e-05
-9.259339914568371e-05
-0.00013287585988117426
-0.00017146905842138301
-0.00020845532845160226
-0.00024393002020703565
-0.0002779990412559103
-0.00031077639053985037
-0.0003423817607752131
-0.00037293827219259806
-0.0004025703875781875
-0.0004314020455449183
-0.0004595550366119777
-0.0004871476355386849
-0.0005142934937991625
-0.0005411007882835405
-0.0005676716163160265
-0.0005941016228230749
-0.0006204798428124875
-0.0006468887410312112
-0.0006734044305183855
-0.0007000970525149015
-0.0007270313015915238
-0.0007542670816905999
-0.0007818602808432919
-0.0008098636544526128
-0.0008383278090758773
-0.0008673022804793311
-0.0008968367012781083
-0.000926982054638233
-0.0009577920112460604
-0.0009893243470007335
-0.0010216424386215173
-0.0010548168335592668
-0.0010889268892420312
-0.0011240624747551158
-0.0011603257255452838
-0.0011978328386396259
-0.0012367158921766444
-0.001277124668752582
0.00036699016575100774
0.00031038972386869534
0.0002552748046364614
0.0002017814174875253
0.00015002415517620642
0.00010009396853120824
5.20566919357205e-05
5.95233809044457e-06
-3.820485477018867e-05
-8.042567223003234e-05
-0.00012074454574577832
-0.00015921764425620407
-0.00019592054582926182
-0.00023094560629975907
-0.00026439914162866237
-0.00029639853470118265
-0.0003270693666628764
-0.0003565426590012149
-0.00038495229675627486
-0.00041243268673019345
-0.00043911668842390515
-0.0004651338404998398
-0.0004906088924466192
-0.000515660640168092
-0.0005404010555858096
-0.0005649346940105491
-0.0005893583588532378
-0.0006137610009650865
-0.0006382238292249503
-0.0006628206096112267
-0.0006876181315899491
-0.0007126768229233273
-0.0007380514966874472
-0.0007637922171543042
-0.000789945274047868
-0.0008165542573696106
-0.0008436612273805093
-0.0008713079763270088
-0.0008995373800337689
-0.0009283948385007106
-0.0009579298050968986
-0.0009881974038075756
-0.0010192601332422828
-0.0010511896547375065
-0.001084068659873096
-0.0011179928100595125
-0.0011530727375357892
-0.0011894360931363201
-0.0012272296215293972
0.0003253305764234285
0.000269608922132172
0.00021543182669666022
0.00016295424146860454
0.0001123062014081553
6.359032844911738e-05
1.6880237184247436e-05
-2.7780139310176928e-05
-7.037632996856943e-05
-0.00011092227875137252
-0.0001494585692089494
-0.00018605004392989628
-0.00022078295725703242
-0.00025376180552052693
-0.0002851059765090773
-0.0003149463502953731
-0.0003434219685057187
-0.00037067687046517684
-0.0003968571741055552
-0.00042210845866247457
-0.00044657348630442123
-0.0004703902819058973
-0.0004936905748456214
-0.0005165985943189019
-0.0005392302002815764
-0.0005616923256657799
-0.0005840827016510954
-0.0006064898361731715
-0.0006289932160948473
-0.0006516637051328768
-0.0006745641123286359
-0.0006977499092142032
-0.0007212700775425206
-0.0007451680732621594
-0.0007694828961122523
-0.0007942502576262153
-0.0008195038433389673
-0.0008452766674974608
-0.0008716025205107066
-0.0008985175106961431
-0.0009260617025516268
-0.0009542808537808638
-0.0009832282526112714
-0.0010129666555561776
-0.0010435703236771655
-0.0010751271525918128
-0.0011077408879399953
-0.001141533413757917
-0.0011766470962017786
0.00028308460418365045
0.00022817093513725038
0.00017487458155601276
0.00012337142344367134
7.38083103150539e-05
2.630025286609952e-05
-1.9071295399411374e-05
-6.225905118251163e-05
-0.00010324944925907929
-0.00014206121462098523
-0.00017874308804563662
-0.00021337086261621462
-0.00024604390495075066
-0.0002768813393506141
-0.00030601806700819936
-0.00033360077774097533
-0.00035978409073692783
-0.0003847269359022222
-0.00040858926086235787
-0.00043152912244571583
-0.00045370019713258827
-0.00047524972359018307
-0.0004963168727007733
-0.0005170315267021531
-0.000537513439151099
-0.0005578717411078397
-0.0005782047557795151
-0.0005986000833246305
-0.0006191349190529192
-0.0006398765713150276
-0.0006608831494711873
-0.0006822043970293006
-0.0007038826499921203
-0.000725953905362715
-0.0007484489894057436
-0.0007713948194824436
-0.000794815756950772
-0.0008187350516663094
-0.0008431763809771415
-0.0008681654877439951
-0.000893731922811258
-0.0009199108974907999
-0.0009467452509924149
-0.0009742875363340578
-0.001002602226089262
-0.001031768036372763
-0.001061880363722633
-0.0010930538250004639
-0.0011254248850848733
0.00024023169174653206
0.00018604551751528857
0.00013356543997380867
8.299053740658691e-05
3.448599903324145e-05
-1.182004075914872e-05
-5.5838344862265375e-05
-9.751908220122837e-05
-0.000136851062585314
-0.000173859818486808
-0.0002086047026684688
-0.00024117520342127998
-0.0002716866960907362
-0.0003002758513519488
-0.00032709590931175714
-0.0003523120067442184
-0.0003760967157743478
-0.00039862591931098004
-0.0004200751144166092
-0.0004406162020262521
-0.0004604147918301879
-0.00047962802593391534
-0.0004984029047343163
-0.0005168750834428732
-0.0005351680975983816
-0.0005533929702274771
-0.000571648151358242
-0.0005900197416304756
-0.0006085819550391176
-0.0006273977807125606
-0.0006465198094678772
-0.0006659911971995999
-0.0006858467435492954
-0.0007061140704628065
-0.0007268148909469804
-0.0007479663634325298
-0.0007695825315294329
-0.0007916758525625556
-0.0008142588210622373
-0.0008373456953389806
-0.0008609543363839213
-0.0008851081686072296
-0.0009098382713543761
-0.0009351856087248707
-0.0009612034029615243
-0.0009879596535778013
-0.0010155398004438217
-0.001044049524251276
-0.0010736176721102032
0.00019674568046452665
0.00014319571511823073
9.145937204693613e-05
4.176153047089244e-05
-5.712585267022945e-06
-5.0820980277212734e-05
-9.346684871043565e-05
-0.00013359891703458235
-0.00017121025854070987
-0.00020633574253342904
-0.00023904833975574172
-0.0002694545431955646
-0.00029768918006224665
-0.00032390988791954154
-0.0003482915087444313
-0.00037102062302951156
-0.00039229040633044466
-0.00041229594712606944
-0.0004312301212466114
-0.0004492800774238113
-0.0004666243528487798
-0.0004834306082594224
-0.0004998539495276299
-0.0005160357868701261
-0.0005321031731120307
-0.0005481685580476783
-0.0005643298958881906
-0.0005806710460514669
-0.0005972624131842632
-0.0006141617794644082
-0.0006314152902055902
-0.0006490585620099413
-0.0006671178907554868
-0.0006856115442559138
-0.0007045511312770963
-0.0007239430446069894
-0.0007437899809775647
-0.0007640925447951075
-0.0007848509458398163
-0.000806066803351449
-0.0008277450702356831
-0.0008498960915181864
-0.0008725378106487353
-0.0008956981358233061
-0.0009194174761529283
-0.0009437514542651512
-0.0009687737977767986
-0.0009945794070237747
-0.0010212875904644682
0.00015259385240738894
9.957673419789918e-05
4.850273514278927e-05
-3.744692889965859e-07
-4.684773629185738e-05
-9.076049595737549e-05
-0.00013200881013201906
-0.00017054146371487788
-0.00020635821523689885
-0.00023950642815528294
-0.00027007637428363073
-0.0002981955431116414
-0.0003240223054718778
-0.0003477392697472441
-0.00036954663817307396
-0.00038965582546524405
-0.0004082835479947794
-0.0004256465346425983
-0.00044195695504774626
-0.0004574186108068979
-0.00047222389266256444
-0.000486551473046647
-0.0005005646787634289
-0.0005144104725946343
-0.0005282189641793392
-0.0005421033683757409
-0.0005561603320671377
-0.0005704705566911905
-0.0005850996524451825
-0.0006000991701307296
-0.0006155077671316754
-0.0006313524744498492
-0.0006476500416121665
-0.0006644083453160692
-0.0006816278557219852
-0.0006993031612401342
-0.0007174245584674801
-0.0007359797186154305
-0.0007549554453569716
-0.0007743395415488307
-0.0007941228037814385
-0.0008143011642049343
-0.0008348779985915752
-0.0008558666181346809
-0.0008772929600603455
-0.0008991984887434402
-0.0009216433146767115
-0.0009447095333448494
-0.0009685047798007225
0.00010773579786738444
5.513460259593504e-05
4.631844568143452e-06
-4.348654562568496e-05
-8.898941882056269e-05
-0.00013170497475124224
-0.0001715228854853642
-0.000208394012941919
-0.00024232790299524506
-0.0002733883567059888
-0.000301687463146111
-0.00032737852477347004
-0.0003506483163116809
-0.00037170909607310576
-0.0003907907415254769
-0.00040813331675645877
-0.00042398030652324
-0.00043857267715101693
-0.0004521438546055863
-0.0004649156488426775
-0.0004770951035395492
-0.0004888722125138138
-0.0005004184182751067
-0.0005118857931076634
-0.0005234067971875665
-0.0005350945096085193
-0.0005470432349323571
-0.0005593293982593976
-0.0005720126543431276
-0.0005851371497549813
-0.000598732890628533
-0.0006128171814335365
-0.0006273961121242167
-0.0006424660816277562
-0.0006580153548758263
-0.0006740256584101007
-0.0006904738260479874
-0.0007073335112419282
-0.0007245769866779505
-0.0007421770544067778
-0.000760109091440947
-0.0007783532563258727
-0.0007968968817280483
-0.00081573707659322
-0.0008348835589176724
-0.0008543617366504955
-0.0008742160497096467
-0.0008945135805574836
-0.0009153479342527762
6.212206869160922e-05
9.804576188708267e-06
-4.022871969463007e-05
-8.765562659828093e-05
-0.00013221868291093172
-0.00017373031704775044
-0.00021207497526547821
-0.0002472082942248299
-0.00027915357971322
-0.0003079960003756232
-0.0003338750052211607
-0.0003569755227399692
-0.00037751850028555243
-0.0003957513022480075
-0.00041193841475694796
-0.0004263528147141892
-0.000439268262996743
-0.0004509526852676421
-0.0004616627163008824
-0.0004716394098759379
-0.00048110505855249825
-0.0004902610264167148
-0.0004992864721132004
-0.0005083378270827376
-0.0005175488923555918
-0.0005270314238287376
-0.0005368760881647502
-0.0005471536870990321
-0.0005579165652478063
-0.000569200134113739
-0.0005810244619231823
-0.0005933958945706502
-0.0006063086869351805
-0.000619746636014348
-0.0006336847176820759
-0.0006480907374910114
-0.0006629270129297569
-0.0006781521100482531
-0.0006937226615109232
-0.0007095952960367857
-0.0007257287109219569
-0.000742085919967694
-0.0007586367086849823
-0.0007753603271251439
-0.0007922484480961355
-0.0008093084148626702
-0.0008265667977002782
-0.000844073272894777
-0.0008619048309756877
1.569256702670975e-05
-3.6490768637655394e-05
-8.616812852992647e-05
-0.00013297640425343447
-0.0001766292900397693
-0.00021692309795990315
-0.00025373879164129406
-0.00028704037344886874
-0.00031686999866388423
-0.0003433403743459398
-0.0003666251182236598
-0.00038694780132029344
-0.0004045703825549167
-0.00041978167595098945
-0.0004328863866061447
-0.0004441951264818041
-0.0004540156903940426
-0.0004626457486323265
-0.000470367004198402
-0.0004774407749198607
-0.0004841048955906936
-0.0004905717922031906
-0.0004970275568692952
-0.0005036318447827204
-0.0005105184197707292
-0.000517796188955119
-0.000525550586526125
-0.0005338451889445065
-0.0005427234669623821
-0.0005522106022212711
-0.0005623153168892673
-0.0005730316832965321
-0.0005843408965933022
-0.000596213007079514
-0.0006086086201712079
-0.0006214805811837667
-0.000634775669458883
-0.0006484363320660106
-0.0006624024915669793
-0.0006766134652977027
-0.0006910100354002285
-0.0007055367094959877
-0.0007201442114504533
-0.0007347922401386639
-0.000749452531465326
-0.0007641122551065027
-0.0007787777725193276
-0.0007934787767341807
-0.0008082728273471618
-3.162539512444919e-05
-8.38438319519727e-05
-0.0001332917147866524
-0.00017955959931548627
-0.0002223295821068734
-0.0002613818293392854
-0.00029659636075760575
-0.0003279503136071737
-0.00035551121986357806
-0.0003794270598042396
-0.0003999139911955419
-0.0004172426948756199
-0.0004317242346226174
-0.0004436962203715493
-0.0004535099116395245
-0.00046151872528518104
-0.0004680684386006688
-0.0004734892207621399
-0.0004780894930639121
-0.0004821515162080224
-0.0004859285319770623
-0.0004896432444780972
-0.0004934874084332611
-0.0004976222934241353
-0.0005021798082056935
-0.0005072640933027278
-0.0005129534189936202
-0.0005193022562958631
-0.0005263434184114776
-0.0005340901977777222
-0.0005425384485549922
-0.0005516685857144751
-0.0005614474898521377
-0.0005718303216627647
-0.0005827622619879215
-0.0005941802028817545
-0.0006060144225889363
-0.0006181902830274949
-0.0006306299925847737
-0.0006432544799643246
-0.0006559854265928977
-0.0006687475057715799
-0.0006814708763425437
-0.0006940939771165056
-0.0007065666656186787
-0.0007188537408218572
-0.0007309388844253355
-0.0007428290489289828
-0.0007545593133155108
-7.99194488681227e-05
-0.0001323647734506172
-0.00018172387237717826
-0.0002275346411794235
-0.00026944462649747345
-0.0003072183088800159
-0.00034073839611481384
-0.00037000148839841027
-0.0003951088772385634
-0.0004162535256963299
-0.00043370443115191845
-0.0004477895955548527
-0.00045887874050642877
-0.0004673667344139246
-0.00047365847952514383
-0.0004781557698228246
-0.00048124640318912326
-0.0004832956321343399
-0.00048463987795194035
-0.0004855825174801974
-0.0004863914781875465
-0.00048729834077052654
-0.0004884986415818128
-0.0004901530821548577
-0.0004923893824840819
-0.0004953045522501391
-0.000498967394888316
-0.0005034210996896875
-0.0005086858146331761
-0.0005147611260193268
-0.0005216283996334779
-0.0005292529620721399
-0.0005375861203360758
-0.0005465670333359516
-0.0005561244611574489
-0.0005661784273773979
-0.0005766418369402872
-0.0005874220975380026
-0.0005984227964271754
-0.0006095454874049354
-0.0006206916443848298
-0.0006317648387181071
-0.0006426731970696348
-0.0006533321952122279
-0.000663667840451538
-0.0006736202914485907
-0.0006831479589175654
-0.000692232124053796
-0.0007008821036882593
-0.00012929504217838034
-0.0001821849067283228
-0.0002316115605312712
-0.0002770528485030758
-0.0003181186709894854
-0.000354559026626634
-0.00038626444723668506
-0.00041325939337312316
-0.00043568970086929615
-0.00045380552205756194
-0.00046794137097513596
-0.00047849486931294226
-0.00048590563085251825
-0.0004906354615774099
-0.0004931507390877155
-0.0004939075126502112
-0.0004933395689098799
-0.0004918494608490323
-0.0004898023102192697
-0.00048752206783398214
-0.00048528984622474725
-0.000483343915516144
-0.00048188096458074954
-0.0004810582644202508
-0.00048099641947747535
-0.0004817824473766297
-0.00048347298266746865
-0.0004860974516942996
-0.0004896611115141362
-0.0004941478848743477
-0.0004995229555245983
-0.0005057351140365218
-0.0005127188646061633
-0.0005203963189169165
-0.000528678914944963
-0.0005374690074217165
-0.0005466613832333031
-0.0005561447598970617
-0.0005658033288213366
-0.0005755184075954354
-0.0005851702672078803
-0.0005946402008726089
-0.0006038129009805215
-0.0006125792094482368
-0.0006208393042367432
-0.0006285063808973666
-0.0006355108825618801
-0.0006418053248115306
-0.0006473697534495476
-0.00017987897619068521
-0.00023346086694407166
-0.0002831285623307216
-0.00032829121346704664
-0.00036851793959459967
-0.00040354657350634687
-0.0004332826807193855
-0.0004577897359176941
-0.00047727202143919194
-0.0004920522452278079
-0.0005025460405013562
-0.0005092354293271737
-0.0005126430609771681
-0.0005133086427436275
-0.0005117685364873482
-0.0005085390592627978
-0.0005041036451326013
-0.0004989037235421293
-0.0004933329564261078
-0.0004877343476843692
-0.00048239968256338353
-0.00047757075452317405
-0.0004734418763896642
-0.0004701632356208865
-0.00046784472780537264
-0.0004665599787380872
-0.00046635033731939283
-0.0004672286854234091
-0.0004691829651110764
-0.0004721793678611119
-0.0004761651655067773
-0.00048107118944990847
-0.00048681398483929085
-0.0004932976811252536
-0.0005004156310028842
-0.0005080518773222745
-0.0005160825129604356
-0.0005243770025896623
-0.0005327995382103864
-0.0005412105025280178
-0.0005494681158570627
-0.0005574303432004709
-0.0005649571383297032
-0.0005719131008423885
-0.0005781706200181057
-0.0005836135755549338
-0.000588141659743302
-0.0005916753782430825
-0.0005941617774879587
-0.0002318237910936046
-0.0002863797643201018
-0.0003364806881613804
-0.00038145691334137005
-0.0004208337916984887
-0.0004543409558372333
-0.0004819090815125597
-0.0005036554958979984
-0.0005198608856577251
-0.0005309398799768347
-0.0005374084210151399
-0.0005398506352322079
-0.0005388874729783054
-0.0005351487973348987
-0.000529249978494599
-0.0005217734689813756
-0.0005132553520961935
-0.0005041764974829715
-0.0004949577265484012
-0.0004859582730997454
-0.000477476798303332
-0.00046975425824873074
-0.0004629780027677467
-0.0004572865853855164
-0.00045277487101919554
-0.0004494991298457868
-0.0004474818964265064
-0.0004467164497864752
-0.00044717083212366445
-0.0004487913720682534
-0.0004515057146667464
-0.0004552253866000333
-0.0004598479436594711
-0.00046525876013182
-0.00047133252814354765
-0.0004779345405443846
-0.0004849218346206271
-0.0004921442765837176
-0.0004994456688864699
-0.0005066649642556098
-0.000513637671966093
-0.000520197543215915
-0.00052617862323758
-0.0005314177576319912
-0.0005357576388965446
-0.0005390504758027263
-0.0005411623627973629
-0.0005419784187704231
-0.0005414087544256159
-0.00028531325065452896
-0.0003411656036826829
-0.00039191216876269686
-0.000436792695885653
-0.00047528624750396015
-0.0005071206558244119
-0.0005322657603201945
-0.0005509125222598948
-0.0005634412774014807
-0.0005703829990625574
-0.0005723775023119266
-0.0005701321179083924
-0.000564383649071203
-0.0005558655583059588
-0.0005452814613522308
-0.0005332852391612857
-0.000520467479892882
-0.0005073475528232162
-0.0004943703845848755
-0.0004819069254402182
-0.0004702573209238296
-0.0004596559037075474
-0.0004502772586643016
-0.00044224276517103485
-0.00043562716698759656
-0.00043046485089803105
-0.0004267556255503086
-0.0004244698803480386
-0.0004235530720957349
-0.0004239295370098619
-0.00042550566087372517
-0.000428172463759929
-0.00043180767081937507
-0.0004362773496662739
-0.00044143719992573334
-0.000447133583148681
-0.0004532043827177937
-0.00045947978438460463
-0.0004657830692022316
-0.0004719315120916348
-0.0004777374811089346
-0.0004830098344697966
-0.00048755571414564776
-0.0004911828358362628
-0.0004937023747038638
-0.000494932543746468
-0.0004947029564983836
-0.0004928598574919091
-0.000489272292564933
-0.0003405692600413762
-0.00039808734265037
-0.00044971355303583416
-0.0004945833087936944
-0.0005321278450403392
-0.0005620831778581021
-0.0005844779024805121
-0.0005996030516449767
-0.0006079687570001106
-0.000610253139392219
-0.000607248739228758
-0.0005998110563236311
-0.0005888126406482839
-0.0005751049089816801
-0.0005594886635137374
-0.0005426932952869127
-0.0005253639345013708
-0.0005080553674614247
-0.0004912313414789959
-0.0004752678683187599
-0.0004604592527711316
-0.00044702576060301914
-0.00043512205590054724
-0.000424845751108599
-0.00041624560517358137
-0.00040932906684388627
-0.0004040689888446013
-0.00040040943605527263
-0.0003982705810360223
-0.0003975527282504424
-0.0003981395391440927
-0.0003999005484094393
-0.0004026930711563889
-0.0004063636044112102
-0.0004107488267704809
-0.0004156762988999016
-0.00042096496612877704
-0.0004264255634632511
-0.0004318610233913396
-0.0004370669880559251
-0.00044183252965254195
-0.0004459411859547603
-0.00044917242114117864
-0.0004513036248544565
-0.00045211276375330817
-0.00045138179872389675
-0.00044890097645287896
-0.0004444740955196966
-0.0004379248342871768
-0.00039786067124851845
-0.0004574690882009399
-0.0005102315176873391
-0.0005551631643021032
-0.00059164772488054
-0.0006194446635333188
-0.0006386686708248022
-0.000649746280899241
-0.0006533565839949443
-0.0006503636675212559
-0.0006417479615895133
-0.0006285423631086627
-0.0006117772582379912
-0.0005924367291023632
-0.0005714266016092063
-0.00054955373404041
-0.0005275151166141501
-0.0005058949222244411
-0.00048516754037553956
-0.00046570474392285816
-0.0004477853897368561
-0.00043160636474342704
-0.00041729380417267073
-0.0004049138957929275
-0.0003944828254526314
-0.00038597561025771176
-0.00037933370851022784
-0.0003744713964765455
-0.0003712809690642324
-0.0003696368625193281
-0.000369398819447456
-0.0003704142257695067
-0.0003725197503534859
-0.00037554241457902517
-0.0003793002135769035
-0.0003836024051437799
-0.00038824957755410894
-0.0003930336044058128
-0.00039773759361427796
-0.0004021359387907687
-0.0004059945843338901
-0.00040907162019880074
-0.00041111832779575606
-0.0004118808038382684
-0.0004111022929741033
-0.00040852636126534683
-0.0004039010395785296
-0.00039698405746587187
-0.0003875492734891871
-0.0004575145996640693
-0.0005197031079334415
-0.0005738811153430641
-0.000618925440714414
-0.0006541757163005596
-0.0006794379123726537
-0.00069495104411154
-0.0007013247649027853
-0.000699458055965301
-0.000690449788323591
-0.0006755108335888946
-0.0006558851850061588
-0.0006327848532324003
-0.0006073406766998047
-0.0005805690142956702
-0.000553352751051095
-0.0005264341607586022
-0.0005004168371357599
-0.00047577397931500027
-0.00045286064416380804
-0.0004319280259227928
-0.0004131382963666018
-0.00039657897494862213
-0.00038227616644627947
-0.00037020629303329087
-0.0003603061614628547
-0.00035248135429123955
-0.0003466130296734425
-0.0003425632700816937
-0.0003401791477302858
-0.00033929568288563507
-0.0003397378678405734
-0.0003413219194882723
-0.0003438559109306804
-0.00034713991996790546
-0.0003509658213006594
-0.0003551168408420652
-0.0003593669852225284
-0.00036348045759755816
-0.0003672111721961368
-0.0003703024844107748
-0.00037248726011166085
-0.00037348841644714754
-0.0003730200754774697
-0.00037078947997329706
-0.0003664998256232392
-0.00035985416355039865
-0.0003505605193826339
-0.00033833835872567816
-0.0005199311178378328
-0.0005852665800682184
-0.0006411611421989387
-0.0006863328079820107
-0.0007200859858387991
-0.0007423077587580462
-0.0007534150800016055
-0.000754264900866049
-0.0007460423528030929
-0.0007301422361331647
-0.0007080568018225741
-0.0006812791223082548
-0.0006512272479614106
-0.0006191906456693856
-0.0005862975966050368
-0.0005535004500563023
-0.000521574806139851
-0.0004911286148646407
-0.0004626175753083808
-0.000436363864034295
-0.00041257593956498233
-0.000391367845188255
-0.0003727770047920803
-0.0003567799543819847
-0.00034330577885208474
-0.00033224724597786214
-0.00032346976886608435
-0.00031681840550201387
-0.00031212313816130453
-0.00030920268125741307
-0.0003078670549876792
-0.0003079191420535272
-0.00030915542133525854
-0.0003113660493332393
-0.00031433443968480537
-0.0003178364744101294
-0.0003216394683786452
-0.00032550100107017754
-0.000329167727032632
-0.00033237427834554266
-0.00033484237855844687
-0.0003362802974380512
-0.0003363827885583901
-0.00033483166594743853
-0.00033129718968658364
-0.00032544044090800084
-0.0003169168708709834
-0.00030538120342326475
-0.00029049385244715384
-0.0005856025450449963
-0.0006547433573070513
-0.0007126735029190307
-0.0007579298955542662
-0.0007897994428873803
-0.0008083021461691318
-0.0008141083566899909
-0.0008084090409193048
-0.0007927615957696193
-0.0007689328255098349
-0.0007387563508821381
-0.0007040156690576197
-0.0006663579311395061
-0.0006272383947184974
-0.0005878919946956412
-0.000549326598525887
-0.0005123319868691305
-0.00047749900512787007
-0.0004452442496823972
-0.00041583675462554407
-0.00038942421053519017
-0.00036605715667967654
-0.00034571029731103164
-0.00032830060407856246
-0.0003137022075618027
-0.0003017582879387224
-0.00029229028392512013
-0.0002851047813548103
-0.0002799984425309772
-0.00027676131275407995
-0.00027517880374334364
-0.00027503261327237183
-0.0002761008013620666
-0.00027815720876683825
-0.00028097037476709774
-0.0002843020890588941
-0.000287905696914054
-0.0002915242676141856
-0.00029488873317658724
-0.00029771610729965696
-0.00029970790293209863
-0.0003005488804579178
-0.00029990627641327157
-0.0002974296835460983
-0.0002927517746400335
-0.00028549008147274457
-0.000275250052083998
-0.00026162960904458493
-0.0002442254137976878
-0.000655139071633672
-0.0007288525223622206
-0.0007891476940671662
-0.0008343574416475796
-0.0008637834686219484
-0.0008776562750455203
-0.0008770062503637736
-0.0008634757692126114
-0.0008391060933097532
-0.0008061296619103551
-0.0007667903717617124
-0.0007232046592075389
-0.000677267113690091
-0.0006305975081605964
-0.0005845220316926377
-0.0005400798884970723
-0.0004980466217675609
-0.0004589667852926342
-0.00042319029201509477
-0.00039090848322993147
-0.0003621874425576545
-0.00033699722973794385
-0.00031523652881792607
-0.00029675274012985926
-0.0002813578594362178
-0.00026884064354600924
-0.00025897561262527066
-0.00025152942609275083
-0.00024626512054356977
-0.00024294463413704597
-0.00024132997464204088
-0.00024118332505461935
-0.00024226632516428231
-0.0002443387212615906
-0.000247156539691833
-0.0002504699128304186
-0.0002540206676648008
-0.0002575397768503872
-0.00026074476930292717
-0.00026333720170620967
-0.0002650003035177505
-0.0002653969259520002
-0.0002641679495873975
-0.00026093133460524526
-0.00025528202994074337
-0.00024679298876403855
-0.00023501756162334214
-0.0002194935474729605
-0.00019974916842288928
-0.0007293032382509699
-0.0008084862400428317
-0.0008714718130269986
-0.0009163676670713699
-0.0009425464565312718
-0.0009505656669796594
-0.0009419670705560768
-0.0009190034944949418
-0.0008843438540936358
-0.0008407995044993196
-0.0007911006712822532
-0.0007377361126736758
-0.0006828560557949739
-0.0006282297081537211
-0.0005752444165924222
-0.0005249328943355999
-0.00047801654289127897
-0.0004349555439851049
-0.00039599920960178185
-0.00036123254879174465
-0.00033061692849047086
-0.00030402405430209533
-0.0002812633570078351
-0.0002621033567455945
-0.0002462878019507406
-0.00023354743749988763
-0.00022360821573435153
-0.00021619667327904806
-0.00021104308678518424
-0.00020788291039225415
-0.00020645689682234798
-0.0002065102171693329
-0.00020779082297264426
-0.00021004723764456515
-0.00021302592148552714
-0.0002164683238319188
-0.000220107715850874
-0.00022366588688861253
-0.00022684978521337988
-0.00022934819001403997
-0.00023082851558906686
-0.0002309338710754054
-0.00022928053012744032
-0.0002254560043895796
-0.00021901796064859383
-0.00020949426985746727
-0.00019638451894841633
-0.00017916334206856052
-0.00015728592297829455
-0.0008090569839168948
-0.0008947604724539055
-0.0009607317961653362
-0.001004839598818216
-0.0010266227973165466
-0.0010271415415016513
-0.0010086646503871546
-0.0009742706493636897
-0.0009274394678872879
-0.0008716947152630308
-0.0008103313401581378
-0.0007462390267057693
-0.0006818133953538964
-0.0006189367907618394
-0.0005590072278683178
-0.0005029956832697164
-0.0004515159914135719
-0.000404896308308107
-0.000363245342732891
-0.00032650985020597203
-0.0002945221710576075
-0.00026703801428900036
-0.0002437654584221084
-0.00022438646781609752
-0.00020857227677905169
-0.00019599389643411725
-0.00018632883180855642
-0.00017926490865701958
-0.00017450192882804885
-0.00017175171304951824
-0.00017073695578116374
-0.00017118920842825597
-0.00017284622254408466
-0.00017544882057437747
-0.00017873741501391212
-0.00018244826465923548
-0.00018630953654892764
-0.0001900372323582651
-0.00019333103726187038
-0.0001958701570919496
-0.00019730922625569615
-0.00019727439533469109
-0.00019535974507784055
-0.0001911242239352462
-0.00018408936914946286
-0.00017373814303334179
-0.00015951528715906285
-0.00014082965171830983
-0.00011705897357537978
-0.0008956268380376515
-0.000989083686675202
-0.0010582608022791018
-0.001100791432671006
-0.0011165407311049787
-0.0011073379909101889
-0.0010764874312274028
-0.0010281834025784751
-0.0009669465956575877
-0.0008971627813918386
-0.000822762241998769
-0.0007470406745247966
-0.0006725982405138122
-0.0006013631990924738
-0.0005346667650146001
-0.000473341876309042
-0.00041782654999355183
-0.00036825998843929625
-0.0003245654502624278
-0.000286517905514387
-0.00025379691369190223
-0.00022602641035070203
-0.00020280356438333834
-0.00018371888917748363
-0.00016836957719088084
-0.00015636771847522823
-0.0001473447397840359
-0.0001409531033347497
-0.000136866050296342
-0.0001347759673627465
-0.00013439179224479167
-0.00013543574961322018
-0.0001376396163488506
-0.0001407406477495609
-0.0001444772493622605
-0.00014858444813131352
-0.00015278919833683173
-0.00015680554998265435
-0.00016032970838859503
-0.00016303502316629415
-0.0001645669630407163
-0.00016453816197125812
-0.00016252366492814675
-0.00015805656246776004
-0.00015062428497836927
-0.0001396659291473465
-0.00012457110162674215
-0.00010468086693782297
-7.929144487763343e-05
-0.0009905957956842099
-0.0010932509969494835
-0.0011657005354837211
-0.001205383796704266
-0.0012127599031831419
-0.0011908341915031753
-0.00114438797283922
-0.0010791189935603724
-0.0010008680835665363
-0.0009150382391295124
-0.0008262389118049546
-0.0007381332989278888
-0.0006534377619445897
-0.0005740165196613836
-0.0005010228481839978
-0.0004350517420338865
-0.0003762826267790784
-0.0003246014973127254
-0.00027969914521408165
-0.00024114640240882092
-0.0002084494033518904
-0.0001810885551444398
-0.00015854481717722784
-0.00014031643818003363
-0.0001259287239079353
-0.00011493884413822913
-0.00010693719295444895
-0.00010154641055691062
-9.84188562419908e-05
-9.723307973564035e-05
-9.768965802623222e-05
-9.950663398080976e-05
-0.00010241469995667628
-0.00010615220516477578
-0.00011046002263377652
-0.00011507628498463873
-0.00011973098400691086
-0.00012414042450994978
-0.0001280015263408884
-0.00013098597905863985
-0.00013273427211830773
-0.0001328496521058875
-0.00013089210273876072
-0.00012637251084732237
-0.00011874728126596082
-0.00010741380102899031
-9.170732321095443e-05
-7.090001841400517e-05
-4.420307798790393e-05
-0.0010960352490434686
-0.0012095746047892765
-0.001285075234088955
-0.0013199014295964071
-0.0013155556758988147
-0.0012768449693360256
-0.0012106597768186287
-0.0011247101425226383
-0.0010264792369778972
-0.0009225211625115848
-0.0008181086060795376
-0.0007171602647556937
-0.000622351097592357
-0.0005353158944462345
-0.0004568800870889968
-0.0003872773708425935
-0.00032633442356869006
-0.00027361685804705893
-0.00022853836422738558
-0.00019043855122270617
-0.00015863596235451624
-0.00013246234856612027
-0.00011128333079065463
-9.450949900087838e-05
-8.160099753482496e-05
-7.206781433728628e-05
-6.54673388135003e-05
-6.140026080289455e-05
-5.950552288306113e-05
-5.9454780434824855e-05
-6.094664303167227e-05
-6.370084617895143e-05
-6.745241850266911e-05
-7.194585460672427e-05
-7.692926970868756e-05
-8.21484930325616e-05
-8.734104876110052e-05
-9.222997332666502e-05
-9.65174239990034e-05
-9.987804497631203e-05
-0.00010195207364251634
-0.00010233819387056933
-0.00010058618194811603
-9.618945637940995e-05
-8.857775345840965e-05
-7.711032460402945e-05
-6.107029608182213e-05
-3.966112479642306e-05
-1.200635781686138e-05
-0.0012146984312552886
-0.001341066405130615
-0.0014188755741344995
-0.0014456882537707445
-0.0014248100354378474
-0.001363817526868442
-0.001272609366294689
-0.0011615550853852374
-0.0010401153166428672
-0.0009160552261546328
-0.0007951814162898052
-0.0006814412603665025
-0.0005772164754406443
-0.0004836810784720235
-0.0004011435450335357
-0.000329334681044658
-0.00026763037458281684
-0.0002152134160942731
-0.00017118486019201355
-0.0001346366516287987
-0.00010469607407101542
-8.05505612738993e-05
-6.14593349097664e-05
-4.675654051319606e-05
-3.5849137073704074e-05
-2.8211737665149658e-05
-2.3379837208931976e-05
-2.0942331040760265e-05
-2.0533863987330127e-05
-2.1827305789701157e-05
-2.4526488461575416e-05
-2.8359238128248393e-05
-3.30706695016135e-05
-3.841667271871352e-05
-4.415750134445853e-05
-5.005136139471164e-05
-5.5847900686417304e-05
-6.128150320551008e-05
-6.606430255606983e-05
-6.98788401978824e-05
-7.237030696711534e-05
-7.313832132155654e-05
-7.17282212553249e-05
-6.762189526027251e-05
-6.022828101499497e-05
-4.8873859468539366e-05
-3.27938023326306e-05
-1.1124890594946257e-05
1.7098169775197486e-05
-0.0013503107408674954
-0.0014916956909252748
-0.0015701403494523623
-0.0015839858717629418
-0.001539638618267428
-0.001448948687635808
-0.0013260822465316416
-0.0011848425746189962
-0.001036938116206706
-0.0008912347952797798
-0.0007537496748687791
-0.000628066085171397
-0.0005159038656080872
-0.00041767669350770083
-0.00033295672626701834
-0.0002608253030692636
-0.0002001189175144327
-0.00014959120067764174
-0.00010801291982244715
-7.422885908348357e-05
-4.718611554712423e-05
-2.5944287159125872e-05
-9.674755622647233e-06
2.3461687978778775e-06
1.0747196176895228e-05
1.6073229409880978e-05
1.879666810465641e-05
1.932825446133383e-05
1.8027188909600957e-05
1.5210438249617896e-05
1.116127517685958e-05
6.137154314489815e-06
3.7706511185620073e-07
-5.891481816552857e-06
-1.244567378809805e-05
-1.9060662272935708e-05
-2.5502725662899725e-05
-3.1522189125618785e-05
-3.684597503047886e-05
-4.1169669923284136e-05
-4.4149002783450825e-05
-4.539063138985812e-05
-4.444213092535433e-05
-4.078108708178638e-05
-3.3803256123520614e-05
-2.280994030176911e-05
-6.995130530696586e-06
1.4566352827004303e-05
4.292759992390385e-05
-0.0015080169133839397
-0.001666753933674557
-0.0017425000372733633
-0.001735575338492468
-0.0016577303781567729
-0.001527424094183166
-0.0013647974572465072
-0.0011879004368223573
-0.0010107259862492605
-0.000842798568789585
-0.0006897191323443867
-0.0005540977205527647
-0.00043649928769047075
-0.000336225355382661
-0.00025188660770569956
-0.00018178746748250484
-0.0001241657438780326
-7.733038184984799e-05
-3.9732127901119605e-05
-9.992418959595649e-06
1.309230510512403e-05
3.0559736297435663e-05
4.329737724344685e-05
5.206066247977724e-05
5.7491212728010346e-05
6.013402346879623e-05
6.045305704763162e-05
5.884509529084647e-05
5.5651924551267454e-05
5.117103621847963e-05
4.566507639050879e-05
3.937029531226287e-05
3.25042463502033e-05
2.527297490364719e-05
1.7877924654118374e-05
1.0522774121243458e-05
3.420401229848463e-06
-3.1998425308113476e-06
-9.084383329220277e-06
-1.3947051259762325e-05
-1.745993848035164e-05
-1.9243336226588623e-05
-1.8854561467987127e-05
-1.577542470612356e-05
-9.398049692421057e-06
9.91155904656038e-07
1.6229175920159933e-05
3.7294586114903355e-05
6.532368477686276e-05
-0.001695090294731783
-0.001873366812209695
-0.0019400874661700106
-0.0019000201596862873
-0.0017741859916543521
-0.0015912423903949638
-0.001379463491530248
-0.0011617278309319808
-0.0009537882584450222
-0.0007648104619543941
-0.000598929634065705
-0.0004569337618012521
-0.0003376452797340407
-0.0002388970168352112
-0.00015815288916016867
-9.286812174276872e-05
-4.067714749049489e-05
5.242930203588556e-07
3.255779218031777e-05
5.69731689001097e-05
7.507454067965215e-05
8.795184527375308e-05
9.651259351038492e-05
0.00010151129938196137
0.00010357554854238324
0.00010322848901684646
0.00010090794582729486
9.698254984841833e-05
9.176533510771388e-05
8.552525886872456e-05
7.849706983561154e-05
7.088991073781956e-05
6.289500229634572e-05
5.4692720694958855e-05
4.6459351583105074e-05
3.837377980895999e-05
3.0624353843641816e-05
2.3416145032597105e-05
1.6978802740832966e-05
1.1575187944321344e-05
7.5109564152391756e-06
5.145274898130103e-06
4.902917692280878e-06
7.288135620515945e-06
1.2900904731702467e-05
2.2456324799642602e-05
3.6807733100874956e-05
5.697304760636859e-05
8.416158294347054e-05
-0.0019220933299903611
-0.0021211880094349402
-0.002167074162898696
-0.0020741008926799132
-0.0018794961424802767
-0.0016274681387108635
-0.0013567299251196862
-0.0010946875995914013
-0.0008572017594813866
-0.0006511843306475718
-0.0004777625102989978
-0.0003348720456639548
-0.00021900878569199402
-0.00012626662707286443
-5.288530245800392e-05
4.50166982586043e-06
4.878699246714481e-05
8.239578186672097e-05
0.0001073307897997422
0.00012523111091410945
0.0001374314848786363
0.0001450163543548445
0.00014886658736810564
0.00014969864851517925
0.00014809685698961936
0.00014453968628685109
0.00013942111057293084
0.00013306793194880345
0.00012575390748272887
0.00011771137294530089
0.00010914094916502498
0.00010021982361476181
9.110902563013064e-05
8.196005731301963e-05
7.2921201160309e-05
6.414379649850518e-05
5.5788755981582214e-05
4.8033576214722914e-05
4.10800783703022e-05
3.516309248344403e-05
3.056027621994688e-05
2.760325404068363e-05
2.6690323617073464e-05
2.8301186545530432e-05
3.301460450159943e-05
4.1530516309999654e-05
5.469856984677626e-05
7.355428165170541e-05
9.936093881599689e-05
-0.0022048499979842326
-0.002423237573745677
-0.0024262224431600603
-0.002248612105503568
-0.001956106470739397
-0.001615844348177826
-0.0012782667205626513
-0.000972763702999876
-0.0007117052887330132
-0.0004967577028660126
-0.0003241246382270066
-0.00018789669042692104
-8.185521658435574e-05
-3.0531503062898883e-07
6.16264888993899e-05
0.00010795856674178307
0.00014193459484844397
0.00016614156732995414
0.00018262964356507289
0.00019301915576047787
0.0001985903976355818
0.0002003564553989608
0.00019912115522336196
0.00019552467442110043
0.00019007925167318761
0.00018319710414294987
0.00017521228738041298
0.00016639789023439964
0.00015697966678161583
0.0001471469743003712
0.00013706170554363475
0.0001268657672446813
0.00011668755706081835
0.00010664782102491263
9.68652269888251e-05
8.746196107650532e-05
7.856963836947763e-05
7.033580966803871e-05
6.293133551385152e-05
5.65588779796386e-05
5.146272390971207e-05
4.794010866439498e-05
4.635420722915243e-05
4.714913897293019e-05
5.086794895374849e-05
5.817583013765018e-05
6.989260854525087e-05
8.703926830062186e-05
0.00011090013300129459
-0.0025678770602615957
-0.002796529055022052
-0.002714891238188092
-0.002401893160021793
-0.0019728990822556764
-0.0015261474377738856
-0.0011208311024520114
-0.0007811590363599797
-0.0005097201347512668
-0.00029910054872030406
-0.00013882756628836484
-1.862702834114151e-05
7.03493627992597e-05
0.00013526749462547746
0.00018174848466080478
0.00021412879311916285
0.00023572692105916396
0.00024907493248953606
0.0002561053118514296
0.0002582962996199316
0.00025678274047756175
0.00025243978567265034
0.00024594582647209044
0.00023782978106809839
0.00022850669034731475
0.0002183046136636788
0.00020748506303130704
0.00019625864465060237
0.0001847971538878803
0.00017324306008240434
0.00016171709335072518
0.00015032448574448833
0.00013916030799339917
0.00012831426920625368
0.00011787530199411887
0.00010793623316187467
9.8598834736471e-05
8.997955518528535e-05
8.221623695900925e-05
7.547611977505933e-05
6.996538961441014e-05
6.594044278536437e-05
6.372090566910543e-05
6.370441383779513e-05
6.638363445126208e-05
7.236784749027267e-05
8.241530433339764e-05
9.748730551905477e-05
0.00011883486169587953
-0.0030507231130628984
-0.003260807492727731
-0.0030145290078517012
-0.0024871333821276614
-0.001877537707792519
-0.0013171229850443152
-0.0008592718857519288
-0.0005084132169656521
-0.0002489011477621642
-6.105597521608537e-05
7.279928994260185e-05
0.00016675389267064683
0.00023146192345787234
0.00027478421809795715
0.0003024604538303576
0.00031866964941404483
0.00032645893498127096
0.00032805879914694566
0.0003251106146800295
0.000318829598683987
0.00031012134508681547
0.00029966532165466575
0.0002879749435307248
0.00027544103054648415
0.00026236344470086884
0.00024897428692077436
0.00023545504129173205
0.000221949364332924
0.00020857273605134376
0.00019541985505694848
0.00018257042822737712
0.00017009384642703747
0.00015805313144344295
0.00014650847215987028
0.0001355206312157759
0.00012515449120434514
0.00011548301753937056
0.00010659193892203003
9.858547818346677e-05
9.15934907783425e-05
8.578035526452671e-05
8.135585789773893e-05
7.858805512154197e-05
7.781767400759712e-05
7.947334504810125e-05
8.408826915923956e-05
9.232478088090981e-05
0.00010502562468482288
0.00012332254623188127
-0.0037182785649772006
-0.0038290564743630627
-0.0032633812985673506
-0.0024098196158421413
-0.0015902146274500034
-0.0009424083955204298
-0.00047586255066055325
-0.00015394328586779702
6.29288951260029e-05
0.0002064616441213691
0.00029951360555008886
0.00035792930683037615
0.00039253639170526357
0.00041072005105098505
0.0004175374836255847
0.0004164754903328941
0.0004099576447549075
0.0003996828500597068
0.00038685209592432537
0.00037232134096428426
0.0003567054404712074
0.0003404494317085418
0.00032387788051221455
0.0003072293542621847
0.0002906807212656407
0.00027436443150766036
0.00025838091742576806
0.00024280757996173255
0.00022770537589863853
0.00021312372132424075
0.00019910422406059676
0.00018568362358514952
0.00017289623018765937
0.00016077610321276435
0.00014935918367226485
0.00013868559522362163
0.00012880234773061244
0.00011976671844413783
0.00011165064473728573
0.00010454652988826571
9.857491213466352e-05
9.3894409362286e-05
9.07140829956403e-05
8.930761541726603e-05
9.002724775085402e-05
9.331399301727022e-05
9.970454565042322e-05
0.00010985640170444941
0.00012465424123034308
-0.0046812203753027245
-0.004462653151075488
-0.0032910505869611162
-0.001997936555274137
-0.0010154523912330898
-0.0003750398434465589
2.21815356487849e-05
0.0002618685903892919
0.00040295294036992954
0.00048258069881739287
0.0005237452972218608
0.0005406825153435849
0.0005422902434457668
0.0005341979723542808
0.0005200122841404573
0.0005020707224621949
0.0004819036419723042
0.00046052117690956857
0.0004385941820208828
0.0004165699600155513
0.00039474728067458555
0.0003733256161197111
0.0003524378169198223
0.0003321720144275186
0.00031258642929279327
0.00029371945877082906
0.0002755965926219744
0.00025823518303121507
0.0002416477561790649
0.00022584433377192872
0.00021083409010750134
0.00019662657822193397
0.00018323270143301776
0.00017066557469488236
0.0001589414085442619
0.00014808055522303604
0.00013810888259844015
0.00012905968968779206
0.00012097645194514284
0.00011391678695470142
0.00010795815244766041
0.00010320588249711042
9.98040866397789e-05
9.794928240545661e-05
9.790448977956695e-05
0.00010000641229391052
0.00010465106102504687
0.00011225720742111256
0.00012329512704553625
-0.006067003132085559
-0.00490924613607561
-0.0026765084470397904
-0.001022004691242901
-0.00012074114669087836
0.00034798416506761536
0.0005813929801230574
0.0006900623372744635
0.0007317755102819287
0.0007372263797071534
0.0007230142890118523
0.0006983211304120076
0.0006683180363427864
0.0006359537461308086
0.000602917542881902
0.0005701718178552822
0.0005382537174356129
0.000507449633614243
0.00047789794750059894
0.000449650399828663
0.0004227091404189246
0.0003970492408481314
0.0003726323956574299
0.00034941522140784047
0.0003273542152326652
0.0003064086363480543
0.00028654209369578104
0.00026772332987870864
0.0002499265107554485
0.00023313121766408307
0.00021732226933572282
0.00020248945773149868
0.00018862725723074215
0.00017573455477147386
0.0001638144474345113
0.00015287416354454152
0.00014292518581121919
0.00013398369509047027
0.00012607151892357095
0.0001192178714490219
0.00011346232300303398
0.00010885963961319682
0.00010548732572264637
0.00010345660551578859
0.00010292616221059189
0.00010411201050508981
0.00010726802409819977
0.00011257367682866726
0.00011993272306229721
-0.007948949729227557
-0.00400781288850008
-0.0007484566837095735
0.00048418147664316437
0.0009433921578315923
0.0010825297530381614
0.0010949051329397223
0.0010563695447673286
0.0009988194668532247
0.000935932845403397
0.0008736279603330161
0.0008143565834360582
0.0007589882334984989
0.0007076683945207915
0.0006602223862116042
0.0006163486480430006
0.0005757112997269679
0.0005379833719678735
0.000502865569530859
0.00047009290075949615
0.00043943540461209964
0.0004106961540135327
0.00038370815627314283
0.0003583309642297911
0.00033444739025596543
0.0003119604950345828
0.0002907909091770886
0.0002708744884764138
0.00025216027638565
0.00023460873594965438
0.0002181902102253025
0.00020288357112271428
0.00018867501951155656
0.00017555700349647374
0.00016352722695186887
0.0001525877274883205
0.0001427440137916295
0.00013400427012953166
0.0001263786669022625
0.00011987887125361821
0.00011451794937114568
0.00011031102062326707
0.0001072772944143742
0.00010544446479447515
0.00010485644668201122
0.00010558278709973598
0.00010771239710723537
0.00011123901468793052
0.00011553546565180872
-0.006928102535167353
0.0005359585587297383
0.0017790857799995455
0.001931979554614962
0.0017858385430880607
0.001601318061118225
0.0014299208369568904
0.0012818988759595402
0.001155909983696145
0.0010484703990051916
0.0009561202242145044
0.000875956469642979
0.0008056613639143078
0.000743414472492202
0.0006877900709794023
0.000637668530091031
0.0005921661540799297
0.0005505814294537777
0.000512354304294428
0.00047703538612907815
0.00044426256559856664
0.0004137431740558815
0.00038524027044033095
0.0003585620225293497
0.00033355342033795834
0.00031008975809387537
0.00028807146536810515
0.00026741997252052556
0.00024807437157027285
0.00022998868876581476
0.00021312962505857722
0.00019747464926282883
0.00018301034859125563
0.0001697309542831038
0.00015763696732172018
0.00014673381139804556
0.0001370304375685888
0.00012853779751269626
0.00012126709001259242
0.00011522766906394213
0.00011042448484601189
0.00010685491898072656
0.00010450489273711519
0.0001033442065598595
0.00010332121081962214
0.00010435659849741472
0.00010633044908581538
0.00010901416178054832
0.00011154550042743669

SCALARS STRAIN_YY float 1
LOOKUP_TABLE default
-0.0005826526154950606
-0.023515150180775043
-0.00033271603574965003
0.0006203867302518873
-0.0005825237676777839
-0.0005821372384083867
-0.0005814930703390286
-0.0005805913349037073
-0.0005794321328377872
-0.0005780155949058341
-0.0005763418828363953
-0.0005744111904623928
-0.000572223745067213
-0.0005697798089348283
-0.0005670796811002299
-0.0005641236993004228
-0.0005609122421210144
-0.0005574457313334558
-0.0005537246344194946
-0.0005497494672760672
-0.0005455207970917197
-0.0005410392453841784
-0.0005363054911907139
-0.0005313202743956469
-0.0005260843991777564
-0.0005205987375608012
-0.0005148642330447539
-0.0005088819042911585
-0.0005026528488335791
-0.0004961782467814146
-0.0004894593644763634
-0.000482497558060041
-0.00047529427690279347
-0.0004678510668380542
-0.0004601695731423494
-0.00045225154318953575
-0.0004440988287038039
-0.00043571338752475264
-0.0004270972847886245
-0.0004182526934225911
-0.0004091818938341124
-0.00039988727266650204
-0.000390371320480698
-0.0003806366282056439
-0.0003706858821861947
-0.00036052185764084976
-0.00035014741031857977
-0.00033956546612691485
-0.000328779008478261
-0.00031779106307090743
-0.00030660467979599926
-0.00029522291142240753
-0.000283648788670654
-0.0002718852912410169
-0.00025993531430199
-0.0002478016298803898
-0.00023548684251195606
-0.00022299333841566127
-0.00021032322733902098
-0.00019747827607609347
-0.00018445983248369102
-0.0001712687386066225
-0.00015790523125334965
-0.0001443688280261951
-0.0001306581963915754
-0.00011677100285005515
-0.00010270373859894155
-8.84515172345085e-05
-7.400783896856222e-05
-5.936431445466295e-05
-4.4510339547249034e-05
-2.9432710026935927e-05
-1.4115162337888232e-05
1.4621775240170054e-06
1.7323459989129764e-05
3.349792262691276e-05
5.002088464127474e-05
6.693497660206771e-05
8.429167379145341e-05
0.0001021532248795115
0.00012059510017435604
0.00013970912959691828
0.00015960756616162364
0.00018042840592992493
0.00020234243561098597
0.00022556268902263615
0.00025035731409922546
0.0002770673512492647
0.00030613171750154544
0.0003381229894276125
0.0003737997294777917
0.0004141849359029087
0.0004606863473166217
0.0005152893584267002
0.0005808616601507416
0.0006617366754115769
0.0007643758701398329
0.0009005894732973668
0.0010813445712378744
0.0013688601955457562
0.001534990560476946
0.002632991596360157
-0.009882515794769632
-0.0208412133058058
-0.01518399123917542
-0.010692683907321896
-0.008226844109789432
-0.006635822184328108
-0.005551258290367591
-0.004762686956586146
-0.00416347206674042
-0.003691559913124094
-0.0033091735638656056
-0.0029919560597649816
-0.0027235603184929055
-0.002492630145352656
-0.0022910521520692617
-0.0021128916197065625
-0.001953720754961863
-0.0018101804553199222
-0.001679686312027459
-0.0015602264753672226
-0.0014502196493507424
-0.0013484134026059413
-0.0012538100968351382
-0.0011656120999765165
-0.0010831806987194673
-0.0010060048934102464
-0.0009336774197609282
-0.0008658761183002184
-0.0008023492998763607
-0.0007429041183140486
-0.0006873972131561726
-0.0006357270607275992
-0.0005878275927765006
-0.0005436627228984359
-0.0005032214705103302
-0.00046651339485517807
-0.0004335640483693545
-0.000404410127081839
-0.00037909392843452766
-0.0003576566105633616
-0.00034012955840687087
-0.00032652286183640356
-0.0003168094339918298
-0.00031090253736051204
-0.0003086232768108807
-0.00030965277082811715
-0.00031346129826263086
-0.00031920545791722793
-0.00032559492722537137
-0.0003307366288863717
-0.00033346209851994185
-0.00033552862143232387
-0.00033809027213205223
-0.0003402528602760649
-0.00034162517768562134
-0.00034195988849885367
-0.0003411017289342358
-0.00033896102514071463
-0.00033549576463004493
-0.0003306988390522417
-0.00032458889273602465
-0.00031720366533852934
-0.00030859504908769403
-0.0002988253352492684
-0.0002879642990411546
-0.00027608688905076534
-0.00026327136417703123
-0.00024959777177915865
-0.0002351466940941488
-0.0002199982120204419
-0.00020423104990656415
-0.0001879218745619582
-0.00017114472800572322
-0.00015397057758281818
-0.00013646696977105688
-0.00011869777578688012
-0.0001007230183031338
-8.259876945679312e-05
-6.437711099926968e-05
-4.6106148019628423e-05
-2.7830068215412007e-05
-9.589239227308921e-06
8.579662893082318e-06
2.6643500441833612e-05
4.457250182147987e-05
6.234007548418241e-05
7.992261465597505e-05
9.729929686150274e-05
0.00011445188171445297
0.00013136450991400872
0.00014802350589350477
0.00016441718611376333
0.0001805356745837039
0.0001963707268202025
0.0002119155631298275
0.00022716471181261078
0.00024211386264318124
0.0002567597307718966
0.0002710999310194112
0.0002851328623955235
0.00029885760255701777
0.0003122738118335189
0.00032538164638137856
0.0003381816799806203
0.00035067483395699595
0.0003628623146922777
0.0003747455581832454
0.000386326181109245
0.00039760593788039367
0.00040858668315518765
0.0004192703393338104
0.00042965886855987623
0.0004397542487901973
0.0004495584535156999
0.0004590734347466874
0.0004683011089046951
0.0004772433452890912
0.0004859019568144163
0.0004942786927399911
0.0005023752331381748
0.0005101931848716101
0.0005177340788713181
0.0005249993685296217
0.0005319904290396749
0.0005387085575294381
0.0005451549738587635
0.0005513308219607937
0.0005572371716216495
0.0005628750206062294
0.0005682452970490748
0.0005733488620382476
0.0005781865123314356
0.0005827589831511604
0.00058706695100888
0.0005911110365223737
0.000594891807191078
0.0005984097800968147
0.0006016654245092068
0.0006046591643736055
0.0006073913806634301
0.0006098624135822683
0.0006120725646049097
0.0006140220983459899
0.0006157112442486956
0.0006171401980876456
0.0006183091232795923
0.0006192181519986684
0.000619867386092765
0.0006202568977982936
0.000603101591099886
0.0005691582742796686
0.0005364425924862526
0.0005049018542328809
0.00047448314564774163
0.0004451333489110254
0.00041679916208581247
0.00038942712000583635
0.00036296361590257287
0.00033735492346456675
0.00031254721904966365
0.00028848660378608115
0.0002651191253160434
0.00024239079895868598
0.00022024762808353637
0.00019863562350819208
0.00017750082174888826
0.00015678930196968976
0.000136447201496942
0.00011642072977416373
9.665618065476944e-05
7.709994294205491e-05
5.769850909786989e-05
3.839848206077523e-05
1.9146580123891033e-05
-1.1036016395182813e-07
-1.9425383093629733e-05
-3.885141489384791e-05
-5.844126683285378e-05
-7.824764029970566e-05
-9.832313382823754e-05
-0.00011872025202216974
-0.0001394914163160288
-0.00016068897749024758
-0.0001823652298485745
-0.00020457242694379985
-0.00022736279872476173
-0.0002507885699577772
-0.0002749019797583796
-0.0002997553020521182
-0.0003254008667605002
-0.0003518910814964138
-0.0003792784535318616
-0.000407615611780765
-0.0004369553285255845
-0.0004673505406011247
-0.0004988543697279912
-0.0005315201416802029
-0.0005654014039555566
-0.0005652752122875804
-0.0005313992283598051
-0.0004987386690932516
-0.0004672399918189407
-0.0004368498762280376
-0.0004075152065838028
-0.0003791830524405848
-0.0003518006482012004
-0.00032531537182992065
-0.0002996747230277902
-0.00027482630115809037
-0.0002507177831934243
-0.00022729690194173147
-0.00020451142478752904
-0.00018230913316590047
-0.00016063780297119468
-0.00013944518608323409
-0.00011867899317392905
-9.828687794040392e-05
-7.821642289326802e-05
-5.8415126812427776e-05
-3.883039396226917e-05
-1.940952514778438e-05
-9.971067629899188e-08
1.9151974733511157e-05
3.83985750572885e-05
5.769325406466963e-05
7.708929441177514e-05
9.664009473164814e-05
0.00011639916474558143
0.00013642011842936175
0.00015675666528458532
0.0001774625997756213
0.00019859178900756558
0.00022019815873820792
0.00024233567782595833
0.0002650583412373564
0.00028842015174754265
0.00031247510048784677
0.00033727714651167473
0.00036288019556449114
0.0003893380782662714
0.00041670452792968993
0.0004450331582604161
0.0004743774412025309
0.0005047906852100326
0.0005363260142507154
0.0005690363478600136
0.0006029743825828049
-0.0005648966509342185
-0.000531036500757906
-0.0004983915778364878
-0.0004669083540540936
-0.00043653352556187464
-0.0004072139946364878
-0.0003788968500579998
-0.00035152934634023747
-0.0003250588821331335
-0.00029943297810391956
-0.0002745992545877679
-0.000250505409278845
-0.00022709919522007072
-0.00020432839932738034
-0.0001821408216667597
-0.0001604842556858499
-0.00013930646958239257
-0.00011855518897142814
-9.8178080996561e-05
-7.812274001499364e-05
-5.8336674965325797e-05
-3.876729851290395e-05
-1.936191804889631e-05
-6.772860866588459e-08
1.9168192245747062e-05
3.839888754571252e-05
5.767752201929488e-05
7.70573811735703e-05
9.659186836218081e-05
0.00011633449986267475
0.00013633889799619103
0.00015665878233989128
0.00017734795909253587
0.00019846030866720044
0.0002200497716032257
0.00024217033290135914
0.0002648760049015625
0.0002882208088366006
0.00031225875521682933
0.000337043823213784
0.0003626299392288368
0.0003890709548544369
0.00041642062445065853
0.00044473258258213855
0.0004740603215788036
0.0005044571695033001
0.0005359762688283559
0.0005686705561453592
0.0006025927432427719
-0.0005642657609446766
-0.0005304319960366816
-0.0004978131279720494
-0.000466355653112524
-0.00043600629525770984
-0.0004067119869125002
-0.00037841984909478543
-0.00035107717002007266
-0.0003246313829848163
-0.00029903004375729514
-0.0002742208077694819
-0.00025015140738175734
-0.00022676962947812407
-0.00020402329362979865
-0.00018186023104453664
-0.00016022826450345917
-0.00013907518946694453
-0.00011834875650990062
-9.799665523205214e-05
-7.796649977104275e-05
-5.82058160245591e-05
-3.866203067869056e-05
-1.9282462113842658e-05
-1.4313252721942504e-08
1.919533360188186e-05
3.839951991220503e-05
5.7651412012763026e-05
7.700430017476556e-05
9.651159563765777e-05
0.00011622682562875686
0.00013620362640566486
0.0001564957343711676
0.00017715697531933694
0.00019824125188783182
0.00021980252930484112
0.00024189481953566794
0.0002645721639452786
0.00028788861460929405
0.0003118982144273835
0.00033665497620459506
0.00036221286088518323
0.00038862575514593545
0.00041594744857041677
0.000444231610647286
0.0004735317678581791
0.0005039012811364901
0.0005353933240005715
0.0005680608616861899
0.0006019566316179809
-0.0005633826110587881
-0.0005295857764136824
-0.0004970033730968548
-0.0004655819322070265
-0.0004352682167041433
-0.0004060092018454975
-0.00037775205419221525
-0.0003504441095271149
-0.00032403285000967563
-0.0002984658808799917
-0.0002736909070073096
-0.0002496557095570673
-0.00022630812303450765
-0.00020359601294385465
-0.00018146725428017096
-0.00015986971105397263
-0.00013875121703102455
-0.00011805955784523203
-9.774245462886022e-05
-7.774754928625838e-05
-5.802239151510291e-05
-3.851442767105473e-05
-1.9170991545358618e-05
6.07028825400091e-08
1.923356667082876e-05
3.840063909416047e-05
5.7615088754542354e-05
7.693021262125677e-05
9.639943301097131e-05
0.00011607629252774476
0.00013601444699766485
0.00015626765644731477
0.000176889774184813
0.00019793473405550766
0.000219456535961296
0.00024150922974414124
0.00026414689754891696
0.00028742363479847266
0.00031139352992771985
0.00033611064304410465
0.00036162898369540564
0.00038800248794892966
0.00041528499500366467
0.0004435302235766686
0.00047279174832877413
0.0005031229766102735
0.0005345771258326026
0.0005672072017917501
0.000601065978286866
-0.0005622472981929999
-0.0005284979295819281
-0.0004959623887491188
-0.0004645872522609229
-0.00043431933420388924
-0.0004051056655460378
-0.0003768934721083417
-0.00034963015149219734
-0.0003232632492947418
-0.0002977404349284313
-0.00027300947734119896
-0.000249018220913777
-0.0002257145617953482
-0.00020304642491505986
-0.00018096174188679537
-0.0001594084300073212
-0.00013833437252658287
-0.00011768740034952263
-9.741527530927885e-05
-7.746567513532143e-05
-5.7786180220398276e-05
-3.832426227826091e-05
-1.9027274958047236e-05
1.5755352315849347e-07
1.9283125685623514e-05
3.840247800700192e-05
5.7568782036693245e-05
7.683534340460763e-05
9.62555987335939e-05
0.00011588311047754096
0.00013577155971898625
0.00015597473697365194
0.00017654653106057017
0.00019754091610857394
0.0002190119367848492
0.00024101369184367782
0.0002636003161084338
0.000286825961016951
0.0003107447738732727
0.00033541087596968
0.0003608783397586329
0.00038720116527433956
0.00041443325602483205
0.0004426283945934001
0.00047184021821257416
0.0005021221945938348
0.000533527598318595
0.0005661094881180412
0.0005999206853906924
-0.0005608599481202459
-0.0005271685692973399
-0.0004946902729100061
-0.00046337169233270914
-0.00043315970533207293
-0.00040400141210555907
-0.00037584411198021694
-0.00034863527912359915
-0.0003223225376063621
-0.0002968536361375035
-0.0002721764227700124
-0.00024823881985790164
-0.00022498879952682904
-0.00020237435989543806
-0.00018034350226560358
-0.00015884420948035494
-0.00013782442562466912
-0.00011723203722852071
-9.701485610867644e-05
-7.712060396858345e-05
-5.749689885993503e-05
-3.8091243589458146e-05
-1.8851016140478127e-05
2.7653783682413113e-07
1.9344310426619438e-05
3.8405334713234596e-05
5.751278589896658e-05
7.671998027292126e-05
9.608037204081321e-05
0.00011564754803863875
0.00013547522036386206
0.00015561721697067432
0.00017612747028497577
0.00019706000391034317
0.00021846891750527953
0.00024040836992793302
0.0002629325607592381
0.000286095710327422
0.0003099520383767901
0.000334555741537651
0.0003599609697745032
0.00038622180200960365
0.0004133922211385227
0.00044152608867460696
0.00047067711928368283
0.000500898855493967
0.0005322446428861899
0.0005647676060937246
0.0005985206259676717
-0.0005592207163429147
-0.0005255978361321106
-0.0004931871466470755
-0.00046193535016106346
-0.00043178940139654287
-0.00040269648398746916
-0.0003746039856625527
-0.0003474594725107888
-0.00032121066267580545
-0.0002958053998039223
-0.00027119162654914986
-0.00024731735841898583
-0.00022413065822311784
-0.00020157961136431368
-0.00017961230218807578
-0.00015817679158755538
-0.00013722109603866994
-0.00011669316821961984
-9.654087934907185e-05
-7.671200335908346e-05
-5.715420300161922e-05
-3.781501796636111e-05
-1.8641855080020475e-05
4.180193659553133e-07
1.941748512379604e-05
3.840957130657463e-05
5.744745750685398e-05
7.658447271612079e-05
9.587409205698283e-05
0.00011536993135059792
0.00013512573955259954
0.0001551953891047314
0.0001756328642534416
0.00019649224740478366
0.00021782770359420056
0.00023969346316139728
0.0002621438027380629
0.0002852330246666396
0.0003090154349874863
0.000333545320146858
0.0003588769225984223
0.00038506441549006343
0.0004121618766492613
0.0004402232621009694
0.00046930237937711783
0.0004994528609023469
0.0005307281377621847
0.0005631814141852098
0.000596865643099978
-0.0005573297891576928
-0.0005237858983929838
-0.0004914531548975837
-0.000460278342828746
-0.0004302085079999213
-0.00040119093250647053
-0.00037317310814539983
-0.0003461027090023022
-0.00031992756355843366
-0.0002945956266474786
-0.00027005495157299275
-0.0002462536626714473
-0.00022313992858352671
-0.0002006619364750828
-0.00017876786742246353
-0.00015740587315565824
-0.00013652405433302317
-0.00011607044049677384
-9.59929718396535e-05
-7.623948289472993e-05
-5.675768824107974e-05
-3.7495170300078096e-05
-1.8399369284827216e-05
5.824246522428966e-07
1.9503077042654082e-05
3.8415612474390626e-05
5.7373215706493785e-05
7.642923052955664e-05
9.563715638429005e-05
0.00011505064276139121
0.00013472348141552182
0.0001547095964391093
0.00017506303224568143
0.0001958379395277654
0.00021708855926538817
0.0002388692048692076
0.0002612342425610953
0.0002842380701058578
0.0003079350940239922
0.0003323797054323313
0.0003576262546793191
0.0003837290249610742
0.0004107422051265741
0.00043871986190129053
0.00046771591178750016
0.0004977840929223515
0.000528977937201483
0.0005613507430028142
0.0005949555488754948
-0.0005551873849112682
-0.0005217329532027637
-0.0004894884673904559
-0.0004584008075437934
-0.00042841712570232393
-0.0003994848183970501
-0.00037155149805361
-0.000344564963661656
-0.00031847317107189244
-0.000293224203256906
-0.0002687662408523278
-0.0002450475332653884
-0.00022201637061523838
-0.0001996210567461465
-0.00017780988352711358
-0.00015653110662859626
-0.00013573292294580264
-0.00011536344981365187
-9.537070613870047e-05
-7.570259555435277e-05
-5.63068916852455e-05
-3.713122559130533e-05
-1.8123075446241366e-05
7.702415083660208e-07
1.9601574707886482e-05
3.8423943692092455e-05
5.7290539210233526e-05
7.625472201115702e-05
9.537001933156153e-05
0.00011469011910734961
0.00013426886194078946
0.00015416023086443909
0.00017441833895241732
0.00019509741483968168
0.00021625178621886842
0.00023793586139483902
0.0002602041089924678
0.0002831110359245437
0.0003067111637430342
0.00033105900351296236
0.00035620902936737975
0.0003822156509232927
0.0004091331847608931
0.0004370158251898876
0.00046591761455737346
0.0004958924133764003
0.00052699387058186
0.0005592753942526285
0.0005927901231690125
-0.0005527937554449663
-0.0005194392277422244
-0.0004872932797044677
-0.00045630290253680095
-0.0004264153707841667
-0.00039757821247125846
-0.0003697391782294529
-0.00034284620980519487
-0.0003168474083205114
-0.0002916910026306979
-0.00026732531809940674
-0.00024369874608176634
-0.00022075971438129116
-0.00019845665892059827
-0.00017673799683728952
-0.0001555521011929184
-0.00013484727745953495
-0.00011457174192233688
-9.467360211895537e-05
-7.510083941425494e-05
-5.580129378811305e-05
-3.672265090223781e-05
-1.7812431491626146e-05
9.820168843932553e-07
1.9713525710868263e-05
3.8435108996121015e-05
5.719996435959995e-05
7.606147173856714e-05
9.507318972946932e-05
0.000114288849589958
0.0001337623469346294
0.00015354773116113551
0.000173699192655849
0.00019427104783577287
0.0002153177220890895
0.00023689373068992714
0.0002590536577736918
0.0002818521334719687
0.0003053438093209987
0.00032958333207584734
0.00035462531607852177
0.0003805243143500392
0.0004073347886032891
0.00043511107839375174
0.00046390736965482016
0.0004937776628957391
0.0005247757413676252
0.0005569551395377681
0.0005903691122463306
-0.0005501491877252518
-0.0005169049806497961
-0.0004848678144595553
-0.0004539848080721831
-0.0004242033761082675
-0.00039547119636532124
-0.00036773617640030454
-0.00034094641962795214
-0.0003150501913151138
-0.00028999588482531147
-0.0002657319884371151
-0.00024220705303182322
-0.0002193696609169432
-0.0001971683960219489
-0.00017555181567728562
-0.00015446842415949014
-0.0001338666481602302
-0.00011369481431217077
-9.390112888370272e-05
-7.443365973337779e-05
-5.524032059352202e-05
-3.626885774016264e-05
-1.7466839087612596e-05
1.218354267959465e-06
1.9839534039431395e-05
3.844970827145133e-05
5.710208240004844e-05
7.585005786134302e-05
9.474722826942339e-05
0.000113847373189091
0.00013320444953560107
0.00015287258063827192
0.0001729060430118584
0.0001933592508863713
0.00021428673855328206
0.000235743140595282
0.00025778317007714435
0.00028046159478538335
0.00030383321162243127
0.0003279528192758896
0.0003528751892990373
0.0003786550357654239
0.0004053469836812901
0.00043300553636575756
0.0004616850420399998
0.0004914396598954679
0.0005223233259473159
0.0005543897190136565
0.0005876922271965401
-0.0005472540056578046
-0.0005141305035754745
-0.00048221232263848113
-0.00045144672756963766
-0.0004217812920789127
-0.00039316386337655274
-0.00036554252593520853
-0.0003388655649227551
-0.00031308142969660446
-0.00028813869772292833
-0.00026398603924837616
-0.0002405721830228552
-0.00021784588334132493
-0.00019575588863693372
-0.00017425091183476127
-0.00015327960264316376
-0.00013279052193086727
-0.00011273211831920593
-9.305270708803715e-05
-7.370045147744864e-05
-5.4623346447110754e-05
-3.576920493769675e-05
-1.7085646664347087e-05
1.4799105452628636e-06
1.9980256855789413e-05
3.846839397952939e-05
5.6997536193703624e-05
7.562110883471695e-05
9.439274429430544e-05
0.00011336627554359158
0.0001325957272154954
0.00015213530428286048
0.00017203937837152738
0.0001923624717496547
0.0002131592390479803
0.00023448444676756053
0.000256392950641518
0.00027893967092766647
0.0003021795657256743
0.00032616760242545895
0.0003509587274109355
0.0003766078341703172
0.0004031697299822501
0.0004306991013792866
0.0004592504786209428
0.0004888781994378255
0.0005196363723507652
0.0005515788399053784
0.0005847591421997977
-0.0005441085720817168
-0.0005111161228847083
-0.0004793270850333431
-0.0004486888888329127
-0.00041914928769669346
-0.00039065631939137757
-0.0003631582666943495
-0.0003366036178992088
-0.00031094102757264763
-0.0002861192779331778
-0.0002620872411862041
-0.00023879384311516205
-0.00021618802819525773
-0.00019421872646234462
-0.00017283482233890202
-0.00015198512558739496
-0.00013161834453143118
-0.00011168306166396691
-9.212771172938117e-05
-7.290056235045861e-05
-5.39496972511988e-05
-3.522300210657969e-05
-1.6668153038024158e-05
1.7673922426963973e-06
2.013640063931732e-05
3.849186724257103e-05
5.688701628704662e-05
7.537529951226474e-05
9.401039195720828e-05
0.00011284618521663348
0.00013193677818817973
0.00015133646534548628
0.0001710997225722738
0.00019128119059097504
0.0002119356560329605
0.00023311803019619715
0.00025488332554275683
0.00027728663000402276
0.00030038307916901985
0.00032422782644700443
0.0003488760113175421
0.00037438272579945475
0.00040080297929526165
0.0004281916620008652
0.0004566035070983493
0.000486093051987449
0.0005167145988510674
0.0005485221748944558
0.0005815694926388504
-0.0005407132909381884
-0.0005078622015066148
-0.0004762124138123075
-0.0004457115453815885
-0.0004163075517060466
-0.0003879486839027252
-0.00036058344597246494
-0.0003341605521098717
-0.00030862888448118797
-0.0002839374518462806
-0.000260035349366014
-0.00023687171989719702
-0.00021439571703793514
-0.00019255647015531396
-0.0001713030515881897
-0.0001505844461874989
-0.0001303495233264812
-0.00011054701148421886
-9.112547547932004e-05
-7.203329641097822e-05
-5.3218654342990224e-05
-3.4629513748732355e-05
-1.6213611721369037e-05
2.081551056729025e-06
2.0308716600525578e-05
3.8520873188799265e-05
5.6771256236390344e-05
7.511334650082968e-05
9.360086565449177e-05
0.0001122877692546348
0.0001312282371391249
0.00015047666127929182
0.00017008763112021097
0.00019011591643609826
0.000210616447735415
0.00023164429424947508
0.00025325463954484206
0.0002755027548106692
0.00029844396987979693
0.0003221336420560078
0.0003466271228437373
0.00037197972269339963
0.0003982466739009538
0.0004254830918356822
0.0004537439346996991
0.00048308396206281357
0.0005135576924596014
0.000545219360384458
0.000578122873064385
-0.0005370686096079907
-0.0005043691409199053
-0.00047286865420084756
-0.00044251497788039273
-0.000413256293832015
-0.00038504109111689444
-0.0003578181195399016
-0.00033153634349022965
-0.0003061448964927771
-0.00028159303685623693
-0.0002578301047640036
-0.0002348054811097816
-0.00021246854834024165
-0.00019076865353134798
-0.00016965507388098933
-0.00014907698477230336
-0.00012898343052705763
-0.00010932329793683637
-9.00452926362455e-05
-7.10979183579652e-05
-5.242945908738583e-05
-3.3987964122392245e-05
-1.5721236023127916e-05
2.4231785674400097e-06
2.049799526011864e-05
3.8556195451566744e-05
5.66510270839371e-05
7.48360026714967e-05
9.316489462932176e-05
0.00011169172793847049
0.0001304707701757224
0.00014955651893627797
0.00016900368667338572
0.0001888671829746169
0.00020920209429715897
0.0002300636611815704
0.0002515072529703649
0.0002735883400625111
0.0002963624637425111
0.00031988520363886164
0.00034421214288359037
0.00036939883106533455
0.00039550074509581146
0.00042257324814108654
0.0004506715468046152
0.00047985064679068046
0.0005101653073248391
0.0005416699946569903
0.0005744188350252644
-0.0005331750214113834
-0.0005006373832681377
-0.0004692961862674955
-0.0004390994956593036
-0.00040999574610274536
-0.00038193369114947195
-0.0003548623527857564
-0.00032873097152112674
-0.00030348895746309945
-0.0002790858427725029
-0.00025547123585009657
-0.0002325947775556475
-0.00021040609971888224
-0.00018885478616223472
-0.00016789033640768336
-0.00014746213220974413
-0.00012751940701941078
-0.00010801121844934702
-8.888642378801492e-05
-7.009365858215433e-05
-5.158131828712775e-05
-3.329754297261289e-05
-1.5190205049003813e-05
2.79310002182509e-06
2.0705060075384973e-05
3.859864970269522e-05
5.6527130864292285e-05
7.45440507074896e-05
9.270323662792512e-05
0.00011105878861167318
0.00012966506888774376
0.0001485766889162965
0.00016784849372691868
0.0001875355436202486
0.0002076930932404658
0.0002283765680227423
0.0002496415380230377
0.000271543689141604
0.00029413879175448077
0.00031748266678549575
0.00034163114926524796
0.00036664004944145234
0.0003925651115402745
0.00041946197030284793
0.0004473861054612449
0.0004763927943693125
0.0005065370630440574
0.0005378736359321484
0.0005704568847795799
-0.0005290330682608257
-0.0004966674135952337
-0.0004654954268078354
-0.0004354654383177531
-0.00040652616425150556
-0.00037862665130801443
-0.0003517162219641712
-0.00032574442052199504
-0.0003006609604532112
-0.0002764156734426648
-0.0002529584604840096
-0.0002302392453312624
-0.00020820793055706388
-0.00018681435642908806
-0.0001660082627679832
-0.00014573925391016262
-0.0001259567668642353
-0.00010661004271260432
-8.764810128362999e-05
-6.901971909167859e-05
-5.0673410524781914e-05
-3.255741224193753e-05
-1.4619670726981338e-05
3.1921670576445793e-06
2.0930759982093483e-05
3.864907608656931e-05
5.6400393008471106e-05
7.423829555608386e-05
9.221667047648596e-05
0.00011038969845784952
0.000128811843396609
0.00014753783895149475
0.00016662267238914952
0.0001861215657260884
0.00020608995415893894
0.00022658346176862576
0.0002476578744853991
0.00026936911030064903
0.0002917731867158879
0.00031492618543260686
0.0003388842142992149
0.0003637033665512407
0.00038943967741458807
0.00041614907816697744
0.0004438873477967398
0.00047271006245028224
0.000502672542902427
0.0005338298003508546
0.0005662364809045223
-0.0005246433434559911
-0.0004924597621908527
-0.00046146683131492727
-0.0004316131774028953
-0.00040284782919258744
-0.00037512015745892746
-0.00034837981554697306
-0.000322576681083403
-0.00029766079933286893
-0.00027358232861070253
-0.0002502914881065549
-0.00022773850842129628
-0.00020587358506148068
-0.00018464683509034074
-0.00016400825708587363
-0.00014390769451044783
-0.00012429480255890524
-0.0001051190185163281
-8.632953562424939e-05
-6.787528042825897e-05
-4.9704893561014485e-05
-3.176671389566732e-05
-1.400876599531864e-05
3.621249224983192e-06
2.1175960706984465e-05
3.87083304093927e-05
5.627165349854357e-05
7.391955563820773e-05
9.170598743567238e-05
0.00010968521608732684
0.00012791181425583775
0.00014644064619596942
0.0001653268511266487
0.0001846258238405174
0.00020439319252675558
0.00022468479377316108
0.000245556644709391
0.0002670649122491764
0.00028926587939399895
0.00031221590856914117
0.00033597140197247355
0.00036058875894083575
0.00038612433036598615
0.0004126343702239854
0.0004401749843262609
0.0004688020764489764
0.0004985712920563268
0.0005295379598966726
0.0005617570318247195
-0.0005200064946113137
-0.0004880150070321748
-0.0004572108960211596
-0.00042754311815011714
-0.0003989610485640033
-0.0003714144154767507
-0.0003448532356865319
-0.0003192277516483599
-0.00029448837058200505
-0.0002705856060358225
-0.00024747002226248316
-0.00022509218170223277
-0.0002034025958132929
-0.00018235167943266017
-0.00016188970879961462
-0.00014196678332717427
-0.00012253279116193616
-0.00010353737853807665
-8.492992289517443e-05
-6.665950970452528e-05
-4.867491292710746e-05
-3.092457900773227e-05
-1.335661430569568e-05
4.081224150534468e-06
2.1441534691857278e-05
3.877727392133379e-05
5.614175660946519e-05
7.358865265455483e-05
9.117198117433722e-05
0.0001089461017782789
0.00012696570305399668
0.00014528578827803507
0.00016396165834325904
0.00018304889187786832
0.00020260332251263724
0.00022268101324136869
0.00024333822780714387
0.0002646313990426613
0.0002866170940923063
0.00030935197644875456
0.0003328927647471974
0.00035729618828199416
0.0003826189392343443
0.0004089176216397761
0.00043624869716195336
0.00046466842779445405
0.000494232815677717
0.0005249975402805973
0.0005570178932824549
-0.0005151232266990546
-0.00048333377630606356
-0.0004527281600013172
-0.00042325570127552115
-0.0003948661583251939
-0.00036750965276897973
-0.00034113659978848854
-0.00031569764025143887
-0.00029114357531001556
-0.000267425303898991
-0.0002444937634921568
-0.00022229987440537669
-0.00020079448787492515
-0.00017992833807915776
-0.00015965199821298126
-0.0001399158406765466
-0.00012067000138983597
-0.00010186434820755319
-8.344845337061868e-05
-6.537156990640836e-05
-4.7582611865673585e-05
-3.003013826530232e-05
-1.2662340606803268e-05
4.572966172469717e-06
2.17283494524656e-05
3.885676151219042e-05
5.6011539060027427e-05
7.324639981082237e-05
9.061543618714418e-05
0.00010817310620199472
0.0001259742215566212
0.00014407393295882975
0.00016252771264528565
0.0001813913340667911
0.000200720848672023
0.0002205725597081154
0.0002410029929409141
0.0002620688641881974
0.0002838270435538137
0.00030633451625153296
0.0003296483399197886
0.00035382559834540306
0.0003789233515360674
0.0004049985821250601
0.0004321081381281344
0.0004603086721351318
0.0004896565770811656
0.0005202079188156572
0.0005520183657811845
-0.0005099943051905531
-0.00047841675099390135
-0.0004480192073167827
-0.00041875140480419903
-0.00039056352440157427
-0.0003634061198723171
-0.00033723004219567143
-0.00031198636642494615
-0.00028762632151199674
-0.0002641012235274909
-0.0002413624126337277
-0.00021936119409221577
-0.00019804878351871447
-0.00017737625653510558
-0.0001572945029031242
-0.00013775418517032734
-0.00011870570180817774
-0.00010009915478009779
-8.1884321437381e-05
-6.401063061632628e-05
-4.642714278509097e-05
-2.9082534069899135e-05
-1.1925083992669894e-05
5.0973332560017015e-06
2.2037254179707588e-05
3.8947628127852796e-05
5.588181637827816e-05
7.289358826818859e-05
9.003711446574358e-05
0.00010736695744614777
0.00012493805920717194
0.00014280572622650534
0.00016102561163175433
0.0001796536945256333
0.00019874625637870957
0.00021835985437848593
0.0002385512916026622
0.0002593775838711232
0.000280895923119015
0.00030316363713130123
0.00032623814549154195
0.0003501769116051462
0.00037503739068688036
0.0004008769736396772
0.00042775292679017585
0.00045572232751581176
0.0004848419958596306
0.0005151684223120845
0.0005467576920355627
-0.0005046205592778991
-0.00047326466749850193
-0.0004430846691798884
-0.000414030745916269
-0.0003860535443622054
-0.0003591040921138433
-0.00033313371598563124
-0.00030809396328178307
-0.00028393652658048607
-0.0002606131724694344
-0.00023807567458079826
-0.00021627575120099218
-0.00019516500765058564
-0.00017469488355831286
-0.00015481660508702422
-0.0001354811421056118
-0.00011663917024984372
-9.824103776680249e-05
-8.023673699827927e-05
-6.257588033004025e-05
-4.5207680410622175e-05
-2.808093442596693e-05
-1.114401221519179e-05
5.65515198454325e-06
2.2369064373958802e-05
3.905067319483202e-05
5.5753367268276954e-05
7.253097160782318e-05
8.943774021531736e-05
0.00010652834613361639
0.00012385786879128002
0.0001414817786387912
0.00015945591903432366
0.00017783648530127205
0.0001966800008464803
0.0002160432901942011
0.0002359834487629664
0.0002565578091982823
0.0002778239040491376
0.00029983942457829926
0.0003226621754996023
0.0003463500254379387
0.0003709608529444408
0.00039655248792760944
0.0004231826484046297
0.00045090887254643774
0.00047978844605889304
0.0005098783250285926
0.0005412350544642536
-0.000499002885152186
-0.00046787832028906406
-0.0004379252261178801
-0.00040909428279121973
-0.0003813366491123432
-0.00035460387132538185
-0.0003288477948794194
-0.00030402047978519975
-0.00028007412009554977
-0.00025696096795292667
-0.0002346332625442482
-0.0002130431642283076
-0.0001921426940091342
-0.00017188367845115404
-0.00015221770005911794
-0.0001330960530768338
-0.00011446970460481098
-9.628926088063594e-05
-7.850493852883111e-05
-6.106654055472449e-05
-4.3923436832807305e-05
-2.7024548827359052e-05
-1.0318338278650363e-05
6.247200402514919e-06
2.2724544282440307e-05
3.916664281962412e-05
5.5626915746065375e-05
7.215924807921215e-05
8.881798239067373e-05
0.00010565790841761402
0.00012273425005335237
0.00014010264971256459
0.0001578191500156978
0.00017594017269448314
0.00019452249457822812
0.00021362322047864535
0.0002332997527590419
0.00025360975734686764
0.0002746111259237516
0.0002963619340219381
0.0003189203947503161
0.000342344807880271
0.0003666935040505387
0.00039202478387670436
0.00041839685180151964
0.0004458677445870196
0.0004744952544229464
0.0005043368467212983
0.0005354495727743769
-0.0004931422493118787
-0.00046225856453768754
-0.00043254161010866654
-0.0004039426164263171
-0.00037641330458591804
-0.00034990578760284163
-0.0003243724752592936
-0.0002997659832137678
-0.0002760390469150331
-0.00025314444076580955
-0.00023103490287051942
-0.00020966306561474857
-0.00018898139222624233
-0.00016894211937905357
-0.0001494972058234817
-0.00013059828695084763
-0.00011219663513972744
-9.42431256736459e-05
-7.668820797844533e-05
-5.9481881893697075e-05
-4.257367866994377e-05
-2.5912646370113146e-05
-9.447339354526352e-06
6.874188463928954e-06
2.310438689062666e-05
3.9296209512929003e-05
5.5503110793025945e-05
7.17790403825802e-05
8.817843480661558e-05
0.00010475620661394569
0.00012156773103559615
0.00013866883014045095
0.0001561157544198999
0.0001739651616798621
0.00019227409306610266
0.00021109994600322646
0.00023050044378229717
0.0002505336014979459
0.0002712576880114642
0.00029273118359324224
0.0003150127328942487
0.0003381610929017731
0.0003622350755516923
0.0003872934847003878
0.00041339504721150944
0.00044059833797439885
0.00046896169874918736
0.0004985431508373328
0.0005294003016886872
-0.000487039691870611
-0.0004564063187151718
-0.0004269346066586577
-0.0003985763924035379
-0.0003712840134161982
-0.0003450102010971873
-0.00031970797829514175
-0.0002953305618315222
-0.0002718312705867615
-0.00024916343959445475
-0.00022728034047202195
-0.00020613510841001326
-0.0001856806758436247
-0.00016586971282823992
-0.0001466545740544528
-0.0001279872523597264
-0.00010981933852111103
-9.210198705786321e-05
-7.478588772465156e-05
-5.782124234111896e-05
-4.1157746582157206e-05
-2.474457633991345e-05
-8.53037827468206e-06
7.53673582151726e-06
2.3509191197368384e-05
3.943994916524862e-05
5.538250325408389e-05
7.139087271591793e-05
8.751959355814132e-05
0.00010382370721284673
0.00012035874689024506
0.00013718072159933647
0.00015434609775354102
0.00017191177821292147
0.00018993507855406822
0.0002084737003038295
0.00022758570081486684
0.0002473294594251829
0.0002677636395045785
0.0002889471459617543
0.00031093907778076413
0.0003337986751520555
0.00035758526077472874
0.0003823581749397009
0.0004081767040536588
0.0004351000023225249
0.00046318700639905175
0.0004924963429074891
0.0005230862288744809
-0.00048069632983009647
-0.0004503225671097927
-0.00042110505678873145
-0.00039299630257454143
-0.00036594931655886676
-0.0003399175038193286
-0.0003148545521729912
-0.0002907143277726537
-0.0002674507771094209
-0.00024501783586494685
-0.0002233693449315982
-0.00020245897379804478
-0.0001822401513880273
-0.00016266600432891798
-0.00014368930253196022
-0.0001252624118785184
-0.00010733725373021641
-8.986527091683905e-05
-7.279739980688149e-05
-5.608404803016109e-05
-3.967507739638387e-05
-2.3519791546910973e-05
-7.566927883839725e-06
8.235346668425403e-06
2.3939436479811227e-05
3.9598314978170346e-05
5.5265519686667486e-05
7.099514479516622e-05
8.684183146463742e-05
0.00010286075599390265
0.0001191076159010318
0.00013563861389824516
0.00015251043965941458
0.00016978024920549784
0.00018750564166114536
0.00020574463306492763
0.0002245556268548471
0.0002439973806004636
0.0002641289685032938
0.0002850097391543238
0.0003066992680225977
0.00032925730413724263
0.00035274371043628183
0.00037721839728389883
0.0004027412487029036
0.00042937204093317083
0.00045717035301408304
0.0004861954692003678
0.0005165062731445763
-0.0004741133602786801
-0.00044400836222979745
-0.00041505385888836177
-0.0003872030866272774
-0.0003604097948407686
-0.00033462812144272047
-0.0003098124744188163
-0.00028591742014738575
-0.0002628975790675697
-0.00024070752913213367
-0.0002193017173473255
-0.00019863437957162722
-0.0001786594686173093
-0.0001593305905793485
-0.00014060094921139465
-0.00012242329807118923
-0.00010474990007573737
-8.753249403595231e-05
-7.072226768775614e-05
-5.426983670113461e-05
-3.8125229122443205e-05
-2.2237874700237192e-05
-6.556598556292648e-06
8.970381319459153e-06
2.4395453232059494e-05
3.97716080335897e-05
5.5152432842403565e-05
7.059210253378134e-05
8.614536923125249e-05
0.00010186754994623293
0.00011781451242777463
0.00013404265919415848
0.00015060890962841078
0.00016757067993214414
0.00018498586064812084
0.00020291279137918394
0.00022141023225949463
0.0002405373316689552
0.00026035358962718524
0.000280918816259329
0.00030229308469886806
0.0003245366777785419
0.0003477100278644757
0.0003718736492112906
0.00039708806225928484
0.00042341370935863876
0.0004509108614954571
0.0004796395157070643
0.0005096592830078628
-0.0004672920634718053
-0.00043746482704361267
-0.00040878197039329045
-0.0003811975334949841
-0.0003546660704017296
-0.0003291425150813432
-0.00030458205431198315
-0.00028094000837967925
-0.0002581717201669831
-0.0002362324530644777
-0.00021507729799004338
-0.00019466108965347784
-0.0001749383320597403
-0.00015586313311799493
-0.00013738914810279557
-0.00011946953160589524
-0.00010205689753024771
-8.510328660128741e-05
-6.856014081124684e-05
-5.237828417675727e-05
-3.650790916527591e-05
-2.089856814228852e-05
-5.499169206571453e-06
9.742024195485977e-06
2.4877390436425784e-05
3.9959944157758054e-05
5.5043328439960404e-05
7.018180504556049e-05
8.543024299989543e-05
0.00010084410567801072
0.00011647943646986292
0.0001323928429872584
0.00014864147967953711
0.0001652830286165835
0.00018237567810022726
0.00019997809867598748
0.0002181494160248959
0.00023694918013965338
0.0002564373301262024
0.00027667415391433026
0.00029772024212280923
0.0003196364353073716
0.00034248376381071366
0.00036632337945335935
0.0003912164783461264
0.0004172242141638749
0.00044440760131271573
0.00047282740753726293
0.000502544035658678
-0.0004602338057425881
-0.0004306931570054878
-0.00040229040923833725
-0.0003749804825636388
-0.00034871880799283717
-0.0003234611830167794
-0.00029916363537632606
-0.0002757822957846906
-0.00025327328020034734
-0.0002315925820767506
-0.00021069597485100233
-0.00019053892476833534
-0.00017107651397937906
-0.0001522633737077589
-0.00013405362715115943
-0.00011640084165898124
-9.925798963597576e-05
-8.257741753643633e-05
-6.631082225239116e-05
-5.040923416033127e-05
-3.482300606566513e-05
-1.950180728867157e-05
-4.394622150849514e-06
1.0550247846144445e-05
2.538517879767388e-05
4.0163216711588956e-05
5.4938067865328843e-05
6.976408761207031e-05
8.469626793941587e-05
9.979022397589576e-05
0.00011510217952545587
0.00013068895158938054
0.000146607933721149
0.0001629170779360728
0.00017967487478567912
0.00019694033110236042
0.0002147729448124941
0.00023323267612909704
0.00025237991435710094
0.00027227543947325183
0.00029298037759814544
0.0003145561494476007
0.0003370644108322274
0.0003605669842898368
0.00038512578096917827
0.00041080271194254836
0.0004376595882153861
0.00046575800881663854
0.0004951592365066565
-0.00045294004218564277
-0.0004236946218081905
-0.0003955802550283938
-0.00036855282462601446
-0.00034256871608902284
-0.0003175846623476031
-0.0002935575979376853
-0.00027044452339257397
-0.0002482023804750294
-0.00022678793866903746
-0.00020615769316417731
-0.00018626777438147946
-0.00016707386891623432
-0.00014853115161132802
-0.0001305942283273409
-0.00011321708884803883
-9.635306924996034e-05
-7.995482297452894e-05
-6.397429977920976e-05
-4.836273169932237e-05
-3.307062513033254e-05
-1.8047758147995974e-05
-3.243182204210049e-06
1.1394772618300575e-05
2.591848954502929e-05
4.038105491153965e-05
5.4836246407674594e-05
6.933852023188747e-05
8.394299750309753e-05
9.870545015522314e-05
0.00011368228640443179
0.00012893053574489222
0.00014450783329286732
0.0001604724031639415
0.00017688304043650405
0.00019379909113236005
0.00021128042952597847
0.00022938743198934464
0.00024818094648579314
0.0002677222567438464
0.00028807304008543477
0.00030929531783674413
0.00033145139722688677
0.0003546038036853355
0.0003788152024743058
0.00040414830864979323
0.0004306657844321826
0.0004584301231855409
0.0004875035193597499
-0.0004454123190525544
-0.00041647056679861016
-0.0003886526498640408
-0.00036191550252538673
-0.00033621654776896936
-0.00031151353052703834
-0.00028776436173306996
-0.0002649269740270799
-0.00024295918973536723
-0.00022181860153434874
-0.00020146246599973827
-0.0001818476100321903
-0.00016293034996192612
-0.00014466642295295207
-0.00012701093016052878
-0.00010991829095761962
-9.334220742369947e-05
-7.723563819085622e-05
-6.155078067682229e-05
-4.623906068595973e-05
-3.125112834245769e-05
-1.653685932870297e-05
-2.0453604309689233e-06
1.2275021548033282e-05
2.647668837779671e-05
4.0612777258502986e-05
5.473714661230478e-05
6.890436134245059e-05
8.316967795900243e-05
9.758902982660855e-05
0.00011221901263847034
0.00012711687006533579
0.00014234047937433658
0.00015794833666198105
0.00017399954118918481
0.00019055377817060737
0.00020767129923503214
0.0002254128996469762
0.0002438398912734674
0.00026301407018439193
0.0002829976777002363
0.00030385335364170596
0.00032564408050551885
0.0003484331172818045
0.00037228392164750934
0.00039726005932175235
0.0004234250994509525
0.00045084249501368967
0.0004795754473882474
-0.000437652275786779
-0.00040902241398374506
-0.00038150879875128996
-0.000355069511424555
-0.0003296631013105372
-0.0003052484067518485
-0.0002817843885539739
-0.00025922997664676317
-0.00023754393061600765
-0.00021668471450247972
-0.000196610386031984
-0.00017727850020325675
-0.00015864602694901087
-0.00014066928238420928
-0.00012330387296762002
-0.00010650465174917578
-9.022568574176826e-05
-7.442023335021974e-05
-5.904073071802407e-05
-4.403878580258591e-05
-2.9365178977433515e-05
-1.496986897173147e-05
-8.020029967636955e-07
1.3190070021679157e-05
2.705878410011464e-05
4.0857339625749445e-05
5.463968631139182e-05
6.846050628613043e-05
8.237519777822e-05
9.643985967966451e-05
0.00011071127711048678
0.00012524690792591053
0.000140104869934779
0.00015534392842482536
0.00017102348341641038
0.00018720355590945426
0.00020394477223503737
0.00022130834547669231
0.0002393560528044375
0.0002581502074505415
0.0002777536239658429
0.0002982295753235914
0.0003196417403911189
0.0003420541402690963
0.0003655310620090668
0.0003901369682617617
0.00041593639148448935
0.0004429938114579868
0.0004713735150147502
-0.0004296616466182013
-0.0004013516625438335
-0.0003741499695166378
-0.00034801589862853977
-0.0003229092204404954
-0.00029878995316084955
-0.0002756181849058875
-0.00025335391095747395
-0.00023195688666852177
-0.0002113864963984441
-0.0001916016385954955
-0.00017256062688152107
-0.00015422110675437917
-0.00013653998729487582
-0.00011947338706082278
-0.00010297659317663743
-8.700403247800803e-05
-7.150925346025017e-05
-5.644491769794813e-05
-4.176279935381999e-05
-2.7413791386529662e-05
-1.3347917084960415e-05
4.856543933812185e-07
1.41385897189511e-05
2.7663371458819253e-05
4.1113277525414715e-05
5.4542360863454875e-05
6.800543006736659e-05
8.155803144704876e-05
9.525643287010277e-05
0.00010915760951320241
0.0001233192314603615
0.0001377996528869191
0.00015265790236970722
0.0001679536736757109
0.00018374731619812124
0.0002000998240335311
0.00021707282253242977
0.00023472855101142054
0.0002531298401824006
0.0002723400827461947
0.00029242319551199547
0.0003134435713385286
0.0003354660191606379
0.0003585556903616949
0.0003827779897843109
0.00040819846974166074
0.0004348827055035004
0.000462896150888098
-0.0004214422616297536
-0.0003934598887628052
-0.00036657749213909324
-0.0003407557628806318
-0.0003159557941719085
-0.00029213887579496167
-0.0002692663046614946
-0.00024729921230583207
-0.00022619841000634522
-0.00020592425190145425
-0.00018643651616066792
-0.000167694303985097
-0.00014965595593681436
-0.00013227898483608724
-0.00011552002424623786
-9.933479136250978e-05
-8.367806296349922e-05
-6.85036629606145e-05
-5.3764459992888813e-05
-3.941237346913318e-05
-2.5398386450117827e-05
-1.1672563794390411e-05
1.8159259486116852e-06
1.5118786314868848e-05
2.82885676668454e-05
4.1378642045744596e-05
5.444317910685559e-05
6.753712392433553e-05
8.071617724814129e-05
9.403677858260684e-05
0.0001075560922376706
0.00012133199628225344
0.00013542307410438492
0.000149888608061588
0.0001647885744962968
0.00018018363918050062
0.0001961351520565202
0.00021270513996198004
0.00022995629585782773
0.00024795196292826116
0.0002667561117914094
0.0002864333089561133
0.00030704867457687773
0.0003286678275109464
0.0003513568156628122
0.0003751820296183095
0.0004002100976338435
0.0004265077601455017
0.0004541417221201882
-0.00041299604719829963
-0.0003853487452763968
-0.0003587927574004793
-0.00033329025304128235
-0.0003088037561551904
-0.00028529592526707614
-0.0002627293516846846
-0.0002410663768652524
-0.00022026892961952982
-0.00020029838350040657
-0.00018111543437451805
-0.00016267999785476994
-0.00014495112595726278
-0.00012788694205612822
-0.00011144459296286158
-9.55802167295211e-05
-8.02489246031074e-05
-6.540479542131022e-05
-5.100088064845243e-05
-3.698921820600998e-05
-2.332085324761174e-05
-9.945864069146881e-06
3.1866085774129305e-06
1.6128330382447764e-05
2.8931942062215832e-05
4.165092892344929e-05
5.433959251055498e-05
6.705302522071882e-05
7.984708854186923e-05
9.277839532832732e-05
0.0001059042962814824
0.00011928287055614634
0.00013297292015976986
0.0001470339675662402
0.000161526255731341
0.00017651074946156003
0.00019204913686832192
0.00020820382943684962
0.0002250379590463883
0.00024261537010786954
0.00026100060483344456
0.00028025887952753264
0.00030045604968578776
0.00032165856162148787
0.0003439333883026238
0.0003673479470834573
0.00039196999706209157
0.00041786751388731697
0.0004451085399838281
-0.00040432502570152823
-0.00037701995952458406
-0.0003507972147445901
-0.00032562056605092704
-0.0003014540834610224
-0.00027826189708479027
-0.000256007982400247
-0.00023465596712942544
-0.00021416896042058403
-0.0001945094046579554
-0.00017563894983208678
-0.00015751835003178366
-0.00014010738126372935
-0.00012336477948581004
-0.00010724819745306508
-9.171417872961413e-05
-7.671814702632507e-05
-6.221440887427959e-05
-4.815616755129981e-05
-3.449554613223216e-05
-2.1183617539645427e-05
-8.17043952397456e-06
4.594907400110038e-06
1.716428089940797e-05
2.9590438317843304e-05
4.192700018502277e-05
5.4228416980377225e-05
6.654994014369114e-05
7.894759806709173e-05
9.147817753049625e-05
0.00010419921076345456
0.00011716896804135624
0.0001304464554438972
0.00014409141712908718
0.0001581643412111658
0.00017272646807500736
0.000187839799713041
0.00020356710844067483
0.0002199719431331959
0.00023711863093042046
0.0002550722721824661
0.0002738987262598386
0.00029366458572730597
0.00031443713629263764
0.0003362842998806334
0.000359274558168976
0.00038347685394791303
0.0004089604677449954
0.00043579486728841793
-0.0003954313143697749
-0.00036847533128368803
-0.0003425923692242372
-0.0003177479440658465
-0.0002939077947030633
-0.0002710376315625332
-0.0002491029082829707
-0.00022806861773166237
-0.00020789911309204018
-0.0001885579543123156
-0.000170007779769471
-0.00015221020257668444
-0.00013512573055769056
-0.00011871370855390251
-0.00010293228140415694
-8.773837566342785e-05
-7.308769791379566e-05
-5.8934747359490336e-05
-4.523284029859381e-05
-3.193414402267308e-05
-1.8989717710388154e-05
-6.349557952187168e-06
6.037353339628793e-06
1.8223000720705984e-05
3.0260288584701978e-05
4.220299776491743e-05
5.410574675851487e-05
6.60239586810149e-05
7.801383476967183e-05
9.013233494574446e-05
0.00010243716563567568
0.00011498677474069963
0.00012784035333763405
0.00014105784338924038
0.0001546999504460217
0.00016882816004076817
0.00018350475620504403
0.00019879284027807254
0.00021475634794243526
0.0002314600621984783
0.0002489696197912547
0.0002673515084269107
0.00028667305196933973
0.0003070023806939909
0.00032840838358904473
0.00035096063965862206
0.00037472932518545915
0.00039978509396917244
0.0004261989276737252
-0.0003863171231502857
-0.0003597167291412781
-0.00033417977740100163
-0.0003096736706437314
-0.0002861659473990946
-0.00026362401325486645
-0.0002420148982408138
-0.00022130504161528564
-0.00020146010482090249
-0.00018244481286704833
-0.00016422282389817744
-0.00014675662622110064
-0.000130007461605762
-0.0001139352732655377
-9.849867655851996e-05
-8.365495014588109e-05
-6.936004510594423e-05
-5.556860933293023e-05
-4.2234024442040774e-05
-2.9308452368599636e-05
-1.6742888878207296e-05
-4.487221296374522e-06
7.509712093331511e-06
1.930006333934059e-05
3.0936918916833755e-05
4.2474248481923216e-05
5.39668598367668e-05
6.547036134025436e-05
7.704113266700924e-05
8.873630447437525e-05
0.00010061374719148863
0.00011273206879880426
0.00012515062112613412
0.00013792951386353697
0.0001511296351538391
0.00016481267732406518
0.00017904116601600434
0.00019387849068824847
0.00020938893420171384
0.00022563769895036362
0.000242690926773155
0.0002606157096807227
0.0002794800882555265
0.00029935303444171557
0.00032030441532795995
0.00034240493446199144
0.000365726047210968
0.0003903398467159369
0.00041631891708535096
-0.0003769847514384292
-0.0003507460857609043
-0.00032556104204697206
-0.0003013990658436577
-0.0002782296344617935
-0.0002560219698373514
-0.0002347447808671646
-0.00021436603659115427
-0.0001948527710221859
-0.0001761709198454739
-0.00015828518863709312
-0.00014115895168909792
-0.00012475418001494515
-0.0001090313966380374
-9.394965685755041e-05
-7.94665508467296e-05
-6.553822567417072e-05
-5.2119423658777975e-05
-3.9163533858549426e-05
-2.662265346833198e-05
-1.4447655948442162e-05
-2.5882628237189342e-06
9.00688373674241e-06
2.039015021516183e-05
3.161484529471542e-05
4.27351597337422e-05
5.3806114290698426e-05
6.488351706743917e-05
7.602393126020235e-05
8.728465392615625e-05
9.872370598806857e-05
0.00011039983331947306
0.00012237251837519947
0.00013470200146553646
0.0001474493104198643
0.00016067629704349246
0.00017444567844268621
0.0001888210809821711
0.00020386708434974588
0.00021964926292381004
0.0002362342213858698
0.00025368962129052736
0.0002720841950967709
0.00029148774399175015
0.00031197111569459396
0.0003336061583303074
0.0003564656464052837
0.000380623174919395
0.00040615301771913803
-0.0003674365835118279
-0.00034156539176626727
-0.0003167378054840034
-0.00029292548009074437
-0.0002700999796976661
-0.0002482324703577399
-0.00022729344654066203
-0.00020725249232833587
-0.0001880780781764249
-0.00016973739342038274
-0.0001521962140434846
-0.00013541880458184385
-0.00011936785245353354
-0.00010400443246204316
-8.928799876454369e-05
-7.517640121761787e-05
-6.16259227221097e-05
-4.859133399426341e-05
-3.6025962084206e-05
-2.3881768948942617e-05
-1.2109436455132183e-05
-6.584543363399864e-07
1.0522792157650895e-05
2.148693790743339e-05
3.228755953012252e-05
4.2979105248176774e-05
5.361683493310815e-05
6.425677182680944e-05
7.495566701856693e-05
8.577097733025035e-05
9.676085683447966e-05
0.00010798416181023035
0.00011950046852974433
0.00013137010286785877
0.0001436541803423591
0.00015641465482268274
0.00016971437378630189
0.00018361713766550797
0.00019818776050659764
0.0002134921288593078
0.00022959725552784
0.0002465713245572293
0.00026448372358491706
0.0002834050594793386
0.000303407153009895
0.00032456300815587175
0.0003469467515653732
0.00037063353763888696
0.00039569941474647263
-0.00035767508248933655
-0.0003321766880584054
-0.0003077117413761779
-0.0002842542866385231
-0.0002617781321817489
-0.00024025652277666343
-0.00021966184935728883
-0.00019996539784045142
-0.00018113713793599384
-0.0001631455520726896
-0.0001459575037988728
-0.00012953814428541544
-0.00011385085487908286
-9.885722304327216e-05
-8.45170485065938e-05
-7.078837601805221e-05
-5.7627550786469584e-05
-4.498929247798156e-05
-3.2826783544569194e-05
-2.1091767657382965e-05
-9.734654119589181e-06
1.2953756817132844e-06
1.2050263460371136e-05
2.258297420412725e-05
3.294740430694748e-05
4.3198300213966034e-05
5.339118968512857e-05
6.35823273168537e-05
7.38286554868503e-05
8.418778141213584e-05
9.471797053790809e-05
0.00010547815601170268
0.00011652796355116068
0.00012792775057900857
0.0001397386580806806
0.0001520226732404928
0.00016484270053138128
0.00017826263856335345
0.00019234745964814837
0.00020716328870771378
0.00022277747783304436
0.0002392586725113166
0.00025667686526061745
0.00027510343216279043
0.0002946111475699703
0.00031527417207502517
0.0003371680087009554
0.0003603694221772716
0.0003849563161582928
-0.00034770278261851
-0.00032258205635745524
-0.0002984845447707024
-0.0002753868724473807
-0.0002532652593669818
-0.0002320951707136601
-0.00021185100888777841
-0.0001925058495545265
-0.00017403122268963567
-0.00015639693868266247
-0.00013957095867248026
-0.00012351930744294165
-0.00010820602642919175
-9.359316368637294e-05
-7.964079709054522e-05
-6.630708657161949e-05
-5.354835082613252e-05
-4.1319163748748666e-05
-2.957246572604655e-05
-1.825968496150382e-05
-7.3308641433400545e-06
3.26521200390284e-06
1.3580892418513235e-05
2.3669542396916043e-05
3.358543658876778e-05
4.3383665108961966e-05
5.312005507134704e-05
6.285110931987525e-05
7.263396360373403e-05
8.252636291166543e-05
9.25866571618722e-05
0.00010287381593964556
0.00011344746148666401
0.00012436791868111752
0.00013569628029797692
0.0001474944854105431
0.00015982540838592463
0.00017275295553408065
0.0001863421660917436
0.00020065931386433616
0.00021577200550045028
0.00023174927104478021
0.00024866164210279873
0.0002665812126597597
0.00028558167733523654
0.00030573834161692903
0.0003271280984343053
0.00034982936528988456
0.0003739219760917345
-0.00033752227967101534
-0.00031278360773692726
-0.00028905792016193504
-0.00026632462727937956
-0.0002445625387749589
-0.0002237494893143066
-0.0002038620117663023
-0.00018487506007692361
-0.00016676178282239162
-0.0001494933474227439
-0.00013303881396856815
-0.00011736505663324792
-0.00010243672974624002
-8.82162748098228e-05
-7.466396408160186e-05
-6.173797582218615e-05
-4.939449592854944e-05
-3.758784045678615e-05
-2.627059345917948e-05
-1.5393754618266142e-05
-4.906891354419796e-06
5.241709627679114e-06
1.5104895993690859e-05
2.4736512809021838e-05
3.4191278600458064e-05
4.35246775412762e-05
5.279287026611207e-05
6.2052625222693e-05
7.136127187564595e-05
8.077667648746789e-05
9.035724063295725e-05
0.00010016192205709179
0.00011025027695722028
0.00012068252227263182
0.00013151961609041835
0.00014282335381784333
0.00015465647733679116
0.00016708279394471448
0.00018016730147692867
0.0001939763156210278
0.00020857759505581164
0.00022404045968092007
0.00024043589685180528
0.00025783665019896845
0.00027631728529837335
0.00029595422616587874
0.0003168257563040955
0.00033901197782516823
0.0003625947220289791
-0.0003271362192057009
-0.0003027834688956871
-0.0002794335673280829
-0.0002570689307877655
-0.00023567114810317535
-0.00021522058015768092
-0.00019569601313549484
-0.0001770743678077627
-0.00015933046596894318
-0.00014243685390392252
-0.0001263636815666755
-0.00011107863502023141
-9.654691864625226e-05
-8.273128273177804e-05
-6.959209129461796e-05
-5.708742442599862e-05
-4.51732090261045e-05
-3.380337158832153e-05
-2.293000663301098e-05
-1.2503554496751113e-05
-2.472982437232152e-06
7.214036617748942e-06
1.6610952870949047e-05
2.5772180643472697e-05
3.4752955578094824e-05
4.360921143062996e-05
5.2397479154114857e-05
6.117481030379346e-05
6.999872612580005e-05
7.892719304398305e-05
8.801862463709426e-05
9.733190960650034e-05
0.00010692646466961553
0.00011686231078544135
0.00012720017061786104
0.00013800158465976375
0.00014932904298800564
0.00016124612918361897
0.00017381767251966468
0.000187109904111811
0.00020119061231465424
0.00021612929224552185
0.00023199728392704622
0.00024886789315183705
0.00026681648880554076
0.00028592057003091337
0.00030625979629727434
0.0003279159731612302
0.000350972986282623
-0.00031654728243080826
-0.0002925837658800043
-0.0002696131646615363
-0.00024762113735913444
-0.00022659225357469365
-0.0002065095651286944
-0.00018735423799975948
-0.00016910524760679196
-0.00015173913863020944
-0.00013522984912712338
-0.00011954859729049194
-0.00010466382788735379
-9.054121421128714e-05
-7.714371035166118e-05
-6.443164774314752e-05
-5.236286931173395e-05
-4.089289410856567e-05
-2.9975105108374922e-05
-1.956095282815845e-05
-9.60016759240373e-06
-4.097360046390053e-08
9.169701580991063e-06
1.808602789639402e-05
2.6763089184117517e-05
3.525671947802317e-05
4.362336288370183e-05
5.191995992086945e-05
6.020386246037568e-05
6.853277864069668e-05
7.696474843715828e-05
8.555814987953186e-05
9.437173527706427e-05
0.00010346469621048959
0.00011289675549609746
0.00012272828380004847
0.00013302043808254005
0.00014383531858482707
0.00015523614061389857
0.0001672874169320604
0.00018005514612775414
0.00019360700190293456
0.00020801251777458757
0.00022334326125766218
0.00023967299115350976
0.0002570777911406613
0.0002756361724436454
0.0002954291379552096
0.0003165401998244735
0.0003390553422057199
-0.0003057581693662534
-0.00028218660493711106
-0.00025959834968337925
-0.0002379825584441636
-0.00021732699634735564
-0.00019761757918843742
-0.00017883798257286448
-0.00016096932277813447
-0.00014398991062023608
-0.00012787507791728325
-0.0001125970744965607
-9.812503215377022e-05
-8.442499059059527e-05
-7.145997917530622e-05
-5.9190147421478434e-05
-4.757293637430715e-05
-3.656328264586145e-05
-2.611384664101546e-05
-1.617525655081553e-05
-6.696359938725138e-06
2.3755248233087167e-06
1.1094364423917813e-05
1.951518023628196e-05
2.7693837353404138e-05
3.568685784374054e-05
4.355126216133015e-05
5.1344441766583426e-05
5.912406515506258e-05
6.694801866703043e-05
7.487438266698399e-05
8.29614429512307e-05
9.126773656325388e-05
9.985213056479952e-05
0.00010877393173511912
0.0001180930246238096
0.00012787003487865073
0.0001381665142899252
0.0001490451435203835
0.0001605699480357048
0.00017280652229437893
0.00018582225679119463
0.00019968656207864505
0.00021447108341302729
0.00023024989917467403
0.0002470996957215574
0.00026509991083426693
0.00028433283742151927
0.0003048836786940651
0.0003268405455864251
-0.00029477157897614403
-0.0002715940501452699
-0.0002493906963972545
-0.00022815444208561936
-0.0002078764767910607
-0.00018854576199554135
-0.00017014861575305462
-0.00015266837872096595
-0.00013608516293074635
-0.0001203756826765115
-0.00010551316496788116
-9.146733519387051e-05
-7.820447204581749e-05
-6.568752439811004e-05
-5.387628177224574e-05
-4.2727589245936115e-05
-3.219559720368803e-05
-2.2232036157081303e-05
-1.2786506974248046e-05
-3.806777210631218e-06
4.760925204266853e-06
1.297162893450221e-05
2.088135401068225e-05
2.8546870611260988e-05
3.602548705596009e-05
4.337487120353867e-05
5.065290844341597e-05
5.791759850305028e-05
6.522699238067226e-05
7.26391698566281e-05
8.021225725210468e-05
8.800448438577024e-05
9.607427902339621e-05
0.00010448039652338065
0.00011328208182397742
0.00012253926041828206
0.0001323127544739372
0.00014266451978095507
0.00015365789875448899
0.0001653578842436207
0.00017783138841520607
0.00019114751047914075
0.00020537779649682647
0.00022059648396426101
0.00023688072329790255
0.0002543107677661152
0.0002729701228217987
0.0002929456452137047
0.00031432758170486796
-0.0002835901858980472
-0.00026080809741740874
-0.00023899168909860546
-0.00021813794932680486
-0.0001982417364359973
-0.00017929524835559596
-0.00016128758092399942
-0.0001442043787004202
-0.0001280275797482383
-0.00011273525348746982
-9.830152843634532e-05
-8.469660455907163e-05
-7.188684308030713e-05
-5.9834925085600066e-05
-4.8500069026451154e-05
-3.78382964179233e-05
-2.7802734551142516e-05
-1.8343944930006295e-05
-9.410266349908769e-06
-9.481620303411487e-07
7.097439057759947e-06
1.478281561736322e-05
2.2165150097612496e-05
2.9302254175744835e-05
3.625232923812338e-05
4.3073766274180636e-05
4.982498845753497e-05
5.65643386007883e-05
6.335001266207646e-05
7.024003955530961e-05
7.729230667705145e-05
8.456462981250301e-05
9.211486541227387e-05
0.00010000106262979952
0.00010828165196147266
0.00011701566683487014
0.0001262629940105356
0.00013608464820192429
0.00014654306585826227
0.00015770241257425516
0.00016962889809365306
0.00018239109234191586
0.00019606023535261724
0.0002107105333475287
0.00022641943258817215
0.00024326786193833855
0.0002613404343839998
0.000280725597047983
0.0003015157185453157
-0.00027221661335138925
-0.0002498306444283088
-0.00022840269220998632
-0.00020793412715545967
-0.00018842373739545726
-0.00016986715751058507
-0.0001522563983596889
-0.00013557948232883338
-0.0001198201855532599
-0.00010495788584424792
-9.096751235189438e-05
-7.781959053622389e-05
-6.548037386349542e-05
-5.391205188299414e-05
-4.307302300148724e-05
-3.2918219379993174e-05
-2.339947093046857e-05
-1.446589535897963e-05
-6.064301545760653e-06
1.8604057722901302e-06
9.36483111008829e-06
1.6506713094457948e-05
2.3344577754304263e-05
2.9937427561438357e-05
3.634447216772224e-05
4.262490542358138e-05
4.883773196293073e-05
5.5041645425461805e-05
6.129495927730683e-05
6.765559019358824e-05
7.418109308023058e-05
8.092874603880112e-05
8.795568290083378e-05
9.531907036276072e-05
0.0001030763262267545
0.00011128537477266692
0.00012000493483217689
0.0001292948356970483
0.0001392163555434464
0.00014983257657838478
0.0001612087506062676
0.00017341266816012224
0.00018651502372721979
0.00020058976893488206
0.00021571444484129454
0.00023197048369632406
0.00024944346972381043
0.0002682233476274526
0.0002884045666653179
-0.0002606534017558851
-0.00023866345595700833
-0.0002176249156593396
-0.00019754387760309577
-0.00017842333906855495
-0.00016026258133455124
-0.0001430566686232912
-0.0001267960675195301
-0.00011146638846773471
-9.704824759224767e-05
-8.35172438822876e-05
-7.084404389236243e-05
-5.899456361347505e-05
-4.793023515885925e-05
-3.760834441998706e-05
-2.7982424908659653e-05
-1.900269259659526e-05
-1.0616506652523505e-05
-2.7688415054974436e-06
4.597243427356679e-06
1.1540148805513906e-05
1.8119306268278568e-05
2.439478466451095e-05
3.0426939472881498e-05
3.6276111659280796e-05
4.2002380649101834e-05
4.7665374614737355e-05
5.3324139925196856e-05
5.903707039155853e-05
6.486189587563695e-05
7.085572890700581e-05
7.70751671670053e-05
8.357644902985684e-05
9.041565878230295e-05
9.764897765261737e-05
0.00010533297633889827
0.0001135249443123959
0.0001222832507693991
0.00013166773167991308
0.00014174009692063255
0.00015256435097113497
0.00016420722007937788
0.00017673857814859417
0.00019023186287474986
0.0002047644728572079
0.00022041813552019923
0.0002372792347357794
0.0002554390860305192
0.0002749941462224931
-0.0002489029725252223
-0.0002273081240637756
-0.0002066593752605081
-0.00018696792259149247
-0.00016824127194025457
-0.00015048257156963923
-0.00013369007748795236
-0.00011785675689447717
-0.00010297003131829602
-8.901165703814606e-05
-7.59577365786121e-05
-6.37788516686319e-05
-5.2440305153167444e-05
-4.190245706062884e-05
-3.212113838745034e-05
-2.3048125190112956e-05
-1.4631655247537845e-05
-6.816969819321839e-06
4.531361979601134e-07
7.237771203240373e-06
1.3597424865348373e-05
1.959347933682548e-05
2.5287764008258273e-05
3.074216217006931e-05
3.601827604864799e-05
4.117715487268747e-05
4.6279088955596126e-05
5.1383471279038695e-05
5.65487267433773e-05
6.183230812482204e-05
6.729075683324648e-05
7.297982578227669e-05
7.895466104607118e-05
8.527003845289899e-05
9.198065083777102e-05
9.914144129164609e-05
0.00010680797739456155
0.00011503686107287858
0.00012388616833284433
0.0001334159126956877
0.0001436885256576037
0.0001547693469126088
0.00016672711638935495
0.0001796344593690269
0.0001935683550576689
0.00020861057798834265
0.0002248481005360306
0.00024237344364826802
0.0002612849616574625
-0.00023696758642684917
-0.0002157660224419919
-0.0001955068474882929
-0.00017620676408349606
-0.00015787810831641852
-0.00014052812632956574
-0.00012415840308907522
-0.00010876444990692152
-9.433545226702339e-05
-8.085417466997813e-05
-6.829701470092292e-05
-5.6634194508874136e-05
-4.5830074525542164e-05
-3.5843571652302564e-05
-2.6628662353603283e-05
-1.8134950120089754e-05
-1.030827656674227e-05
-3.0913559370127075e-06
3.5755861099093234e-06
9.754186955104882e-06
1.5507350298045453e-05
2.089869165478042e-05
2.599203717235099e-05
3.0850984550336025e-05
3.55385326354582e-05
4.0116784170672604e-05
4.464672429680544e-05
4.918807575286094e-05
5.379923029973782e-05
5.853725471868104e-05
6.345796878382687e-05
6.861609185501022e-05
7.406545415791083e-05
7.985926836626134e-05
8.605045676007145e-05
9.269202893703865e-05
9.983750478952114e-05
0.00010754137718742979
0.00011585960848106008
0.00012485015455575288
0.00013457350968825582
0.0001450932648659614
0.0001564766715177815
0.0001687952017562569
0.00018212509525106224
0.00019654788173668197
0.00021215086690363344
0.00022902756806338076
0.00024727808451077
-0.00022484929580977864
-0.0002040382541898325
-0.00018416781795854015
-0.0001652606390553299
-0.0001473342298641614
-0.00013040017622788919
-0.0001144635262626259
-9.952236230081207e-05
-8.556755733480498e-05
-7.25827115178948e-05
-6.054425889187587e-05
-4.942172977769055e-05
-3.917815037097344e-05
-2.9770558141566095e-05
-2.1150609704853607e-05
-1.3265256898091493e-05
-6.057466799935796e-06
5.330377271794973e-07
6.569038854147002e-06
1.2115105754849365e-05
1.7236915052253055e-05
2.200062436397837e-05
2.6472310783134945e-05
3.071748338488722e-05
3.4800676248523954e-05
3.8785126097028166e-05
4.273253654404896e-05
4.670292912790225e-05
5.075457980473902e-05
5.4944038368615056e-05
5.932622733451076e-05
6.395461612857672e-05
6.8881465939509e-05
7.415814024570172e-05
7.983547580340394e-05
8.596420871224975e-05
9.259545001831515e-05
9.978120514440858e-05
0.00010757493119915168
0.00011603212589005735
0.00012521094132268706
0.00013517281538437398
0.00014598311267799424
0.0001577117660622948
0.0001704339087853987
0.00018423048595426345
0.00019918883266427378
0.00021540320455155915
0.0002329752448198899
-0.0002125498898948655
-0.00019212559212888197
-0.00017264242283200615
-0.00015412946877732536
-0.00013660979188585137
-0.0001200995706577071
-0.00010460744532342359
-9.013407498226211e-05
-7.667190775046545e-05
-6.420515792750214e-05
-5.270997774416836e-05
-4.2154805673558227e-05
-3.250086877291947e-05
-2.3702813215120688e-05
-1.5709435118006765e-05
-8.46448295081792e-06
-1.907503104886521e-06
4.025298486136364e-06
9.40020368505462e-06
1.4285160741318859e-05
1.8749013303419326e-05
2.2860795688708913e-05
2.6689106876427726e-05
3.030157242808751e-05
3.376440050839591e-05
3.714203545889666e-05
4.049691002219746e-05
4.388929534961811e-05
4.73772463513919e-05
5.101663874031853e-05
5.486129324566019e-05
5.89631818839198e-05
6.33727108125745e-05
6.813907410928993e-05
7.331067274305575e-05
7.89355929957658e-05
8.506213858358591e-05
9.17394106847158e-05
9.901792995414133e-05
0.00010695029435853903
0.00011559186627416174
0.00012500148172426423
0.0001352421738831655
0.00014638190201349266
0.000158494275837813
0.00017165926396986442
0.00018596387344161497
0.00020150278557760914
0.00021837893149977833
-0.00020007083219154148
-0.00018002841065890146
-0.00016093038225491185
-0.00014281280185438755
-0.00012570468433091564
-0.00010962706497463781
-9.459229693595944e-05
-8.060359495725561e-05
-6.765482582109933e-05
-5.5730537449727446e-05
-4.4806210875339425e-05
-3.484871270618278e-05
-2.5816920495212725e-05
-1.7662489723173358e-05
-1.0330728979469905e-05
-3.7615492986808885e-06
2.1095456438149918e-06
7.350459858411484e-06
1.2031524424659101e-05
1.622456095011493e-05
2.0002010192261832e-05
2.343614282182549e-05
2.6598365241041477e-05
2.9558629507896172e-05
3.2384952899373876e-05
3.5143049563639284e-05
3.789607410789597e-05
4.070447486472645e-05
4.362595296623917e-05
4.6715522186581426e-05
5.002566374378431e-05
5.360656981513723e-05
5.750646934298692e-05
6.177202972709739e-05
6.644882813038044e-05
7.158188631600088e-05
7.721626311190527e-05
8.339769871801989e-05
9.017330508244437e-05
9.759229642712641e-05
0.00010570675368467425
0.00011457241607072677
0.000124249492256652
0.0001348034826008579
0.00014630600263475235
0.00015883559648888212
0.00017247852717290624
0.00018732952860531227
0.00020349250204348968
-0.00018741318894610615
-0.00016774660797435476
-0.00014903092482437125
-0.00013130975044479964
-0.00011461848966171084
-9.898330963452329e-05
-8.442038524927864e-05
-7.093543173561367e-05
-5.852352398183491e-05
-4.716919171426914e-05
-3.6846770450023325e-05
-2.7520980341956547e-05
-1.914769901745217e-05
-1.1674890425875106e-05
-5.043649574279496e-06
8.106772526744743e-07
5.957335824972876e-06
1.0469007143867892e-05
1.4420682948976249e-05
1.788860150864907e-05
2.0949266713345127e-05
2.3678568446545978e-05
2.6151017312098235e-05
2.84391022441835e-05
3.061277546598934e-05
3.273906578998842e-05
3.488181840809873e-05
3.710155710492241e-05
3.9455463217090425e-05
4.19974645896673e-05
4.477842717789948e-05
4.784644172312058e-05
5.124719800549821e-05
5.502443945423069e-05
5.922049129103435e-05
6.387685582506797e-05
6.903486892040345e-05
7.47364119786792e-05
8.102467395648683e-05
8.794495791546869e-05
9.554552637388442e-05
0.00010387847923547938
0.00011300065730820291
0.00012297456337626717
0.00013386929143267834
0.00014576145302983706
0.00015873608774125136
0.00017288754247028054
0.00018832030179673914
-0.00017457754733262582
-0.00015527951726659883
-0.00013694270192150804
-0.00011961891905503536
-0.00010335043785331122
-8.816884273337572e-05
-7.409422212939498e-05
-6.113469354886852e-05
-4.928626290830879e-05
-3.853300361573303e-05
-2.884752973784932e-05
-2.0191728392328356e-05
-1.2517709590056936e-05
-5.76892729096945e-06
1.1857658929748105e-07
5.21485323241172e-06
9.594698802004031e-06
1.333631907989713e-05
1.6520043728221467e-05
1.922712123253456e-05
2.1538619409074145e-05
2.3534450186699085e-05
2.5292531497203563e-05
2.6888093767760135e-05
2.839313385440828e-05
2.9876015378363374e-05
3.140121136014501e-05
3.302918277032357e-05
3.481638506992735e-05
3.681539391426486e-05
3.907514084072056e-05
4.164124983834644e-05
4.455646610053432e-05
4.786116886927594e-05
5.159396100408442e-05
5.579232865821071e-05
6.0493365119755615e-05
6.573455343678036e-05
7.155460282023268e-05
7.799433394881095e-05
8.509760817378142e-05
9.291229518932492e-05
0.00010149127297725408
0.00011089345274317708
0.00012118482011615889
0.00013243948208881834
0.00014474070701485375
0.00015818194247379375
0.00017286779295128812
-0.00016156392185992519
-0.00014262580528945357
-0.0001246636905843923
-0.00010773832529620969
-9.189935903131802e-05
-7.71840879236832e-05
-6.361658218954208e-05
-5.120720894683656e-05
-3.995254612429444e-05
-2.9835667979725977e-05
-2.082676935025174e-05
-1.2884084902048398e-05
-5.955051742320694e-06
2.2341028055317125e-08
5.118073981902338e-06
9.408547352145191e-06
1.2975012994229096e-05
1.5902036658070606e-05
1.8276032255362673e-05
2.0183902376194607e-05
2.171181161046698e-05
2.294411170051386e-05
2.3962430537434465e-05
2.4844930779734098e-05
2.5665738580558928e-05
2.6494538635790654e-05
2.7396328518128343e-05
2.843132299690937e-05
2.9654997652554804e-05
3.111826046808819e-05
3.286774007847659e-05
3.4946179834682845e-05
3.739292765801011e-05
4.0244512688858425e-05
4.3535300856857584e-05
4.729822261183292e-05
5.156556706309434e-05
5.636983761074521e-05
6.1744664756197e-05
6.77257720909305e-05
7.435199145473803e-05
8.16663228943651e-05
8.971703431355504e-05
9.855879457464078e-05
0.00010825383228052488
0.00011887311051963362
0.00013049750550125916
0.0001432189742404666
0.000157141693265965
-0.0001483716471724697
-0.0001297833563699835
-0.00011219108339540623
-9.56653119943418e-05
-8.026363456470342e-05
-6.602936037728574e-05
-5.299057744590635e-05
-4.115968090359634e-05
-3.053336051020428e-05
-2.1093021191610772e-05
-1.2805594361654793e-05
-5.624684985404416e-06
5.080096306050996e-07
5.661078335363057e-06
9.91164211459894e-06
1.3343535504195536e-05
1.604548628722502e-05
1.8109349061851132e-05
1.9628439556905464e-05
2.06960071197429e-05
2.1403873236743032e-05
2.1841254800224197e-05
2.2093782508704474e-05
2.2242717565429393e-05
2.2364363883281557e-05
2.252966836463477e-05
2.2803998477920195e-05
2.324708419632754e-05
2.3913110257400838e-05
2.4850944477364245e-05
2.6104488329591058e-05
2.7713136994567122e-05
2.97123374306818e-05
3.213423455994402e-05
3.5008397264862934e-05
3.836261743291047e-05
4.222377667879862e-05
4.661877653205221e-05
5.157552873510246e-05
5.7124002816842656e-05
6.329732823513734e-05
7.013294810108428e-05
7.767382078530116e-05
8.596966454069155e-05
9.507823865467085e-05
0.00010506665255256148
0.00011601269171506584
0.00012800614623900697
0.0001411501243603966
-0.00013499925505789517
-0.00011674913958293481
-9.952116362620111e-05
-8.339645008756391e-05
-6.844114786608985e-05
-5.4704884388676045e-05
-4.221975789207161e-05
-3.099988257668912e-05
-2.104147463577455e-05
-1.2323444196479794e-05
-4.808438722296582e-06
1.5557316177736147e-06
6.834366194148622e-06
1.1103928378081163e-05
1.4449967053645207e-05
1.696498605341379e-05
1.8746335039440676e-05
1.989418552888339e-05
2.0509644418749418e-05
2.0693045385170028e-05
2.054244670288835e-05
2.0152352975463805e-05
1.96126684418943e-05
1.900788124000602e-05
1.8416471387637523e-05
1.7910530311526784e-05
1.755557642688088e-05
1.7410549374805018e-05
1.752796486674535e-05
1.795421242658385e-05
1.8729979433917965e-05
1.989078653266696e-05
2.1467621464321684e-05
2.3487660547286127e-05
2.5975069194300593e-05
2.8951874901129993e-05
3.243890796489346e-05
3.645680671435225e-05
4.1027085177058886e-05
4.617326185070436e-05
5.192204852984966e-05
5.8304597945639525e-05
6.535780829663301e-05
7.312568154987237e-05
8.166073068006235e-05
9.102542878167835e-05
0.00010129369022079948
0.00011255237069410923
0.0001249027692271712
-0.00012144433301867347
-0.0001035190563590388
-8.664916361566383e-05
-7.092743183145095e-05
-5.6429236751587286e-05
-4.321082744264404e-05
-3.1308246206007695e-05
-2.073690646981624e-05
-1.1491810056322993e-05
-3.5483569758992806e-06
3.1363226263708688e-06
8.62160238796622e-06
1.2981258709320043e-05
1.6301138708631202e-05
1.8676699779882067e-05
2.0210516979722593e-05
2.1009844062017113e-05
2.1184300803236966e-05
2.0843744558171617e-05
2.0096368870667347e-05
1.9047057399343426e-05
1.7796008134313146e-05
1.643763138969162e-05
1.5059715652764039e-05
1.3742848145793796e-05
1.2560071866972444e-05
1.1576757743624044e-05
1.0850669111162059e-05
1.0432195733309224e-05
1.0364735696002936e-05
1.0685205451783919e-05
1.1424660779302265e-05
1.2609014214952363e-05
1.4259837412169962e-05
1.6395239706694376e-05
1.9030816784247617e-05
2.218066565560367e-05
2.5858464062541997e-05
3.0078613900877404e-05
3.485744922083339e-05
4.0214509816761945e-05
4.6173881319007404e-05
5.2765602052091964e-05
6.002713569606272e-05
6.800490698864736e-05
7.675589532576965e-05
8.634927814478444e-05
9.68681124122392e-05
0.00010841103837473665
-0.00010770336119469287
-9.008776524718765e-05
-7.356910404778677e-05
-5.8252953990978185e-05
-4.4224650039170754e-05
-3.154735721148938e-05
-2.026091732489077e-05
-1.0381482126856079e-05
-1.9019048377102998e-06
5.2071727037680815e-06
1.0995628508592148e-05
1.5531676325543364e-05
1.889931291688962e-05
2.119552456868179e-05
2.2527377068384813e-05
2.3009103536385245e-05
2.2759289969961904e-05
2.1898240807491365e-05
2.0545587851091007e-05
1.8818186903572787e-05
1.6828328640410006e-05
1.4682274395258488e-05
1.2479114228948485e-05
1.0309934135997734e-05
8.257271542376488e-06
6.394833208980821e-06
4.787446978855858e-06
3.4912181405138965e-06
2.553862120391326e-06
2.015187370481286e-06
1.9077053167518288e-06
2.2573477442763834e-06
3.084275743144016e-06
4.403768093151628e-06
6.227180534001953e-06
8.562970629316657e-06
1.1417785768401412e-05
1.4797614192568753e-05
1.8709000732100578e-05
2.316033015786756e-05
2.8163181671946036e-05
3.373375806021289e-05
3.9894392409901835e-05
4.66751340403998e-05
5.411541340646919e-05
6.226578320484705e-05
7.118972974255039e-05
8.096554480061663e-05
9.168824374222728e-05
-9.377152370743103e-05
-7.644847987126058e-05
-6.027361144213261e-05
-4.5366590966496034e-05
-3.182351221099611e-05
-1.9714730144788917e-05
-9.083636942019968e-06
5.36181225530008e-08
7.70750611815002e-06
1.3913677515263456e-05
1.873082143027255e-05
2.2237967493447808e-05
2.4531385623402513e-05
2.5721241236079107e-05
2.5928156290863646e-05
2.527981191800116e-05
2.390770831631195e-05
2.1944174365455538e-05
1.951969504333101e-05
1.6760601022090815e-05
1.3787143117963141e-05
1.0711955548164953e-05
7.638896725191413e-06
4.662244792626169e-06
1.8662171644631687e-06
-6.752213399727203e-07
-2.8982990248685447e-06
-4.749163313881588e-06
-6.1834267861132775e-06
-7.165564321565121e-06
-7.668188106470242e-06
-7.67122249763913e-06
-7.160995875429843e-06
-6.1292618844313584e-06
-4.572158052142117e-06
-2.489105821838755e-06
1.1834736497740028e-07
3.247746087245429e-06
6.8970093531212084e-06
1.1065783156224973e-05
1.57568697158883e-05
2.0977740034539005e-05
2.67421358088743e-05
3.30717654446408e-05
3.999809694490292e-05
4.756424776530127e-05
5.582696836221174e-05
6.485871207814048e-05
7.474977921409498e-05
-7.964248959198977e-05
-6.259273527993436e-05
-4.675371077192403e-05
-3.2260658232904915e-05
-1.922130155049273e-05
-7.713423269294084e-06
2.2164226273838072e-06
1.0553060104542822e-05
1.73117625309957e-05
2.25363594221345e-05
2.629653304551255e-05
2.8684486859928415e-05
2.981118071886113e-05
2.980232714677039e-05
2.87943306957264e-05
2.693033104522735e-05
2.4356483062690226e-05
2.1218576434597902e-05
1.7659066361419562e-05
1.3814557355079637e-05
9.813755991495976e-06
5.7758865809193205e-06
1.8095466019357742e-06
-1.9880335603086885e-06
-5.531369828455646e-06
-8.746789688166001e-06
-1.157223110525435e-05
-1.3956820664726144e-05
-1.5860272538956166e-05
-1.725214466972297e-05
-1.811098260182803e-05
-1.842337518308257e-05
-1.818294018614275e-05
-1.738925207782349e-05
-1.6046718843622243e-05
-1.4163410085699102e-05
-1.1749834630155054e-05
-8.817662647903068e-06
-5.37838482301406e-06
-1.4418993974779637e-06
2.9849830087830265e-06
7.900127083897146e-06
1.3307762718947624e-05
1.9220285488529e-05
2.566017401960108e-05
3.266202772991139e-05
4.02747248554533e-05
4.8563696357008246e-05
5.761330620936839e-05
-6.53081573375458e-05
-4.8510116842155615e-05
-3.2998589685959145e-05
-1.892606714159334e-05
-6.412849362862072e-06
4.4556751963992225e-06
1.3630364929066718e-05
2.1098282641948685e-05
2.6881361704658713e-05
3.103393312541003e-05
3.36393156452619e-05
3.480570196420785e-05
3.46615862762481e-05
3.335097294508704e-05
3.1028586319044316e-05
2.785527110336916e-05
2.3993735425650864e-05
1.960474864459022e-05
1.4843866415280293e-05
9.858719198119203e-06
4.78686910213022e-06
-2.4578527989260746e-07
-5.126095212019954e-06
-9.754291144505045e-06
-1.4044213903677272e-05
-1.792320894631466e-05
-2.1331743436422967e-05
-2.4222801630592594e-05
-2.656110785381749e-05
-2.832221897737519e-05
-2.9491520402519233e-05
-3.006315161666745e-05
-3.0038879776192462e-05
-2.9426932742063205e-05
-2.8240796717614314e-05
-2.649797819499755e-05
-2.421872536560038e-05
-2.1424700487542025e-05
-1.8137591926870034e-05
-1.4377652676533792e-05
-1.0162151093173755e-05
-5.50371934823074e-06
-4.08585661172689e-07
5.125322244121933e-06
1.1110412848833184e-05
1.757161313689637e-05
2.4548701150955976e-05
3.209878790930154e-05
4.029894242576354e-05
-5.075835559531505e-05
-3.4187944538986714e-05
-1.8995330341088634e-05
-5.352173163046536e-06
6.607629048652197e-06
1.6790995396358255e-05
2.5147018127405496e-05
3.1666643598660116e-05
3.638080120863668e-05
3.9357185676984485e-05
4.069595767101225e-05
4.0524662192072125e-05
3.899267360237685e-05
3.626546335722125e-05
3.251895580380637e-05
2.7934194137893553e-05
2.2692488302340774e-05
1.6971164386800353e-05
1.0939985181826484e-05
4.758267111180936e-06
-1.4273181858717732e-06
-7.484297895765657e-06
-1.3295368055998846e-05
-1.875885217334644e-05
-2.3788726493383094e-05
-2.8314289903526302e-05
-3.2279552170326464e-05
-3.5642406979195795e-05
-3.8373647165287905e-05
-4.0455869521165144e-05
-4.188230635313733e-05
-4.2655611067754506e-05
-4.2786615864875976e-05
-4.2293071325867626e-05
-4.1198370431531905e-05
-3.953025337477545e-05
-3.73194844477745e-05
-3.459848824324818e-05
-3.139992937170599e-05
-2.7755217816276267e-05
-2.3692920883632007e-05
-1.9237062423120566e-05
-1.4405290566052442e-05
-9.206896663942199e-06
-3.6406703724650713e-06
2.307421062844317e-06
8.666737320320306e-06
1.5484656527078866e-05
2.282945138273179e-05
-3.598049074542142e-05
-1.9610903878024277e-05
-4.728604379070078e-06
8.473378792249464e-06
1.984645669549784e-05
2.928990716565688e-05
3.6752207511751844e-05
4.223032132588678e-05
4.5767114499731254e-05
4.744717794766262e-05
4.739140557909194e-05
4.5750713042636004e-05
4.2699286882608156e-05
3.842772940144262e-05
3.3136418254600675e-05
2.7029339181715295e-05
2.0308582808596654e-05
1.316962881710293e-05
5.797478250066379e-06
-1.6363590522039395e-06
-8.976057836243556e-06
-1.6082919087369307e-05
-2.283614788667343e-05
-2.913306612249006e-05
-3.4888861303677965e-05
-4.003596902485418e-05
-4.4523178430566634e-05
-4.8314538923253936e-05
-5.138813369467282e-05
-5.373477250503189e-05
-5.5356643266765704e-05
-5.6265949944095395e-05
-5.64835533889696e-05
-5.603762217246122e-05
-5.4962292284944925e-05
-5.329632774868365e-05
-5.108176865119968e-05
-4.836254877304408e-05
-4.518306175432807e-05
-4.1586652556956094e-05
-3.761400975618029e-05
-3.330143389466966e-05
-2.86789577339866e-05
-2.3768295721537935e-05
-1.8580602359076492e-05
-1.3114022404031589e-05
-7.351019965448624e-06
-1.2554785594892648e-06
5.2304299343539085e-06
-2.0959129611274052e-05
-4.760612627781324e-06
9.819673848464328e-06
2.2564805992233983e-05
3.331034953536066e-05
4.1948194621756196e-05
4.842779512991696e-05
5.275489830119939e-05
5.498801310233753e-05
5.5232993244745676e-05
5.36361946861727e-05
5.0376705160185e-05
4.565813767107296e-05
3.9700438039642905e-05
3.2732088193203335e-05
2.4983002646403185e-05
1.6678325678649852e-05
8.033249702298073e-06
-7.511023289510921e-07
-9.490751830494581e-06
-1.8020967069938554e-05
-2.619749700998042e-05
-3.389705974936319e-05
-4.101721628515381e-05
-4.7475758346474106e-05
-5.320973015637137e-05
-5.817419051137168e-05
-6.234080553184362e-05
-6.569634540607577e-05
-6.824114161824157e-05
-6.998754531811063e-05
-7.095841315318818e-05
-7.118563429264063e-05
-7.07087016023622e-05
-6.957332092962648e-05
-6.783004510077517e-05
-6.553291338526335e-05
-6.273807266966164e-05
-5.950235326731418e-05
-5.588177006657369e-05
-5.192991848677886e-05
-4.769623442332088e-05
-4.32240879957857e-05
-3.854868244994314e-05
-3.369473202362305e-05
-2.8673895961332796e-05
-2.3481950169872146e-05
-1.8095683228552817e-05
-1.246950958695009e-05
-5.675502500218643e-06
1.0384889971883082e-05
2.4670741001944774e-05
3.69383269363463e-05
4.700617395664991e-05
5.4759331554514457e-05
6.015041081407907e-05
6.319753052746319e-05
6.39795232652493e-05
6.262891216236854e-05
5.932326692475315e-05
5.427558251464709e-05
4.772430178213993e-05
3.992353521822811e-05
3.113393133365866e-05
2.1614534930818052e-05
1.1615851400484378e-05
1.3742241196379457e-06
-8.892463298618147e-06
-1.898782350225059e-05
-2.8738858333432482e-05
-3.799685971873912e-05
-4.6637486180958754e-05
-5.456018447057981e-05
-6.168711696624002e-05
-6.796173940659678e-05
-7.334715317996315e-05
-7.782433423006441e-05
-8.139031843166361e-05
-8.40564022984644e-05
-8.58463988688829e-05
-8.679497195598213e-05
-8.694605775842051e-05
-8.635137102685347e-05
-8.506898337361235e-05
-8.316195365088569e-05
-8.069698435052286e-05
-7.774307346104792e-05
-7.437012793969078e-05
-7.06475027843767e-05
-6.66424285012332e-05
-6.241828950707962e-05
-5.8032716667891227e-05
-5.353545874860893e-05
-4.896600007791435e-05
-4.435089521975105e-05
-3.970079591680831e-05
-3.500715101771579e-05
-3.0238566472627626e-05
9.893092293988826e-06
2.585174805131568e-05
3.9849430635563454e-05
5.161227305840177e-05
6.094056558358235e-05
6.771348578565178e-05
7.188977280316727e-05
7.350457513154857e-05
7.266297121070325e-05
6.95308590385052e-05
6.432402254619163e-05
5.729620835898813e-05
4.872699717389101e-05
3.891014693237216e-05
2.814294130241285e-05
1.671691770714634e-05
4.910192442003636e-06
-7.0185399531144665e-06
-1.8834371239923042e-05
-3.0329032491720198e-05
-4.132241749989218e-05
-5.166298968450195e-05
-6.122729504520058e-05
-6.991879650754262e-05
-7.766622629768599e-05
-8.442162724379282e-05
-9.015822484825797e-05
-9.486824240479558e-05
-9.856074328722791e-05
-0.0001012595590251103
-0.00010300133951745422
-0.00010383374289366087
-0.0001038137670060224
-0.00010300621202424809
-0.00010148225372040576
-9.931809936832708e-05
-9.659369235680976e-05
-9.33914272984171e-05
-8.979483433053242e-05
-8.588718928396327e-05
-8.175000529305615e-05
-7.746136120481001e-05
-7.309402281130417e-05
-6.871331450198498e-05
-6.437470148568797e-05
-6.01210463013549e-05
-5.597950796301654e-05
-5.195805776304907e-05
-4.8041592423296586e-05
2.57740066826051e-05
4.167100851746458e-05
5.538467593615981e-05
6.660715037538206e-05
7.511935062280706e-05
8.079615361603759e-05
8.360646042163133e-05
8.360850669669045e-05
8.094112652320268e-05
7.581192204753062e-05
6.848341435322647e-05
5.9258256975842916e-05
4.8464500545242206e-05
3.6441732573527785e-05
2.3528711213104125e-05
1.0052895070999934e-05
-3.6779332185030156e-06
-1.7381927238664663e-05
-3.0807435307672604e-05
-4.373546750355978e-05
-5.598063844153289e-05
-6.739087685663642e-05
-7.784619084753863e-05
-8.725675691947238e-05
-9.55605685895311e-05
-0.00010272084203563625
-0.00010872333647671262
-0.00011357370875837713
-0.0001172949869195361
-0.0001199252173447185
-0.0001215153147796702
-0.0001221271238464952
-0.00012183168430974362
-0.00012070767961941398
-0.00011884003856998948
-0.00011631865266279601
-0.00011323716641819387
-0.0001096917940201364
-0.00010578011295938466
-0.00010159978356590049
-9.724714234348592e-05
-9.28156168234287e-05
-8.839391026546628e-05
-8.406390603205027e-05
-7.989824396104073e-05
-7.595752465325983e-05
-7.228710234651048e-05
-6.89134329744448e-05
-6.583995103005141e-05
4.2000114795437415e-05
5.787948052327074e-05
7.13100725330193e-05
8.194561645772508e-05
8.95466861484534e-05
9.398628742843945e-05
9.524895196560274e-05
9.342389620260044e-05
8.869325434644748e-05
8.131669330666697e-05
7.161384552188677e-05
5.994596350904213e-05
4.669803853152299e-05
3.226237727167042e-05
1.7024339681745437e-05
1.3506484849781786e-06
-1.441958304791019e-05
-2.9981173812115847e-05
-4.506677499944989e-05
-5.944867563083961e-05
-7.293889176208934e-05
-8.538792694545022e-05
-9.668257086662552e-05
-0.000106743062946911
-0.00011551989708261795
-0.00012299048960966175
-0.00012915588000913386
-0.0001340375859727877
-0.00013767469291088574
-0.00014012122338435268
-0.00014144380409658597
-0.0001417196263463691
-0.00014103467934353103
-0.00013948222356195
-0.00013716146244470429
-0.0001341763644589003
-0.00013063458304431175
-0.00012664641888440742
-0.00012232376676350742
-0.00011777898782663193
-0.00011312364721367124
-0.00010846705680083585
-0.00010391456323111115
-9.956552270947577e-05
-9.551090635598336e-05
-9.18304834227196e-05
-8.858953451593155e-05
-8.583505316343831e-05
-8.359140154345912e-05
5.8610879194349874e-05
7.452076671138341e-05
8.766450142749099e-05
9.765232008366459e-05
0.0001042237997267853
0.00010725372560879687
0.00010674967251173006
0.00010284214951974263
9.576874916034789e-05
8.585410414081729e-05
7.348757398535632e-05
5.910048368458487e-05
4.314446850601367e-05
2.607210833165119e-05
8.320626230164108e-06
-9.700965826246744e-06
-2.762122732769684e-05
-4.51123679183138e-05
-6.18934324797607e-05
-7.773107886501623e-05
-9.243846788233034e-05
-0.00010587276959022479
-0.00011793174164236031
-0.00012854976852680333
-0.0001376936763808831
-0.00014535856478412046
-0.00015156382978944588
-0.00015634949429742945
-0.00015977291376481628
-0.00016190588698612035
-0.0001628321723596976
-0.00016264538833327125
-0.00016144726117500036
-0.0001593461724379852
-0.0001564559512454919
-0.0001528948517669007
-0.00014878465315453643
-0.00014424981715654983
-0.00013941663718294167
-0.0001344123115470941
-0.00012936387284766954
-0.00012439690505574447
-0.00011963397998435849
-0.00011519274569903731
-0.00011118360136504885
-0.00010770689629592545
-0.00010484959579873387
-0.00010268136289882934
-0.00010125001309736759
7.565366402776524e-05
9.164650563513871e-05
0.00010449280604700462
0.00011375352357874402
0.00011914715617372673
0.00012055565700931636
0.00011801970080961566
0.00011172459756993852
0.00010197891982998558
8.918833996019587e-05
7.382725650357386e-05
5.641057136734212e-05
3.7467547623362685e-05
1.7519130159626695e-05
-2.9404583151843022e-06
-2.3457552110112134e-05
-4.36284352120786e-05
-6.310472085356567e-05
-8.15953310886186e-05
-9.88657705210047e-05
-0.00011473538910093672
-0.00012907327405033142
-0.00014179332311198278
-0.00015284894889801282
-0.00016222776068906125
-0.0001699464744473328
-0.0001760462189666842
-0.00018058833792684859
-0.00018365073403390358
-0.00018532476105923013
-0.0001857126404490525
-0.00018492535907582708
-0.00018308099152734153
-0.00018030338219218733
-0.00017672111772226717
-0.00017246671796905533
-0.00016767597224381925
-0.00016248734706665602
-0.00015704139101092168
-0.00015148006159901306
-0.00014594589843282268
-0.00014058096597970027
-0.00013552548894315425
-0.00013091610331077835
-0.00012688364742073632
-0.00012355042015799872
-0.00012102683806212988
-0.00011940742990190073
-0.00011876611611599808
9.31853645216793e-05
0.00010931787417171879
0.00012184650649509077
0.00013027638599768382
0.00013430580168852235
0.00013383174150852217
0.0001289416502080823
0.0001198933869477406
0.00010708635937362737
9.102730475620685e-05
7.22941836614685e-05
5.150123806303003e-05
2.9267583021727606e-05
6.190900030934865e-06
-1.7172986690128234e-05
-4.032454663553675e-05
-6.282940196542658e-05
-8.432235540323241e-05
-0.00010450750666551878
-0.00012315541758960852
-0.0001400982314959734
-0.00015522353873760608
-0.00016846763833177486
-0.000179808697865734
-0.00018926017569218662
-0.00019686474936807946
-0.00020268889590563388
-0.00020681819282246383
-0.00020935335222094925
-0.0002104069601592401
-0.00021010086704416342
-0.00020856415843360787
-0.00020593162661740327
-0.00020234265926057093
-0.00019794046034020407
-0.0001928715191529956
-0.00018728524427584492
-0.0001813336803251353
-0.0001751712257793553
-0.00016895426982972694
-0.0001628406652499012
-0.00015698895285282816
-0.00015155725162307315
-0.00014670172761947764
-0.00014257455485224696
-0.0001393212832176416
-0.00013707753281645002
-0.00013596494098192663
-0.00013608629817334073
0.00011127444482515736
0.00012760741003094156
0.00013978451487286353
0.00014724772081525783
0.00014967752025013548
0.0001469973477687958
0.00013936004896620419
0.00012711942340871973
0.00011079115340123513
9.100796278180279e-05
6.847366488767215e-05
4.3920021492581396e-05
1.8069271308665535e-05
-8.395974509245452e-06
-3.4854846329014644e-05
-6.0762582544199306e-05
-8.565799805890922e-05
-0.00010916525239255265
-0.00013099124332923567
-0.000150919916129727
-0.00016880463634006554
-0.0001845595770955527
-0.00019815085864013926
-0.00020958797500812004
-0.00021891586574054184
-0.00022620784578391423
-0.00023155949504492096
-0.0002350835275540808
-0.00023690560412985978
-0.0002371610165836993
-0.00023599215084065678
-0.0002335466264513017
-0.00022997600721141181
-0.0002254349791399879
-0.00022008089575181744
-0.0002140735948738537
-0.00020757539515477152
-0.00020075118323949204
-0.00019376850399029782
-0.00018679756605144426
-0.00018001107358974616
-0.0001735837925541106
-0.00016769175680863418
-0.000162511016728914
-0.0001582158311873444
-0.00015497620424610725
-0.00015295467124676332
-0.00015230224603605957
-0.00015315345209371972
0.00013000350722966458
0.00014660122753681198
0.00015837378235409455
0.00016469194151146754
0.0001652232639132098
0.00015993413475191148
0.00014906827599880934
0.00013310635122819325
0.00011271294619877997
8.867771156933352e-05
6.185692599736808e-05
3.312047289299319e-05
3.307588229438385e-06
-2.6806929212815078e-05
-5.653579712214252e-05
-8.529244978333628e-05
-0.00011259586760731938
-0.00013806885696314442
-0.00016143162828492763
-0.0001824923550700075
-0.00020113612443894285
-0.00021731337942328816
-0.0002310286511150797
-0.00024233011300191926
-0.00025130027279027245
-0.0002580479508509301
-0.0002627015748354333
-0.0002654037395988934
-0.0002663069319856562
-0.00026557029333652143
-0.00026335728186723667
-0.0002598340967650964
-0.00025516873165618015
-0.0002495305338510029
-0.0002430901552584533
-0.00023601978957039915
-0.0002284935973318955
-0.00022068822528693854
-0.00021278332870229566
-0.00020496200525566693
-0.00019741104673817733
-0.0001903209107342388
-0.00018388530926700258
-0.00017830030605606173
-0.00017376280970673313
-0.00017046834817984607
-0.0001686080116618735
-0.00016836445767049596
-0.0001699068845873175
0.00014947255864758424
0.00016640171401788306
0.00017768975169617923
0.0001826277509358598
0.0001808790557745535
0.00017247685788454592
0.00015779072374452058
0.00013746918213990156
0.00011236757919468043
8.347073676063382e-05
5.181879420262242e-05
1.8442497023825333e-05
-1.568829393858162e-05
-4.970145963036077e-05
-8.284533202176925e-05
-0.00011449903175105025
-0.00014417289875542916
-0.0001715016705827882
-0.0001962329009408681
-0.00021821274221480585
-0.00023737076034530125
-0.00025370499391157153
-0.0002672680629313903
-0.0002781548009545276
-0.00028649163163221164
-0.0002924277317716342
-0.00029612790502502734
-0.00029776702025925694
-0.00029752583347805034
-0.00029558800095670634
-0.00029213809527336293
-0.0002873604486278297
-0.00028143866451251637
-0.0002745556562386564
-0.000266894086943352
-0.0002586370992315318
-0.0002499692328524761
-0.00024107743546167987
-0.00023215207451818265
-0.00022338785786941984
-0.0002149845668982034
-0.00020714749978017338
-0.00020008751420742127
-0.00019402054999158314
-0.00018916650376072514
-0.0001857473223515413
-0.00018398418052081172
-0.00018409361421157372
-0.00018628249422102117
0.00016980320006269173
0.00018713080737186444
0.00019781639106045829
0.00020106288019804824
0.00019654416124607194
0.000184394767118172
0.000165158309118639
0.00013970568307679343
0.00010913662979459421
7.467807449716701e-05
3.759039419769239e-05
-9.10717180245546e-07
-3.971286260318063e-05
-7.784540102764165e-05
-0.0001144995402600768
-0.00014903329601199944
-0.00018096512228103073
-0.00020995994051411365
-0.00023581081369609957
-0.00025841884184969743
-0.00027777315530568003
-0.0002939322491288601
-0.0003070073837214832
-0.0003171483849303061
-0.0003245319027044627
-0.00032935201087817834
-0.000331812929468607
-0.00033212360380110995
-0.00033049386399246206
-0.000327131899946681
-0.0003222428108771089
-0.00031602801739771813
-0.0003086853537657627
-0.0003004096850491647
-0.00029139391719915086
-0.0002818302864218969
-0.0002719118275624696
-0.0002618339294555086
-0.0002517958885220953
-0.00024200237058549096
-0.0002326646853238329
-0.00022400176851014586
-0.0002162407550318074
-0.0002096170118745036
-0.00020437348660319599
-0.00020075921580174627
-0.00019902683240268643
-0.00019942891393649048
-0.00020221302807087865
0.00019114404896120735
0.00020893396286028598
0.00021884541653113126
0.0002199857806556571
0.00021206369803682124
0.00019536519475907288
0.00017067466248848334
0.00013915794798646103
0.00010222770186985725
6.140988817830706e-05
1.8226115008804222e-05
-2.589919142234609e-05
-6.970330937309394e-05
-0.00011212245912457786
-0.00015230571839709717
-0.00018961100798720737
-0.00022358876041426307
-0.0002539583091687933
-0.000280581055226832
-0.00030343337919503527
-0.0003225812617099061
-0.00033815774704124
-0.00035034376291953606
-0.0003593523801255147
-0.00036541632540704194
-0.00036877841239123244
-0.0003696844915210343
-0.0003683785120568231
-0.0003650993143061304
-0.00036007881242323264
-0.0003535412766078466
-0.0003457034715719093
-0.0003367754518217303
-0.00032696185161400215
-0.00031646353758264106
-0.0003054795149114928
-0.00029420899380604854
-0.0002828535323221651
-0.00027161917476784675
-0.00026071850230718896
-0.00025037250443685904
-0.00024081216711801384
-0.0002322796562329449
-0.000225028954911638
-0.00021932579215816483
-0.00021544668116392496
-0.0002136768728403654
-0.00021430702822105435
-0.00021762842704978885
0.00021367782462663326
0.00023198490829752505
0.00024087401830136593
0.00023935251721362433
0.00022720287418132035
0.00020493576991029855
0.00017366918825174882
0.00013496066483121086
9.062276266271624e-05
4.2548314430148476e-05
-7.435677241669075e-06
-5.7675606586520684e-05
-0.00010675853635730079
-0.00015354329775150652
-0.00019716284128347764
-0.00023700630740477666
-0.0002726887477578592
-0.0003040150155826163
-0.0003309426321618583
-0.0003535468047648968
-0.00037198941790878015
-0.000386492807400024
-0.00039731843761565966
-0.000404750180034677
-0.0004090816678116449
-0.00041060711495306823
-0.000409614988963615
-0.00040638397529503545
-0.000401180744786421
-0.00039425911497235205
-0.00038586027281807544
-0.0003762137948632657
-0.00036553925862344017
-0.00035404828587189824
-0.0003419468945357121
-0.000329438062261371
-0.0003167244222124291
-0.00030401102125776625
-0.0002915080731069261
-0.00027943363462921283
-0.0002680161228273831
-0.0002574965729124981
-0.0002481305149846097
-0.00024018931886646971
-0.00023396082564520332
-0.00022974905406385193
-0.00022787274558484782
-0.00022866250091433532
-0.00023245627074178904
0.00023763069813916016
0.00025649123877952845
0.0002639998924573797
0.0002590660274975551
0.00024160848550953268
0.00021246993287064864
0.00017323156373033263
0.00012597139765976526
7.301123686547298e-05
1.6689273613215705e-05
-4.081815133332237e-05
-9.761634826460641e-05
-0.00015215587751742782
-0.00020324949854076332
-0.0002500551546578862
-0.0002920376334860503
-0.00032891959946037067
-0.0003606299816932834
-0.0003872549968742048
-0.0004089948145336725
-0.00042612717842424944
-0.000438978162542257
-0.0004478995630648949
-0.0004532520865570093
-0.00045539337889376544
-0.00045466996018057523
-0.00045141222505568415
-0.00044593179304148675
-0.0004385206242913317
-0.00042945143784382106
-0.00041897907553596625
-0.00040734254278157467
-0.0003947675278015844
-0.0003814692551507917
-0.0003676555695413808
-0.00035353017404383263
-0.0003392959645226526
-0.0003251584110576661
-0.000311328938093762
-0.0002980282486699237
-0.000285489524368944
-0.0002739614113256225
-0.0002637106733711092
-0.00025502435628586145
-0.00024821126360066725
-0.0002436024982064855
-0.00024155078221688858
-0.00024242824050850487
-0.0002466223337471221
0.0002632847574105465
0.0002827007668554475
0.000288311467728182
0.0002789430910919641
0.0002547507998869186
0.00021706773136869958
0.00016811993542175177
0.0001106767213500115
4.770410113661902e-05
-1.792788501363274e-05
-8.365655852253517e-05
-0.00014735127808261986
-0.0002073617254880894
-0.0002625083198887837
-0.0003120350618164604
-0.0003555427305296545
-0.00039291605797949283
-0.0004242539253252915
-0.00044980770321650584
-0.00046992993642858485
-0.00048503364657158723
-0.0004955614114159172
-0.0005019628486812276
-0.0005046789802587402
-0.0005041320207960776
-0.000500719311934416
-0.000494810340202767
-0.00048674599219455245
-0.00047683939459577246
-0.000465377850638448
-0.00045262551739564186
-0.00043882657236830186
-0.0004242086968867208
-0.0004089867621008027
-0.0003933666445858179
-0.0003775491260927452
-0.00036173384828527486
-0.00034612330033212055
-0.0003309268161814788
-0.00031636454975051895
-0.00030267137990281495
-0.00029010067200917547
-0.00027892778760832404
-0.00026945318681422664
-0.00026200490955186756
-0.00025694015445992466
-0.0002546456064975791
-0.0002555361104136025
-0.00026005126724282235
0.00029099479834902853
0.000310908219721788
0.00031386956622405857
0.0002986612428018433
0.000265834882971501
0.0002174497648032847
0.00015663186043862742
8.706636230873879e-05
1.2525202896730009e-05
-6.350267875448665e-05
-0.000138050429868284
-0.0002087868863659345
-0.00027402995485990844
-0.0003326923296595799
-0.00038419017314986204
-0.0004283386887041045
-0.0004652506069572314
-0.0004952466152143634
-0.0005187815487655532
-0.0005363867808946508
-0.0005486273561643301
-0.0005560715687970355
-0.0005592705007983721
-0.0005587452071743465
-0.0005549795709965354
-0.0005484172304995316
-0.0005394613401620771
-0.0005284762390654757
-0.0005157903543088066
-0.0005016998671197592
-0.00048647282149933205
-0.0004703534681331327
-0.0004535667179117048
-0.0004363226366534724
-0.00041882095111603
-0.0004012555604571595
-0.00038381906017357845
-0.00036670728947038253
-0.0003501239093940435
-0.00033428500841728437
-0.0003194237140050765
-0.00030579476129001526
-0.00029367893033242776
-0.00028338720770370446
-0.00027526445313287226
-0.0002696922580261371
-0.00026709057756395607
-0.00026791762057176705
-0.00027266742195738297
0.00032121117666461876
0.0003414611435042618
0.00034067369411275306
0.0003176724532376503
0.0002736637235195051
0.00021178586767503157
0.0001364227367564308
5.246596305547718e-05
-3.532284506417224e-05
-0.00012276448049470048
-0.0002065101404355625
-0.00028411362031655757
-0.00035397881213030183
-0.00041523567459223615
-0.00046758799099628004
-0.000511162344476318
-0.0005463748675675166
-0.0005738226632374076
-0.0005942006278546533
-0.000608241084561853
-0.0006166722688525708
-0.0006201915113949047
-0.0006194493664542465
-0.0006150415755386135
-0.0006075064308213342
-0.0005973257116684075
-0.0005849278726451322
-0.0005706925585484378
-0.0005549558226988459
-0.0005380156457886753
-0.0005201375111325637
-0.0005015599032484608
-0.00048249967254821585
-0.0004631572589783202
-0.0004437217987413658
-0.00042437615580380797
-0.00040530192730589554
-0.00038668447164730627
-0.00036871800141611774
-0.0003516107710543129
-0.00033559037061928546
-0.0003209091098830656
-0.00030784943660236083
-0.00029672927182812156
-0.00028790705509701767
-0.0002817861673990868
-0.00027881824362308016
-0.00027950472020845177
-0.000284395832413218
0.0003545112061604759
0.00037476226011650543
0.0003686004211399599
0.0003350608074622792
0.000276424404097024
0.00019744066566083213
0.00010425111994159797
3.3186573262962427e-06
-9.941717737271469e-05
-0.00019906293294687585
-0.00029198400848604034
-0.00037578245630115817
-0.0004491327272618667
-0.0005115561633019725
-0.0005631905107999803
-0.0006045861883935792
-0.0006365423487961555
-0.0006599840267412817
-0.0006758755996910462
-0.0006851635229912743
-0.0006887411966920269
-0.0006874297346933823
-0.0006819696532715594
-0.0006730197188698703
-0.0006611602412839764
-0.0006468989269277775
-0.0006306780304930794
-0.0006128819956613511
-0.0005938450941402433
-0.0005738587910875566
-0.0005531787116116287
-0.0005320311787239372
-0.0005106193534882182
-0.0004891290442653844
-0.00046773427156880307
-0.0004466026832695355
-0.0004259009151312415
-0.00040579998613624046
-0.0003864808082338529
-0.00036813987678713245
-0.000350995190862638
-0.0003352924293429059
-0.00032131137374149035
-0.0003093725103563219
-0.00029984364644594294
-0.00029314621968458063
-0.0002897607589820578
-0.0002902306857339304
-0.0002951633875454586
0.0003916426306844953
0.0004112619602702032
0.0003972902153413123
0.00034930407429657404
0.00027135002065013444
0.00017059427319349868
5.562478432561552e-05
-6.509141535024007e-05
-0.00018428774955167246
-0.00029643738482802717
-0.0003978416933056693
-0.00048642785937608873
-0.0005614105482333182
-0.0006229300142946009
-0.0006717306116629448
-0.0007089056958477814
-0.0007357113650171485
-0.0007534398958588262
-0.000763339893184993
-0.0007665704821919923
-0.0007641789323396403
-0.0007570935754188032
-0.0007461261411293788
-0.0007319794605527251
-0.0007152578615509525
-0.0006964785634683106
-0.0006760830568048534
-0.0006544479070830986
-0.0006318947167207566
-0.0006086991643458432
-0.0005850991538358594
-0.0005613021707167737
-0.0005374919785883676
-0.0005138348042544906
-0.0004904851644454873
-0.0004675914838467507
-0.000445301646216225
-0.00042376860928556095
-0.00040315620105281155
-0.0003836452010599761
-0.000365439796054412
-0.0003487744842289378
-0.0003339214807469744
-0.0003211986354214394
-0.0003109777845640982
-0.00030369328544983115
-0.0002998501885967432
-0.00030003108787117136
-0.0003049002201951957
0.000433584021856101
0.0004514266465677347
0.0004259370479835836
0.00035786710382140416
0.00025417917130095974
0.00012567727565138825
-1.5681299296684686e-05
-0.00015896924048991457
-0.0002955764391206518
-0.00041962566422387715
-0.0005277742553834973
-0.0006187044179800753
-0.0006925369884674508
-0.0007503051873336032
-0.0007935434511799205
-0.0008239963981055351
-0.0008434295840054097
-0.0008535170827130324
-0.0008557826028068975
-0.0008515755565689925
-0.000842068529260602
-0.0008282668673735456
-0.000811024344460419
-0.0007910611589023453
-0.0007689820679881547
-0.0007452934693213328
-0.0007204188713770161
-0.0006947125756118396
-0.0006684716117008813
-0.0006419460856008155
-0.0006153481570235035
-0.0005888598841072429
-0.0005626401745603658
-0.0005368310739150978
-0.0005115636082200815
-0.0004869633833040829
-0.0004631561268328213
-0.0004402733431917334
-0.00041845823520591727
-0.00039787203207037464
-0.0003787008519507487
-0.00036116322309817997
-0.0003455183881382641
-0.0003320755101564876
-0.00032120385120109826
-0.0003133438380241542
-0.000309018580412556
-0.0003088448047181003
-0.0003135413580353484
0.000481628153246174
0.0004956503811373372
0.000452889816641662
0.0003564951232531248
0.00021828411187561209
5.4536475016596364e-05
-0.00011825526093248509
-0.000286358401148476
-0.0004401174353749794
-0.0005739415217389625
-0.0006855507798458303
-0.0007749944721579492
-0.0008437519174519237
-0.0008940416654157589
-0.0009283505601575918
-0.000949143861081421
-0.0009587060121246001
-0.0009590675251870788
-0.0009519844431621349
-0.0009389473828371082
-0.0009212054040695326
-0.000899795773293445
-0.0008755745378189218
-0.0008492452488173055
-0.0008213846292228454
-0.0007924648211978975
-0.0007628723019477909
-0.0007329237808286204
-0.0007028794824833172
-0.0006729542401977089
-0.0006433268067101219
-0.0006141477571580921
-0.0005855463222381868
-0.0005576364548598375
-0.0005305224030481906
-0.0005043040359709386
-0.00047908214790785136
-0.00045496394547224137
-0.00043206890552117266
-0.00041053517566119746
-0.00039052667986214096
-0.0003722410961650817
-0.00035591890098212245
-0.00034185372502539696
-0.0003304043073738029
-0.0003220082721992028
-0.0003171976184806087
-0.00031661501674202716
-0.000321028691505687
0.0005374940095319372
0.0005440338343556499
0.0004748788193332555
0.00033796103313985665
0.000153259376896437
-5.47677993871995e-05
-0.00026380567500618526
-0.00045740777015667103
-0.0006258095995955899
-0.0007649055010731723
-0.0008745492649003643
-0.0009569389209618216
-0.0010153968342842754
-0.0010535758229463371
-0.0010750035859286161
-0.0010828577394265577
-0.0010798824062532332
-0.0010683839359261205
-0.0010502660890965125
-0.001027081280160918
-0.0010000850192812029
-0.0009702871037069703
-0.0009384967965714655
-0.0009053612377024622
-0.0008713973443201517
-0.0008370179106135384
-0.0008025527626875015
-0.000768265819342924
-0.0007343688338973461
-0.0007010324933470341
-0.0006683954519674171
-0.0006365717878619136
-0.0006056572971465772
-0.0005757349819401972
-0.0005468800437654665
-0.0005191646609576384
-0.0004926628041928734
-0.000467455324966861
-0.00044363553476917117
-0.00042131547663079236
-0.00040063307914629115
-0.0003817603883522723
-0.0003649131191805176
-0.0003503618845111939
-0.0003384456472409411
-0.0003295881032337987
-0.0003243175679358938
-0.0003232900651533449
-0.00032731332977103955
0.0006034632506377452
0.0005958474306178851
0.0004854685882948219
0.0002898056023659147
4.2651017588518636e-05
-0.00021960073827869547
-0.000467902897451352
-0.0006843141489727041
-0.0008610490882778737
-0.000997461461628036
-0.0010969667930005485
-0.001164753052678668
-0.001206376000639664
-0.0012270245129223922
-0.0012312099405531393
-0.0012226923327793467
-0.001204523715702028
-0.0011791394141581028
-0.0011484610131507304
-0.0011139936254824859
-0.0010769105344936476
-0.001038123576209058
-0.0009983400823418871
-0.0009581081649914676
-0.0009178523388385131
-0.0008779013534959482
-0.0008385098574725317
-0.0007998752387846537
-0.0007621507317156391
-0.000725455661801197
-0.0006898835251400934
-0.0006555084607800764
-0.0006223905711898875
-0.0005905804702412143
-0.0005601233854676049
-0.0005310631067219976
-0.0005034460518339966
-0.00047732570629871116
-0.00045276768290198124
-0.00042985563368426113
-0.0004086982300833611
-0.00038943741889149383
-0.000372258198594818
-0.00035740031594251945
-0.00034517264349184784
-0.00033597155814140203
-0.0003303050743283138
-0.0003288239587479515
-0.0003323584307398618
0.0006825013350913213
0.0006482100057012344
0.0004718646278220502
0.0001902006237556285
-0.00013958564547383867
-0.00046471057206025
-0.0007502539322831979
-0.0009804508326773861
-0.0011533565596585083
-0.001274578024358694
-0.001352635476431479
-0.001396329271923069
-0.0014135286897715565
-0.001410775032916825
-0.001393283727172387
-0.0013651094002436921
-0.0013293548810987509
-0.001288370871472714
-0.001243926701815598
-0.00119734836598415
-0.0011496266046504555
-0.00110149994597665
-0.0010535177767904379
-0.0010060879162283078
-0.0009595123556738264
-0.0009140140510997194
-0.0008697569911318391
-0.0008268612325296638
-0.000785414183106261
-0.0007454791006241517
-0.0007071015447681454
-0.000670314350457165
-0.0006351415705077752
-0.0006016017532092174
-0.0005697108674763383
-0.0005394851584241273
-0.0005109442037629641
-0.00048411444033820417
-0.00045903343304327937
-0.0004357551559043549
-0.0004143565379799395
-0.0003949454939657232
-0.00037767064172412185
-0.00036273301311254974
-0.0003504005174542746
-0.0003410269830991901
-0.0003350791839088936
-0.00033317614823681965
-0.00033614259747983405
0.000778120728394293
0.0006927527595937746
0.00040804281772247736
4.277528208029846e-07
-0.000434208763462382
-0.000823705080941959
-0.001133424077543542
-0.001357816113121954
-0.0015067424898817273
-0.0015950871486471799
-0.0016374660305985833
-0.001646215757610172
-0.0016310126190839137
-0.0015991478465851548
-0.0015559888365676566
-0.0015054311779808052
-0.0014502766879655113
-0.0013925277062725415
-0.0013336077986833145
-0.001274523899775424
-0.0012159840789415788
-0.0011584825490959585
-0.0011023608395701948
-0.0010478517551468156
-0.000995110946423343
-0.0009442395731810542
-0.0008953005618411725
-0.0008483302522928754
-0.0008033467256782466
-0.0007603557475030706
-0.0007193550088904106
-0.0006803371737047412
-0.0006432921201655686
-0.0006082086883398945
-0.0005750761999718038
-0.0005438859979190296
-0.0005146332540862872
-0.00048731931223174735
-0.0004619548583228439
-0.00043856423429991173
-0.00041719121190318675
-0.00039790649716728646
-0.00038081713357875427
-0.00036607788635828475
-0.0003539049399776499
-0.000344593579429793
-0.0003385447667620077
-0.0003363099203927966
-0.000338663911198165
0.0008932637733430338
0.000706526192526924
0.00023977582452246876
-0.00034855697399640423
-0.0009022636595281651
-0.0013375788270792409
-0.001637721082918927
-0.001821669799567379
-0.0019175029928413453
-0.0019508604591804458
-0.0019417488899914834
-0.001904698663432798
-0.0018498788456813159
-0.0017842600285411063
-0.0017125590750210057
-0.001637937121158041
-0.0015624929671026154
-0.0014876042995970208
-0.0014141611966963855
-0.00134272519066694
-0.0012736374663217254
-0.0012070924593852138
-0.001143187932103041
-0.0010819590309768326
-0.0010234014066594563
-0.0009674868403752764
-0.00091417371972621
-0.0008634139643550094
-0.0008151575007205834
-0.0007693550464925279
-0.000725959736590568
-0.0006849279702370765
-0.0006462197590502983
-0.0006097987957775705
-0.0005756324329092635
-0.0005436917551080965
-0.0005139519465498059
-0.00048639319222017197
-0.00046100240775963364
-0.0004377761566121893
-0.0004167251637718118
-0.00039788082630645705
-0.00038130397706924793
-0.0003670958145045866
-0.00035541051879674906
-0.0003464696388452357
-0.0003405826302986144
-0.00033818842520879147
-0.0003399445844554823
0.0010231544961834468
0.0006270978945966642
-0.00015009755333212152
-0.0009755332120159055
-0.001625906462581258
-0.002043322516195479
-0.002269140478577226
-0.0023617186679009174
-0.002368855297622211
-0.002323956296640492
-0.0022488570958857992
-0.0021573743370746565
-0.0020580865284658724
-0.001956238868273029
-0.0018549804151513291
-0.0017561500596608715
-0.001660771747457379
-0.001569365948416234
-0.001482145714798662
-0.0013991402389431952
-0.0013202727167896493
-0.001245409282096703
-0.0011743895407243174
-0.001107045355457529
-0.001043212107147841
-0.0009827351325068477
-0.000925473072462029
-0.0008712992485053438
-0.0008201017888783517
-0.0007717829716228017
-0.0007262580875263304
-0.000683454021641057
-0.0006433076880740553
-0.0006057644176334712
-0.000570776385436747
-0.0005383011733737751
-0.0005083005909953912
-0.00048073993082820357
-0.000455587914019763
-0.000432817690660791
-0.00041240938566020763
-0.0003943547835101556
-0.0003786647101016241
-0.0003653792569769214
-0.00035457986364606855
-0.0003464005779517422
-0.0003410370221816998
-0.0003387673414319142
-0.00034003606661275887
0.0011312569903254768
0.0002691917979579378
-0.0010068425399342787
-0.0020690875431355338
-0.0026787178370729966
-0.0029431483993270623
-0.0029992399305584887
-0.0029415220540543498
-0.0028262795881056936
-0.002685101697530126
-0.002535198787642721
-0.002385692123243726
-0.0022412114980599925
-0.002103910250057659
-0.001974590150553013
-0.0018533307139060214
-0.001739842051718312
-0.0016336624428077255
-0.0015342680119464942
-0.0014411323535970036
-0.0013537575631633048
-0.001271688966801271
-0.0011945206423713724
-0.0011218958435810777
-0.0010535047126910904
-0.0009890806581162835
-0.0009283961796747141
-0.0008712585736677658
-0.0008175057428304461
-0.000767002214376658
-0.0007196353987628315
-0.0006753120823797566
-0.0006339551276065385
-0.0005955003473280401
-0.0005598935255988029
-0.0005270875720349601
-0.0004970398280203236
-0.0004697095944582695
-0.000445056033961333
-0.00042303672906880696
-0.00040360736622755897
-0.00038672326123092085
-0.00037234367979860697
-0.0003604398755838317
-0.0003510067174592596
-0.00034407411896765147
-0.0003397071159279147
-0.00033798581200445224
-0.0003390247223055594
0.0009669952992231081
-0.0008768692923704219
-0.002853191970271861
-0.003789220035135538
-0.004033531016891431
-0.003954419013229562
-0.0037441060306248972
-0.003491999686337871
-0.003237107180564497
-0.0029953669314713334
-0.0027723070748604736
-0.0025688528641323767
-0.0023839908660039204
-0.0022159944683678365
-0.0020629808205650246
-0.0019231535854523397
-0.001794897450974886
-0.0016768034806644676
-0.00156766340927467
-0.0014664512882491543
-0.0013723012653057282
-0.0012844855418565788
-0.0012023942145332409
-0.0011255175681565525
-0.0010534308503111628
-0.0009857813222061175
-0.0009222772942865769
-0.0008626788402551731
-0.0008067899000843079
-0.0007544515112694293
-0.0007055359382342995
-0.0006599414980261488
-0.0006175879046226192
-0.0005784119743058695
-0.0005423635517482171
-0.0005094015329686341
-0.0004794898811471861
-0.00045259356128224404
-0.0004286743716854259
-0.0004076867444938563
-0.0003895737567065627
-0.0003742638861685306
-0.0003616695138413291
-0.00035168878090008
-0.00034421268199621297
-0.00033913708713656857
-0.00033636774370387687
-0.0003357728410459393
-0.0003370438022948785
-0.0003672311374213876
-0.00464738884149337
-0.006040855393650844
-0.005935841376417131
-0.005431092910842275
-0.004872795496069409
-0.004361886963862971
-0.003918221309048552
-0.003538171448247387
-0.003212414929804931
-0.002931448307871516
-0.002687071478102345
-0.0024725977394431595
-0.0022826871842738274
-0.0021131024910116536
-0.0019604805765438653
-0.0018221436251092682
-0.0016959499049117692
-0.0015801782387873178
-0.0014734391181811836
-0.0013746063225113167
-0.0012827641373165007
-0.0011971663983871353
-0.0011172045097529726
-0.0010423822924888228
-0.0009722960540257501
-0.0009066186631983657
-0.0008450867083607538
-0.0007874900310331154
-0.0007336630855549579
-0.000683477690657408
-0.0006368368222011526
-0.0005936691550048959
-0.000553924100939563
-0.0005175671139285888
-0.00048457504280430275
-0.00045493131236811965
-0.0004286207043110793
-0.00040562349804610515
-0.0003859087280512971
-0.00036942634326252166
-0.00035609816731785315
-0.00034580786223893656
-0.00033839078734457934
-0.00033362596813172815
-0.0003312340183849738
-0.00033088211179773536
-0.00033216108529683305
-0.0003343396597424615
-0.011168735533337547
-0.01136966029612232
-0.009330576065464297
-0.007640555373404094
-0.006362639288001685
-0.005413182123601146
-0.00469037631633285
-0.004125378200385723
-0.0036723308911242106
-0.0033007880667049877
-0.00299002894256703
-0.0027256085414207737
-0.0024972150129082583
-0.0022973291235363624
-0.0021203638053172123
-0.0019620988136494523
-0.001819300503276649
-0.0016894605588477461
-0.001570612880637666
-0.0014612029126332936
-0.0013599928492394088
-0.0012659918309970188
-0.0011784038319218558
-0.0010965882604044228
-0.0010200298206145021
-0.0009483152010225857
-0.0008811148488738624
-0.0008181685656936458
-0.0007592739901671267
-0.0007042772668858395
-0.0006530653624357702
-0.0006055596037583787
-0.0005617100904282447
-0.0005214906804902157
-0.00048489427331943613
-0.00045192811430285265
-0.0004226088240597385
-0.00039695680574415235
-0.00037498960083081137
-0.00035671363608404116
-0.00034211361781445043
-0.00033113856857371407
-0.00032368316120937046
-0.0003195626297735031
-0.00031847932919174676
-0.0003199795527884901
-0.00032340112301620233
-0.0003278087163130529
-0.0003317924276926669

SCALARS STRAIN_XY float 1
LOOKUP_TABLE default
5.246742099673796e-07
0.05303405662331534
-2.7251413638185173e-06
5.285124009546394e-07
1.049319417634198e-06
2.0985226078240604e-06
3.1474924763741363e-06
4.196110196724723e-06
5.244254344116683e-06
6.2918000324763135e-06
7.338618050856116e-06
8.384574006148338e-06
9.429527467935683e-06
1.0473331118948659e-05
1.1515829914793274e-05
1.2556860253642999e-05
1.3596249160557905e-05
1.4633813487152647e-05
1.5669359134939942e-05
1.6702680304403472e-05
1.7733558778043612e-05
1.876176324591694e-05
1.9787048675640184e-05
2.0809155742179675e-05
2.182781032628034e-05
2.284272309097113e-05
2.385358915177327e-05
2.48600878541283e-05
2.586188267458822e-05
2.6858621262421112e-05
2.784993564178273e-05
2.8835442598629246e-05
2.9814744269662796e-05
3.0787428962758545e-05
3.1753072241180735e-05
3.271123829171052e-05
3.3661481614988276e-05
3.460334907699758e-05
3.553638235334611e-05
3.646012081176542e-05
3.737410487693327e-05
3.827787992642662e-05
3.9171000772636466e-05
4.0053036783685436e-05
4.092357771531829e-05
4.1782240313981145e-05
4.262867577307927e-05
4.34625781312592e-05
4.428369369938179e-05
4.509183163506347e-05
4.5886875782649716e-05
4.666879791970224e-05
4.7437672581071566e-05
4.819369364700288e-05
4.893719292746457e-05
4.9668661010582316e-05
5.0388770704110075e-05
5.109840346445571e-05
5.1798679286160776e-05
5.249099064705276e-05
5.3177041228050226e-05
5.3858890301947127e-05
5.4539003908893324e-05
5.522031420902851e-05
5.590628876195325e-05
5.660101193803724e-05
5.730928125267931e-05
5.803672218183953e-05
5.8789925995103576e-05
5.957661644290235e-05
6.0405852830153206e-05
6.128827925619418e-05
6.223643280127422e-05
6.326512746358814e-05
6.439193610929816e-05
6.5637800154561e-05
6.702780699861799e-05
6.859218958685243e-05
7.036762275845765e-05
7.239891999141768e-05
7.474127607012826e-05
7.746326275223647e-05
8.065087629663403e-05
8.44130749152322e-05
8.888945922942704e-05
9.426108768736952e-05
0.00010076596486571776
0.00010872164197845563
0.00011855889793826319
0.00013087314319903953
0.00014650502625083994
0.0001666708296010483
0.00019318114613297438
0.00022882357056162872
0.0002780671212641167
0.00034844341537192125
0.0004534827204918865
0.0006196311451528991
0.0009057909015892929
0.0014654285743564283
0.002858054156219727
0.007268633660891428
0.031848446524373936
0.03405743033195627
0.010739411097310393
0.004880250994115164
0.0027213331812081763
0.0017481125034879072
0.0012222355658506774
0.0009054917303033434
0.000699856048332663
0.0005589939221961951
0.00045845912660912036
0.00038432167407738416
0.0003281602964730554
0.0002846387055014457
0.00025024252655164725
0.00022258112869822516
0.00019998277329982134
0.00018125015119958843
0.00016550758295575535
0.00015210260690073918
0.00014054091051019652
0.00013044229799990398
0.00012151027174302914
0.00011351062701477066
0.00010625613837186854
9.95954413322564e-05
9.340485441461377e-05
8.758229673066359e-05
8.204272407523472e-05
7.67146848607847e-05
7.153771870232334e-05
6.6460405278565e-05
6.143893237329362e-05
5.64360985546436e-05
5.142070413258898e-05
4.6367318988826955e-05
4.125645255839694e-05
3.607519550644783e-05
3.0818462681735104e-05
2.5491055737819623e-05
2.0110903592364393e-05
1.4714069666320329e-05
9.362511864702272e-06
4.156290791389183e-06
-7.467664727284218e-07
-5.09849098164622e-06
-8.5052024277818e-06
-1.0337846112824789e-05
-9.635888852208008e-06
-5.616526969481894e-06
-5.615108005972702e-06
-9.615582744343376e-06
-1.025362184492451e-05
-8.29539928805939e-06
-4.702250579226297e-06
-1.1790656412324907e-07
5.040002919988462e-06
1.0493675466891061e-05
1.6052530643233254e-05
2.1582412929828376e-05
2.6987126373424764e-05
3.2196989977091584e-05
3.716150415858377e-05
4.1844497572399164e-05
4.6220810624823805e-05
5.027395306892585e-05
5.399439164176234e-05
5.7378253074197305e-05
6.0426306482480596e-05
6.314313812808003e-05
6.553646255179346e-05
6.761653398003331e-05
6.93956347525837e-05
7.088762580784169e-05
7.210754955908061e-05
7.307127882352771e-05
7.379520749448143e-05
7.429597981623015e-05
7.459025573731959e-05
7.46945100942864e-05
7.462486345426178e-05
7.439694241100081e-05
7.402576705869968e-05
7.352566329632548e-05
7.29101975607549e-05
7.219213157555471e-05
7.138339473125588e-05
7.049507176515313e-05
6.953740351965665e-05
6.851979868197078e-05
6.74508545500524e-05
6.633838504717382e-05
6.518945437092305e-05
6.401041484084546e-05
6.280694768630302e-05
6.158410568522787e-05
6.034635671808841e-05
5.9097627458426505e-05
5.7841346556813944e-05
5.6580486793411655e-05
5.531760579161049e-05
5.4054884977894346e-05
5.279416656633895e-05
5.153698840053289e-05
5.028461656657324e-05
4.9038075738874753e-05
4.779817724549773e-05
4.6565544896598476e-05
4.53406386333316e-05
4.412377607601603e-05
4.291515206857055e-05
4.171485632799288e-05
4.052288930873893e-05
3.933917640180917e-05
3.816358058576774e-05
3.6995913647253076e-05
3.583594608611018e-05
3.468341581511214e-05
3.3538035764252294e-05
3.239950048569695e-05
3.1267491856723506e-05
3.0141683973139433e-05
2.902174731048146e-05
2.7907352232375837e-05
2.679817192124956e-05
2.56938847885968e-05
2.4594176427555903e-05
2.3498741165584036e-05
2.240728326141639e-05
2.1319517790469034e-05
2.023517126281682e-05
1.915398200355578e-05
1.8075700331299238e-05
1.700008856567181e-05
1.5926920876929707e-05
1.4855983015288343e-05
1.3787071932308548e-05
1.2719995304472098e-05
1.1654570985564217e-05
1.0590626395440284e-05
9.527997854169579e-06
8.466529874073814e-06
7.406074416183017e-06
6.346490116687642e-06
5.2876414949054595e-06
4.229398139016238e-06
3.1716338793896792e-06
2.114225953531168e-06
1.0570541581211845e-06
1.0413284420307534e-06
2.0459300433539607e-06
3.0083642961753476e-06
3.928425975324723e-06
4.805925759687746e-06
5.640691683295174e-06
6.432570265946236e-06
7.181427343017077e-06
7.887148609192485e-06
8.549639891164418e-06
9.168827171612826e-06
9.74465638009514e-06
1.0277092967775348e-05
1.0766121285310515e-05
1.1211743781019967e-05
1.161398003540759e-05
1.1972865647885689e-05
1.2288450992076205e-05
1.2560799854399729e-05
1.2789987969996641e-05
1.2976101469552859e-05
1.311923525001979e-05
1.32194912836614e-05
1.327697687597551e-05
1.3291802885589954e-05
1.3264081918207271e-05
1.319392650639406e-05
1.3081447289314818e-05
1.2926751201347564e-05
1.2729939683847613e-05
1.2491106936268759e-05
1.221033821566242e-05
1.188770819915419e-05
1.1523279426578492e-05
1.1117100836205429e-05
1.066920640935276e-05
1.0179613940008991e-05
9.648323945149473e-06
9.075318734008686e-06
8.460561651740806e-06
7.803996514871292e-06
7.1055472571635026e-06
6.365117799417286e-06
5.5825921622398855e-06
4.757834837498809e-06
3.890691430807891e-06
2.9809895925048124e-06
2.028540247639432e-06
1.0331391359919007e-06
2.0662213013750153e-06
4.056969287041801e-06
5.961817474281483e-06
7.781175003343521e-06
9.515420537800634e-06
1.1164899187718347e-05
1.2729920053980437e-05
1.4210754371898893e-05
1.5607634229627965e-05
1.69207518315867e-05
1.8150259278634784e-05
1.9296268833332575e-05
2.035885363570189e-05
2.133804883766577e-05
2.2233853121250702e-05
2.3046230566772796e-05
2.377511283684075e-05
2.4420401642577527e-05
2.4981971459697716e-05
2.545967246249392e-05
2.585333364417408e-05
2.6162766094392498e-05
2.638776640459528e-05
2.652812017206463e-05
2.6583605578861524e-05
2.655399701716188e-05
2.6439068734715465e-05
2.6238598478584008e-05
2.595237111008286e-05
2.5580182168430388e-05
2.512184135855522e-05
2.4577175936887907e-05
2.3946033973265557e-05
2.3228287461193875e-05
2.2423835249835156e-05
2.153260577177074e-05
2.0554559537130923e-05
1.948969136442158e-05
1.8338032317072317e-05
1.7099651313370878e-05
1.577465637644937e-05
1.43631954894613e-05
1.2865457021074556e-05
1.1281669685433982e-05
9.612102000330913e-06
7.85706120709495e-06
6.0168916185265875e-06
4.091972361272567e-06
2.0827144799895336e-06
4.132214306465376e-06
8.113492963895963e-06
1.1922987018575526e-05
1.556151722841015e-05
1.902984297311172e-05
2.232865611405399e-05
2.545857609959068e-05
2.842014627103817e-05
3.121383131890476e-05
3.3840015832745096e-05
3.6299003883855097e-05
3.859101957848221e-05
4.0716208514368635e-05
4.2674640073070425e-05
4.4466310480092974e-05
4.609114656430047e-05
4.754901014838997e-05
4.883970300356699e-05
4.996297230241975e-05
5.091851650652901e-05
5.170599162671041e-05
5.232501779557641e-05
5.2775186094616844e-05
5.305606558005105e-05
5.316721045471595e-05
5.310816733261614e-05
5.287848254541261e-05
5.24777094424167e-05
5.190541563460105e-05
5.116119013541531e-05
5.0244650349584585e-05
4.9155448860124795e-05
4.7893279965738333e-05
4.645788591663147e-05
4.48490627959347e-05
4.306666599265818e-05
4.111061520863102e-05
3.898089893973611e-05
3.667757837030883e-05
3.4200790615737664e-05
3.155075124540441e-05
2.8727756017837836e-05
2.5732181756915606e-05
2.256448629707475e-05
1.9225207424908297e-05
1.5714960744983575e-05
1.2034436400382154e-05
8.184394579849319e-06
4.165659747840111e-06
6.197749069097869e-06
1.216912231401246e-05
1.78828563562744e-05
2.334018851930797e-05
2.8542262995229217e-05
3.3490121668949824e-05
3.818469681747538e-05
4.2626805615980645e-05
4.681714637308487e-05
5.075629641021484e-05
5.444471149373964e-05
5.788272672327399e-05
6.107055877579981e-05
6.400830940453406e-05
6.669597008872319e-05
6.913342773019748e-05
7.132047129609909e-05
7.325679930564322e-05
7.494202806176964e-05
7.637570053234399e-05
7.755729578690085e-05
7.848623890104045e-05
7.916191124020255e-05
7.958366103767711e-05
7.975081418974683e-05
7.966268518923292e-05
7.931858812046388e-05
7.871784764292011e-05
7.785980989120922e-05
7.674385321976285e-05
7.536939872009041e-05
7.373592043692645e-05
7.184295521081574e-05
6.969011207053066e-05
6.727708109652286e-05
6.460364167404364e-05
6.166967005014068e-05
5.847514610606008e-05
5.5020159251351064e-05
5.130491334337517e-05
4.7329730530773495e-05
4.3095053917766024e-05
3.8601448941189e-05
3.3849603351690516e-05
2.884032569151762e-05
2.357454215712318e-05
1.805329174130177e-05
1.227771955253365e-05
6.2490682135041276e-06
8.262592345556485e-06
1.6223402412432475e-05
2.3840764525218106e-05
3.1116339977113605e-05
3.8051663894242416e-05
4.464813306669091e-05
5.090699629216322e-05
5.68293471390896e-05
6.241611902352284e-05
6.766808248462319e-05
7.258584453534445e-05
7.716984995710663e-05
8.142038440456245e-05
8.533757918319229e-05
8.892141755946492e-05
9.217174246589632e-05
9.508826546411608e-05
9.767057682839864e-05
9.991815661934689e-05
0.00010183038661895627
0.00010340656300163176
0.00010464590962253051
0.0001055475918072396
0.00010611073053169717
0.00010633441688619183
0.00010621772671992602
0.00010575973536575134
0.00010495953234848643
0.00010381623598054723
0.0001023290077501321
0.00010049706640720413
9.831970165105619e-05
9.579628732186984e-05
9.292629399580699e-05
8.970930087932871e-05
8.614500689464732e-05
8.223324084295769e-05
7.797397052725086e-05
7.336731071015679e-05
6.841352977748905e-05
6.311305497339048e-05
5.7466476066761474e-05
5.147454730546064e-05
4.513818751251952e-05
3.845847817679493e-05
3.1436659390177146e-05
2.4074123487316523e-05
1.6372406247563975e-05
8.333175528035808e-06
1.0326505948274334e-05
2.027586903058376e-05
2.9796037553084243e-05
3.8889106617007174e-05
4.75570104017109e-05
5.580150706101239e-05
6.362416677996308e-05
7.102636287199815e-05
7.800926578224732e-05
8.457383984970812e-05
9.072084266942282e-05
9.645082689063722e-05
0.00010176414427932878
0.00010666095187132629
0.00011114122004032834
0.0001152047423051833
0.00011885114670379116
0.00012207990856251405
0.00012489036449568613
0.00012728172747358824
0.0001292531028036642
0.0001308035048743078
0.0001319318745176129
0.00013263709685382152
0.00013291801948378534
0.0001327734709014039
0.0001322022790031102
0.00013120328957363925
0.00012977538462925764
0.00012791750050204775
0.0001256286455478678
0.00012290791736019324
0.00011975451936770132
0.00011616777669290479
0.0001121471511427996
0.00010769225519556558
0.00010280286484404266
9.747893114832318e-05
9.172059034213975e-05
8.552817233076215e-05
7.890220741180176e-05
7.184343104328639e-05
6.435278647783094e-05
5.643142507828769e-05
4.808070412737342e-05
3.93021819439926e-05
3.0097610122681306e-05
2.0468922716135318e-05
1.0418222192234983e-05
1.238924510484074e-05
2.43260455523725e-05
3.574798415299785e-05
4.6657602058255976e-05
5.705724257951128e-05
6.694903322514156e-05
7.633487155858654e-05
8.521641472926389e-05
9.359507251015253e-05
0.0001014720036603689
0.00010884811541911343
0.00011572406592927353
0.00012210026938121177
0.00012797690366461723
0.0001333539203154377
0.00013823105654447998
0.0001426078491370275
0.0001464836500187222
0.00014985764328613593
0.00015272886350775616
0.0001550962151083135
0.00015695849265728867
0.00015831440188950052
0.0001591625812904507
0.00015950162409054947
0.00015933010051653873
0.0001586465801522441
0.0001574496542665338
0.00015573795796809675
0.0001535101920498022
0.00015076514438414068
0.00014750171072976104
0.00014371891480660648
0.00013941592749279474
0.00013459208499071174
0.00012924690580139175
0.00012338010634035945
0.00011699161501924071
0.0001100815846062364
0.00010265040267111447
9.469869991078628e-05
8.62273561442195e-05
7.723750375610017e-05
6.773052836404891e-05
5.770806648251747e-05
4.717199995235566e-05
3.61244469103128e-05
2.456774907744208e-05
1.2504455156325811e-05
1.4450556821490879e-05
2.837343990699792e-05
4.1695891451892786e-05
5.44209132647272e-05
6.655126977819781e-05
7.808946732111577e-05
8.903773788772329e-05
9.93980272252365e-05
0.00010917198703812303
0.00011836097109178823
0.00012696603498507653
0.00013498793934782483
0.00014242715621659574
0.0001492838783356265
0.00015555803112964062
0.00016124928709773667
0.00016635708237847102
0.00017088063524488273
0.0001748189662926225
0.00017817092009402014
0.0001809351880996679
0.00018311033257631393
0.00018469481138191912
0.0001856870033870861
0.00018608523435841018
0.00018588780312987774
0.00018509300789350258
0.00018369917244515088
0.00018170467222601572
0.0001791079600017148
0.00017590759102094344
0.00017210224749386605
0.00016769076222737656
0.00016267214124840446
0.00015704558523958745
0.00015081050960322195
0.00014396656295968813
0.00013651364387544385
0.00012845191560519054
0.0001197818186196159
0.00011050408067997397
0.00010061972421113174
9.013007071208279e-05
7.903674193729393e-05
6.734165757893429e-05
5.504702917472071e-05
4.215534996930559e-05
2.8669380463974825e-05
1.4592129398860454e-05
1.651017825761436e-05
3.2417541525206484e-05
4.763902076071469e-05
6.217809535043195e-05
7.603796468637347e-05
8.922152478804679e-05
0.00010173135011601331
0.00011356968036337067
0.00012473841198716584
0.00013523909422231972
0.00014507292930575344
0.00015424077662674895
0.00016274316051319293
0.00017058028135918946
0.00017775202979905536
0.00018425800363576494
0.0001900975272355887
0.0001952696731084419
0.00019977328540246586
0.0002036070050512595
0.00020676929632279517
0.00020925847452987756
0.00021107273467488308
0.00021221018081162002
0.00021266885591773865
0.00021244677208012708
0.00021154194080420796
0.00020995240326396325
0.00020767626031363562
0.00020471170208581635
0.00020105703699944966
0.00019671071999914636
0.00019167137984385518
0.00018593784525715307
0.0001795091697409379
0.00017238465484559207
0.0001645638716778336
0.00015604668041246939
0.00014683324756400995
0.00013692406075679897
0.00012631994071773955
0.00011502205020529066
0.00010303189957441838
9.035134866530736e-05
7.698260469997387e-05
6.292821586609265e-05
4.8191060265628805e-05
3.2774329913526357e-05
1.6681509482627255e-05
1.8567835109659092e-05
3.645781832314898e-05
5.35766033959717e-05
6.992816646515798e-05
8.551615749329e-05
0.00010034387437846126
0.00011441424297063685
0.00012772980274304568
0.0001402926978395641
0.00015210467319688725
0.00016316707542503306
0.00017348085811864922
0.00018304659126339162
0.00019186447439668852
0.00019993435318563235
0.00020725573908732253
0.00021382783176163156
0.00021964954391752445
0.0002247195282847475
0.00022903620641380462
0.00023259779902140565
0.00023540235761240758
0.00023744779712292496
0.00023873192934238674
0.00023925249688522277
0.00023900720749396587
0.00023799376846569964
0.00023620992100054083
0.0002336534742764934
0.00023032233905828647
0.00022621456064805812
0.00022132835098408188
0.00021566211968727933
0.00020921450384898954
0.00020198439634339094
0.00019397097243518957
0.00018517371443953212
0.00017559243417461512
0.00016522729293153016
0.00015407881866801032
0.0001421479201152709
0.00012943589747053952
0.00011594444933218928
0.00010167567552177292
8.663207542707052e-05
7.081654149379557e-05
5.423234749281358e-05
3.6883131192835816e-05
1.8772871080721676e-05
2.062324001049498e-05
4.049371372530364e-05
5.950783657107661e-05
7.76701027850879e-05
9.498463019411152e-05
0.00011145513197684254
0.0001270848950714193
0.0001418767649327135
0.0001558331363144816
0.00016895594973051486
0.0001812466932301221
0.0001927064091106212
0.00020333570518381305
0.00021313477020847016
0.00022210339310467508
0.00023024098557063166
0.0002375466077289834
0.00024401899644387048
0.0002496565959621
0.0002544575905457508
0.0002584199387818259
0.00026154140927059366
0.00026381961740871984
0.00026525206300247184
0.00026583616846055647
0.00026556931732775457
0.00026444889293415763
0.0002624723169429716
0.00025963708758734716
0.000255940817389097
0.00025138127015261746
0.0002459563970275275
0.0002396643714251273
0.0002325036225647864
0.00022447286741658634
0.0002155711407910571
0.0002057978233099833
0.00019515266697352207
0.0001836358180184322
0.00017124783674167532
0.00015798971394220818
0.00014386288361303845
0.00012886923149661722
0.00011301109909959972
9.629128274953047e-05
7.871302726650264e-05
6.028001381931658e-05
4.0996341537632985e-05
2.086650246092836e-05
2.2676090950010663e-05
4.452464373637388e-05
6.543187937231576e-05
8.540283363019097e-05
0.00010444211106877543
0.00012255385464308988
0.00013974172272149255
0.00015600887316769008
0.00017135795411317434
0.00018579110102297236
0.0001993099396378345
0.00021191559436371799
0.00022360870167302538
0.00023438942807908758
0.00024425749225089055
0.0002532121908404156
0.000261252427605288
0.0002683767454258329
0.00027458336083081847
0.0002798702006633208
0.000284234940539127
0.00028767504477046624
0.0002901878074453579
0.00029177039437379426
0.0002924198856312371
0.0002921333184432995
0.00029090773016972327
0.0002887402011578222
0.00028562789724405346
0.0002815681116851432
0.00027655830630125833
0.0002705961516126093
0.00026367956574313567
0.0002558067518546453
0.00024697623386127354
0.0002371868901577534
0.00022643798507460122
0.00021472919775032684
0.00020206064808830915
0.0001884329194404566
0.00017384707763214158
0.00015830468592008262
0.00014180781545115873
0.0001243590507659792
0.00010596148987571108
8.661873842759349e-05
6.633489746449284e-05
4.511454428572648e-05
2.2962705923362803e-05
2.4726069720093502e-05
4.8549994072749625e-05
7.134784883892908e-05
9.312523673712936e-05
0.00011388726937312799
0.00013363853492437405
0.00015238307402090645
0.00017012436342779547
0.00018686530710053384
0.00020260823415964302
0.0002173549033098049
0.00023110651321840703
0.0002438637183628245
0.0002556266498525972
0.00026639494074066905
0.00027616775534627935
0.00028494382212504443
0.00029272146964129386
0.0002994986652160858
0.0003052730558459893
0.0003100420110128399
0.0003138026670269495
0.00031655197256903744
0.0003182867351221308
0.0003190036680028596
0.00031869943772143416
0.0003173707114165897
0.000315014204124206
0.00031162672564891136
0.0003072052268116715
0.0003017468448495153
0.0002952489477393988
0.00028770917721156197
0.0002791254902054646
0.0002694961985052202
0.00025882000627355795
0.0002470960451771975
0.00023432390677237402
0.00022050367179114738
0.0002056359359368931
0.00018972183176931
0.00017276304622687588
0.0001547618333055667
0.00013572102138730002
0.0001156440146868748
9.45347882686659e-05
7.239787607206394e-05
4.9238351381000744e-05
2.5061799176523403e-05
2.677284039370731e-05
5.256911737115677e-05
7.725481617291974e-05
0.00010083613372192934
0.00012331871028337105
0.0001447075954882221
0.00016500722337151053
0.00018422139597197573
0.00020235327500428557
0.00021940538108712604
0.0002353795999913283
0.00025027719536180326
0.0002640988273600736
0.0002768445766764549
0.00028851397336925044
0.0002991060300004539
0.0003086192785536346
0.00031705181064266286
0.0003244013205435936
0.00033066515060706236
0.00033584033863694185
0.00033992366685092756
0.0003429117120645614
0.00034480089676636183
0.0003455875407792769
0.0003452679132254083
0.0003438382845290522
0.00034129497820976906
0.00033763442222865814
0.00033285319965616067
0.0003269480984348233
0.00031991616000409673
0.00031175472654668135
0.00030246148660356686
0.000292034518785636
0.00028047233328849785
0.00026777391088632363
0.0002539387390535358
0.0002389668448298382
0.00022285882400575885
0.00020561586617100225
0.00018723977513120105
0.00016773298416328242
0.0001470985655449425
0.00012534023376592485
0.00010246234180477654
7.846986983504889e-05
5.336840571780466e-05
2.7164116637362623e-05
2.8816047841620507e-05
5.6581330486596415e-05
8.31518031007561e-05
0.00010853428576496071
0.00013273497013989444
0.00015575938413502077
0.00017761236644134315
0.00019829805041017556
0.00021781985672163218
0.00023618049425738752
0.0002533819685745231
0.00026942559736721494
0.00028431203229702107
0.00029804128657728857
0.0003106127677087456
0.00032202531477915075
0.000332277239760162
0.0003413663722613841
0.00034929010723069864
0.00035604545511996877
0.00036162909406846355
0.0003660374236909153
0.0003692666200894451
0.0003713126917376519
0.0003721715359184946
0.0003718389954229101
0.0003703109152370515
0.0003675831989661815
0.00036365186475642575
0.00035851310048312657
0.00035216331797929823
0.00034459920607095296
0.0003358177821785463
0.0003258164422297316
0.00031459300860516015
0.00030214577581449964
0.000288473553567134
0.00027357570686840915
0.0002574521927306145
0.00024010359304861562
0.00022153114314471534
0.0002017367554439098
0.00018072303769973985
0.00015849330514594584
0.00013505158591689548
0.00011040261904576854
8.455184432444585e-05
5.750538329578336e-05
2.9270010641943567e-05
3.085531630087068e-05
6.0585911903998646e-05
8.903777842234062e-05
0.00011621838956560326
0.00014213451204816985
0.00016679216925626072
0.00019019661566227475
0.00021235232139431293
0.00023326296632965315
0.0002529314430542301
0.00027135986800816414
0.0002885496001305138
0.00030450126631492713
0.00031921479299165667
0.0003326894431673333
0.0003449238582762665
0.00035591610421978337
0.00036566372100239886
0.0003741637754092475
0.0003814129162043878
0.00038740743136980726
0.00039214330694306576
0.00039561628705032936
0.00039782193476906036
0.0003987556934898495
0.00039841294847529907
0.00039678908834291093
0.0003938795662203898
0.0003896799603367307
0.0003841860338235359
0.00037739379350396063
0.00036929954744215066
0.00035989996101710997
0.00034919211126795136
0.00033717353923179427
0.0003238422999663343
0.00030919700991324794
0.00029323689121794894
0.00027596181257280583
0.00025737232610567595
0.00023746969978294397
0.00021625594474287968
0.00019373383692659896
0.00016990693232105114
0.0001447795750849773
0.00011835689778870451
9.064481296493232e-05
6.164999514511604e-05
3.1379852543964026e-05
3.2890248001876676e-05
6.458209928336678e-05
9.491165478271724e-05
0.00012388707361765672
0.0001515157219024038
0.00017780413582055288
0.0002027579963604087
0.00022638211504154293
0.0002486804299191431
0.0002696560111247748
0.0002893110751837069
0.0003076470073399562
0.0003246643911225394
0.00034036304439574727
0.00035474206115450324
0.0003677998583527381
0.00037953422708210394
0.0003899423874566127
0.00039902104660030635
0.00040676645917792076
0.0004131744899534828
0.0004182406779088266
0.0004219603014997131
0.00042432844466744335
0.0004253400632670268
0.0004249900516090782
0.00042327330884273096
0.00042018480493244414
0.000415719646001414
0.00040987313882516474
0.00040264085426441887
0.0003940186894225983
0.00038400292829941785
0.0003725903006967929
0.00035977803910368367
0.00034556393325099743
0.0003299463819886328
0.00031292444208778913
0.000294497873518651
0.0002746671806984069
0.000253433649142043
0.0002307993768890515
0.00020676730001803478
0.00018134121149872284
0.00015452577257793476
0.00012632651584619514
9.674983908652957e-05
6.580298897418402e-05
3.349403368017867e-05
3.492042187140665e-05
6.856908716941501e-05
0.00010077228570533336
0.000131538894852401
0.00016087690489378914
0.00018879338196470252
0.00021529444361018113
0.00024038524619646173
0.0002640699833723753
0.00028635189474780776
0.0003072332839403197
0.00032671554513297174
0.0003447991972915093
0.00036148392520336803
0.00037676862652427645
0.0003906514640498182
0.00040312992246648027
0.00041420086888158125
0.00042386061647914364
0.00043210499070063524
0.00043892939740289294
0.0004443288924980554
0.00044829825263446865
0.0004508320465270582
0.00045192470659144446
0.0004515706005815828
0.00044976410296404534
0.00044649966579243805
0.0004417718888696104
0.0004355755889974555
0.00042790586812119225
0.00041875818017109157
0.00040812839639065013
0.00039601286892136656
0.0003824084923808868
0.00036731276313277383
0.0003507238359000131
0.0003326405773182717
0.000313062615964102
0.00029199038832897206
0.0002694251801381581
0.00024536916234253747
0.0002198254210395989
0.00019279798050630959
0.0001642918184619202
0.00013431287261443658
0.00010286803749001705
6.996515050168572e-05
3.561296618405374e-05
3.69453923239893e-05
7.254602489145667e-05
0.00010661846293739952
0.00013917233572717513
0.00017021628259726584
0.0001997579162959645
0.00022780379993096733
0.00025435943666132776
0.0002794292712294255
0.0003030167024000857
0.000325124105358357
0.00034575286311375186
0.0003649034059664269
0.0003825752581092523
0.00039876709047022285
0.000413476778937355
0.000426701467152249
0.00043843763311272876
0.00044868115888084537
0.00045742740275077354
0.0004646712732972319
0.0004704073047838153
0.0004746297334731475
0.0004773325744405199
0.00047850969854427994
0.00047815490925842696
0.0004762620191127165
0.00047282492552200295
0.0004678376858126554
0.000461294591270367
0.00045319024004127073
0.0004435196087140131
0.00043227812239783614
0.0004194617230878217
0.00040506693607175737
0.00038909093409009166
0.00037153159890715437
0.0003523875798881748
0.00033165834910639513
0.0003093442524302603
0.0002854465559588709
0.00025996748708888295
0.00023291026941173187
0.0002042791505561109
0.00017407942200887982
0.0001423174298694485
0.00010900057542802266
7.413730440020139e-05
3.7737083605646204e-05
3.896468815413334e-05
7.651201468573954e-05
0.00011244891415236602
0.00014678580181634593
0.00017953199071590875
0.00021069565600899398
0.00024028381395201082
0.00026830231454109954
0.0002947558468028577
0.0003196479556897974
0.00034298106952243557
0.00036475653692105703
0.00038497467218119585
0.0004036348080714014
0.00042073535506872983
0.00043627386609314256
0.00045024710585413186
0.000462651123986621
0.0004734813312192443
0.00048273257788594703
0.0004903992341670077
0.0004964752715170828
0.0005009543448079995
0.0005038298747817305
0.000505095130473171
0.0005047433113191391
0.0005027676287175653
0.0004991613868437217
0.0004939180625596618
0.0004870313842734314
0.0004784954096138522
0.0004683046017829734
0.00045645390443470324
0.00044293881489991527
0.0004277554555403018
0.0004109006429621198
0.00039237195476038433
0.0003721677933938988
0.0003502874467098266
0.00032673114455024355
0.0003015001107798537
0.00027459660997536384
0.00024602398791907787
0.0002157867049385198
0.00018389036103630407
0.00015034171166387889
0.00011514867290861319
7.832031479113044e-05
3.9866841311186896e-05
4.0977811556486277e-05
8.046611008906412e-05
0.00011826230107864211
0.00015437761999147204
0.00018882207758537384
0.0002216044259390204
0.0002527321401862709
0.00028221141486098333
0.0003100471737156191
0.0003362430918479181
0.0003608016289579352
0.0003837240725623886
0.00040501059000885853
0.00042466028816461054
0.0004426712796994081
0.00045904075493491403
0.0004737650582966185
0.00048683976847826993
0.0004982597815047229
0.0005080193959610541
0.0005161123997393935
0.0005225321577394526
0.000527271700040452
0.0005303238101389413
0.0005316811129219973
0.0005313361621104573
0.0005292815269627715
0.00052550987807852
0.0005200140721757368
0.0005127872357402335
0.0005038228474562312
0.0004931148193254437
0.0004806575763648957
0.0004664461347440446
0.000450476178180087
0.00043274413235114273
0.00041324723701906263
0.00039198361547417016
0.0003689523408215989
0.00034415349852964794
0.0003175882445533712
0.00028925885823297137
0.0002591687890527994
0.00022732269622829926
0.00019372647997252523
0.00015838730318691596
0.00012131360221639964
8.251508521972539e-05
4.20027166287279e-05
4.298423728890666e-05
8.440731463622841e-05
0.00012405721811675763
0.00016194603728951484
0.0001980845035653711
0.00023248195869544908
0.0002651463400759335
0.00029608418164005224
0.000325300629065578
0.0003527994679969476
0.00037858316397193503
0.0004026529127538758
0.0004250086997895086
0.00044564936755323026
0.00046457268959268494
0.00048177545015130885
0.0004972535283228607
0.0005110019857749865
0.0005230151571677943
0.0005332867424910487
0.0005418099006377075
0.0005485773436297026
0.0005535814310067694
0.0005568142639771761
0.0005582677790157142
0.0005579338406701689
0.0005558043334002033
0.0005518712523300967
0.0005461267928379421
0.0005385634389314109
0.0005291740503738929
0.0005179519485239148
0.0005048910008322444
0.000489985703908416
0.000473231265021426
0.00045462368183399327
0.00043415982009346876
0.000411837488911021
0.0003876555131569759
0.0003616138023865706
0.0003337134155886323
0.00030395662091869946
0.00027234694944344717
0.00023888924179046866
0.00020358968646014275
0.00016645584842481242
0.00012749668651960977
8.672255801810136e-05
4.414520868553651e-05
4.498341200433187e-05
8.833458091599133e-05
0.00012983219151771475
0.00016948922055455562
0.00020731714142906144
0.00024332589602168997
0.00027752388448226695
0.00030991797161387946
0.00034051350842893846
0.0003693143674278476
0.00039632299014526196
0.0004215404455236299
0.0004449664977014822
0.0004665996818521978
0.00048643738677295323
0.0005044759429977952
0.0005207107152988694
0.0005351361985360542
0.0005477461159202335
0.0005585335188650481
0.0005674908877136148
0.0005746102327386926
0.0005798831949223315
0.0005833011461264109
0.0005848552883607194
0.0005845367519436567
0.0005823366924247869
0.0005782463862027548
0.000572257324820788
0.0005643613079537868
0.0005545505351182978
0.0005428176961360387
0.0005291560603626067
0.000513559564656263
0.0004960229000107452
0.000476541596702601
0.00045511210771566335
0.00043173189010661805
0.0004063994838552909
0.0003791145876143459
0.00034987813063550033
0.000318692339998608
0.0002855608021172795
0.00025048851733609767
0.00021348194627759942
0.0001745490464439975
0.00013369929742959585
9.09437129653079e-05
4.6294837896213026e-05
4.697475377836435e-05
9.22468100387347e-05
0.00013558567920902986
0.00017700525697564307
0.0002165177779005628
0.00025413379155492244
0.000289862157823631
0.000323710059839194
0.00035568303295661907
0.0003857850081565861
0.00041401836826300553
0.00044038401537943583
0.00046488144798431663
0.00048750884618456447
0.0005082631637018248
0.0005271402252537555
0.0005441348280964542
0.0005592408466069676
0.0005724513389058633
0.0005837586546459383
0.0005931545432225488
0.000600630261788776
0.0006061766825832815
0.0006097843991981072
0.0006114438315249909
0.0006111453292183266
0.000608879273599372
0.000604636177999815
0.0005984067865986292
0.0005901821718446859
0.0005799538305776009
0.000567713778959214
0.0005534546463085155
0.0005371697678940163
0.0005188532766784298
0.0004985001939304817
0.00047610651852061925
0.0004516693146056905
0.00042518679727159003
0.00039665841555994175
0.0003660849321459325
0.0003334684987622849
0.0002988127262926188
0.00026212274827223936
0.0002234052763518818
0.0001826686461011695
0.0001399228513540851
9.517956513319104e-05
4.8452145043578754e-05
4.895765186246903e-05
9.614285157656666e-05
0.00014131607135871305
0.0001844921556422019
0.0002256841164942347
0.00026490311516698395
0.00030215846406558833
0.0003374576474107771
0.00037080635882470736
0.0004022085540468512
0.00043166651698840763
0.00045918093735813903
0.00048475099814006273
0.0005083744712717359
0.000530047819959939
0.0005497663061739544
0.0005675241019773986
0.0005833144034912557
0.0005971295464175519
0.0006089611222013513
0.0006188000940559324
0.0006266369122219506
0.0006324616279758666
0.0006362640060388614
0.0006380336351652083
0.0006377600368021596
0.000635432771813757
0.0006310415453445878
0.0006245763099642782
0.0006160273672781991
0.0006053854682134818
0.0005926419121909665
0.0005777886453743747
0.0005608183581442688
0.0005417245818769151
0.0005205017850249821
0.0004971454683836973
0.0004716522592996264
0.0004440200044318332
0.0004142478605092953
0.0003823363823505649
0.00034828760721784813
0.00031210513437870957
0.00027379419853801323
0.00023336173559311557
0.00019081643895481337
0.00014616880447165803
9.943116180097245e-05
5.061768988925963e-05
5.093146669521431e-05
0.00010002150404393728
0.00014702169178337776
0.0001919478502572236
0.00023481378183234924
0.0002756312591050414
0.000314410034818996
0.0003511578715724023
0.00038588058934077574
0.00041858212882334156
0.0004492646286251428
0.00047792851431811834
0.0005045725974850979
0.0005291941829293767
0.0005517891823361709
0.00057235223279406
0.0005908768187229269
0.0006073553959062145
0.0006217795164856071
0.0006341399539447207
0.0006444268272769865
0.00065262972370142
0.0006587378194541499
0.0006627399983405585
0.0006646249678757543
0.0006643813729726028
0.0006619979072529231
0.0006574634221495762
0.0006507670340430705
0.0006418982297287518
0.0006308469705383624
0.0006176037954430252
0.0006021599234441594
0.0005845073555107855
0.0005646389762500731
0.0005425486554026249
0.0005182313491286228
0.0004916832009129735
0.00046290164174962734
0.00043188548907883983
0.0003986350437532593
0.0003631521840885693
0.0003254404558266921
0.00028550515660252795
0.000243353413261857
0.00019899425013535088
0.00015243864613395663
0.00010369957830190513
5.279204924671377e-05
5.289553020768056e-05
0.00010388151599086126
0.00015270080030825584
0.00019937020315731468
0.00024390432562942932
0.0002863155461555744
0.00032661403981014414
0.00036480781852973876
0.0004009027900493539
0.0004349028333408139
0.0004668098883501698
0.0004966240578708203
0.000524343719456602
0.0005499656453755164
0.0005734851287273329
0.0005948961139865955
0.000614191330393421
0.0006313624267888229
0.0006464001066775193
0.0006592942624918385
0.0006700341082241379
0.000678608309789136
0.0006850051126646023
0.0006892124665361377
0.0006912181468364531
0.0006910098732210712
0.0006885754251507031
0.0006839027548596333
0.0006769800980755136
0.0006677960829144236
0.000656339837410147
0.0006426010961418233
0.0006265703064015776
0.0006082387342908474
0.000587598571058473
0.0005646430398860702
0.0005393665031883793
0.000511764570341175
0.00048183420556334455
0.00044957383547317153
0.0004149834556131382
0.00037806473499205073
0.00033882111743505083
0.00029725791826359926
0.0002533824145489194
0.00020720392690085077
0.00015873389048041975
0.0001079859126526389
5.497581443715538e-05
5.484914646239347e-05
0.00010772158779044638
0.00015835159620662675
0.00020675701081210307
0.00025295323455978846
0.00029695324008711943
0.0003387676000090045
0.00037840453928071616
0.00041587000718687483
0.00045116776649546664
0.0004842994973328768
0.000515264913386243
0.0005440618881196874
0.0005706865888043255
0.0005951336163025484
0.0006173961487094953
0.0006374660871388271
0.0006553342021421577
0.0006709902794638511
0.0006844232640510761
0.0006956214014624124
0.0007045723760376738
0.0007112634454066874
0.0007156815711162889
0.0007178135453414919
0.0007176461138206081
0.0007151660952975369
0.0007103604978807854
0.0007032166328276579
0.0006937222263271453
0.0006818655298971577
0.0006676354300185899
0.0006510215576055745
0.0006320143978564979
0.0006106054009431677
0.0005867870938782577
0.0005605531937530467
0.0005318987223597305
0.0005008201220089992
0.00046731537212409135
0.0004313841059377238
0.0003930277263456128
0.00035224951967864626
0.0003090547658493592
0.0002634508430153504
0.00021544732457984273
0.0001650560660302336
0.00011229127880080236
5.716958804240224e-05
5.679159267246714e-05
0.00011154037421273744
0.00016397222285638446
0.00021410601098519055
0.00026195794023739505
0.00030754155865513055
0.0003508678037530272
0.0003919450688427417
0.00043077928989654346
0.00046737405021712863
0.0005017307002018051
0.0005338484895512502
0.0005637247093675385
0.0005913548417203068
0.0006167327144192686
0.0006398506589215675
0.0006606996695159989
0.0006792695621554296
0.000695549131553605
0.0007095263054123502
0.0007211882949005738
0.0007305217407570924
0.0007375128546320969
0.0007421475555129398
0.0007444116012928909
0.0007442907157368672
0.0007417707112617467
0.0007368376080920669
0.0007294777504641414
0.0007196779206277287
0.0007074254514413819
0.0006927083383677507
0.0006755153516503215
0.0006558361493959747
0.0006336613921906348
0.0006089828597451996
0.0005817935699093668
0.0005520879001927881
0.0005198617117072868
0.0004851124751885927
0.000447839398473579
0.00040804355450364815
0.0003657280085978126
0.00032089794339537625
0.000273560779510712
0.0002237262895774389
0.00017140670299350957
0.00011661679831106997
5.9373979864163484e-05
5.872212064512994e-05
0.00011533648788125683
0.00016956077376202583
0.00022141489175979412
0.0002709158315637866
0.0003180776894700643
0.00036291172621324974
0.0004054264492752424
0.0004456277166493827
0.00048351885902254976
0.0005191008173678208
0.0005523722930122488
0.0005833299073563086
0.0006119683685764238
0.0006382806428286009
0.0006622581276893164
0.0006838908258153392
0.0007031675170681012
0.0007200759276282248
0.000734602894912742
0.0007467345273961812
0.0007564563587256906
0.0007637534957938424
0.000768610760695676
0.0007710128267393174
0.0007709443488970874
0.0007683900892735823
0.0007633350383274701
0.000755764532709105
0.0007456643706652832
0.0007330209260150017
0.0007178212617143243
0.000700053244003393
0.0006797056580628846
0.0006567683260052665
0.0006312322278844984
0.0006030896262281815
0.0005723341943805332
0.0005389611486960738
0.0005029673843401361
0.0004643516141391718
0.0004231145095845712
0.0003792588427281446
0.00033278962732091744
0.0002837142571461837
0.00023204263908289946
0.00017778731801537662
0.00012096359028671011
6.158960198092422e-05
6.063995870213279e-05
0.00011910850371762982
0.00017511530010763665
0.00022868130265600584
0.0002798242697343717
0.00032855880908028157
0.0003748964526069931
0.0004188457569459514
0.0004604124263612869
0.0004995994546610621
0.0005364072827666044
0.000570833968686027
0.0006028753667715464
0.0006325253133165482
0.0006597758157656369
0.0006846172430626934
0.0007070385149439973
0.0007270272882861362
0.000744570138938111
0.0007596527377968509
0.0007722600202133695
0.00078237634814389
0.0007899856647739095
0.0007950716416399023
0.0007976178185472027
0.0007976077368287843
0.0007950250667048825
0.0007898537296832653
0.000782078017080412
0.0007716827058473902
0.0007586531729421864
0.0007429755095073043
0.0007246366360874751
0.0007036244200505776
0.0006799277962635519
0.0006535368919191875
0.0006244431562144603
0.0005926394953441744
0.0005581204129977008
0.0005208821562372873
0.0004809228662895487
0.00043824273340369035
0.0003928441545241329
0.0003447318920954262
0.00029391323186594986
0.00024039813708909286
0.0001841993960424726
0.00012533275930931564
6.38170627871304e-05
6.254431414109973e-05
0.00012285496449818134
0.0001806338200238261
0.0002359028680829489
0.00028868060620394764
0.0003389821056331427
0.0003868191055870357
0.00043220013453154627
0.0004751306547481349
0.000515613226434744
0.0005536476876327329
0.0005892313463703586
0.0006223591815698454
0.000653024049469611
0.0006812168925615231
0.000706926948336864
0.0007301419554560373
0.0007508483553045203
0.0007690314872656617
0.0007846757764135709
0.0007977649127073466
0.0008082820211359337
0.0008162098226206504
0.0008215307858184251
0.0008242272702758541
0.0008242816616646081
0.0008216765000698539
0.0008163946025031843
0.0008084191809733798
0.0007977339575624409
0.0007843232780196663
0.000768172225408939
0.0007492667353181243
0.000727593714061267
0.0007031411611845284
0.0006758982974165578
0.0006458556989892145
0.0006130054389969636
0.0005773412361596703
0.0005388586110134513
0.0004975550491727737
0.00045343017088918247
0.00040648590568366505
0.00035672667035145655
0.00030415954813102497
0.00024879446630718394
0.00019064436897645032
0.00012972538115904597
6.605695989479743e-05
6.443437629002902e-05
0.00012657438764365758
0.0001861143297628015
0.00024307720339571126
0.00029748220396005887
0.00034934480553257263
0.0003986768772862026
0.00044548682829026465
0.0004897797765104073
0.0005315577378322972
0.0005708198309864604
0.0006075624943678443
0.0006417797109234818
0.0006734632375193922
0.0007026028354869124
0.0007291864993833053
0.0007532006813717324
0.0007746305090266387
0.0007934599947882065
0.0008096722357172764
0.0008232496026305686
0.0008341739181156882
0.0008424266233303945
0.0008479889338685181
0.0008508419853231336
0.0008509669694916483
0.0008483452624383908
0.0008429585458544081
0.0008347889233346617
0.0008238190333200723
0.0008100321605266497
0.0007934123477082999
0.0007739445095737846
0.0007516145505926108
0.0007264094882935973
0.0006983175834770344
0.0006673284785235628
0.0006334333447042956
0.0005966250390650601
0.0005568982710834197
0.000514249778879719
0.00046867851430452967
0.00042018583573032176
0.0003687757068445152
0.0003144548991776408
0.0002572331955173063
0.0001971235907506086
0.00013414248605798929
6.830987175832082e-05
6.630932022751168e-05
0.00013026527338613758
0.00019155481700162957
0.0002502019338533612
0.0003062264624772715
0.00035964420454730195
0.0004104670665511928
0.0004587032312110967
0.0005043573540122748
0.000547430780189026
0.0005879217775781875
0.0006258257808890999
0.0006611356431455301
0.0006938418903295607
0.0007239329755931029
0.000751395529786758
0.0007762146054822311
0.0007983739121234651
0.0008178560404195345
0.0008346426745812208
0.0008487147914887361
0.0008600528463570539
0.0008686369449206754
0.0008744470025868895
0.0008774628913997135
0.000877664576007603
0.0008750322401297056
0.0008695464052679291
0.000861188043612085
0.0008499386872249659
0.0008357805356801473
0.0008186965643520727
0.0007986706355278123
0.0007756876144195402
0.000749733492013363
0.000720795516490319
0.0006888623346986283
0.0006539241448509092
0.0006159728612586957
0.0005750022915109176
0.0005310083260457732
0.00048398913956269884
0.00043394540317673314
0.00038088050563428455
0.00032480078128704903
0.0002657157418680389
0.00020363830843656006
0.00013858503915747944
7.057634787413503e-05
6.816831124552974e-05
0.00013392611446659541
0.00019695327650931516
0.00025727471680277864
0.0003149108467649167
0.0003698777038660811
0.00042218712194265484
0.00047184693269157474
0.0005188611931756515
0.000563230434152906
0.0006049519241155266
0.000644019944086277
0.0006804260684579178
0.0007141594474800589
0.0007452070873854161
0.0007735541245898342
0.0007991840908917747
0.000822079167121903
0.0008422204232411967
0.0008595880434438402
0.0008741615353724808
0.0008859199230971115
0.0008948419240236843
0.000900906110378269
0.0009040910563557214
0.0009043754724132602
0.0009017383285251784
0.0008961589684955695
0.0008876172176476571
0.0008760934863622644
0.0008615688720310516
0.0008440252620219441
0.0008234454402190755
0.000799813199601554
0.0007731134631698555
0.0007433324153106741
0.0007104576454133871
0.0006744783052185233
0.0006353852809875826
0.0005931713811424752
0.0005478315395242295
0.0004993630338741561
0.0004477657185462461
0.0003930422698152636
0.00033519844146377015
0.0002742433276079412
0.00021018962896342253
0.00014305391797090478
7.2856897400643e-05
7.001051012862913e-05
0.00013755540752711376
0.00020230772843767703
0.00026429326744598775
0.0003235329209682891
0.00038004285165870594
0.00043383469115080425
0.0004849157754769351
0.0005332894073926606
0.0005789551398166781
0.0006219090746786143
0.0006621441716546106
0.000699650561549664
0.0007344158594525946
0.0007664254732389769
0.000795662903507105
0.0008221100315969343
0.0008457473929464679
0.000866554433664804
0.0008845097488379625
0.0008995913017117302
0.0009117766235093999
0.0009210429942248938
0.0009273676052717894
0.0009307277053629479
0.0009311007314323494
0.0009284644267847572
0.0009227969489687612
0.0009140769701103946
0.0009022837726159055
0.0008873973432514878
0.0008693984686405851
0.0008482688351821241
0.0008239911362854652
0.000796549189646889
0.0007659280670559501
0.0007321142389201257
0.0006950957353356463
0.0006548623251102295
0.0006114057136643869
0.0005647197601987355
0.0005148007139220978
0.0004616474684885838
0.00040526183308722125
0.00034564881788062135
0.0002828169306923409
0.00021677848100160046
0.00014754988643323613
7.515197602667861e-05
7.183507934055422e-05
0.00014115166638350302
0.0002076162395248174
0.00027125538858667475
0.0003320903870225461
0.0003901373907483491
0.00044540767753810384
0.0004979079206667153
0.000547640490344857
0.0005946037764711573
0.0006387925263234354
0.0006801981910259727
0.0007188092749567804
0.0007546116826849664
0.0007875890585447923
0.0008177231145462677
0.0008449939429712311
0.0008693803106969364
0.0008908599330068462
0.0009094097253724079
0.0009250060324060283
0.0009376248338790263
0.000947241928353576
0.0009538330955866647
0.0009573742394136317
0.0009578415133046428
0.0009552114312031609
0.0009494609665932768
0.0009405676430072479
0.0009285096193710901
0.0009132657736916142
0.0008948157886217584
0.000873140242396514
0.0008482207085149726
0.000820039867357257
0.0007885816326675676
0.0007538312955102586
0.0007157756879173083
0.000674403367990288
0.0006297048277036643
0.0005816727240760267
0.0005303021337342353
0.000475590830195001
0.00041753958242434636
0.000356152472419817
0.0002914372286851319
0.0002234055715409633
0.00015207356524805232
7.746197090612722e-05
7.364119021191495e-05
0.00014471343737658404
0.00021287694752154113
0.0002781590047867058
0.000340581128919451
0.0004001593130779843
0.0004569043046017962
0.0005108219216836199
0.00056191339871281
0.0006101757530335913
0.0006556021659787914
0.0006981823712885471
0.0007379030444025977
0.0007747481866124742
0.0008086994986586868
0.0008397367390431815
0.0008678380630773516
0.0008929803394824368
0.0009151394421806971
0.0009342905157430359
0.0009504082137720762
0.0009634669102845245
0.0009734408848945733
0.000980304483281444
0.0009840322550377437
0.0009845990715313738
0.0009819802268719521
0.0009761515254424966
0.0009670893597422126
0.000954770782485348
0.0009391735770136259
0.000920276330110513
0.0008980585112527001
0.0008725005622045173
0.000843584000656844
0.0008112915413328245
0.0007756072376312664
0.0007365166464625775
0.0006940070184417446
0.0006480675150497897
0.0005986894537527085
0.0005458665813767027
0.0004895953752841672
0.0004298753710700598
0.0003667095146116933
0.00030010453535076614
0.00023007133667179297
0.00015662539816934523
7.978718347254055e-05
7.54280312324912e-05
0.0001482393170213342
0.00021808808918944572
0.0002850022014180553
0.0003490032632061865
0.0004101069217232814
0.00046832318923811095
0.00052365680820151
0.0005761076458689895
0.0006256711103189982
0.0006723385798557413
0.0007160978380780988
0.0007569335073404695
0.0007948274739086186
0.0008297592988124811
0.0008617066091900286
0.0008906454657836918
0.000916550703168123
0.0009393962402287764
0.0009591553593559024
0.0009758009537432222
0.000989305743066285
0.000999642458645783
0.001006783999963172
0.0010107035650769314
0.0010113747580790464
0.0010087716772310823
0.0010028689878229038
0.0009936419841017272
0.0009810666448288319
0.0009651196871368131
0.0009457786233860038
0.0009230218256563519
0.000896828602363467
0.0008671792912646123
0.0008340553728168748
0.0007974396074716672
0.0007573162000433994
0.0007136709937643135
0.0006664916960494108
0.000615768137329234
0.0005614925635710338
0.0005036599623019916
0.0004422684210609318
0.0003773195162474763
0.00030881872930269005
0.00023677588604938127
0.00016120561384167648
8.212780992991608e-05
7.719481756279789e-05
0.00015172797219736162
0.00022324803225649142
0.0002917832691447797
0.0003573551964032168
0.00041997890129042564
0.00047966342478961144
0.0005364121811404637
0.0005902234077691595
0.0006410906364547816
0.0006890031767249824
0.00073394660281801
0.0007759032360693599
0.0008148526152562882
0.0008507719482464884
0.0008836365392187948
0.0009134201867274858
0.0009400955489376958
0.0009636344734409927
0.0009840082901372976
0.0010011880667207679
0.0010151448273081481
0.0010258497356797833
0.0010332742454524715
0.0010373902202571172
0.001038170027645384
0.0010355866109905826
0.0010296135440827081
0.0010202250734410306
0.0010073961535853257
0.0009911024806210228
0.0009713205295096908
0.0009480276003205335
0.0009212018785923759
0.0008908225146876184
0.0008568697266913838
0.0008193249310023687
0.0007781709042832263
0.0007333919798815855
0.0006849742812051682
0.0006329059938285087
0.0005771776773262627
0.0005177826169684083
0.00045471721446561225
0.00038798141592488733
0.0003175791740618675
0.00024351894051460182
0.00016581418281569338
8.448391921241777e-05
7.894080188647346e-05
0.0001551781631474458
0.00022835531175488533
0.00029850075443075413
0.00036563569011612007
0.0004297743976450566
0.0004909246749784171
0.0005490883199746333
0.0006042616424058733
0.0006564359968858416
0.0007055983265612659
0.0007517317078247973
0.0007948158869185221
0.0008348278000906498
0.0008717420699174208
0.0009055314714756513
0.0009361673632143283
0.0009636200785934843
0.0009878592758000918
0.001008854244081675
0.0010265741664320788
0.001040988339493426
0.0010520663525836124
0.0010597782287011595
0.0010640945311912176
0.0010649864404677079
0.0010624258057711222
0.001056385177404133
0.0010468378252250152
0.0010337577493994138
0.001017119689520278
0.0009968991382082737
0.0009730723652065648
0.0009456164577982609
0.0009145093830989631
0.0008797300774169015
0.0008412585674406545
0.0007990761275022545
0.0007531654765733434
0.0007035110179903978
0.0006500991241594964
0.0005929184676652308
0.000531960399300313
0.000467219372526681
0.0003986934127849784
0.00032638462887527725
0.00025029976233556517
0.0001704507693473245
8.685542819968084e-05
8.066528674576662e-05
0.00015858876957982465
0.00023340867121620507
0.00030515351674135355
0.00037384393470316774
0.00043949310802650354
0.0005021072799613058
0.0005616863037451111
0.0006182242243435582
0.0006717098805843341
0.0007221275162230395
0.00076945738896015
0.000813676367152065
0.0008547585048916603
0.0008926755872477668
0.000927397638704891
0.0009588933891970103
0.0009871306935386667
0.0010120769014827502
0.0010336991770438578
0.0010519647670801657
0.0010668412203999056
0.0010782965598288632
0.0010862994107195684
0.001090819090297325
0.0010918256630095893
0.0010892899676700415
0.0010831836226772723
0.0010734790159347626
0.0010601492863149334
0.0010431683036065675
0.0010225106538681514
0.0009981516369838989
0.0009700672830057835
0.000938234393557065
0.0009026306141821233
0.0008632345430642299
0.00082002588098673
0.0007729856267931628
0.0007220963219063334
0.000667342346685737
0.0006087102705382152
0.000546189256742706
0.0004797715218918461
0.00040945284869828985
0.00033523314963906925
0.000257117077525619
0.0001751146775805304
8.924207396966005e-05
8.236763850557466e-05
0.0001619588202049771
0.00023840710926079783
0.0003117407931932728
0.0003819796324751254
0.0004491353827402178
0.0005132123758999005
0.0005742081473458643
0.0006321140960441132
0.0006869161642736737
0.0007385955240307995
0.0007871292576944883
0.0008324910214096981
0.0008746516807449853
0.0009135799094913757
0.0009492427439356452
0.000981606086514479
0.0010106351543879705
0.0010362948701139324
0.0010585501932148036
0.0010773663929658922
0.0010927092641685315
0.0011045452889776666
0.0011128417490073733
0.0011175667929367306
0.0011186894656699947
0.001116179705767148
0.0011100083183677237
0.0011001469311783252
0.0010865679412986953
0.0010692444607359117
0.0010481502684086125
0.001023259776287179
0.0009945480170628351
0.0009619906603954495
0.0009255640643695551
0.0008852453682850273
0.0008410126323333544
0.0007928450290637379
0.0007407230908141951
0.0006846290164736549
0.000624547040043888
0.0005604638624762057
0.0004923691471540315
0.0004202560781808237
0.0003441219792883962
0.0002639689897063757
0.00017980479171900154
9.164338287145218e-05
8.404730311994263e-05
0.00016528752607909009
0.00024334993217981632
0.00031826227149991254
0.00039004309153228833
0.0004587023397832346
0.0005242420296294181
0.000586656954863124
0.0006459354379159746
0.0007020600966978693
0.0007550086153174929
0.0008047545046411669
0.0008512678396709883
0.000894515962032022
0.0009344641374025367
0.0009710761594420372
0.0010043148936077217
0.0010341427561431568
0.00106052212541638
0.0010834156846252982
0.0011027866966339187
0.001118599213316071
0.0011308182232365183
0.0011394097427719144
0.0011443408568576133
0.001145579716433899
0.0011430955003596116
0.0011368583500767498
0.0011268392856466913
0.0011130101119603483
0.0010953433239651866
0.0010738120196632367
0.0010483898294364816
0.0010190508699577591
0.0009857697305616087
0.0009485214994903804
0.0009072818368917046
0.0008620271008396643
0.0008127345319767706
0.0007593825016203176
0.0007019508273444636
0.0006404211591253817
0.0005747774381142795
0.0005050064289621736
0.00043109832535903614
0.00035304742704628245
0.00027085288500468263
0.00018451950980354764
9.40586362027998e-05
8.570382389207903e-05
0.00016857431817313834
0.00024823681319569024
0.0003247181721851497
0.0003980353315031007
0.00046819599394741507
0.0005351993902256713
0.0005990370919851107
0.0006596938592700469
0.0007171485052265905
0.0007713747612816818
0.0008223421268620801
0.000870016688944257
0.0009143618982861909
0.0009553392910207556
0.0009929091463140027
0.0010270310729408386
0.0010576645198284926
0.001084769207802594
0.0011083054818769728
0.0011282345854077766
0.0011445188592446448
0.0011571218706246042
0.0011660084779492527
0.0011711448387535309
0.0011724983691134006
0.0011700376634555948
0.001163732384243124
0.0011535531313241615
0.0011394713008739885
0.0011214589438518566
0.0010994886337519424
0.0010735333531738528
0.001043566408387868
0.0010095613806367643
0.0009714921224129452
0.0009293328063755893
0.0008830580339401067
0.0008326430098737556
0.0007780637884573643
0.0007192975959295911
0.0006563232329874491
0.0005891215600746999
0.0005176760670297167
0.00044197352736160406
0.00036200473597089444
0.0002777653275057232
0.0001892566707335716
9.64868322906598e-05
8.733686143640174e-05
0.0001718188896436615
0.00025306785918262353
0.00033110934117461244
0.0004059582026270589
0.0004776194021666805
0.0005460888595289828
0.000611354379780979
0.0006733966126612131
0.0007321900273836376
0.0007877038837579217
0.0008399031815020178
0.0008887495710993704
0.0009342022114201057
0.000976218561496621
0.0010147550962332635
0.001049767938349086
0.001081213401409778
0.0011090484413273857
0.001133231016117127
0.0011537203559439518
0.0011704771475224765
0.0011834636387193856
0.0011926436707258986
0.0011979826464166773
0.0011994474444927822
0.001197006289728804
0.0011906285901311653
0.0011802847520870352
0.0011659459846669884
0.0011475841041677787
0.0011251713497697144
0.001098680220858371
0.0010680833461450753
0.0010333533942311207
0.0009944630347093752
0.000951384958285964
0.0009040919637445938
0.0008525571188617784
0.000796754001596997
0.0007366570270322392
0.000672241864591569
0.0006034859490256367
0.0005303690874748912
0.00045287416360376836
0.0003709879383105019
0.00028470194483582595
0.00019401347420212878
9.892664478399621e-05
8.894621609435716e-05
0.00017502124335064262
0.0002578436857381544
0.00033743735403608116
0.0004138145198422302
0.000486976827139822
0.0005569162839899125
0.0006236163124893543
0.0006870528344484969
0.0007471953702315043
0.0008040081288437362
0.000857451068601349
0.0009074809095095809
0.0009540520807176933
0.0009971175890066547
0.0010366297970947694
0.0010725411035040835
0.001104804518713115
0.0011333741352353988
0.0011582054920223628
0.0011792558361306271
0.0011964842868625314
0.001209851909556539
0.0012193217078497326
0.0012248585445536891
0.0012264290022923618
0.0012240011957604935
0.0012175445479017666
0.0012070295425113675
0.0011924274657678993
0.0011737101490312749
0.0011508497249402283
0.0011238184084311
0.001092588313805841
0.0010571313184198905
0.0010174189829572217
0.000973422537613372
0.0009251129428215141
0.0008724610324300636
0.0008154377464609994
0.0007540144597354692
0.0006881634117227656
0.0006178582419379339
0.000543074634050518
0.00046379107054513036
0.0003799896982737763
0.0002916573035233114
0.00019878639325995873
0.00010137637698873908
9.053185307872358e-05
0.00017818174525038866
0.00026256550164811127
0.0003437046333568741
0.00042160821381621166
0.0004962739215926062
0.0005676891705719139
0.0006358323023503212
0.0007006738148178232
0.0007621776009587439
0.0008203021727122076
0.0008750018462794773
0.0009262278674454991
0.0009739294581844332
0.0010180547689151581
0.0010585517241304965
0.0010953687526075659
0.0011284553968874053
0.0011577628000825138
0.00118324407122853
0.0012048545332687746
0.0012225518602919302
0.0012362961127989278
0.0012460496815411004
0.0012517771518506735
0.001253445101393691
0.0012510218449450355
0.0012444771401511137
0.001233781868349694
0.00121890770440395
0.0011998267892200098
0.00117651141819608
0.0011489337583325057
0.0011170656061428932
0.00108087819787301
0.001040342082873437
0.0009954270702849724
0.0009461022584941192
0.0008923361560877405
0.0008340969022699596
0.0007713525938883234
0.000704071725319215
0.0006322237464666189
0.0005557797429991893
0.00047471324165450357
0.0003890011419459133
0.0002986247738807138
0.00020357107929560442
0.00010383391211473553
9.209393067200616e-05
0.00018130118439797782
0.0002672352039553849
0.00034991458098256045
0.00042934450116458717
0.0005055179359189366
0.00057841692988473
0.000648013954991325
0.0007142733009969301
0.0007771524724873927
0.0008366035633759553
0.0008925745818616007
0.0009450107014678799
0.0009938554170586741
0.0010390515884439386
0.0010805423581827789
0.0011182719343030417
0.001152186232725852
0.0011822333780828753
0.0012083640652265915
0.0012305317869753876
0.0012486929364495525
0.0012628067947010949
0.0012728354162157493
0.0012787434262813285
0.0012804977451989566
0.0012780672549049105
0.0012714224238202024
0.0012605349057105766
0.0012453771280748344
0.0012259218851359277
0.001202141949941636
0.0011740097194311086
0.0011414969056204732
0.0011045742853397003
0.0010632115202292153
0.0010173770579786703
0.0009670381250787771
0.0009121608206402315
0.0008527103200970804
0.0007886511968417942
0.000719947868999829
0.0006465651776200246
0.0005684691014859466
0.00048562761251436104
0.00039801167425329576
0.00030559638428120234
0.00020836225929724006
0.00010629665934162869
9.363283186002852e-05
0.0001843808404127581
0.00027185548504784357
0.0003560717271443234
0.0004370300764976534
0.0005147179524114184
0.0005891111502499755
0.0006601753794459458
0.0007278678379689998
0.0007921387884698219
0.0008529331026678744
0.0009101917429466186
0.0009638531533931877
0.0010138545364959534
0.0010601329961913777
0.0011026265327190865
0.0011412748796027425
0.0011760201778386464
0.0012068074868883671
0.0012335851362002478
0.001256304924634813
0.0012749221782817552
0.001289395679691649
0.0012996874835135078
0.0013057626349468748
0.0013075888083290202
0.0013051358836448854
0.0012983754788291058
0.0012872804555061693
0.0012718244153493707
0.001251981203600476
0.0012277244355409778
0.0011990270608937745
0.00116586098030063
0.0011281967271955518
0.0010860032276028692
0.001039247649630995
0.0009878953537158994
0.000931909953977593
0.0008712535003679439
0.0008058867905893496
0.0007357698200096546
0.0006608623769606276
0.0005811247898330762
0.0004965188312309049
0.0004070087830700675
0.0003125626648540075
0.00021315362536637045
0.00010876149565568899
9.514919983977937e-05
0.00018742255941421593
0.0002764299534417508
0.00036218189887272934
0.00044467332941605653
0.0005238851498667041
0.0005997859070371453
0.000672333537551445
0.0007414771516730118
0.0008071588127112131
0.0008693152733091625
0.0009278796329136862
0.000982782884772583
0.001033955325654666
0.001081327806893885
0.0011248328110640901
0.001164405344346399
0.0011999836402332223
0.0012315096754390645
0.0012589295036019577
0.0012821934164561413
0.0013012559455806844
0.001316075720541654
0.0013266152012713292
0.0013328403039046047
0.001334719940074898
0.0013322254899512179
0.0013253302291513572
0.0013140087291887634
0.0012982362503889538
0.00127798814532612
0.001253239289855941
0.0012239635578143102
0.0011901333544625942
0.0011517192228222908
0.001108689536177307
0.001061010289234103
0.0010086449997222524
0.0009515547315733508
0.0008896982502061695
0.0008230323198473999
0.0007515121521848439
0.0006750920149401485
0.000593726008111771
0.0005073690146190565
0.0004159778308209794
0.0003195124808279548
0.00021793771660164746
0.00011122470349891195
9.664397793287399e-05
0.00019042883963336227
0.00028096327025835255
0.00036825241054098956
0.00045228459013497285
0.000533033103020622
0.0006104581123818065
0.0006845086383092808
0.0007551245805110796
0.0008222387288243926
0.0008857787166144035
0.0009456688759209159
0.0010018319582216634
0.0010541906906225973
0.0011026691438337233
0.0011471938951283164
0.0011876949763132208
0.0012241066032847234
0.0012563676897916903
0.0012844221533989467
0.0013082190262265064
0.001327712386777459
0.0013428611320344605
0.0013536286110403944
0.0013599821424465572
0.001361892439095097
0.0013593329627101525
0.0013522792313150067
0.0013407081011877972
0.0013245970441209468
0.0013039234395580412
0.0012786638999347857
0.0012487936463161861
0.001214285950252296
0.0011751116567103592
0.0011312388020008127
0.0010826323398063706
0.0010292539877408274
0.0009710622062858998
0.0009080123214529126
0.0008400568020525065
0.000767145701981789
0.0006892272774052244
0.000606248788049317
0.0005181574909915998
0.00042490183423941896
0.0003264328559846458
0.00022270579361924336
0.00011368190433649894
9.811845452976226e-05
0.00019340292812661947
0.0002854613037670192
0.0003742922799337897
0.0004598764081463688
0.0005421781221325445
0.0006211479113324841
0.0006967245837506547
0.0007688375619352567
0.0008374091568205677
0.0009023567671603908
0.0009635949570615115
0.0010210373703511758
0.001074598447807086
0.0011241949212362976
0.0011697470666095638
0.0012111797065713706
0.001248422960325908
0.0012814127458938632
0.0013100910458408166
0.0013344059526779126
0.0013543115141749842
0.00136976740180543
0.0013807384275206919
0.0013871939351207119
0.001389107092771985
0.0013864541128606883
0.0013792134245012577
0.001367364822794516
0.0013508886174750656
0.0013297648020229938
0.0013039722627381858
0.0012734880457735687
0.001238286698749605
0.0011983397023664077
0.0011536150064175507
0.00110407668379095
0.0010496847154038702
0.0009903949185401176
0.0009261590306987658
0.0008569249607762106
0.0007826372191362119
0.0007032375378143718
0.0006186656916826322
0.000528860530796052
0.00043376123328589533
0.0003333087869632004
0.00022744770617751098
0.00011612798835065885
9.957431382412452e-05
0.00019634893032240142
0.0002899313048693383
0.00038031247393348344
0.0004674638691965563
0.000551339639053447
0.0006318791316043335
0.0007090094740381941
0.0007826481820557424
0.0008527057344245997
0.0009190880516809288
0.0009816988240585259
0.0010404416414965673
0.001095221887566479
0.0011459483688484248
0.0011925346611874887
0.0012349001639104448
0.0012729708620969893
0.00130667980507769
0.001335967316247695
0.0013607809549247424
0.0013810752552947461
0.0013968112705099525
0.0014079559518266269
0.0014144813934240524
0.0014163639734045205
0.0014135834206094808
0.001406121835487717
0.0013939626914928338
0.0013770898415282756
0.0013554865519404963
0.0013291345845970817
0.0012980133457716064
0.0012620991189532943
0.0012213643973451593
0.001175777330733152
0.0011253013005957727
0.001069894636759404
0.0010095104885598921
0.0009440968632960303
0.0008735968447011744
0.0007979490041528647
0.0007170880173104494
0.0006309454987490012
0.0005394510668539076
0.0004425336506728092
0.00034012304950217787
0.00023215175461262227
0.00011855704060270006
0.00010101369325365983
0.00019927193449194303
0.0002943821069940067
0.00038632618875091007
0.0004750649569193535
0.0005605406473691496
0.000642679795509915
0.0007213961809839631
0.0007965937976197185
0.0008681697721687476
0.000936017160500853
0.001000027557657504
0.0010600934678936247
0.001116110391947124
0.0011679786006066756
0.0012156045755888564
0.001258902110224662
0.0012977930730300458
0.0013322078465469941
0.0013620854616437084
0.0013873734536429122
0.0014080274711832583
0.001424010671680201
0.0014352929387818486
0.0014418499575022323
0.0014436621819810258
0.001440713729293601
0.0014329912306545872
0.0014204826689348804
0.0014031762288353317
0.001381059183500441
0.0013541168389398853
0.001322331555452444
0.0012856818633892111
0.0012441416890869722
0.0011976797056606897
0.0011462588225626402
0.0010898358273609687
0.0010283611930233041
0.0009617790640522039
0.0008900274350436971
0.0008130385355565178
0.0007307394354950508
0.0006430528854527578
0.0005498984065284429
0.0004511936439269629
0.0003468559980905131
0.0002368045460584417
0.00012096226413368938
0.00010243924875639326
0.00020217815368300113
0.00029882435461456996
0.0003923491706830026
0.0004827009668119456
0.0005698082057781911
0.0006535827043242792
0.0007339230008706552
0.000810717741353835
0.0008838489928014032
0.0009531954010303031
0.001018635118726935
0.0010800484423911516
0.0011373201103895558
0.0011903412288434903
0.0012390108064998448
0.0012832368934186378
0.0013229373307067152
0.00135804012922882
0.001388483503979028
0.0014142155974927947
0.0014351939303402991
0.0014513846194943794
0.0014627614064201613
0.001469304536347138
0.0014709995286528096
0.0014678358759051616
0.001459805706166377
0.001446902439916277
0.0014291194696339146
0.0014064488868729616
0.0013788802787274845
0.0013463996130123265
0.0013089882293504523
0.0012666219517022959
0.0012192703366916066
0.0011668960713629786
0.001109454533705985
0.0010468935293468581
0.0009791532181659263
0.0009061662451732566
0.0008278580906821292
0.0007441476555573937
0.0006549480979970781
0.0005601679388215
0.0004597124524920726
0.0003534853609510752
0.00024139084674382194
0.0001233359006448595
0.00010385422921641713
0.0002050750882381866
0.00030327076555076993
0.00039840008469391175
0.0004903969818779302
0.0005791740157616784
0.0006646261074158624
0.0007466343995834318
0.0008250701236701269
0.000899798367305249
0.0009706816442419872
0.0010375831810183478
0.0011003698501978881
0.0011589146971104289
0.0012130990247661844
0.0012628140190614548
0.0013079619126966646
0.001348456700734725
0.0013842244329827086
0.0014152031181185812
0.0014413422816327362
0.00146260222429008
0.0014789530301515877
0.0014903733735227923
0.0014968491728757707
0.0014983721372017825
0.0014949382467688982
0.001486546206235062
0.0014731959038213477
0.0014548869060424796
0.0014316170135401651
0.0014033809000277564
0.0013701688533461695
0.0013319656352135112
0.0012887494744505054
0.0012404912072773167
0.0011871535776655853
0.0011286907106409227
0.0010650477717928097
0.0009961608269754493
0.0009219569171833308
0.0008423543647598647
0.0007572633283390237
0.0006665866251237829
0.0005702208401559064
0.00046805774301569153
0.0003599860327875501
0.0002458934320112294
0.00012566914957973935
0.00010526256177770948
0.00020797171272977227
0.0003077364333864685
0.00040450093975395035
0.0004981824213184868
0.0005886750869742857
0.0006758544710134609
0.0007595818656079487
0.0008397087461292987
0.0009160810618853293
0.000988543276638866
0.0010569420595316
0.0011211295464912813
0.001180966113497564
0.0012363226248877507
0.0012870821410012195
0.0013331410888730855
0.0013744099166282941
0.0014108132661871803
0.0014422897096207782
0.0014687911019636776
0.001490281607676884
0.0015067364595742136
0.0015181405083021585
0.0015244866178691224
0.0015257739587480335
0.001522006245198479
0.0015131899580990912
0.0014993325891252962
0.0014804409368531987
0.001456519480558159
0.001427568853275038
0.0013935844322080712
0.0013545550618743393
0.001310461923450891
0.0012612775626449774
0.0012069650879645913
0.0011474775514596011
0.0010827575247391377
0.0010127368842505202
0.0009373368213159636
0.0008564680941548358
0.0007700315409525094
0.0006779188748554932
0.0005800137834499064
0.0004761933566954507
0.00036632986831258707
0.0002502929361202291
0.00012795208665388608
0.00010666895010713606
0.0002108786920494779
0.00031223917781680183
0.0004106775819251243
0.0005060916762131759
0.0005983545067197032
0.0006873193646067324
0.0007728248895530684
0.0008547001449147329
0.0009327695127032132
0.0010068572720101296
0.001076791745457037
0.0011424089228963402
0.001203555498171388
0.00126009128156971
0.0013118909761767814
0.001358845329428933
0.001400861690881973
0.0014378640230046855
0.0014697924234553794
0.0014966022248754374
0.0015182627420362235
0.001534755736683241
0.0015460736682155196
0.0015522177940411191
0.0015531961776964129
0.0015490216561911407
0.0015397098110588106
0.0015252769806943511
0.0015057383450914827
0.001481106108306797
0.0014513877990507407
0.001416584705838289
0.0013766904601600766
0.0013316897791539953
0.0012815573782032144
0.0012262570636935102
0.0011657410167266041
0.0010999492797869603
0.0010288094600871822
0.0009522366654368467
0.000870133690864458
0.0007823914767444359
0.0006888898617108605
0.0005894986560438173
0.0004840790633615158
0.0003724854802067204
0.00025456770434149206
0.00013017358310726118
0.00010807898820063
0.0002138086325429306
0.0003167999526064516
0.00041696026876437975
0.0005141648493303327
0.0006082623335137496
0.0006990804868250849
0.0007864320926420643
0.000870120786007525
0.0009499466479530941
0.0010257113992649114
0.00109722305967902
0.001164299969794766
0.001226774106244978
0.0012844936537036583
0.0013373248282820965
0.001385152974284612
0.0014278829791390044
0.0014654390690194072
0.001497764060087635
0.0015248181476128914
0.0015465773179818287
0.0015630314674638726
0.0015741823073445668
0.001580041128504149
0.0015806264904946604
0.0015759618913765636
0.001566073465632277
0.0015509877488807805
0.0015307295402565146
0.001505319886454519
0.0014747742057467095
0.0014391005658253506
0.00139829812613277
0.0013523557533526437
0.0013012508178772836
0.0012449481792187259
0.0011833993693701889
0.0011165419849037267
0.0010442993009728424
0.0009665801232250915
0.0008832788967734068
0.0007942760946910155
0.000699438911840565
0.0005986222930780896
0.0004916703278583304
0.0003784180458639222
0.00025869365034270064
0.00013232122721434925
0.00010949929296500543
0.00021677637553121215
0.00032144332321058094
0.00042338434187939866
0.000522448620228301
0.0006184566392817073
0.0007112068573918162
0.0008004825312236119
0.0008860584378613257
0.000967707280162107
0.0010452055848293867
0.0011183389377505681
0.0011869064409969834
0.0012507243175515076
0.001309628630564344
0.001363477121423498
0.0014121502034004224
0.0014555511739366006
0.0014936057282246076
0.0015262608695989777
0.0015534833188206656
0.0015752575253774395
0.001591583380400309
0.001602473723777878
0.0016079517286031325
0.0016080482352050715
0.0016027990955735094
0.0015922425777038646
0.0015764168688339256
0.0015553577071216462
0.0015290961632903818
0.0014976565872875242
0.0014610547301070198
0.0014192960475811756
0.0013723741910645695
0.0013202696893822308
0.0012629488270412478
0.001200362725346328
0.0011324466355447857
0.0010591194562881295
0.00098028349136655
0.0008958244676924229
0.0008056118377282595
0.0007094993948193531
0.0006073262340598323
0.0004989180952496078
0.0003840891280440725
0.0002626441224159101
0.00013438124988223582
0.00011093765963823138
0.00021979934242733618
0.00032619802912570856
0.00042999101860671796
0.0005309972618790515
0.0006290047304213925
0.0007237782076354032
0.000815067209975158
0.0009026137522778477
0.000986159695380566
0.0010654534504452376
0.0011402558599688528
0.0012103451263238765
0.0012755207109738445
0.0013356061777543352
0.0013904509989311961
0.0014399313810562198
0.0014839501976795302
0.001522436137277955
0.0015553421875446408
0.0015826435822171858
0.0016043353350367537
0.0016204294785799045
0.001630952115002686
0.0016359403725501667
0.001635439347245346
0.001629499094522667
0.001618171721544992
0.0016015086181555838
0.0015795578532847507
0.0015523617543956175
0.0015199546803157313
0.0014823609925425987
0.0014395932267409761
0.0013916504645116248
0.0013385169054220963
0.0012801606405497962
0.001216532631182543
0.0011475658996574559
0.001073174943396149
0.0009932553878243752
0.0009076838988813646
0.0008163183810592917
0.0007189984922087445
0.0006155465115602471
0.0005057686023898916
0.0003894565153612431
0.0002663897826608516
0.0001363384564612921
0.0001124032451644899
0.00022289794303142346
0.00033109764988367013
0.00043682832903613883
0.0005398738414460272
0.0006399845850791203
0.0007368866093241735
0.0008302908433287723
0.0009199020900288318
0.0010054274702479549
0.0010865840496296977
0.0011631054404995234
0.0012347472358217315
0.001301291198160713
0.0013625481885355395
0.0014183598747386783
0.0014685993036425496
0.0015131704559288098
0.0015520069242687048
0.001585069867852812
0.0016123453985518385
0.0016338415485456156
0.0016495849578320732
0.0016596174044847326
0.0016639922825998493
0.0016627711140619825
0.0016560201617885004
0.0016438071949196956
0.001626198441148835
0.0016032557484388574
0.001575033967930975
0.0015415785619430147
0.001502923435482209
0.0014590889864757803
0.0014100803687239136
0.0013558859621504576
0.0012964760470040235
0.001231801681990101
0.0011617937906640147
0.0010863624655550116
0.0010053965052196148
0.0009187632055615361
0.0008263084331212658
0.0007278570144783336
0.000623213482273309
0.000512163224487612
0.00039447408939290163
0.00026989850384551844
0.0001381761672150511
0.00011390678600498028
0.00022609606165856916
0.0003361813985482548
0.00044395223132856487
0.0005491516459795454
0.0006514865529429481
0.0007506383906455624
0.0008462739130154773
0.0009380556347029709
0.0010256515528001761
0.001108743828442449
0.0011870361891621467
0.0012602598962810838
0.0013281782043670781
0.0013905893161928404
0.00144732790241036
0.0014982653075165317
0.0015433086013697667
0.0015823986586096656
0.0016155074579974685
0.0016426347918624962
0.0016638045648679767
0.0016790608437020627
0.0016884637974805064
0.0016920856447789137
0.0016900066990985854
0.0016823115816207782
0.0016690856493293549
0.0016504116686232029
0.0016263667497387405
0.0015970195457463837
0.0015624277114835924
0.0015226356123236237
0.0014776722698565808
0.0014275495310550473
0.0013722604489662601
0.0013117778660926144
0.0012460531960882468
0.0011750154049379319
0.0010985701991466645
0.0010165994354360691
0.0009289607738292779
0.000835487603618526
0.0007359892794022924
0.0006302517119947323
0.0005180383663991942
0.00039909172607730664
0.00027313528929247266
0.000139876169230696
0.00011546085863278072
0.0002294216397205201
0.0003414950729510313
0.00045142794689810584
0.0005589158841572267
0.0006636153751651205
0.0007651563994218596
0.0008631550798283358
0.0009572258464389596
0.0010469926482768246
0.0011320988383004896
0.001212215458082859
0.0012870477559212626
0.001356339876304874
0.0014198777527537065
0.0014774903148155813
0.0015290491803862175
0.0015744670454681114
0.0016136950057207416
0.0016467190497023096
0.0016735559554682533
0.0016942488034805692
0.0017088622929436817
0.0017174780188276145
0.0017201898356262318
0.001717099403455269
0.0017083119839920932
0.0016939325290387663
0.0016740620837340306
0.001648794509863799
0.001618213522257654
0.0015823900226538262
0.0015413797102873522
0.0014952209463721111
0.0014439328501536786
0.0013875136068748073
0.0013259389724177562
0.001259160965211878
0.0011871067429170823
0.0011096776691390947
0.0010267485837811216
0.0009381672993895099
0.000843754354823395
0.000743303066624984
0.000636579927432393
0.0005233254095203116
0.00040325523995366624
0.00027606222176342066
0.00014141868288463505
0.00011708019324565416
0.00023290737852797033
0.00034709220315606165
0.0004593315681461277
0.000569265728455122
0.0006764925963318458
0.0007805826876996699
0.0008810940201341017
0.0009775863167951274
0.0010696339569853386
0.001156837230019879
0.0012388315823446266
0.0013152946857563352
0.0013859512858592424
0.0014505759055010517
0.0015089935716772127
0.0015610788030471986
0.0016067531382643746
0.0016459815045164403
0.001678767724326402
0.0017051494410221454
0.0017251927139314768
0.0017389864977170391
0.0017466371802563052
0.0017482633133172817
0.0017439906324196244
0.0017339474283828565
0.0017182603041445144
0.0016970503269166867
0.001670429567644377
0.0016384980067345317
0.0016013407766528667
0.0015590257076488895
0.0015116011419577663
0.001459093983742006
0.0014015079562407842
0.0013388220436106602
0.001270989102365394
0.0011979346358231419
0.0011195557342611809
0.0010357201933383353
0.0009462658335796584
0.0008510000541546089
0.0007496996646713661
0.0006421110491172805
0.0005279507262610159
0.000406906380675795
0.00027863844792803266
0.00014278234629573616
0.00011878205424435684
0.00023659159283549724
0.0003530354444341785
0.0004677520058715204
0.0005803167791965866
0.0006902594585814145
0.0007970817093841051
0.0009002747727654067
0.0009993360971184695
0.001093784317255056
0.0011831720584834504
0.001267096218179005
0.001345205555243388
0.0014172055831876001
0.0014828609041492163
0.0015419952317519067
0.0015944894272428081
0.0016402779163261424
0.001679343866891822
0.0017117134956164334
0.0017374498403069233
0.0017566462911126832
0.0017694201230989207
0.0017759062200286904
0.0017762511283483037
0.0017706075340107597
0.0017591292145922657
0.0017419664859872133
0.0017192621369638908
0.0016911478257089427
0.0016577408995492107
0.0016191415915253887
0.001575430544550671
0.0015266666146939584
0.001472884908924929
0.001414095018795511
0.0013502794194592202
0.0012813920127015613
0.0012073568029239007
0.0011280667060084987
0.001043382502482669
0.000953131958212422
0.0008571091478427814
0.0007550740282238691
0.0006467523209902348
0.0005318357751710814
0.00040998289207379995
0.0002808202055990666
0.00014394422152314013
0.00012058670497197554
0.0002405192545131135
0.0003593982791502068
0.0004767933622759554
0.000592204053950135
0.0007050803911448772
0.0008148441445097257
0.0009209097002290459
0.0010227035854621855
0.0011196818122073057
0.0012113444254155878
0.001297246872868911
0.0013770080438316387
0.0014503150315023222
0.0015169248468010765
0.001576663439922181
0.0016294224689349518
0.0016751542938734723
0.0017138656760451107
0.0017456106336032062
0.0017704828544366155
0.0017886080045114508
0.0018001362013208844
0.0018052348539922825
0.0018040820082193265
0.0017968602783716772
0.0017837514024118054
0.0017649314180928632
0.0017405664310242916
0.0017108089257826462
0.0016757945592273532
0.0016356393693705423
0.0015904373323774729
0.001540258203465518
0.0014851455837006644
0.0014251151631931372
0.0013601531013574808
0.0012902145162625583
0.0012152220673060446
0.0011350646282472024
0.0010495960608399649
0.0009586341127729991
0.0008619594772259417
0.0007593150649721839
0.0006504055534815312
0.0005348972907828486
0.00041241864480762863
0.00028256090144830603
0.00014487982654143305
0.0001225179794559425
0.0002447432774898631
0.0003662671096352696
0.0004865778401618587
0.0006050856343634281
0.0007211472382307738
0.0008340914911543554
0.0009432441902224378
0.001047951071268323
0.0011475979037242762
0.0012416269823446735
0.0013295496055921174
0.0014109544269650456
0.001485511826699655
0.001552974659975996
0.0016131758853825395
0.0016660236631285893
0.001711494541731376
0.0017496253342304813
0.001780504232106031
0.001804261629067369
0.001821061038818704
0.0018310904000428327
0.0018345539751959544
0.0018316649720489867
0.0018226389509950897
0.0018076880280557261
0.0017870158431181685
0.0017608132342377125
0.0017292545403768816
0.001692494445062108
0.0016506652704374597
0.0016038746335481704
0.0015522033830488238
0.0014957037438051574
0.0014343976081803503
0.0013682749255148133
0.0012972921549674818
0.0012213707611627989
0.0011403957467787523
0.0010542142311844235
0.0009626340993873841
0.0008654227608090037
0.0007623060726775141
0.0006529674980106578
0.0005370475831375857
0.00041414385434265094
0.0002838112473858845
0.0001455631972660451
0.00012460399089873897
0.00024932611080751704
0.0003737438489334888
0.0004972493314780099
0.0006191471398472106
0.0007386844062125392
0.0008550816002808811
0.0009675622498243053
0.0010753800522992074
0.0011778421593221858
0.001274327804894157
0.001364301855351413
0.0014473232421354926
0.0015230485651887282
0.0015912314046670623
0.0016517180434766285
0.0017044403852709764
0.0017494068623194886
0.001786692080227116
0.0018164258588849597
0.0018387822177989427
0.0018539687334594296
0.0018622165780068506
0.0018637714401286906
0.0018588854357852042
0.001847810040274539
0.001830790014560206
0.0018080582565645972
0.001779831480306096
0.0017463066099657892
0.001707657769803625
0.0016640337520473295
0.0016155558514954968
0.001562315965998061
0.0015043748749407615
0.001441760622444846
0.001374466947545075
0.0013024517197113214
0.0012256353544890589
0.0011438992006251175
0.0010570839067673976
0.0009649877926545397
0.0008673652666297479
0.0007639253482651306
0.0006543303717851667
0.0005381949627106669
0.00041508539653641735
0.0002845194641652102
0.0001459669841044342
0.00012687801608876614
0.00025434172772583613
0.000381949149547485
0.0005089778716389493
0.0006346072465201469
0.000757955160062565
0.000878115371628907
0.0009941931759149397
0.0011053374538351826
0.0012107676355257585
0.0013097946299687677
0.001401835317207771
0.0014864206938626362
0.0015631981691602431
0.0016319288034698162
0.0016924804582600927
0.0017448178936858919
0.0017889908257635798
0.0018251208625972223
0.0018533881026921162
0.0018740180202988094
0.0018872691012210493
0.0018934215410309624
0.0018927671848209468
0.0018856007779463474
0.0018722125118495123
0.001852881786837679
0.0018278720720052294
0.001797426718010052
0.0017617655676311628
0.0017210822086409575
0.001675541720616
0.0016252787795032891
0.0015703959991892127
0.0015109624066156208
0.0014470119652231633
0.0013785420800783155
0.001305512036639582
0.0012278413436240393
0.001145407968840946
0.0010580464752341437
0.0009655460828018048
0.0008676487006006942
0.0007640469916871326
0.0006543825525320221
0.0005382443070365561
0.0004151672335500206
0.0002846315610456965
0.0001460625876310087
0.00012937960770634943
0.00025987812745715405
0.00039102645518955537
0.0005219652039479758
0.0006517245344686978
0.0007792693622208774
0.0009035448821571174
0.0010235195216141899
0.0011382228943162542
0.0012467769714868057
0.0013484194146346773
0.001442518736048691
0.0015285815907657221
0.0016062530054234275
0.0016753106895718156
0.0017356547529472285
0.0017872941861456632
0.0018303313821636316
0.0018649458173666741
0.0018913778066900686
0.0019099130286136523
0.0019208683032040513
0.0019245789165052707
0.0019213876253351622
0.0019116353512229553
0.0018956534799663902
0.0018737576207215542
0.0018462426409692131
0.001813378776004397
0.0017754086088599755
0.001732544724466198
0.00168496785677779
0.001632825366786779
0.001576229910731898
0.001515258180021288
0.0014499496165414488
0.0013803050286812363
0.0013062850544065946
0.0012278084381405416
0.0011447501082146386
0.0010569390614853721
0.0009641560815764963
0.0008661313372748253
0.0007625419279369688
0.0006530094633066738
0.0005370977857258666
0.00041431096306804305
0.00028409170049960297
0.00014582033804814293
0.00013215600404029026
0.00026604050530250334
0.0004011471216504997
0.0005364517764987753
0.0006708060321277964
0.0008029930289218459
0.0009317832847491325
0.001055986619492695
0.001174497151393436
0.00128632922370428
0.0013906431227239668
0.0014867604106721874
0.0015741695160610414
0.0016525228357287189
0.0017216269822431032
0.0017814279682486917
0.0018319930904440868
0.00187349110849315
0.001906172059670412
0.0019303477552620393
0.0019463737073788928
0.001954632961617006
0.001955522077997894
0.0019494393169169275
0.0019367749487434194
0.0019179035111141496
0.0018931777802351987
0.001862924194144945
0.0018274394595321
0.001786988082795489
0.0017418005851520674
0.0016920721865109137
0.0016379617704490312
0.0015795909708434877
0.0015170432482361704
0.0014503628501636653
0.0013795535742714554
0.0013045772761530391
0.0012253520858297798
0.0011417503180331037
0.0010535960823954138
0.000960662620707424
0.0008626694198409571
0.0007592791709184407
0.0006500946678037606
0.0005346557607749242
0.00041243650393280734
0.00028284265699695527
0.0001452097230980401
0.00013526392990974995
0.0002729553011337066
0.0004125169368580234
0.0005527255999827133
0.0006922179410384921
0.0008295601851224244
0.0009633168964183481
0.0010921139666123444
0.0012146919825933716
0.001329947428583493
0.0014369605624059145
0.001535010089612182
0.001623575805328209
0.0017023311055244378
0.0017711276701740317
0.0018299747215217502
0.0018790151233694166
0.0019185002871016862
0.0019487654610769387
0.001970206564837422
0.0019832593351698305
0.0019883812073314064
0.0019860360767116614
0.001976681877164363
0.00196076076761751
0.0019386916291632347
0.001910864529557993
0.0018776367998016436
0.0018393303781980355
0.0017962301027090802
0.0017485826660230547
0.001696595984839927
0.0016404387722385866
0.0015802401376632108
0.0015160890720343073
0.0014480337054375084
0.001376080251928806
0.0013001915806842568
0.0012202853756687615
0.0011362318679087324
0.0010478511460245837
0.0009549100725332604
0.0008571188560170528
0.0007541273528345813
0.000645521196621382
0.0005308178791161022
0.0004094629313162873
0.00028082637886381323
0.00014419966902948222
0.00013877191653820925
0.0002807754118126782
0.0004253844866450793
0.0005711335400570491
0.0007163991777802275
0.000859487636805871
0.0009987199943501182
0.0011325088206263836
0.0012594214366875717
0.0013782268014819812
0.0014879249704806766
0.0015877597793481912
0.001677216729650502
0.0017560089049368302
0.0018240541278744943
0.0018814465506217515
0.0019284255559177607
0.0019653443498242953
0.0019926400526940544
0.002010806524606071
0.0020203706506620456
0.002021872390723045
0.002015848577697772
0.002002820224425314
0.0019832829590165565
0.001957700135791225
0.0019264981466809786
0.0018900634706739833
0.0018487410336186297
0.0018028334974454566
0.0017526011493192231
0.0016982621124899608
0.0016399926486813585
0.0015779273651997244
0.0015121591780751995
0.0014427389156741674
0.0013696744760192114
0.0012929294764519941
0.0012124213573306633
0.0011280189232352467
0.0010395393266708977
0.0009467445213862391
0.0008493372358348364
0.0007469565423953162
0.00063917312478394
0.0005254843743113455
0.000405309474512304
0.0002779846621290133
0.00014275887913601376
0.00014276331617289056
0.00028968695995739563
0.000440051975921292
0.0005920958185302444
0.0007438785770051345
0.0008933934577785782
0.0010386729562008382
0.0011778823930464477
0.0013093947407320783
0.0014318433491645466
0.0015441518454999206
0.001645542755205169
0.0017355280419200994
0.0018138857093262864
0.0018806268959089684
0.0019359576550173271
0.0019802390186495003
0.0020139481637208856
0.0020376426766280376
0.002051929148053605
0.002057436686197525
0.0020547954386901934
0.002044619861131275
0.0020274962470868407
0.002003973916104053
0.001974559416613751
0.0019397131151739147
0.001899847591978164
0.0018553273291136846
0.0018064692513128297
0.0017535437513078594
0.0016967758988005108
0.0016363465911775552
0.0015723934547090188
0.0015050113473829424
0.0014342523497213877
0.0013601251592140137
0.001282593828889872
0.0012015758125523343
0.0011169392998046784
0.0010284998445559898
0.0009360163124005963
0.0008391861960523675
0.0007376403744696267
0.0006309374205852453
0.0005185575942853599
0.00039989669048026005
0.00027425994526657227
0.0001408562343208769
0.0001473402560592113
0.00029991816409601774
0.0004568893460557416
0.0006161247771240969
0.0007752968803081337
0.0009320202183693282
0.00108398451711475
0.0012290690416133787
0.0013654307394934534
0.0014915624571143135
0.0016063212409576921
0.001708929737949172
0.001798955718660518
0.0018762757148740664
0.001941028819061212
0.001993566076142428
0.0020343998778193095
0.0020641565924265914
0.0020835345168904035
0.002093268242628052
0.0020940997428579855
0.002086755925983029
0.0020719320386293066
0.002050280106553469
0.0020224015309723772
0.0019888429731730536
0.0019500947288326187
0.0019065908900437398
0.0018587106995286914
0.0018067806060369715
0.0017510766254243484
0.0016918266949430133
0.0016292127778069904
0.001563372531678174
0.0014944003998120722
0.0014223480191309368
0.001347223867574382
0.0012689920958342121
0.0011875705080496846
0.001102827674139134
0.0010145791749134603
0.0009225830014932268
0.0008265341541064536
0.0007260585129328437
0.0006207060856349769
0.0005099437722085876
0.0003931478265804117
0.00026959623393151
0.00013846126017479088
0.00015262887625909494
0.0003117510761244807
0.0004763528603667355
0.0006438493505136061
0.0008114350179762725
0.0009762642786476858
0.0011356190635703409
0.001287048833234966
0.0014284736592585362
0.0015582466679892881
0.0016751772971845477
0.0017785207382150364
0.0018679412944276677
0.0019434582155866756
0.002005382157717839
0.0020542491783058087
0.0020907575252404054
0.0021157107584610646
0.0021299691928221634
0.0021344103980939777
0.002129898577924269
0.0021172620545992157
0.002097277757969966
0.0020706614902793047
0.002038062751008693
0.002000063003850902
0.0019571764102734174
0.0019098522116691927
0.0018584780958770739
0.001803384022967286
0.0017448461044562574
0.001683090228210657
0.00161829519925457
0.0015505952268451903
0.0014800816334570796
0.0014068036947872883
0.001330768544554932
0.0012519400965002037
0.0011702369511327956
0.0010855292687842813
0.0009976346055029991
0.0009063127262249199
0.000811259432144669
0.0007120994675375789
0.0006083786061433782
0.0004995550583876546
0.00038499038681048814
0.0002639401654219442
0.00013554466531537357
0.00015878634286699278
0.0003255372760088762
0.0004990098097038057
0.0006760472528714659
0.0008532507128409042
0.0010272128421852725
0.0011947300261091962
0.0013529737269370665
0.0014996096030794395
0.0016328613231368014
0.0017515231532098247
0.0018549304289849008
0.0019428996131211282
0.002015650014028633
0.002073717975286403
0.0021178721203918074
0.002149035678202439
0.002168219483210429
0.002176467217934186
0.0021748129544735054
0.002164250052928758
0.0021457099113988826
0.002120048832780823
0.002088041273958903
0.002050377884047369
0.0020076669514428602
0.0019604381163847925
0.0019091474358546717
0.0018541830937751427
0.0017958712238829236
0.0017344814537878159
0.001670231888654422
0.001603293335583185
0.001533792629755018
0.0014618149654010704
0.001387405163006214
0.0013105678227173581
0.00123126632610316
0.0011494206571888849
0.0010649040217672115
0.0009775382538365698
0.0008870880119872179
0.0007932537888213145
0.0006956637848756012
0.0005938647362784197
0.0004873118326988654
0.0003753579176898267
0.00025724222399809565
0.00013207895640329065
0.00016601034808517295
0.00034171909606327266
0.0005255716952434764
0.0007136876805036024
0.000901926149694178
0.0010861909276882464
0.0012627005304323077
0.0014281973331499859
0.0015800825567668791
0.0017164758912675687
0.0018362084504618473
0.0019387640247321147
0.0020241860839326983
0.002092967321523684
0.0021459357823009687
0.0021841478835332023
0.002208794820841631
0.002221125531311291
0.002222386847459283
0.0022137797629262768
0.0021964297455360424
0.002171368611449502
0.00213952544141615
0.0021017242244213766
0.0020586862381059765
0.002011035537837054
0.0019593062765071306
0.0019039508875108371
0.0018453484223749095
0.0017838125407286173
0.0017195988078740829
0.0016529110709710762
0.0015839067664000922
0.001512701065534347
0.0014393698004734057
0.001363951130848709
0.0012864459222484623
0.0012068168099918439
0.0011249859221938233
0.0010408312362128955
0.0009541815454070374
0.0008648100213749718
0.0007724263732889688
0.0006766676331841429
0.0005770876363457994
0.00047314532028527867
0.00036419203332628547
0.000249458120837473
0.00012803913659497485
0.00017455214300956395
0.0003608586767014921
0.0005569392954144978
0.0007579884868173792
0.000958930429308287
0.001154820961813026
0.0013411924391516644
0.0015143076029339106
0.0016713076305012176
0.001810257503030023
0.001930105301554394
0.0020305794578690875
0.002112049613050025
0.0021753740091165277
0.002221751136829854
0.002252587403224232
0.002269387097081063
0.0022736665885221483
0.0022668917004471795
0.002250435426177845
0.002225552378315128
0.002193366240704958
0.002154866792338811
0.002110913573510405
0.002062243829562646
0.002009482910060076
0.001953155776314601
0.001893698660641277
0.0018314702260498958
0.0017667618037096947
0.0016998064496219836
0.001630786674325771
0.0015598407719937604
0.0014870677181199263
0.001412530626475006
0.0013362587627275893
0.0012582481092731357
0.001178460467455171
0.0010968210728248343
0.0010132146892718671
0.0009274801416064779
0.000839403246520376
0.0007487081122254657
0.0006550468012132202
0.0005579873921579478
0.0004570005386878087
0.000351444704938024
0.00024055035697055638
0.00012340349660056038
0.00018473466680617168
0.0003836782779615827
0.0005942646093523712
0.0008104934674762442
0.001026101850793975
0.0012350982905703113
0.0014322046066028334
0.001613160649696091
0.0017748775203558186
0.0019154512240783933
0.0020340666999739375
0.002130830085071301
0.0022065662983077085
0.0022626124849451507
0.002300628755566709
0.002322438545989146
0.0023299033771382698
0.00232483142741801
0.0023089160961150407
0.0022836992286888666
0.002250553375692979
0.002210677888536891
0.0021651044465335056
0.0021147085088618275
0.0020602240422891854
0.002002259615864123
0.0019413145515496041
0.0018777942777037926
0.0018120243673959771
0.0017442629778598798
0.0016747115630258921
0.00160352382763089
0.0015308129450580452
0.001456657084558395
0.0013811032965522843
0.0013041697945148992
0.0012258466538085308
0.0011460949256389755
0.0010648441410973722
0.0009819881585813456
0.0008973792904118649
0.0008108206343252003
0.000722056536791485
0.0006307611329227081
0.0005365249479401049
0.0004388396132564698
0.00033708084927133036
0.0002304899949700373
0.00011815451154548878
0.00019697815397888216
0.00041111703003230554
0.0006390371002116778
0.0008731778638565758
0.0011057568402259577
0.0013294864349194697
0.0015381402724303009
0.0017269117981319679
0.0018925553420952868
0.0020333386192591257
0.002148858716068836
0.0022397801942325296
0.0023075477988097025
0.002354113037741301
0.0023816988429996647
0.0023926132223443253
0.002389112986818532
0.002373312549600822
0.0023471298414412083
0.002312260664859317
0.0022701734311162437
0.0022221174997179155
0.00216913980532292
0.002112105841988409
0.0020517222517177705
0.001988559195059532
0.0019230713775775128
0.0018556171016378444
0.001786475048947557
0.0017158587143930766
0.0016439285389303337
0.0015708018547726799
0.0014965607797529576
0.001421258194007076
0.0013449219113328137
0.0012675571268422545
0.001189147186681734
0.0011096526878990876
0.0010290088792699811
0.0009471212988991229
0.0008638595537150268
0.0007790491224579921
0.0006924610519132568
0.0006037994226453514
0.0005126864942198925
0.0004186455108114162
0.0003210812644256836
0.00021925867681603373
0.00011227986330258205
0.00021183692213764052
0.00044441211818378734
0.000693205448210419
0.0009485938438957182
0.0012008346543670514
0.0014410360948237735
0.0016618814606625051
0.0018580361984283818
0.0020262424463052923
0.002165161771029822
0.002275054295749892
0.0023573832714138057
0.0024144172252986568
0.0024488774637450965
0.002463655057925316
0.0024616030555231067
0.0024453978661375143
0.002417457830753301
0.002379905291851666
0.002334559354429489
0.0022829486354064496
0.002226335750697958
0.0021657475843953576
0.0021020072982208537
0.0020357655163067458
0.0019675291936934805
0.001897687416579745
0.0018265338650074042
0.0017542859635294832
0.0016811009088396438
0.0016070888383040438
0.001532323421078681
0.001456850135872042
0.0013806924612133134
0.0013038561549980517
0.001226331746229728
0.0011480953069449053
0.0010691075183994932
0.0009893109937960456
0.0009086257707967282
0.0008269428416468917
0.0007441155488849306
0.0006599486446458233
0.0005741847994846123
0.00048648836506173104
0.00039642626054973637
0.00030344598248471105
0.0002068509430618523
0.0001057736180204577
0.00023005322683023258
0.0004852169925936914
0.0007593520190291546
0.001040073132043514
0.0013150898320586808
0.0015735310898399545
0.0018068639531283008
0.002009324780330342
0.0021779026516629205
0.0023119936174236626
0.0024128719824523075
0.002483110580672042
0.002526044863310987
0.0025453336391436238
0.002544634198258792
0.0025273860145764507
0.002496684886494665
0.0024552254187268537
0.002405290895977061
0.002348773173644906
0.002287209439666194
0.002221826615180337
0.0021535873528402763
0.002083233984412524
0.002011328450183869
0.001938287355863072
0.0018644119951621262
0.0017899135737875285
0.0017149340708581366
0.0016395632480144494
0.0015638523141560043
0.0014878247078071068
0.00141148439067754
0.001334821968018405
0.001257818871426862
0.0011804497618904085
0.0011026832369355269
0.001024480856218115
0.0009457944343098587
0.0008665614868178483
0.0007866986553508697
0.0007060928782584991
0.0006245900203787971
0.0005419806344922409
0.0004579825161648947
0.00037221975777697314
0.0002841981386532272
0.00019327693491631368
9.863760400526805e-05
0.00025263777931037665
0.0005357768822960608
0.0008409469076100899
0.0011520119652327007
0.0014533474408875528
0.0017316612089808558
0.0019771378760818116
0.0021838300528690714
0.0023494132505926663
0.002474526798098089
0.002561937650718906
0.002615715766434122
0.002640536836892665
0.00264116013549983
0.002622080837592595
0.0025873296071250405
0.002540382864045388
0.0024841483792965788
0.0024209970866661996
0.0023528195493581414
0.002281092412205088
0.0022069456448258404
0.0021312253482366032
0.0020545495728519353
0.0019773562833549987
0.0018999435932870491
0.0018225029119181904
0.001745145869593595
0.0016679259342161148
0.001590855579203524
0.0015139197614705314
0.0014370863462932273
0.0013603139909720875
0.0012835578796053203
0.0012067735907529652
0.0011299192792766817
0.0010529562626075649
0.0009758480186565846
0.0008985575253854655
0.0008210427978690114
0.0007432504041052293
0.0006651066626954284
0.0005865061430597555
0.0005072970079007567
0.00042726267646777186
0.0003460992818269046
0.00026338849961959204
0.00017856559995012636
9.088305853780995e-05
0.0002809930116509547
0.0005991950952585687
0.0009427242247710618
0.0012902752432365772
0.0016218383551934064
0.001921213347807274
0.0021773825327992408
0.002384717272645581
0.0025422965518528233
0.002652742029008795
0.0027209423122556593
0.0027529213086225565
0.0027549733142909656
0.0027330850595536395
0.0026926054571220492
0.0026381009320117534
0.0025733345333385817
0.0025013182732089648
0.0024244021486789363
0.0023443758995587843
0.002262569250386339
0.0021799431300688135
0.002097168691979217
0.0020146935266232117
0.0019327958445963071
0.001851628047196293
0.0017712513005207937
0.0016916626853430254
0.0016128163328738149
0.0015346397480137733
0.0014570463065599268
0.0013799447107598582
0.0013032460066256316
0.0012268686081319535
0.0011507416362132594
0.0010748067613764907
0.000999018634404724
0.000923343896648221
0.0008477586761436624
0.0007722443937984227
0.0006967816190987831
0.0006213416195443994
0.0005458751347283269
0.00047029777288122923
0.00039447128921387895
0.0003181799056661133
0.00024110085371182102
0.00016276857929352698
8.25326476333807e-05
0.0003171069058484667
0.0006798469113999325
0.0010712495839294046
0.0014627732591029757
0.0018286298966978497
0.0021492521110854333
0.0024128132990586214
0.00261494532447926
0.0027572621420489905
0.002845404417623529
0.002887166652873377
0.0028910173872965274
0.0028651011870452006
0.002816672404617457
0.0027518527503663757
0.002675600271305409
0.00259179824732585
0.0025033997070750824
0.002412587278711475
0.0023209258891741004
0.002229497610215247
0.0021390150650574917
0.002049913713845091
0.0019624252123150235
0.0018766347250858129
0.0017925251184383074
0.0017100106899327408
0.001628962704126595
0.0015492285966311886
0.0014706463315825383
0.001393055069325952
0.0013163030249455747
0.0012402531698066759
0.001164787240081358
0.0010898083603087284
0.001015242459090536
0.0009410385419093281
0.0008671677877971073
0.0007936213477326738
0.000720406638018603
0.0006475418335755712
0.0005750481613451333
0.0005029394549392781
0.0004312082406002192
0.0003598073792825292
0.0002886260307946101
0.0002174585469558489
0.0001459650374217962
7.362301652703504e-05
0.0003638672269518188
0.0007840403710338804
0.0012357920451693816
0.0016802858934736181
0.0020841527944621095
0.002424216434330922
0.002688861848446685
0.0028766524188779813
0.0029934595305923586
0.0030493260354114843
0.0030558483615207264
0.003024377523760266
0.0029650022696875063
0.0028861237711958754
0.002794408082800192
0.0026949426754427144
0.0025914789063183723
0.002486690352148057
0.0023824109544340645
0.0022798381177196944
0.0021796977450375954
0.002082374039527893
0.0019880092416948297
0.0018965789402030225
0.0018079481700555948
0.0017219127419800077
0.0016382294128079143
0.0015566377387591576
0.0014768758000583034
0.0013986914532356405
0.0013218503451912673
0.0012461415923310862
0.0011713817696965244
0.0010974176516968595
0.0010241279833130904
0.0009514244270097845
0.0008792517175221538
0.0008075869582167897
0.0007364379046698177
0.0006658399993288849
0.0005958518382000039
0.000526548650466481
0.0004580132248355358
0.00039032347826149436
0.0003235354920439991
0.0002576603429287651
0.00019263255699963552
0.00012826781618833355
6.420811080828231e-05
0.00042558912762743
0.0009211033920027631
0.0014496888831134445
0.0019576312140986707
0.002401777612773024
0.0027557638008909834
0.003010410346772543
0.0031700490850874175
0.003247308825008049
0.0032583356648848635
0.0032193912478545375
0.003144924896073483
0.0030467852495488085
0.0029341441518390306
0.002813783986692093
0.0026905200488547137
0.0025676314341916244
0.0024472420030387174
0.0023306322318444213
0.0022184825835814617
0.0021110574006572534
0.002008340649902827
0.0019101343380590365
0.0018161288096658658
0.0017259523013159854
0.0016392054367748883
0.001555484938129105
0.001474399713454564
0.0013955816277362205
0.001318692622610515
0.0012434293742557383
0.0011695263261491083
0.0010967576709400295
0.001024938657149109
0.0009539264418167333
0.0008836205848232782
0.000813963174076178
0.0007449384767869889
0.000676571927776811
0.000608928190330215
0.0005421079559294467
0.00047624307324511603
0.00041148947649749523
0.00034801714195372216
0.00028599582631618284
0.00022557453895355462
0.00016685163290649715
0.00010983146825264967
5.4363634819018514e-05
0.0005089378718946234
0.0011052330681296206
0.0017325180747734398
0.002315277369162573
0.0027982613239218163
0.003153997733239322
0.0033801898163822452
0.003491527890310143
0.003510763020111333
0.0034619338610340986
0.0033664713476962427
0.003241636376108345
0.0031003897999809307
0.0029519463060333935
0.0028025426402101816
0.0026561821626674247
0.002515261086141165
0.0023810565981074103
0.0022540898326469036
0.002134387280629292
0.0020216646432607115
0.0019154536580040966
0.0018151880514323468
0.0017202607435269912
0.0016300611388672497
0.0015439988192226493
0.0014615180899838175
0.001382106489028704
0.0013052994112028246
0.0012306823285991655
0.0011578916148314855
0.001086614649993111
0.0010165896477781038
0.0009476054752546072
0.00087950160584431
0.000812168240591566
0.0007455465405012268
0.0006796288271876776
0.000614458529079636
0.0005501295800845254
0.0004867849242668164
0.00042461374519191936
0.0003638469943262508
0.0003047506410603154
0.00024761559805322464
0.00019274219384919633
0.00014041518522748056
9.086297123656745e-05
4.4193211584078046e-05
0.0006246212364708556
0.0013587617677625584
0.002113596598846249
0.0027814060717352602
0.0032935452537603827
0.003627324848386484
0.0037956913840817633
0.003830618860437545
0.0037689104783771576
0.0036437228039011282
0.0034812050445714414
0.0033002529932491496
0.00311364142388406
0.0029294934943659492
0.0027526192286769988
0.0025855748059211425
0.002429440349395632
0.002284365184663236
0.0021499380463747796
0.0020254322167694225
0.0019099641991643136
0.001802593961271342
0.001702386385946185
0.001608447374200267
0.0015199436648735444
0.0014361124145400896
0.0013562645317856878
0.0012797843849105192
0.0012061275867400918
0.0011348179543646808
0.001065444342004087
0.0009976577814038191
0.0009311691882040243
0.0008657477715623418
0.0008012201948602686
0.0007374704611515653
0.0006744404266275164
0.0006121307719776092
0.0005506021843361478
0.0004899764296461134
0.000430436946651562
0.0003722285984018546
0.0003156562905297054
0.0002610822400046023
0.000208921474503021
0.0001596340547675157
0.00011370975263960345
7.163626199165746e-05
3.38371200344495e-05
0.0007906782771689783
0.0017181596601677576
0.0026376071734349436
0.0033940179482012493
0.003908554412342783
0.004177467690209744
0.004243618221186778
0.004165473398285494
0.003997055357810454
0.003779943069599903
0.0035427206362142645
0.0033034678004189993
0.0030727419618555296
0.0028560927730820786
0.002655906286420609
0.0024726616705891824
0.0023057493539995096
0.002153986285089081
0.0020159311212510876
0.0018900710040097787
0.001774927652389454
0.001669113718776486
0.0015713591151853244
0.0014805196990057834
0.0013955760197275381
0.001315626859575765
0.0012398804372916253
0.0011676449836155248
0.0010983196807051246
0.0010313865206999506
0.0009664033760133327
0.0009029984189087327
0.0008408659376150686
0.0007797635425185086
0.0007195107195844194
0.0006599886550809585
0.0006011412150754222
0.000542976907116053
0.0004855715768537529
0.0004290715061521129
0.0003736965087182305
0.0003197426246440427
0.00026758419066581426
0.0002176754778259564
0.00017055256096408164
0.00012683574926740382
8.722989605187623e-05
5.251215842210291e-05
2.3484978156053382e-05
0.001039304922834161
0.00224557105821397
0.00337330785232735
0.004201202048580509
0.0046577344918398295
0.004788989143838171
0.004690811617377992
0.004457042285796391
0.004157997092429696
0.0038388587696234835
0.0035256949513892168
0.0032319483556223112
0.002963393387514557
0.0027214313110166324
0.0025051298709604097
0.0023124284869896206
0.0021408236772548182
0.001987742734032006
0.0018507353635629116
0.0017275615724662886
0.001616222082734882
0.0015149582136840811
0.0014222366736113823
0.0013367279495943817
0.0012572830530493753
0.0011829111152419705
0.0011127590426177891
0.0010460937295912222
0.0009822869464670113
0.0009208028314375664
0.0008611878352236292
0.000803062946133061
0.000746118033099711
0.0006901081668062581
0.0006348518023431247
0.0005802307215850254
0.0005261916306062604
0.00047274927761113347
0.0004199908914161374
0.000368081637213552
0.0003172706637910548
0.00026789724467829804
0.00022039666575113942
0.0001753061896223665
0.00013327292423319023
9.506718849889087e-05
6.160401777045854e-05
3.396566044415461e-05
1.3394509821195583e-05
0.0014323844165655998
0.003051649153159121
0.004425198333546168
0.005253068768742285
0.005528932244435684
0.005409654531104056
0.005071560203857139
0.004643683296676679
0.004201261563782602
0.0037822348740596257
0.003402573955920852
0.0030665437198074165
0.0027726864992678388
0.0025170744824125693
0.0022949862208010534
0.0021017214586851636
0.001932961035382201
0.0017848944946336903
0.0016542343031529412
0.0015381789168832753
0.0014343565041134293
0.0013407649959301174
0.0012557156883053616
0.001177783284678078
0.0011057631143443943
0.0010386352556081002
0.0009755348800418139
0.0009157280206748587
0.0008585919968179638
0.0008035998205824513
0.0007503080238938954
0.0006983474599782762
0.0006474167407637364
0.0005972780673185775
0.0005477552919397194
0.0004987341148123374
0.00045016435982585257
0.00040206428357984075
0.0003545268341930141
0.0003077276743280524
0.0002619346055237823
0.00021751781070980178
0.00017496023384120513
0.0001348679251930579
9.79823416878238e-05
6.520167518244552e-05
3.762428606906079e-05
1.6622629340271727e-05
3.919655301404951e-06
0.0020994401935218836
0.004342241172929948
0.005939649580400986
0.006564947201891932
0.006437338308362874
0.005919293936076913
0.005276142307534131
0.00464078146229395
0.004067249779257213
0.003570404092771859
0.0031480782300992508
0.0027918176615267
0.0024916984208031186
0.002238305121813434
0.0020234135444551667
0.0018401122535889325
0.0016827019043670344
0.0015465235389457849
0.00142778016960508
0.0013233762688459952
0.0012307822231845365
0.0011479234704792583
0.0010730913538275454
0.0010048720821621837
0.0009420903818375993
0.0008837649071241245
0.0008290730124578816
0.0007773229809564103
0.0007279322225380233
0.0006804102993633356
0.0006343459153763144
0.0005893972325475318
0.0005452850607014365
0.0005017886204396783
0.00045874370706797465
0.000416043191880891
0.00037363988566137263
0.0003315518514228795
0.00028987027308892757
0.00024876993358988533
0.00020852218304960243
0.00016950993582126594
0.00013224374461875965
9.737770668878307e-05
6.572523554233128e-05
3.828139098745534e-05
1.6276501712611524e-05
1.306027069332416e-06
-4.447472348158288e-06
0.003348018886625675
0.006500203337669307
0.008057521743564389
0.008001225466245881
0.007135716080374088
0.006103963717851334
0.005154055457717979
0.004353015743947152
0.003699452268036023
0.0031718169164863877
0.0027459454191848774
0.0024005665515408545
0.00211842967003327
0.0018859954995471793
0.0016927666958074343
0.0015306236621340404
0.0013932690263276579
0.0012757923847468884
0.0011743388026633564
0.0010858592766605744
0.0010079235099147606
0.0009385792639374328
0.0008762463069850873
0.0008196360527379515
0.0007676903386610763
0.000719534545593075
0.0006744415457475353
0.0006318039056803712
0.0005911124584462024
0.0005519398660733671
0.0005139281717090848
0.0004767796282941668
0.0004402503151697025
0.0004041462360399005
0.00036832174632104794
0.0003326802959763113
0.00029717760215678887
0.00026182748534244946
0.00022671070442530777
0.00019198718314779317
0.0001579119712425657
0.0001248550099613062
9.332408467770115e-05
6.398908532554565e-05
3.770435821353821e-05
1.5528233419836307e-05
-1.2401834901844266e-06
-1.0915935818565231e-05
-1.1016980440238522e-05
0.005952796548847989
0.010174757061657897
0.010612231777401738
0.008956196557437133
0.007156701293676371
0.005680036567552114
0.004552888156737156
0.0037054371340144894
0.0030652685086740745
0.0025759441627106056
0.0021966173282017484
0.0018982896641527337
0.0016603530837408856
0.001468027916434668
0.0013105822273284107
0.0011801174305886598
0.0010707408577304081
0.0009779980635233505
0.0008984792194777769
0.0008295429129831916
0.0007691199051694346
0.0007155719738715198
0.000667589171483983
0.0006241142070249131
0.000584286220041759
0.0005473985926556964
0.0005128670548800555
0.00048020544035367804
0.00044900721498144364
0.0004189314410039356
0.0003896922275645094
0.00036105100574194623
0.00033281118573080803
0.0003048149310419315
0.00027694193779189205
0.0002491102511505937
0.00022127929825680945
0.00019345547766956572
0.00016570082588181212
0.00013814547711542974
0.00011100481120523281
8.460224444021419e-05
5.939829817503198e-05
3.602528840822988e-05
1.5323640641006636e-05
-1.630127789885305e-06
-1.3514167149265843e-05
-1.87106075014154e-05
-1.4833293042474521e-05
0.012331462871558082
0.015564163588269963
0.011701986162409295
0.00826993597936183
0.005952602324177023
0.004426360916652406
0.0034004800389330937
0.002688809208797757
0.002179707797206873
0.0018052925338323013
0.0015231584546463346
0.0013059796319061998
0.0011356201740432663
0.0009997133177244745
0.0008896182861675359
0.0007991642154215328
0.0007238567225398493
0.0006603639515238326
0.0006061759099438256
0.0005593738808306742
0.0005184713312006949
0.00048230222230965375
0.00044994134768007454
0.00042064669458756823
0.00039381720064064415
0.00036896144152325297
0.00034567419961186244
0.0003236188031482609
0.00030251376201567357
0.0002821226654041928
0.00026224661682703806
0.0002427187076495703
0.00022340020170799613
0.00020417824220860664
0.00018496501445338168
0.00016569841833000837
0.0001463444371371317
0.00012690155017505006
0.00010740774497608463
8.795096408580755e-05
6.868419312190677e-05
4.984686220485188e-05
3.1794699332756554e-05
1.5040227098948172e-05
3.043115779852168e-07
-1.1428675341731281e-05
-1.8882891797366436e-05
-2.0557719992011364e-05
-1.4684243324500357e-05
0.025493614662768158
0.01468815855981444
0.008170696421202158
0.00503373552871718
0.003363808938677281
0.0023984398967979905
0.0017955649403961372
0.0013962920805810422
0.0011193190657543123
0.0009199622686105226
0.0007720729538061542
0.0006595577474280724
0.0005720867762287474
0.0005027915670356847
0.0004469656674270829
0.0004012992032287853
0.0003634110270984807
0.0003315534614920304
0.0003044206609165642
0.0002810211048348381
0.0002605908668530284
0.0002425334438621099
0.0002263772655467823
0.0002117452084181813
0.00019833241029890494
0.00018588992266360335
0.00017421253654966926
0.0001631296414568474
0.00015249832705864497
0.00014219817695142536
0.00013212737129427235
0.00012219983643081342
0.00011234327151068979
0.00010249795694692448
9.261631689671396e-05
8.266327670196708e-05
7.26175361395881e-05
6.247398306807525e-05
5.22476180410264e-05
4.197957718769796e-05
3.174617328568011e-05
2.167239361689638e-05
1.1952095672753543e-05
2.8783072765527218e-06
-5.111668973725725e-06
-1.1372305831907487e-05
-1.4976233734437933e-05
-1.4716545322965291e-05
-9.535000563880291e-06

