# vtk DataFile Version 2.0
mesh vtk view
ASCII
DATASET UNSTRUCTURED_GRID
POINTS 231 double
0.0 -0.136756275061336 0.0
200.0 0.0 0.0
199.95783502991065 99.96858036813768 0.0
0.0 99.86369683190377 0.0
10.002350460577091 -0.13638807438623682 0.0
20.004672626933605 -0.13528637169091265 0.0
30.006938295623822 -0.13345985450344644 0.0
40.00911945950443 -0.13092296178301976 0.0
50.01118844166885 -0.1276958039841829 0.0
60.01311806873007 -0.12380400949548512 0.0
70.01488188836277 -0.11927845002271562 0.0
80.01645442394347 -0.11415477591171733 0.0
90.01781143852513 -0.10847266479115968 0.0
100.01893014587144 -0.1022746491116474 0.0
110.01978925144991 -0.09560433415788622 0.0
120.02036862458988 -0.08850370042292172 0.0
130.02064823170767 -0.08100903735018818 0.0
140.02060577981817 -0.07314406712925822 0.0
150.02021104591276 -0.06490973437631535 0.0
160.0194159213052 -0.05625217084493496 0.0
170.01810723695917 -0.047054169087310554 0.0
180.01604188682535 -0.03668851631232182 0.0
190.01176861358306 -0.025291460317189676 0.0
200.0056071799168 9.985235662935148 0.0
200.00187523803433 19.97898594838897 0.0
199.99789700242525 29.97561752274497 0.0
199.9931439775141 39.97336537322333 0.0
199.98802702084046 49.97181094052264 0.0
199.98257663949727 59.97073554999805 0.0
199.97680438458042 69.96999933267139 0.0
199.97071218370235 79.96947522679176 0.0
199.96434392054286 89.96903571335709 0.0
189.95765729167016 99.96206119877853 0.0
179.9574669664408 99.95540252308238 0.0
169.95736969543933 99.94848338128988 0.0
159.95748907276948 99.94130274687275 0.0
149.9579195547101 99.93393451856016 0.0
139.958717389847 99.92648901837222 0.0
129.95990478904915 99.91908739216268 0.0
119.96147862195073 99.91184628347631 0.0
109.9634194335501 99.90487036737433 0.0
99.96569873151351 99.8982500758287 0.0
89.96828397090027 99.89206214475045 0.0
79.97114149843915 99.88637129327229 0.0
69.97423803248097 99.88123206004128 0.0
59.97754123802879 99.87669035985702 0.0
49.98101981542186 99.87278464063867 0.0
39.98464336863876 99.86954667129658 0.0
29.98838220320215 99.86700204235662 0.0
19.992207126532463 99.86517046472197 0.0
9.996089279022902 99.86406593691416 0.0
0.0 89.86293995593746 0.0
0.0 79.86238535535098 0.0
0.0 69.86199979611249 0.0
0.0 59.86175959866897 0.0
0.0 49.8616506637143 0.0
0.0 39.86166842183472 0.0
0.0 29.86181774117802 0.0
0.0 19.862112836097463 0.0
0.0 9.862577218404944 0.0
10.00164560243294 9.862949627414892 0.0
10.000993356613943 19.862488551888106 0.0
10.000380552408277 29.86219589221027 0.0
9.999794112544281 39.86204813587541 0.0
9.999220943280532 49.86203104268341 0.0
9.998647857987795 59.862139704697974 0.0
9.998061549410382 69.86237865141011 0.0
9.997448615655834 79.86276195587416 0.0
9.996795635542673 89.86331329643113 0.0
20.003268613838628 9.864063944737262 0.0
20.00196969049826 19.86361279006972 0.0
20.000749601106723 29.863327449481957 0.0
19.999582270314185 39.86318440587546 0.0
19.998441564987317 49.86316933668221 0.0
19.99730113132778 59.863277208972015 0.0
19.99613433629614 69.86351242694144 0.0
19.99491432251921 79.86388898027377 0.0
19.993614168393876 89.86443054120572 0.0
30.0048464981763 9.865911449907097 0.0
30.00291198565452 19.865476830675664 0.0
30.001095605122217 29.86520373170379 0.0
29.999358451781596 39.865068619203505 0.0
29.99766146664311 49.865057017303684 0.0
29.995965168782995 59.865163666687984 0.0
29.994229560792093 69.8653927452308 0.0
29.992414218079126 79.86575808873161 0.0
29.990478550758137 89.86628335060111 0.0
40.00635683459932 9.86847764328337 0.0
40.00380323908455 19.86806617131558 0.0
40.00140694657544 29.867810295466143 0.0
39.99911649990396 39.867686437087194 0.0
39.996880094795195 49.86767987245124 0.0
39.99464518494855 59.86778499030423 0.0
39.99235834716377 69.86800561861536 0.0
39.989965412345086 79.86835534847133 0.0
39.987411849409064 89.86885778745476 0.0
50.007777386431 9.871742317824861 0.0
50.00462646531688 19.87136059296627 0.0
50.00167188718256 29.871126989658528 0.0
49.99885005206518 39.87101782819284 0.0
49.9960966644193 49.8710180108633 0.0
49.99334619433778 59.87112142261743 0.0
49.99053170504842 69.87133139582484 0.0
49.98758503389049 79.87166116350645 0.0
49.984437312972354 89.8721342383607 0.0
60.00908617871383 9.875679702667734 0.0
60.00536469617488 19.875334294103343 0.0
60.00187852158876 29.875128067090138 0.0
59.998552475682224 39.87503713791741 0.0
59.995310095206484 49.87504587239761 0.0
59.99207295823187 59.87514748297575 0.0
59.988760496545 69.87534465373724 0.0
59.98529023548489 79.8756501318882 0.0
59.98157844502964 89.87608725582814 0.0
70.01026157687296 9.880258728351224 0.0
70.00600096933772 19.87995614236494 0.0
70.00201473192404 29.879782395192425 0.0
69.99821682759614 39.87971322003557 0.0
69.99451898787362 49.87973224933762 0.0
69.9908299707061 59.879831868535355 0.0
69.98705542478791 69.88001399600026 0.0
69.98309819928973 79.88029077938182 0.0
69.97885907237627 89.88068526681684 0.0
80.01128234569784 9.88544348725616 0.0
80.00651829269212 19.885190117107985 0.0
80.00206815371507 29.885053828375206 0.0
79.99783587368431 39.88500967025318 0.0
79.99372169346219 49.885040326322134 0.0
79.98962153533733 59.8851372841427 0.0
79.98542707554076 69.88530170330198 0.0
79.98102614220828 79.88554509653663 0.0
79.97630338213177 89.88589007042336 0.0
90.01212764558872 9.89119399404482 0.0
90.00689956084285 19.89099604791181 0.0
90.00202617352028 29.89090183057241 0.0
89.99740223567221 39.890885214854265 0.0
89.99291656985282 49.890927745885904 0.0
89.98845202293845 59.89102016196361 0.0
89.98388606777128 69.89116316063354 0.0
89.97909132341216 79.89136778393932 0.0
89.97393587631608 89.89165602655244 0.0
100.01277688446801 9.897467393029505 0.0
100.00712738217302 19.897330796637164 0.0
100.00187599711163 29.897282465439677 0.0
99.99690878209933 39.89729431490355 0.0
99.99210258164355 49.897346692928096 0.0
99.98732645349088 59.89743020954365 0.0
99.9824433992874 69.89754596650961 0.0
99.97731105497967 79.89770509752616 0.0
99.97178115344819 89.89792883150993 0.0
110.01320927894182 9.904219825954163 0.0
110.00718375023857 19.904150087324982 0.0
110.00160486938162 29.90414989907664 0.0
109.99634947004066 39.90418802346001 0.0
109.99128049133394 49.904243940514384 0.0
109.98625160843694 59.90430967600779 0.0
109.9811110991552 69.90438861209593 0.0
109.97570270774658 79.90449320239621 0.0
109.96986337420714 89.90464381481603 0.0
120.01340286243634 9.911409277701859 0.0
120.00704946736512 19.91141128948619 0.0
120.00120063581467 29.91145854999277 0.0
119.99572101034069 39.91151503399357 0.0
119.99045501745961 49.9115606416552 0.0
119.98523792047429 59.91159212369578 0.0
119.9799032823686 69.91161860969007 0.0
119.97428366498946 79.9116560315897 0.0
119.9682052043236 89.91172382661468 0.0
130.01333246007465 9.919000025421964 0.0
130.00670324587244 19.91907755539071 0.0
130.0006531193072 29.919165975048426 0.0
129.99502606823933 39.91922247906234 0.0
129.989638470095 49.919231295418065 0.0
129.9843023295996 59.91920026029373 0.0
129.97883755211677 69.91914999398512 0.0
129.97307107475277 79.91910287081856 0.0
129.96682597014998 89.91907709983701 0.0
140.01296568955598 9.926969562190864 0.0
140.00612060483675 19.927124300844067 0.0
139.99995763236998 29.927235880201184 0.0
139.9942792944029 39.92725528880292 0.0
139.98885644911195 49.927180324905656 0.0
139.9834718554606 59.92704211464128 0.0
139.9779362864256 69.92688026652408 0.0
139.97208103051668 79.92672639337779 0.0
139.96573877305167 89.92659604256755 0.0
150.01225504837183 9.935322284761357 0.0
150.00527396675088 19.935547646039435 0.0
149.99912383147426 29.935640395789815 0.0
149.99351877877265 39.93554946342081 0.0
149.98815529283988 49.93531365062773 0.0
149.9827865554986 59.935004309796966 0.0
149.97722635881024 69.93468762718763 0.0
149.97132659358027 79.9344027314235 0.0
149.9649464832692 89.93415875634547 0.0
160.01112215348252 9.944107632532274 0.0
160.00413887700594 19.94438324311077 0.0
159.99820035679224 29.944347649840783 0.0
159.99282409266303 39.94401317670214 0.0
159.98760909389827 49.94349819474713 0.0
159.98229687841103 59.94294336942753 0.0
159.9767351080546 69.94243082556531 0.0
159.97081397939004 79.94199641903211 0.0
159.96443707974225 89.9416359621436 0.0
170.0094257343649 9.953511696775335 0.0
170.00274005255483 19.95368404955884 0.0
169.99732488839683 29.95329496360391 0.0
169.99234450374365 39.95245773200297 0.0
169.9873071384622 49.95153406254517 0.0
169.98205031478489 59.95067986009911 0.0
169.97647986078354 69.94995656816268 0.0
169.97053692396946 79.94937391198887 0.0
169.9641797459381 89.94890650560792 0.0
180.00695080207973 9.963759017480562 0.0
180.00128176265724 19.96361645578553 0.0
179.99687781787142 29.962105985520207 0.0
179.99223776705955 39.960520732140374 0.0
179.98731673223728 49.95913633369237 0.0
179.98206152162842 59.95800909147043 0.0
179.97645173319705 69.95711948913846 0.0
179.97046984185016 79.95642850096404 0.0
179.96412427662742 89.95588424466507 0.0
190.00352783136478 9.976621153759236 0.0
190.00111870425573 19.972937585548472 0.0
189.99709208754356 29.969914977996954 0.0
189.99257423843915 39.96765261478207 0.0
189.9876076098733 49.96597913145711 0.0
189.98228047567557 59.964737893544374 0.0
189.97659715911152 69.96381386300216 0.0
189.9705598708632 79.96311405856092 0.0
189.9642053117931 89.96255716089345 0.0

CELLS 200 1000
4 0 4 60 59
4 59 60 61 58
4 58 61 62 57
4 57 62 63 56
4 56 63 64 55
4 55 64 65 54
4 54 65 66 53
4 53 66 67 52
4 52 67 68 51
4 51 68 50 3
4 4 5 69 60
4 60 69 70 61
4 61 70 71 62
4 62 71 72 63
4 63 72 73 64
4 64 73 74 65
4 65 74 75 66
4 66 75 76 67
4 67 76 77 68
4 68 77 49 50
4 5 6 78 69
4 69 78 79 70
4 70 79 80 71
4 71 80 81 72
4 72 81 82 73
4 73 82 83 74
4 74 83 84 75
4 75 84 85 76
4 76 85 86 77
4 77 86 48 49
4 6 7 87 78
4 78 87 88 79
4 79 88 89 80
4 80 89 90 81
4 81 90 91 82
4 82 91 92 83
4 83 92 93 84
4 84 93 94 85
4 85 94 95 86
4 86 95 47 48
4 7 8 96 87
4 87 96 97 88
4 88 97 98 89
4 89 98 99 90
4 90 99 100 91
4 91 100 101 92
4 92 101 102 93
4 93 102 103 94
4 94 103 104 95
4 95 104 46 47
4 8 9 105 96
4 96 105 106 97
4 97 106 107 98
4 98 107 108 99
4 99 108 109 100
4 100 109 110 101
4 101 110 111 102
4 102 111 112 103
4 103 112 113 104
4 104 113 45 46
4 9 10 114 105
4 105 114 115 106
4 106 115 116 107
4 107 116 117 108
4 108 117 118 109
4 109 118 119 110
4 110 119 120 111
4 111 120 121 112
4 112 121 122 113
4 113 122 44 45
4 10 11 123 114
4 114 123 124 115
4 115 124 125 116
4 116 125 126 117
4 117 126 127 118
4 118 127 128 119
4 119 128 129 120
4 120 129 130 121
4 121 130 131 122
4 122 131 43 44
4 11 12 132 123
4 123 132 133 124
4 124 133 134 125
4 125 134 135 126
4 126 135 136 127
4 127 136 137 128
4 128 137 138 129
4 129 138 139 130
4 130 139 140 131
4 131 140 42 43
4 12 13 141 132
4 132 141 142 133
4 133 142 143 134
4 134 143 144 135
4 135 144 145 136
4 136 145 146 137
4 137 146 147 138
4 138 147 148 139
4 139 148 149 140
4 140 149 41 42
4 13 14 150 141
4 141 150 151 142
4 142 151 152 143
4 143 152 153 144
4 144 153 154 145
4 145 154 155 146
4 146 155 156 147
4 147 156 157 148
4 148 157 158 149
4 149 158 40 41
4 14 15 159 150
4 150 159 160 151
4 151 160 161 152
4 152 161 162 153
4 153 162 163 154
4 154 163 164 155
4 155 164 165 156
4 156 165 166 157
4 157 166 167 158
4 158 167 39 40
4 15 16 168 159
4 159 168 169 160
4 160 169 170 161
4 161 170 171 162
4 162 171 172 163
4 163 172 173 164
4 164 173 174 165
4 165 174 175 166
4 166 175 176 167
4 167 176 38 39
4 16 17 177 168
4 168 177 178 169
4 169 178 179 170
4 170 179 180 171
4 171 180 181 172
4 172 181 182 173
4 173 182 183 174
4 174 183 184 175
4 175 184 185 176
4 176 185 37 38
4 17 18 186 177
4 177 186 187 178
4 178 187 188 179
4 179 188 189 180
4 180 189 190 181
4 181 190 191 182
4 182 191 192 183
4 183 192 193 184
4 184 193 194 185
4 185 194 36 37
4 18 19 195 186
4 186 195 196 187
4 187 196 197 188
4 188 197 198 189
4 189 198 199 190
4 190 199 200 191
4 191 200 201 192
4 192 201 202 193
4 193 202 203 194
4 194 203 35 36
4 19 20 204 195
4 195 204 205 196
4 196 205 206 197
4 197 206 207 198
4 198 207 208 199
4 199 208 209 200
4 200 209 210 201
4 201 210 211 202
4 202 211 212 203
4 203 212 34 35
4 20 21 213 204
4 204 213 214 205
4 205 214 215 206
4 206 215 216 207
4 207 216 217 208
4 208 217 218 209
4 209 218 219 210
4 210 219 220 211
4 211 220 221 212
4 212 221 33 34
4 21 22 222 213
4 213 222 223 214
4 214 223 224 215
4 215 224 225 216
4 216 225 226 217
4 217 226 227 218
4 218 227 228 219
4 219 228 229 220
4 220 229 230 221
4 221 230 32 33
4 22 1 23 222
4 222 23 24 223
4 223 24 25 224
4 224 25 26 225
4 225 26 27 226
4 226 27 28 227
4 227 28 29 228
4 228 29 30 229
4 229 30 31 230
4 230 31 2 32

CELL_TYPES 200
9
9
9
9
9
9
9
9
9
9
9
9
9
9
9
9
9
9
9
9
9
9
9
9
9
9
9
9
9
9
9
9
9
9
9
9
9
9
9
9
9
9
9
9
9
9
9
9
9
9
9
9
9
9
9
9
9
9
9
9
9
9
9
9
9
9
9
9
9
9
9
9
9
9
9
9
9
9
9
9
9
9
9
9
9
9
9
9
9
9
9
9
9
9
9
9
9
9
9
9
9
9
9
9
9
9
9
9
9
9
9
9
9
9
9
9
9
9
9
9
9
9
9
9
9
9
9
9
9
9
9
9
9
9
9
9
9
9
9
9
9
9
9
9
9
9
9
9
9
9
9
9
9
9
9
9
9
9
9
9
9
9
9
9
9
9
9
9
9
9
9
9
9
9
9
9
9
9
9
9
9
9
9
9
9
9
9
9
9
9
9
9
9
9
9
9
9
9
9
9

CELL_DATA 200
SCALARS STRESS_EQV float 1
LOOKUP_TABLE default
41.9797404565288
27.831745414877975
14.79050273642384
3.5631951013337435
10.377094486037688
22.008327506831947
33.92648012027757
46.30074107817668
59.404085298588825
73.52876689636746
41.45114679121644
27.47816260164816
14.746060637728887
4.778141483469578
11.045194789600185
22.253254022154838
33.91961252836043
46.08980260135395
59.01812128343901
72.99544579443443
40.395861467496275
26.776303084262395
14.6726693388744
6.575594753141516
12.27403713432136
22.737452110686217
33.91046319389575
45.67181281327366
58.24729065954493
71.9276301016481
38.817956050697454
25.73764806929679
14.60168884398134
8.613902385604526
13.918198677245716
23.45052446540118
33.90824686581707
45.05488403991569
57.0939722250401
70.32282399534057
36.724203853032854
24.38188205570995
14.58067489092677
10.776830095713189
15.852300450248359
24.378788450785766
33.92676177740901
44.251993650272574
55.56224174299042
68.17696201137103
34.12487351947054
22.740828700813328
14.672810698087401
13.025322416298714
17.987540073575115
25.50670949869609
33.98396776602464
43.28181418909369
53.6586153669294
65.4841900992152
31.03480202788657
20.865941356798963
14.954361062754348
15.348833502147452
20.26648262475398
26.81774933662951
34.10070514006853
42.16945695213455
51.393260853039834
62.23693508500729
27.474887679746576
18.84281439409193
15.509608553723792
17.7514345668343
22.6541168348592
28.294187092608603
34.29785296354983
40.94653272493845
48.78183073225351
58.426751385852256
23.474672192531823
16.819357529912363
16.42456801428782
20.249177930734056
25.13113879302699
29.915572582446313
34.59104539815535
39.64940324589913
45.84799476254406
54.046804509755134
19.078902043472773
15.05612355259543
17.78325704402392
22.87222719927424
27.689876340219545
31.655457761960847
34.982047166307325
38.31379899413575
42.626459989334904
49.09740755879092
14.371404697233533
13.987351565983255
19.6712500139613
25.669794035897155
30.331699537357196
33.4758802271728
35.44620363571476
36.96347867487093
39.16558907385758
43.59678573624642
9.59319699060323
14.191260501104743
22.18954365414864
28.716933924737745
33.06408786303085
35.31867616204101
35.916275097086
35.59129263095215
35.52759280889469
37.60016289528366
5.926208639968724
16.133597039157895
25.479593318336708
32.12203323004358
35.8939435342797
37.09232572145822
36.26464361016217
34.1347788022389
31.78319357515124
31.231320941277634
7.3725659720880845
19.97256335862244
29.76222414956188
36.03022930240409
38.811298500648476
38.65151701988203
36.29021690430737
32.45661862677746
27.99926105002898
24.73242365839521
13.40761706485778
25.83239786232544
35.39273980775717
40.615359417891696
41.7417146177424
39.77174436538571
35.720737732196014
30.355464816711166
24.226339039876695
18.542454756905833
21.748208805491345
34.280085642290054
42.96250549878726
45.97618011250105
44.46324598316786
40.096736235198925
34.2693288681565
27.640075044606515
20.514665459045514
13.413389682153223
33.338632197391206
46.93215641191018
53.1895961503259
52.030776321621644
46.21716364260282
39.18547190154848
31.747585215961617
24.29283526009905
17.006079182418226
10.393247350258846
50.81986539189638
67.3196343399582
67.9106832397824
56.27261356936146
45.8924271220668
36.5573869199663
28.193947710191516
20.631898770312134
14.091715251261006
9.810594126708358
93.37496958773895
112.588405548039
75.8519417042857
55.99090060204353
42.17084534461339
31.891657827770196
23.723401289473845
17.092064251389562
12.20797037205012
10.212977856742786
278.1718654847363
118.78328430445251
71.02377674268661
49.411695511361614
35.19683308445833
25.276596916270613
18.04844220331119
13.084848728789165
10.424290807337842
10.001787492715572

SCALARS STRESS_XX float 1
LOOKUP_TABLE default
41.91937320929494
27.496755272834303
13.903574062855755
0.9029452446098181
-11.741301580018014
-24.26620314147903
-36.91054673226332
-49.91488554723851
-63.52067896246929
-77.9687167191168
41.38519793830496
27.08141388837108
13.605370855807815
0.7216314869874898
-11.80480125998648
-24.21031434516449
-36.73368582364527
-49.61610242477127
-63.100190847423015
-77.42820436125103
40.318396795881426
26.25146255238436
13.008807257895988
0.3581376630628723
-11.933052075712
-24.099789174903414
-36.380835488425646
-49.01870429390856
-62.25849123357673
-76.34561689521632
38.72227598130852
25.008402879052195
12.113509840659546
-0.18936549991355178
-12.128656959880754
-23.937225336957418
-35.85382053190686
-48.12307780320826
-60.99409907073384
-74.71762839065549
36.60228506514348
23.354553993397055
10.91875959820901
-0.9238466113208138
-12.395729785390248
-23.726703598543068
-35.15554904545506
-46.929926571009545
-59.304737649924185
-72.53879028702914
33.96651161810417
21.293037934598942
9.423267195341271
-1.849629464938631
-12.74001893140989
-23.47385676649646
-34.290107690182765
-45.44040660820933
-57.18736245883899
-69.80111971955657
30.82613933814979
18.827570209311453
7.62480757437067
-2.9725711879705368
-13.168814616363104
-23.18565296993161
-33.26265821361941
-43.65626534862615
-54.63838005491231
-66.49385962164924
27.195602400510502
15.961822381445407
5.519638200626144
-4.300064114726436
-13.690323791798486
-22.869513348770116
-32.07884012085372
-41.57990631919912
-51.654262779415774
-62.603837398729965
23.091972686620792
12.697961699081466
3.101582452587428
-5.840615441234226
-14.311977876349147
-22.53113828689074
-30.743192430392654
-39.214231195320046
-48.23287294193704
-58.11717355679426
18.532807147061458
9.033713992960172
0.3606117898590333
-7.602547126668302
-15.036784412680051
-22.170068910464188
-29.255874550932276
-36.56203426333147
-44.3759506410241
-53.02355791515414
13.531187957116437
4.956857865308044
-2.71921910599751
-9.59090814211523
-15.856225081933118
-21.771588538259422
-27.60679256979836
-33.62473667663481
-40.093387502150094
-47.32487309567926
8.08576918600841
0.43539813152613527
-6.1624026421387414
-11.800539863769362
-16.737200243060755
-21.29316610290064
-25.766482115362926
-30.400575535469724
-35.41011209572249
-41.050373609053196
2.1619589247768434
-4.599863383903286
-10.003498074448355
-14.200776389241822
-17.598541076384322
-20.644038473384427
-23.674414079486844
-26.883604295822444
-30.37654889651741
-34.280359145386335
-4.344863856129468
-10.283931362412613
-14.282737666921204
-16.699249389318013
-18.271290224994058
-19.658437518831985
-21.23021452781385
-23.06722671271243
-25.08359894471052
-27.17813468594602
-11.680807424424296
-16.871716669321035
-19.006407039295638
-19.064250449623888
-18.431596997802743
-18.077157016657047
-18.300974102426167
-18.961016023922827
-19.680921104104772
-20.024838062344475
-20.416946047056914
-24.77608774062893
-24.034204466890742
-20.721264249217917
-17.541013031952083
-15.566191926116023
-14.782865662873277
-14.625702774163743
-14.39293219719457
-13.242476794036863
-31.810283171916126
-34.72995734298369
-28.44976846626591
-20.52301523949943
-14.803212596336774
-11.94224101107914
-10.718421058680647
-10.227022710018502
-9.515915406188597
-7.379847887443434
-49.55845184392384
-46.23006096190272
-29.83755692983772
-15.945333057269043
-10.119465491355133
-7.45965534265189
-6.471042539420567
-6.074378874807293
-5.377848026227779
-3.025891823363424
-81.50897765873735
-57.13258481921041
-17.023225772279485
-8.471788309600704
-4.498255567668883
-3.20227874021505
-2.7586667090814734
-2.6336204210118646
-2.266102382935422
-0.6041845104019234
-164.14375911735564
-5.209360033408714
-6.452383840789697
-1.3566604981955699
-0.8962556794804204
-0.5763459078002402
-0.5242631947081708
-0.5226086332997983
-0.44651222936958135
0.02846424290950411

SCALARS STRESS_YY float 1
LOOKUP_TABLE default
-0.11905796766756183
-0.6433794497265382
-1.5832452581838243
-2.8213235990739824
-4.240568293161192
-5.723078851183273
-7.149465881561517
-8.398841927676354
-9.349440625105098
-9.87975237322615
-0.11869459236963387
-0.6415517627539664
-1.5792317049580227
-2.8152618321450613
-4.23328943504001
-5.715793512263273
-7.143386337080664
-8.394805644043021
-9.34759605175153
-9.879384152713833
-0.11791145563333139
-0.6376444780079531
-1.570710150766514
-2.802454460567288
-4.217953619433931
-5.700452806590713
-7.130561581468214
-8.386254507083612
-9.34366152989107
-9.87859205986766
-0.11660050833227054
-0.6311856985105866
-1.5567784169894932
-2.781685544650054
-4.193205362853111
-5.675728309335883
-7.109838135085104
-8.372344399380339
-9.33719270744935
-9.877272567335957
-0.11461471158113135
-0.6215647917863141
-1.5363413945777102
-2.7515783777987886
-4.157601389977677
-5.6402512356594245
-7.080014643617348
-8.352150726812537
-9.327667230910611
-9.87529563928647
-0.11179531758896921
-0.6081992313611986
-1.5085409781321504
-2.7113299838760705
-4.1105760712987065
-5.5936381501591566
-7.040723345070921
-8.325252173851588
-9.314741507076334
-9.872552519650549
-0.10802412390086147
-0.5908452971843019
-1.4735431041957967
-2.662044439387299
-4.054188998807012
-5.538352722500229
-6.994045391871459
-8.292820840199603
-9.298745348033673
-9.869051881845017
-0.10331564962833006
-0.5701385858643402
-1.4338969241750972
-2.6090210024393445
-3.996110327883222
-5.482880585137085
-6.947277321844869
-8.25951411371485
-9.281562338013844
-9.86509707018887
-0.09796848895880039
-0.5484940273688474
-1.396791944379584
-2.565528763349299
-3.954487998028018
-5.446849558019173
-6.917366008197729
-8.236522251381462
-9.268074453300374
-9.861585912167508
-0.0928137828540736
-0.5315712097278911
-1.3777580135138332
-2.5588864972960885
-3.965593604178874
-5.4688292992221434
-6.937504215052728
-8.246050686901327
-9.268309206864341
-9.860467449044434
-0.08958460192550444
-0.5307548173235785
-1.4067966242171595
-2.640274496117855
-4.095455769027938
-5.617476894458134
-7.065964347847437
-8.327089172601225
-9.300180533176096
-9.865340807732515
-0.09174485344160122
-0.56745055009565
-1.539334169513145
-2.9007902561618293
-4.457266365561832
-6.005960511038164
-7.3960071779430585
-8.541061855182154
-9.392058848494953
-9.882024409708723
-0.10512419374570203
-0.6827664475443187
-1.876512519432948
-3.499882118463852
-5.236066159443927
-6.807839862337399
-8.06224996921612
-8.973452880281346
-9.583008839136411
-9.918652211272525
-0.1455380453435533
-0.9548766329285785
-2.6133135250507036
-4.713669828036209
-6.72407472976842
-8.264360732028104
-9.23317236493442
-9.722646392038149
-9.916866756675702
-9.98446936959439
-0.22535746982893645
-1.5766169115656634
-4.126658315786589
-7.0422021278627875
-9.345582009878868
-10.664748066620986
-11.063894258811022
-10.864209271413987
-10.425126213968822
-10.086447780944674
-0.5234555007797548
-2.91590402484998
-7.331143922187057
-11.304774885034078
-13.671878890062068
-14.210587649294872
-13.585223873435824
-12.379156593173978
-11.096203828976545
-10.22327498685616
-0.7778660246220337
-6.757270061984426
-13.847554818642491
-19.075494576330637
-19.990899708494204
-18.735730790221893
-16.513355166082693
-14.054076604845179
-11.83281710052211
-10.376916173438671
-5.713592206685659
-14.943113003584848
-29.791733333568427
-30.69805191765856
-27.57413632303466
-23.266854976962833
-19.070834264150744
-15.377811504123391
-12.397148806481852
-10.499427078199462
-2.116409365641509
-59.02811619202434
-53.214980686133295
-43.195664026749014
-33.59218263591332
-25.925793081000556
-19.953505677913576
-15.4724181545929
-12.309931384167301
-10.465060663892064
-189.1105311385351
-106.01855682530862
-69.23513419555307
-47.85008126734436
-34.18888230872466
-24.51479240661839
-17.605610039403196
-13.023520301092447
-10.609666690179662
-9.97933489306338

SCALARS STRESS_XY float 1
LOOKUP_TABLE default
0.14112448110950543
0.3784696867686734
0.5568261908532026
0.6766785641214064
0.7378570166195323
0.7397358098455169
0.6815241295510501
0.5625871836601826
0.38274043969425287
0.1424564977837547
0.422955596018447
1.1344197176105333
1.6693494158268543
2.029170870685722
2.213247701776666
2.2195236780285144
2.0454323867485025
1.688891044049318
1.1492167954637733
0.4277927938075602
0.7034674938318334
1.8872758237335174
2.778366622543677
3.3789923683911507
3.687645282606613
3.7002900269714014
3.411998561793393
2.8186982903264526
1.9188014626519228
0.714464067180426
0.9815671210722334
2.6345759906885435
3.8811762273465726
4.724137869164268
5.160326635725627
5.182780351659002
4.783228372070663
3.9546929413636005
2.6939458277038932
1.0035686632441123
1.2558635503144628
3.373340039560014
4.974651809676628
6.062382016489443
6.630539614041361
6.667858175943724
6.161377841199122
5.099945510144779
3.477560535035893
1.2964809076416968
1.5246077167898862
4.100061377803566
6.055364799149828
7.391471221095476
8.097643625467036
8.156505602736422
7.548817925461568
6.257739392605814
4.272925131154748
1.5948632077980283
1.7857243636213183
4.810988437526375
7.120122010824586
8.709710029873525
9.561468758969633
9.649769413658454
8.94757937602186
7.430933208532078
5.083188087401147
1.9005163136582348
2.0370123249125496
5.502919579820639
8.167229211842795
10.01723256503227
11.023054485743712
11.148620447430504
10.358356863036782
8.620521685234444
5.91013273630279
2.2149201007493313
2.2766311728202866
6.174867193117489
9.198973269252777
11.31840311487917
12.48599209400674
12.653653503297585
11.778631821158214
9.822895678455742
6.751721878250904
2.5382302748671624
2.504053254076
6.831159923415379
10.226096311297445
12.625981273066163
13.958607974102916
14.164418791980683
13.199384032145028
11.025121007812446
7.597775381940803
2.8674020502625415
2.7217649882158934
7.486943904038
11.275493131599845
13.967872512809224
15.45701387187851
15.677774485071755
14.599533281173157
12.197426037184078
8.423103745287353
3.1930740428249327
2.938226241802457
8.177881470593515
12.40318626433602
15.39724932041837
17.008184015167625
17.18356110029054
15.936701674098298
13.282175734442065
9.17781563307649
3.4950185458383767
3.173198027596583
8.977911275853176
13.71605011269126
17.006026748230994
18.649372384296107
18.653497682594523
17.131994083025848
14.179455134683153
9.775843512451857
3.736651038601071
3.468335275736445
10.034144029526885
15.408755682037599
18.93681210558526
20.41340396839874
20.01374829986447
18.04650097409402
14.731822473548785
10.08593320044495
3.860543990730458
3.9117133709283722
11.644347253636155
17.82139314946034
21.376181992358646
22.267772449231572
21.087591280811075
18.449171048830255
14.71846367173541
9.934278663787188
3.7890871191166413
4.709786174020257
14.433894664898972
21.52971926718384
24.43283063230453
23.95962881299781
21.484148102170284
18.001148256865882
13.878915829434327
9.133750080626456
3.4361781793300072
6.421561188065762
19.878601315180468
27.214878080501116
27.770606179131804
24.584443449849857
20.539418136453317
16.30266657098361
11.996723759070116
7.555100024751554
2.736001295809581
11.212050327073692
30.888180209711603
35.2275756518157
28.632578543310817
22.527123002705405
17.445269264202217
13.073328525320495
9.050059573261901
5.248360792957362
1.6954741094851207
27.34470504281996
55.67802429925515
34.34037131365139
22.827533695668954
16.132961933619292
11.79969094229716
8.408174786761869
5.371388917696333
2.598748080354199
0.4984009879296931
123.44355467492257
33.63869616775179
14.787060329763053
8.464852103444052
5.767035383877238
4.152434250200522
2.8719263322404336
1.6466399711771618
0.46144133428642486
-0.2336405472326308

SCALARS STRAIN_EQV float 1
LOOKUP_TABLE default
0.00024004200212545467
0.00016039327935778028
8.803833318088998e-05
2.5436706584311553e-05
5.1034904212574274e-05
0.00011356116231675903
0.0001783513020149289
0.0002462863147455764
0.00031916091630010976
0.00039889638326179365
0.00023715063255552298
0.00015974772788586707
9.298263805607041e-05
4.867640075877143e-05
6.88256937340655e-05
0.00012222988980148871
0.0001823555657323424
0.00024709161672161004
0.0003176688260140853
0.0003959185909141948
0.00023138685656983983
0.00015854003632039025
0.00010219140985205498
7.62324300052837e-05
9.486824150052147e-05
0.00013796619974990458
0.00019015809439061328
0.000248752060662996
0.0003147247299376272
0.00038996065141489567
0.00022279126807904788
0.00015693821264350444
0.00011469985842183444
0.00010472236273531821
0.00012405538873970062
0.00015872317272868714
0.0002014081945912561
0.0002513671262399758
0.0003104132786586208
0.0003810177398956526
0.0002114318352716038
0.00015519647052095287
0.00012962431795027432
0.00013351054259983468
0.00015459730671212878
0.00018285448036736875
0.00021569632518173132
0.00025508373770876893
0.0003048726128889215
0.0003690827450078806
0.00019741382099821523
0.00015365601619323494
0.00014630026232462077
0.00016239571057181788
0.00018580824891206398
0.00020926125016346278
0.00023262298907813042
0.0002600881364812918
0.00029830711322963567
0.0003541477346994085
0.00018089655672377718
0.00015274410604248283
0.00016428124788762894
0.00019130390419437859
0.00021738993422490383
0.0002372534748438863
0.00025182918368315367
0.00026658520939222004
0.0002910014172103763
0.0003362085788394838
0.000162123828250071
0.00015297258769779348
0.00018331323369848425
0.00022024275695663309
0.0002492166115345016
0.0002663934003953839
0.00027298576462643124
0.0002747556251451836
0.0002833284960683849
0.00031527598363568013
0.00014148596876051626
0.00015494213752805167
0.00020333987299034467
0.0002493277166570113
0.00028127608520330156
0.0002963800718149619
0.00029574492537559177
0.00028467841345623964
0.0002757355588243785
0.00029139814784398435
0.00011966507361070653
0.00015936660904079062
0.00022456187390245213
0.00027885477164303146
0.00031367268501972863
0.0003269639763474502
0.00031965302975635654
0.00029620540831375224
0.0002686778555369044
0.0002647025567300834
9.801391054901588e-05
0.00016714244414132797
0.0002475687641484044
0.00030942350736728937
0.0003466609450912589
0.00035786531195632825
0.0003440155855957004
0.0003087759618704875
0.0002624580020346536
0.00023546603053289906
7.955992627596708e-05
0.0001795014970478313
0.0002735722302188191
0.00034211841040924406
0.0003806821514078995
0.0003886547387840795
0.000367694548267666
0.0003211681885101164
0.0002569365243174311
0.0002042203353302608
7.079561353788158e-05
0.00019831656875591173
0.0003047939515097891
0.00037874280457606945
0.0004163314241347183
0.00041851916895252976
0.000388805215418788
0.0003312057516957101
0.0002511378804820709
0.00017189024765615937
7.982442530924477e-05
0.00022672055912203483
0.00034511728711314514
0.00042201412089344235
0.0004540662470571716
0.00044574411678993583
0.00040428984669061785
0.00033549277026172783
0.00024290254053253984
0.00013993388681653556
0.00010804452214059019
0.00027049616383585895
0.0004011170978738757
0.00047541911351759743
0.0004930699167148012
0.0004666878724156939
0.000409392632799068
0.0003294065524493557
0.0002288809582933025
0.00011040515585389851
0.00015394276414014605
0.0003414776779842551
0.0004837441528778115
0.0005409398232967852
0.0005284369827776942
0.00047379319892397833
0.0003975713258248245
0.00030777287741628106
0.0002052698615340639
8.578314495350219e-05
0.00022698366610394294
0.00046703586427802917
0.0006061902546651148
0.0006125853336422827
0.0005429602115121187
0.0004547992627748901
0.0003616969317250098
0.00026686157833234807
0.0001696926757334714
6.837921378423633e-05
0.0003551254867859595
0.000705833621433028
0.000778700504953561
0.0006377246667867941
0.0005069949136453026
0.0003954834659334634
0.0002978282411605869
0.00020784092911053185
0.00012467845089820617
5.940918311081989e-05
0.0007532102159465041
0.0012355563082648052
0.0007871318688764974
0.0005421137237240144
0.00039298120533972974
0.00029105020918154573
0.00021032412761241165
0.00014028675440319984
8.262027024418253e-05
5.793601798719299e-05
0.0027696605107367244
0.0009390757869369419
0.00048826602934418973
0.00032508506862728893
0.00022909692571225487
0.00016474474125604776
0.00011655023065999553
8.045661414125825e-05
5.9336837506737134e-05
5.7369737230569126e-05

SCALARS STRAIN_XX float 1
LOOKUP_TABLE default
0.00019980315399345348
0.0001319479547202098
6.869545237169722e-05
8.733247772877298e-06
-4.92472097298801e-05
-0.0001065599386694693
-0.00016452963329213342
-0.0002244917510052634
-0.000287787445505641
-0.0003557542782664389
0.00019725889120850924
0.00012996726652418996
6.726913008782839e-05
7.86032329331124e-06
-4.956102736392037e-05
-0.00010630524993389338
-0.0001636969920590888
-0.0002230753169630337
-0.00028578801976354766
-0.00035318098852788317
0.00019217765512495442
0.00012600897728631897
6.441496003642352e-05
6.109274452619416e-06
-5.019584467285144e-05
-0.00010580304642251656
-0.00016203690555495782
-0.00022024400145986177
-0.00028178610918434604
-0.0003480270548355238
0.00018457501975741988
0.00012007949599790804
6.012974627745752e-05
3.4694796658141247e-06
-5.11661866197106e-05
-0.00010506778568988848
-0.00015955987593966085
-0.0002160009721495845
-0.0002757753594155979
-0.0003402768021115935
0.0001744767043807869
0.00011218890654612638
5.440834408771265e-05
-7.536069832006379e-08
-5.249391107951245e-05
-0.00010412105090845458
-0.00015628163910981588
-0.00021035103252934007
-0.00026774574982725563
-0.0003299044891717362
0.00016192097177575494
0.00010235116038546731
4.724326532440419e-05
-4.547097953616798e-06
-5.420728013276818e-05
-0.00010299026750925684
-0.0001522222332681398
-0.00020330034948018243
-0.00025768332267382763
-0.00031687227327653275
0.00014696089190017656
9.058356741610605e-05
3.862417523216801e-05
-9.97188820463204e-06
-5.633777260360376e-05
-0.00010170474557860253
-0.00014740296778238964
-0.0001948554022445728
-0.0002455704480479105
-0.00030112891666971605
0.0001296652217375612
7.6904610070384e-05
2.853725802668536e-05
-1.63766056377212e-05
-5.891241611236678e-05
-0.00010028648931273751
-0.00014183923145069004
-0.00018502031743653912
-0.00023138736765652957
-0.00028261121602651254
0.0001101157251808438
6.132840346720564e-05
1.696439902015567e-05
-2.3780909282518847e-05
-6.193808017619e-05
-9.873179967973531e-05
-0.0001355260078461305
-0.0001737913278684008
-0.00021511623034451387
-0.0002612516676465666
8.839731283525384e-05
4.3853011867477977e-05
3.88224730627904e-06
-3.21814980121933e-05
-6.537208820619534e-05
-9.697788210343277e-05
-0.00012841189599983275
-0.00016114684541263826
-0.00019674956477504224
-0.0002369981126522356
6.457500417024692e-05
2.443812835726107e-05
-1.0737982000027846e-05
-4.15219883733159e-05
-6.907011751501856e-05
-9.484676744327732e-05
-0.00012035725873813668
-0.00014703236785560195
-0.0001763063234581047
-0.00020985386013870253
3.86478332744959e-05
2.965032443131904e-06
-2.692582079142573e-05
-5.1634662282075996e-05
-7.269667782107311e-05
-9.19580911155145e-05
-0.00011107523688877008
-0.00013134297677742674
-0.00015386063178913882
-0.00017994907406594911
1.0460237660537739e-05
-2.0831192648636482e-05
-4.468689972874039e-05
-6.212292995308929e-05
-7.55744725893706e-05
-8.760691104196707e-05
-0.00010006605518878822
-0.00011391602307299809
-0.0001295912189504876
-0.00014765335197936382
-2.0461125243648073e-05
-4.747058130260087e-05
-6.39064009697832e-05
-7.211303974317173e-05
-7.64397407817642e-05
-8.062475465363196e-05
-8.658698879707378e-05
-9.456549239685638e-05
-0.00010386206150003589
-0.0001137298085427613
-5.526875933038451e-05
-7.786396708811603e-05
-8.402195140517173e-05
-7.971582736871033e-05
-7.308359492639389e-05
-6.932281026034344e-05
-6.976137617627871e-05
-7.321822363979148e-05
-7.733633073092887e-05
-7.950623949825111e-05
-9.640097967523618e-05
-0.00011339923529727827
-0.00010292822367890007
-8.0908040653127e-05
-6.204425237253143e-05
-5.179380000880341e-05
-4.9046389450664064e-05
-5.019324332579205e-05
-5.110088063634433e-05
-4.6994266897020616e-05
-0.0001502551780180517
-0.00015476218201204201
-0.00011371464464816137
-6.77528668062396e-05
-3.907721758349375e-05
-2.7425951668123404e-05
-2.5090542161301712e-05
-2.661513062104568e-05
-2.671945601436334e-05
-1.8835550239088917e-05
-0.00022701412578913133
-0.00019666111271771298
-9.526802347504828e-05
-2.7690361544960556e-05
-4.857145260731867e-06
1.0400323797421203e-06
-8.46034439289621e-07
-4.76048132593606e-06
-6.127566286136992e-06
2.0900910116304714e-06
-0.0003848122027051221
-0.0001793014594087732
2.5605612102119312e-06
2.753705152012606e-05
3.136745096277388e-05
2.549158560245302e-05
1.821900078395242e-05
1.1772750333351395e-05
8.553214161141848e-06
1.356802623182123e-05
-0.0004844632563887574
0.00014179411294734824
7.807243068448961e-05
6.873269676203842e-05
4.9457502297136757e-05
3.5778740887542054e-05
2.5169467229975645e-05
1.7976919362193856e-05
1.4546084658998608e-05
1.5817355988668666e-05

SCALARS STRAIN_YY float 1
LOOKUP_TABLE default
-6.644024346064235e-05
-4.6272898522675514e-05
-2.938773666155345e-05
-1.4853788237120108e-05
-1.7425655797868866e-06
1.0879848502403852e-05
2.3957212095644664e-05
3.844319191863028e-05
5.5297063964332253e-05
7.547582925753523e-05
-6.559909481909654e-05
-4.561151593293535e-05
-2.890001946368858e-05
-1.4540001061194921e-05
-1.6081191392593869e-06
1.0826715341147666e-05
2.3708238022487026e-05
3.7992895981578574e-05
5.464508060903841e-05
7.462820612618576e-05
-6.391896380130574e-05
-4.428870057283235e-05
-2.792198355177234e-05
-1.3907808997038265e-05
-1.3335544497570032e-06
1.0726083910130545e-05
2.3214829189105966e-05
3.7094847190029603e-05
5.3341145605663096e-05
7.293076912168444e-05
-6.14045313436385e-05
-4.230456499332291e-05
-2.6448746020986402e-05
-1.2948547284183723e-05
-9.083265052022005e-07
1.058836215171461e-05
2.2485345906876966e-05
3.575367274132567e-05
5.138504755187057e-05
7.037878476943028e-05
-5.8063660871802286e-05
-3.965984576003497e-05
-2.4473962199936597e-05
-1.1650995219347239e-05
-3.190979085661641e-07
1.042648072314186e-05
2.1530078768489634e-05
3.3974881150574364e-05
4.877569615983034e-05
6.696431026396738e-05
-5.3908305483635e-05
-3.63566749989469e-05
-2.199151977426081e-05
-1.0004534573553915e-05
4.4585798126932363e-07
1.0251117060879403e-05
2.0357200917568534e-05
3.1762295270749974e-05
4.5509943354002554e-05
6.267531898953866e-05
-4.8955476692810924e-05
-3.239973079170039e-05
-1.899871239875294e-05
-8.005218796938197e-06
1.3881896409181568e-06
1.00614893217962e-05
1.8964913422014028e-05
2.911307964212871e-05
4.158057176232091e-05
5.749486568237729e-05
-4.322792591331809e-05
-2.7797809389244407e-05
-1.55017977637225e-05
-5.666665926569621e-06
2.4842691590965665e-06
9.82885152360502e-06
1.732733294303266e-05
2.6008833198194574e-05
3.697306847234936e-05
5.140080605424771e-05
-3.675390226449363e-05
-2.256581613364634e-05
-1.152530549396874e-05
-3.038693655914304e-06
3.6593557198438126e-06
9.468695603117964e-06
1.537089282777071e-05
2.2400828776543598e-05
3.1660826750185e-05
4.43670541027362e-05
-2.9564953054211224e-05
-1.672712774954642e-05
-7.127428115082449e-06
-2.3831402616927844e-07
4.745453580978776e-06
8.796635434433521e-06
1.2937782794071075e-05
1.8187717238086e-05
2.5598830974636264e-05
3.636812696645921e-05
-2.1689888703685378e-05
-1.031675196607254e-05
-2.4259729487522905e-06
2.4986913846674827e-06
5.414754800047578e-06
7.4626063007975085e-06
9.734653334219148e-06
1.3186066336610784e-05
1.8717320678730658e-05
2.738984435162687e-05
-1.3143088975354177e-05
-3.3863425404727365e-06
2.3536128685363797e-06
4.730418566105052e-06
5.0762367364200894e-06
4.8608776329478465e-06
5.271104381555751e-06
7.100609864394564e-06
1.0920372109968907e-05
1.7450470863232537e-05
-3.897955423438383e-06
3.977087948303648e-06
6.784008786357189e-06
5.649400428504522e-06
2.721201884585238e-06
2.234682799744092e-08
-1.189015823740286e-06
-4.850641079044704e-07
2.101201412925413e-06
6.637458603356988e-06
6.134604891329387e-06
1.1613431984131353e-05
9.999951928729971e-06
3.795630811613028e-06
-3.307375978668474e-06
-8.462268337207368e-06
-1.0605721765504037e-05
-1.004981703258594e-05
-7.806090975815382e-06
-4.8365948725342944e-06
1.7282423715386103e-05
1.900499804433466e-05
1.021645717705225e-05
-3.5761879975566846e-06
-1.5538833336209337e-05
-2.237755357678171e-05
-2.3926537166716125e-05
-2.1938447540568833e-05
-1.8716296426734506e-05
-1.6563101049385694e-05
2.959112711785252e-05
2.5048594902655087e-05
2.8578264375566167e-06
-2.1270274679962686e-05
-3.753973614056133e-05
-4.3208306255602784e-05
-4.146132478422687e-05
-3.5965117512856866e-05
-3.0221600970963512e-05
-2.7872655451542834e-05
4.628346391481091e-05
2.239817076761996e-05
-2.1233958213213045e-05
-5.858523593950393e-05
-7.193256929382413e-05
-7.045138693602751e-05
-6.179179150818132e-05
-5.085313862161463e-05
-4.1393166745142245e-05
-3.781698271705875e-05
5.0669985246710536e-05
1.4895576849669172e-06
-9.497780736534276e-05
-0.00012112424766076084
-0.0001154033938613689
-9.907223197089384e-05
-8.064471536258075e-05
-6.36822213116047e-05
-5.058313789441278e-05
-4.524229893566444e-05
0.00011800739648448483
-0.0001913064914365948
-0.0002266538865775289
-0.00019238082802181325
-0.00015289408713610756
-0.00011842400522252185
-9.068164601865091e-05
-6.953963531266183e-05
-5.505770284666006e-05
-4.8884189406949666e-05
-0.0006425861458562273
-0.0004966641334013511
-0.00031955165489567844
-0.0002257256347759039
-0.00016139579968807677
-0.00011583142027163959
-8.301239611975954e-05
-6.119552120049292e-05
-4.982056025946524e-05
-4.756537187249293e-05

SCALARS STRAIN_XY float 1
LOOKUP_TABLE default
1.7875767607204024e-06
4.79394936573653e-06
7.053131750807233e-06
8.571261812204481e-06
9.346188877180743e-06
9.369986924709882e-06
8.632638974313302e-06
7.126104326362313e-06
4.8480455694605365e-06
1.8044489719275594e-06
5.357437549566996e-06
1.4369316423066755e-05
2.1145092600473488e-05
2.5702831028685813e-05
2.8034470889171104e-05
2.8113966588361183e-05
2.59088102321477e-05
2.1392619891291362e-05
1.4556746075874462e-05
5.418708721562429e-06
8.910588255203224e-06
2.3905493767291223e-05
3.5192643885553244e-05
4.2800569999621244e-05
4.671017357968377e-05
4.6870340341637756e-05
4.321864844938298e-05
3.57035116774684e-05
2.4304818526924357e-05
9.049878184285397e-06
1.2433183533581624e-05
3.337129588205489e-05
4.9161565546389924e-05
5.9839079676080736e-05
6.536413738585795e-05
6.564855112101402e-05
6.0587559379561735e-05
5.009277725727228e-05
3.412331381758265e-05
1.2711869734425424e-05
1.5907604970649865e-05
4.272897383442685e-05
6.301225625590396e-05
7.679017220886628e-05
8.398683511119057e-05
8.445953689528718e-05
7.804411932185555e-05
6.45993097951672e-05
4.4049100110454646e-05
1.6422091496794827e-05
1.9311697746005226e-05
5.193411078551185e-05
7.670128745589783e-05
9.362530213387604e-05
0.00010257015258924914
0.00010331573763466134
9.561836038917988e-05
7.926469897300698e-05
5.412371832796015e-05
2.020160063210836e-05
2.26191752725367e-05
6.093918687533409e-05
9.018821213711142e-05
0.00011032299371173133
0.00012111193761361536
0.0001222304125730071
0.00011333600542961023
9.412515397473967e-05
6.43870491070812e-05
2.4073206639670976e-05
2.5802156115558965e-05
6.970364801106143e-05
0.00010345157001667542
0.0001268849458237421
0.00013962535681942036
0.0001412158590007864
0.0001312058535984659
0.00010919327467963629
7.486168132650201e-05
2.8055654609491533e-05
2.8837328189056967e-05
7.821498444615486e-05
0.00011652032807720186
0.00014336643945513615
0.00015815589985741871
0.00016027961104176942
0.00014919600306800406
0.0001244233452604394
8.55218104578448e-05
3.215091681498406e-05
3.171800788496267e-05
8.65280256965948e-05
0.0001295305532764343
0.00015992909612550475
0.00017680903433863696
0.00017941597136508867
0.0001671921977405037
0.00013965153276562434
9.623848817125018e-05
3.6320425969992194e-05
3.447568985073465e-05
9.483462278448134e-05
0.00014282291300026471
0.00017692638516225018
0.0001957888423771278
0.00019858514347757556
0.00018492742156152667
0.00015450072980433167
0.00010669264744030647
4.044560454244915e-05
3.721753239616446e-05
0.00010358649862751788
0.00015710702601492293
0.00019503182472529936
0.0002154369975254566
0.0002176584406036802
0.0002018648878719118
0.00016824089263626617
0.00011625233135230222
4.427023491395277e-05
4.019384168289005e-05
0.00011372020949414023
0.00017373663476075597
0.00021540967214425926
0.0002362253835344174
0.00023627763731286396
0.0002170052583849941
0.00017960643170598662
0.00012382735115772352
4.7330913155613566e-05
4.393224682599497e-05
0.00012709915770734055
0.00019517757197247626
0.00023986628667074664
0.0002585697835997174
0.00025350747846495
0.00022858901233852426
0.0001866030846649513
0.00012775515387230272
4.8900223882585806e-05
4.954836936509272e-05
0.00014749506521272463
0.000225737646559831
0.00027076497190320955
0.00028205845102359994
0.0002671094895569403
0.00023368949995184992
0.0001864338731753152
0.00012583419640797107
4.799510350881079e-05
5.965729153758993e-05
0.00018282933242205366
0.00027270977738432867
0.0003094825213425241
0.0003034886316313056
0.00027213254262749027
0.00022801454458696788
0.00017579960050616815
0.0001156941676879351
4.352492360484676e-05
8.133977504883299e-05
0.0002517956166589526
0.00034472178901968084
0.0003517610116023362
0.00031140295036476487
0.00026016596306174204
0.00020650044323245907
0.0001519585009482215
9.569793364685303e-05
3.465601641358803e-05
0.00014201930414293345
0.000391250282656347
0.00044621595825633216
0.00036267932821527037
0.0002853435580342685
0.00022097341067989478
0.00016559549465405962
0.00011463408792798408
6.647923671079326e-05
2.147600538681153e-05
0.00034636626387571953
0.0007052549744572319
0.0004349780366395843
0.0002891487601451401
0.0002043508511591777
0.00014946275193576403
0.00010650354729898367
6.803759295748689e-05
3.291747568448652e-05
6.31307918044278e-06
0.001563618359215686
0.00042609015145818937
0.00018730276417699867
0.00010722145997695801
7.304911486244502e-05
5.259750050253995e-05
3.637773354171216e-05
2.0857439634910718e-05
5.844923567628049e-06
-2.959446931613324e-06

