# vtk DataFile Version 2.0
mesh vtk view
ASCII
DATASET UNSTRUCTURED_GRID
POINTS 231 double
0.0 -0.957293925429352 0.0
200.0 0.0 0.0
199.70484520937458 99.78006257696372 0.0
0.0 99.04587782332632 0.0
10.016453224282584 -0.9547165207036578 0.0
20.032708388996273 -0.9470046018363886 0.0
30.048568070085793 -0.9342189815241251 0.0
40.06383621756145 -0.9164607324811384 0.0
50.07831909302374 -0.8938706278892803 0.0
60.091826482763594 -0.8666280664683959 0.0
70.10417322036058 -0.8349491501590093 0.0
80.11518096952369 -0.7990834313820213 0.0
90.12468007169348 -0.7593086535381177 0.0
100.13251102321581 -0.7159225437815318 0.0
110.13852476236332 -0.6692303391052035 0.0
120.14258037444091 -0.6195259029604521 0.0
130.14453762425046 -0.5670632614513172 0.0
140.14424046069638 -0.5120084699048075 0.0
150.14147732302956 -0.45436814063420744 0.0
160.1359114504493 -0.39376519591454473 0.0
170.12675065969876 -0.3293791836111739 0.0
180.1122932084338 -0.25681961418625276 0.0
190.0823802954096 -0.17704022222032773 0.0
200.03925025941763 9.896649640776555 0.0
200.01312666624034 19.852901639238013 0.0
199.9852790169767 29.829322660041342 0.0
199.95200784259885 39.81355761352303 0.0
199.91618914588324 49.8026765847163 0.0
199.8780364764809 59.79514885114234 0.0
199.837630692063 69.78999532968423 0.0
199.79498528591645 79.78632658819855 0.0
199.75040744379996 89.78324999382777 0.0
189.7036010412644 99.73442839144968 0.0
179.70226876423288 99.6878176615767 0.0
169.70158786679613 99.63938366902913 0.0
159.70242350768126 99.58911922810927 0.0
149.70543688083873 99.53754162992114 0.0
139.71102172637137 99.4854231286056 0.0
129.71933352035967 99.43361174513872 0.0
119.73035035055734 99.38292398433411 0.0
109.74393603175292 99.33409257162029 0.0
99.75989111749679 99.28775053080088 0.0
89.77798779320432 99.2444350132532 0.0
79.79799048597637 99.20459905290599 0.0
69.81966622438233 99.16862442028898 0.0
59.84278866364356 99.13683251899917 0.0
49.867138705821226 99.10949248447069 0.0
39.89250357876598 99.08682669907598 0.0
29.918675421136086 99.0690142964963 0.0
19.945449884874588 99.05619325305379 0.0
9.972624952734016 99.04846155839913 0.0
0.0 89.04057969113592 0.0
0.0 79.03669748660425 0.0
0.0 69.03399857150839 0.0
0.0 59.03231718913396 0.0
0.0 49.03155464445132 0.0
0.0 39.031678951294204 0.0
0.0 29.032724186967183 0.0
0.0 19.034789851829583 0.0
0.0 9.038040528408303 0.0
10.01151921720658 9.040647391510767 0.0
10.006953496406695 19.03741986243246 0.0
10.002663866900123 29.03537124429818 0.0
9.998558787785186 39.03433694970454 0.0
9.994546602872044 49.03421729736544 0.0
9.990535005755929 59.034977931472305 0.0
9.986430845647137 69.03665055870499 0.0
9.982140309298337 79.0393336903419 0.0
9.977569448439308 89.04319307462936 0.0
20.022880297200043 9.048447612800171 0.0
20.013787833686116 19.045289529772184 0.0
20.00524720781401 29.04329214530523 0.0
19.99707589213487 39.04229083983018 0.0
19.989090954715397 49.042185355487355 0.0
19.981107918967272 59.0429404615258 0.0
19.9729403536144 69.04458698753739 0.0
19.96440025704454 79.04722286121465 0.0
19.95529917803588 89.05101378808918 0.0
30.033925487753326 9.061380149021893 0.0
30.020383899901102 19.0583378140822 0.0
30.00766923597517 29.056426120963344 0.0
29.99550916239096 39.05548033325203 0.0
29.983630266221795 49.05539911996787 0.0
29.97175618100119 59.0561456656728 0.0
29.95960692486503 69.05774921567622 0.0
29.946899525674514 79.06030662049493 0.0
29.9333498542278 89.06398345389455 0.0
40.0444978429521 9.079343502688621 0.0
40.0266226740751 19.07646319862999 0.0
40.00984862623773 29.07467206740512 0.0
39.99381549926393 39.07380505856323 0.0
39.978160663228955 49.0737591061311 0.0
39.96251629402892 59.0744949311218 0.0
39.946508429261776 69.07603932948126 0.0
39.92975788525739 79.0784874387484 0.0
39.91188294443179 89.08200451190802 0.0
50.054441706011524 9.102196224511946 0.0
50.032385257865215 19.09952415025317 0.0
50.011703210577636 29.097888926857067 0.0
49.99195036440862 39.097124796428204 0.0
49.9726766505401 49.09712607514602 0.0
49.953423359622136 59.09784995744942 0.0
49.93372193424926 69.0993197700609 0.0
49.91309523579638 79.10162814406961 0.0
49.89106118902209 89.10493966828705 0.0
60.063603252228724 9.129757918444879 0.0
60.037552874035086 19.127340058281085 0.0
60.013149651510936 29.12589646898363 0.0
59.989867329744214 39.125259964625556 0.0
59.967170665992896 49.12532110601646 0.0
59.944510706749575 59.12603238009294 0.0
59.92132347452035 69.12741257556077 0.0
59.89703164667861 79.12955092281742 0.0
59.871049113070555 89.13261079059694 0.0
70.07183103945157 9.161811098262126 0.0
70.04200678622418 19.159692996180645 0.0
70.01410312384787 29.158476765804938 0.0
69.98751779307197 39.15799253957822 0.0
69.96163291453381 49.158125744726895 0.0
69.93580979388064 59.15882307914533 0.0
69.90938797197255 69.16009797151494 0.0
69.88168739300477 79.16203545534829 0.0
69.85201350413 89.1647968675556 0.0
80.07897642130253 9.19810441062955 0.0
80.04562804976098 19.196330819450367 0.0
80.0144770764198 29.195376798189642 0.0
79.98485111570284 39.19506769122682 0.0
79.95605185364631 49.19528228374875 0.0
79.9273507462705 59.19596098853197 0.0
79.89798952719276 69.19711192274022 0.0
79.86718299336363 79.19881567550739 0.0
79.83412367232643 89.201230492839 0.0
90.08489352062699 9.238357958182995 0.0
90.04829692689422 19.236972335145534 0.0
90.01418321512497 29.236312813675394 0.0
89.98181564967696 39.23619650355994 0.0
89.9504159884297 49.23649422082556 0.0
89.91916415951742 59.23714113341359 0.0
89.88720247283608 69.23814212417449 0.0
89.85363926181061 79.23957448740151 0.0
89.81755113162633 89.24159218578033 0.0
100.08943819287049 9.28227175110862 0.0
100.04989167628436 19.28131557629143 0.0
100.01313198033321 29.280977257851532 0.0
99.97836147472584 39.28106020403023 0.0
99.94471807101404 49.28142685025117 0.0
99.91128517342396 59.282011466609205 0.0
99.87710379347824 69.28282176542015 0.0
99.84117738280266 79.28393568258466 0.0
99.80246807156098 89.28550182052034 0.0
110.09246495427568 9.329538781614108 0.0
110.05028625282142 19.32905061117456 0.0
110.01123408629178 29.329049293415498 0.0
109.97444629037393 39.329316164050915 0.0
109.93896343889601 49.329707583485636 0.0
109.90376125808541 59.330167731993384 0.0
109.86777769258221 69.33072028463737 0.0
109.82991895219082 79.33145241675079 0.0
109.78904361688377 89.33250670370087 0.0
120.09382003882554 9.379864943880788 0.0
120.04934627278587 19.379879026371402 0.0
120.00840445139205 29.380209849933706 0.0
119.97004707253302 39.38060523791117 0.0
119.93318512182424 49.38092449160162 0.0
119.89666544238648 59.3811448659446 0.0
119.85932297510539 69.3813302679096 0.0
119.81998565291076 79.3815922211806 0.0
119.77743642770854 89.38206678632928 0.0
130.09332722229138 9.43300017795437 0.0
130.04692272234792 19.43354288777144 0.0
130.00457183586252 29.434161825428617 0.0
129.96518247785949 39.43455735351811 0.0
129.92746929032123 49.43461906807199 0.0
129.89011630632527 59.43440182226544 0.0
129.85186286341752 69.43404995808807 0.0
129.81149752134147 79.433720095858 0.0
129.76778178859357 89.4335396989231 0.0
140.09075982840807 9.488786935369518 0.0
140.0428442349206 19.489870106013274 0.0
139.99970342720064 29.490651161603168 0.0
139.95995506097864 39.49078702182751 0.0
139.92199514348889 49.49026227461543 0.0
139.8843029874773 59.489294802833584 0.0
139.84555400377988 69.48816186597404 0.0
139.80456721196438 79.48708475384811 0.0
139.7601714092564 89.48617229807486 0.0
150.08578533986565 9.547255993395796 0.0
150.03691776814242 19.548833522449332 0.0
149.99386682082869 29.549482770828877 0.0
149.9546314515405 39.54884624427825 0.0
149.9170870496337 49.547195554800325 0.0
149.87950588786734 59.54503016905849 0.0
149.84058451067148 69.54281339073214 0.0
149.7992861536844 79.54081912024344 0.0
149.7546253811299 89.53911129455781 0.0
160.07785507538802 9.608753427825064 0.0
160.02897213975018 19.610682702017012 0.0
159.9874024979526 29.61043354929096 0.0
159.9497686487467 39.60809223737293 0.0
159.9132636570917 49.60448736376647 0.0
159.87607814837926 59.60060358660782 0.0
159.83714575558244 69.59701577948903 0.0
159.7956978546286 79.59397493357937 0.0
159.75105955679226 89.59145173518243 0.0
170.06598014131265 9.67458187755933 0.0
170.01918036841536 19.67578834722199 0.0
169.98127421908316 29.673064745738024 0.0
169.94641152628472 39.6672041246042 0.0
169.91114996908834 49.66073843848304 0.0
169.87435220312034 59.65475902144413 0.0
169.83535902488495 69.64969597778367 0.0
169.79375846696007 79.64561738435211 0.0
169.74925822051443 89.64234553947054 0.0
180.04865561506384 9.74631312252875 0.0
180.0089723389553 19.745315190877147 0.0
179.9781447253033 29.734741899257408 0.0
179.94566436946977 39.723645125691505 0.0
179.91121712556313 49.713954336643816 0.0
179.8744306511499 59.70606364117851 0.0
179.83516213197984 69.69983642472731 0.0
179.7932888924004 79.6949995072535 0.0
179.7488699356899 89.69118971290806 0.0
190.02469481980597 9.836348076512348 0.0
190.00783092996758 19.810563099286103 0.0
189.97964461290692 29.78940484670001 0.0
189.9480196691004 39.77356830430878 0.0
189.91325326906374 49.76185392112736 0.0
189.87596332960487 59.75316525583147 0.0
189.8361801135807 69.74669704188636 0.0
189.79391909576717 79.74179841050712 0.0
189.74943718220123 89.73790012654463 0.0

CELLS 200 1000
4 0 4 60 59
4 59 60 61 58
4 58 61 62 57
4 57 62 63 56
4 56 63 64 55
4 55 64 65 54
4 54 65 66 53
4 53 66 67 52
4 52 67 68 51
4 51 68 50 3
4 4 5 69 60
4 60 69 70 61
4 61 70 71 62
4 62 71 72 63
4 63 72 73 64
4 64 73 74 65
4 65 74 75 66
4 66 75 76 67
4 67 76 77 68
4 68 77 49 50
4 5 6 78 69
4 69 78 79 70
4 70 79 80 71
4 71 80 81 72
4 72 81 82 73
4 73 82 83 74
4 74 83 84 75
4 75 84 85 76
4 76 85 86 77
4 77 86 48 49
4 6 7 87 78
4 78 87 88 79
4 79 88 89 80
4 80 89 90 81
4 81 90 91 82
4 82 91 92 83
4 83 92 93 84
4 84 93 94 85
4 85 94 95 86
4 86 95 47 48
4 7 8 96 87
4 87 96 97 88
4 88 97 98 89
4 89 98 99 90
4 90 99 100 91
4 91 100 101 92
4 92 101 102 93
4 93 102 103 94
4 94 103 104 95
4 95 104 46 47
4 8 9 105 96
4 96 105 106 97
4 97 106 107 98
4 98 107 108 99
4 99 108 109 100
4 100 109 110 101
4 101 110 111 102
4 102 111 112 103
4 103 112 113 104
4 104 113 45 46
4 9 10 114 105
4 105 114 115 106
4 106 115 116 107
4 107 116 117 108
4 108 117 118 109
4 109 118 119 110
4 110 119 120 111
4 111 120 121 112
4 112 121 122 113
4 113 122 44 45
4 10 11 123 114
4 114 123 124 115
4 115 124 125 116
4 116 125 126 117
4 117 126 127 118
4 118 127 128 119
4 119 128 129 120
4 120 129 130 121
4 121 130 131 122
4 122 131 43 44
4 11 12 132 123
4 123 132 133 124
4 124 133 134 125
4 125 134 135 126
4 126 135 136 127
4 127 136 137 128
4 128 137 138 129
4 129 138 139 130
4 130 139 140 131
4 131 140 42 43
4 12 13 141 132
4 132 141 142 133
4 133 142 143 134
4 134 143 144 135
4 135 144 145 136
4 136 145 146 137
4 137 146 147 138
4 138 147 148 139
4 139 148 149 140
4 140 149 41 42
4 13 14 150 141
4 141 150 151 142
4 142 151 152 143
4 143 152 153 144
4 144 153 154 145
4 145 154 155 146
4 146 155 156 147
4 147 156 157 148
4 148 157 158 149
4 149 158 40 41
4 14 15 159 150
4 150 159 160 151
4 151 160 161 152
4 152 161 162 153
4 153 162 163 154
4 154 163 164 155
4 155 164 165 156
4 156 165 166 157
4 157 166 167 158
4 158 167 39 40
4 15 16 168 159
4 159 168 169 160
4 160 169 170 161
4 161 170 171 162
4 162 171 172 163
4 163 172 173 164
4 164 173 174 165
4 165 174 175 166
4 166 175 176 167
4 167 176 38 39
4 16 17 177 168
4 168 177 178 169
4 169 178 179 170
4 170 179 180 171
4 171 180 181 172
4 172 181 182 173
4 173 182 183 174
4 174 183 184 175
4 175 184 185 176
4 176 185 37 38
4 17 18 186 177
4 177 186 187 178
4 178 187 188 179
4 179 188 189 180
4 180 189 190 181
4 181 190 191 182
4 182 191 192 183
4 183 192 193 184
4 184 193 194 185
4 185 194 36 37
4 18 19 195 186
4 186 195 196 187
4 187 196 197 188
4 188 197 198 189
4 189 198 199 190
4 190 199 200 191
4 191 200 201 192
4 192 201 202 193
4 193 202 203 194
4 194 203 35 36
4 19 20 204 195
4 195 204 205 196
4 196 205 206 197
4 197 206 207 198
4 198 207 208 199
4 199 208 209 200
4 200 209 210 201
4 201 210 211 202
4 202 211 212 203
4 203 212 34 35
4 20 21 213 204
4 204 213 214 205
4 205 214 215 206
4 206 215 216 207
4 207 216 217 208
4 208 217 218 209
4 209 218 219 210
4 210 219 220 211
4 211 220 221 212
4 212 221 33 34
4 21 22 222 213
4 213 222 223 214
4 214 223 224 215
4 215 224 225 216
4 216 225 226 217
4 217 226 227 218
4 218 227 228 219
4 219 228 229 220
4 220 229 230 221
4 221 230 32 33
4 22 1 23 222
4 222 23 24 223
4 223 24 25 224
4 224 25 26 225
4 225 26 27 226
4 226 27 28 227
4 227 28 29 228
4 228 29 30 229
4 229 30 31 230
4 230 31 2 32

CELL_TYPES 200
9
9
9
9
9
9
9
9
9
9
9
9
9
9
9
9
9
9
9
9
9
9
9
9
9
9
9
9
9
9
9
9
9
9
9
9
9
9
9
9
9
9
9
9
9
9
9
9
9
9
9
9
9
9
9
9
9
9
9
9
9
9
9
9
9
9
9
9
9
9
9
9
9
9
9
9
9
9
9
9
9
9
9
9
9
9
9
9
9
9
9
9
9
9
9
9
9
9
9
9
9
9
9
9
9
9
9
9
9
9
9
9
9
9
9
9
9
9
9
9
9
9
9
9
9
9
9
9
9
9
9
9
9
9
9
9
9
9
9
9
9
9
9
9
9
9
9
9
9
9
9
9
9
9
9
9
9
9
9
9
9
9
9
9
9
9
9
9
9
9
9
9
9
9
9
9
9
9
9
9
9
9
9
9
9
9
9
9
9
9
9
9
9
9
9
9
9
9
9
9

CELL_DATA 200
SCALARS STRESS_EQV float 1
LOOKUP_TABLE default
293.85818319570103
194.8222179041465
103.53351915496675
24.942365709337174
72.63966140226324
154.05829254782373
237.48536084194288
324.10518754723665
415.8285970901219
514.701368274572
290.1580275385148
192.34713821153733
103.22242446410169
33.44699038428811
77.31636352720103
155.77277815508378
237.43728769852336
322.6286182094776
413.12684898407304
510.96812056104113
282.77103027247387
187.43412158983693
102.70868537212212
46.02916327199013
85.91825994025096
159.16216477480356
237.37324235727024
319.70268969291607
407.7310346168144
503.49341071153674
271.7256923548823
180.16353648507717
102.21182190787087
60.297316699231345
97.42739074072014
164.15367125780736
237.35772806071938
315.3841882794097
399.65780557528046
492.259767967384
257.0694269712308
170.67317438996915
102.06472423648555
75.43781066999124
110.9661031517395
170.6515191555008
237.48733244186266
309.76395555190834
388.9356922009332
477.2387340795974
238.87411463629417
159.18580090569344
102.70967488661204
91.17725691409113
125.91278051502549
178.54696649087313
237.88777436217296
302.97269932365555
375.61030756850613
458.38933069450616
217.24361419520588
146.06158949759345
104.68052743928367
107.44183451503277
141.8653783732759
187.72424535640675
238.7049359804797
295.18619866494134
359.7528259712786
435.65854559505084
192.32421375822616
131.89970075864392
108.56725987606669
124.26004196784066
158.57881784401312
198.05930964826064
240.08497074484922
286.625729074568
341.47281512577416
408.9872597009657
164.3227053477225
117.735502709386
114.97197610001385
141.7442455151382
175.91797155118658
209.40900807712458
242.13731778708876
277.5458227212944
320.9359633378081
378.32763156828634
133.55231430430928
105.39286486816724
124.48279930816841
160.10559039491946
193.8291343815386
221.58820433372532
244.8743301641512
268.1965929589516
298.3852199253448
343.68185291153645
100.59983288063422
97.91146096188326
137.69875009772701
179.6885582512765
212.3218967614994
234.33116159021094
248.12342545000217
258.74435072409744
274.1591235170023
305.1775001537248
67.15237893422238
99.33882350773341
155.3268055790419
201.01853747316412
231.4486150412171
247.23073313428776
251.41392567960335
249.1390484166643
248.6931496622637
263.2011402669852
41.483460479780305
112.93517927410636
178.35715322835878
224.85423261030448
251.2576047399586
259.6462800502082
253.85250527113266
238.94345161567122
222.48235502605834
218.61924658894412
51.60796180461612
139.80794351035763
208.33556904693387
252.21160511682837
271.67908950454125
270.560619139175
254.03151833015252
227.19633038744374
195.9948273502034
173.12696560876722
93.85331945400533
180.82678503627844
247.7491786542991
284.3075159252414
292.19200232419536
278.4022105577007
250.04516412537228
212.48825371697617
169.5843732791351
129.7971832983416
152.23746163843936
239.96059949603128
300.73753849151143
321.833260787508
311.2427218821745
280.67715364639247
239.88530207709613
193.48052531224494
143.60265821332072
93.89372777507297
233.3704253817383
328.52509488337057
372.3271730522804
364.21543425135167
323.52014549822036
274.2983033108394
222.2330965117311
170.04984682069278
119.04255427692705
72.75273145181066
355.739057743275
471.23744037970624
475.3747826784779
393.90829498553006
321.2469898544671
255.90170843976358
197.35763397134085
144.42329139218424
98.64200675882603
68.67415888695888
653.6247871141727
788.1188388362725
530.9635919299996
391.93630421430515
295.19591741229374
223.24160479439223
166.06380902631759
119.64444975972826
85.45579260435106
71.49084499719824
1947.2030583931544
831.4829901311673
497.166437198806
345.8818685795312
246.37783159120897
176.93617841389468
126.33909542317838
91.59394110152458
72.97003565136514
70.0125124490092

SCALARS STRESS_XX float 1
LOOKUP_TABLE default
293.4356124650655
192.4772869098388
97.32501843999056
6.320616712268457
-82.18911106012474
-169.86342199035337
-258.37382712584315
-349.40419883066977
-444.64475273728493
-545.7810170338182
289.6963855681352
189.56989721859767
95.23759599065505
5.0514204089117625
-82.63360881990471
-169.4722004161519
-257.1358007655164
-347.31271697339974
-441.7013359319612
-541.9974305287566
282.22877757117
183.7602378666899
91.06165080527106
2.506963641439988
-83.531364529984
-168.69852422432336
-254.66584841898006
-343.13093005736044
-435.80943863503717
-534.4193182665153
271.0559318691595
175.05882015336547
84.79456888461678
-1.3255584993949778
-84.90059871916564
-167.5605773587017
-250.97674372334842
-336.86154462245776
-426.9586934951362
-523.0233987345887
256.21599545600316
163.48187795377982
76.43131718746413
-6.466926279245228
-86.77010849773256
-166.08692518980152
-246.08884331818595
-328.5094859970667
-415.13316354946886
-507.7715320092045
237.76558132672886
149.05126554219262
65.96287036738875
-12.94740625456995
-89.18013251986824
-164.3169973654751
-240.03075383128007
-318.0828462574647
-400.31153721187354
-488.60783803689526
215.78297536704815
131.79299146517945
53.37365302059452
-20.807998315793856
-92.18170231454135
-162.29957078952077
-232.83860749533616
-305.59385744038343
-382.46866038438634
-465.45701735154313
190.3692168035736
111.73275667011863
38.637467404384175
-30.100448803085904
-95.83226654259036
-160.08659344138968
-224.55188084597634
-291.05934423439396
-361.57983945590973
-438.22686179111065
161.64380880634613
88.88573189357001
21.711077168113263
-40.88430808863963
-100.18384513444407
-157.7179680082345
-215.20234701274808
-274.499618367241
-337.6301105935587
-406.8202148975604
129.7296500294305
63.235997950722
2.524282529013197
-53.217829886677904
-105.25749088876084
-155.19048237324927
-204.79112185652684
-255.93423984332088
-310.6316544871683
-371.1649054060792
94.71831569981549
34.69800505715628
-19.03453374198287
-67.13635699480666
-110.99357557353197
-152.40111976781677
-193.2475479885882
-235.37315673644167
-280.65371251505155
-331.2741116697552
56.60038430205955
3.0477869206825603
-43.136818494971806
-82.6037790463854
-117.1604017014253
-149.0521627203049
-180.36537480754063
-212.8040287482872
-247.8707846700589
-287.3526152633713
15.133712473438045
-32.19904368732335
-70.02448652113856
-99.4054347246923
-123.1897875346906
-144.50826931369136
-165.72089855640763
-188.18523007075694
-212.63584227562083
-239.96251401770567
-30.41404699290618
-71.98751953688827
-99.97916366844854
-116.89474572522568
-127.89903157495871
-137.6090626318245
-148.61150169469715
-161.47058698898724
-175.58519261297306
-190.24694280162316
-81.76565197097041
-118.10201668524662
-133.04484927506982
-133.4497531473675
-129.02117898461947
-126.5400991165994
-128.1068187169834
-132.72711216745856
-137.76644772873274
-140.17386643641248
-142.91862232939846
-173.43261418440238
-168.23943126823485
-145.04884974452514
-122.78709122366493
-108.96334348281279
-103.480059640113
-102.37991941914703
-100.75052538036212
-92.6973375582584
-222.67198220341265
-243.10970140088602
-199.14837926386167
-143.66110667649627
-103.62248817435731
-83.59568707755368
-75.02894741076504
-71.58915897012963
-66.6114078433198
-51.658935212102904
-346.90916290746685
-323.6104267333188
-208.86289850886394
-111.61733140088334
-70.8362584394862
-52.2175873985633
-45.29729777594359
-42.52065212365177
-37.644936183594034
-21.181242763543985
-570.5628436111608
-399.92809373447284
-119.16258040595629
-59.3025181672052
-31.487788973682193
-22.41595118150581
-19.310666963571347
-18.4353429470816
-15.862716680548857
-4.229291572812855
-1149.0063138214896
-36.46552023386079
-45.16668688552784
-9.496623487368822
-6.273789756363229
-4.03442135460142
-3.6698423629571977
-3.658260433098654
-3.125585605586455
0.19924970036688805

SCALARS STRESS_YY float 1
LOOKUP_TABLE default
-0.8334057736698668
-4.503656148089647
-11.082716807285948
-19.749265193518696
-29.68397805212425
-40.06155195828332
-50.046261170930606
-58.791893493735074
-65.44608437573507
-69.1582666125849
-0.830862146585801
-4.490862339277541
-11.054621934705125
-19.70683282501747
-29.633026045278037
-40.01055458584416
-50.003704359563244
-58.76363950830344
-65.43317236226092
-69.15568906899519
-0.8253801894333321
-4.463511346057331
-10.99497105536826
-19.617181223971418
-29.525675336037704
-39.90316964613355
-49.91393107027931
-58.70378154958653
-65.40563070923791
-69.15014441907633
-0.8162035583263219
-4.418299889574072
-10.897448918926465
-19.47179881255078
-29.352437539972627
-39.730098165350185
-49.76886694559694
-58.60641079566271
-65.3603489521443
-69.14090797135232
-0.8023029810719464
-4.350953542502417
-10.754389762041082
-19.26104864459009
-29.10320972984638
-39.481758649616154
-49.56010250532325
-58.46505508768643
-65.29367061637306
-69.12706947500598
-0.7825672231239906
-4.257394619528377
-10.559786846925832
-18.979309887131063
-28.774032499088065
-39.155467051113696
-49.28506341549905
-58.27676521695946
-65.20319054953508
-69.10786763755269
-0.7561688673070677
-4.135917080291797
-10.314801729371176
-18.634311075711302
-28.379322991647687
-38.76846905750017
-48.95831774310197
-58.04974588139772
-65.0912174362365
-69.08336317291189
-0.7232095473982838
-3.9909701010483047
-10.037278469222016
-18.263147017078058
-27.972772295185422
-38.38016409595632
-48.63094125291548
-57.81659879600491
-64.97093636609648
-69.05567949132458
-0.6857794227101337
-3.8394581915829207
-9.777543610653757
-17.958701343445103
-27.681415986196505
-38.12794690613198
-48.421562057382474
-57.65565575967245
-64.87652117310097
-69.03110138517347
-0.649696479977699
-3.7209984680931534
-9.644306094597207
-17.912205481071823
-27.759155229253743
-38.28180509455481
-48.56252950537066
-57.72235480831057
-64.87816444804915
-69.02327214331129
-0.6270922134769279
-3.715283721265788
-9.847576369520763
-18.481921472825185
-28.66819038319635
-39.32233826120939
-49.461750434931595
-58.28962420820298
-65.1012637322368
-69.05738565412904
-0.6422139740893442
-3.972153850671134
-10.77533918659386
-20.305531793132396
-31.20086455893319
-42.04172357726875
-51.7720502456031
-59.78743298627187
-65.74441193946588
-69.17417086795854
-0.7358693562185925
-4.779365132811802
-13.135587636031204
-24.499174829245717
-36.652463116108514
-47.65487903636301
-56.435749784510556
-62.81417016196937
-67.08106187395308
-69.4305654789103
-1.0187663174041148
-6.684136430500406
-18.293194675355053
-32.995688796252416
-47.06852310837959
-57.85052512419838
-64.63220655454073
-68.05852474426722
-69.41806729672808
-69.89128558716325
-1.5775022888026697
-11.03631838095789
-28.886608210507244
-49.29541489504033
-65.41907406915243
-74.65323646634755
-77.4472598116776
-76.04946489989587
-72.97588349778127
-70.605134466614
-3.664188505458476
-20.41132817394972
-51.31800745530837
-79.13342419523764
-95.70315223043531
-99.47411354506559
-95.09656711405152
-86.6540961522183
-77.67342680283568
-71.5629249079927
-5.445062172353332
-47.300890433891524
-96.93288373049836
-133.52846203431528
-139.93629795945867
-131.15011553155315
-115.59348616258065
-98.37853623391565
-82.82971970365455
-72.63841321406932
-39.995145446799185
-104.6017910250937
-208.54213333497864
-214.88636342361008
-193.01895426124238
-162.8679848387401
-133.49583984905462
-107.64468052886316
-86.78004164537208
-73.49598954739643
-14.814865559489846
-413.1968133441703
-372.5048648029327
-302.3696481872439
-235.14527845139315
-181.48055156700494
-139.67453974539583
-108.30692708215044
-86.16951968917178
-73.25542464724289
-1323.773717969746
-742.1298977771597
-484.6459393688713
-334.9505688714102
-239.32217616107323
-171.6035468463288
-123.23927027582252
-91.1646421076476
-74.26766683125757
-69.85534425144368

SCALARS STRESS_XY float 1
LOOKUP_TABLE default
0.9878713677661273
2.649287807380303
3.897783335973171
4.736749948850529
5.164999116336931
5.1781506689190975
4.770668906856871
3.938110285619566
2.6791830778592907
0.9971954844860773
2.9606891721299506
7.940938023275239
11.685445910787227
14.204196094800054
15.49273391243666
15.536665746199052
14.318026707241504
11.82223730834454
8.044517568245386
2.994549556653058
4.924272456822354
13.21093076613428
19.448566357806904
23.652946578737645
25.813516978247932
25.902030188800083
23.88398993255382
19.73088803228729
13.4316102385625
5.001248470262365
6.870969847506045
18.442031934818367
27.168233591427924
33.0689650841496
36.122286450079386
36.27946246161157
33.482598604494434
27.682850589545616
18.85762079392746
7.024980642708512
8.791044852201034
23.613380276919962
34.8225626677351
42.436674115425625
46.41377729829014
46.67500723160662
43.12964488839317
35.69961857101345
24.342923745252552
9.075366353492152
10.672254017530094
28.70042964462517
42.387553594048796
51.74029854766854
56.68350537826919
57.0955392191555
52.84172547823187
43.80417574824015
29.910475918083034
11.164042454587088
12.50007054534779
33.67691906268545
49.84085407577429
60.967970209115016
66.93028131278606
67.54838589560939
62.63305563215329
52.01653245972318
35.582316611807684
13.303614195608807
14.259086274388054
38.52043705874522
57.17060448289998
70.1206279552261
77.16138140020502
78.040343132014
72.50849804125808
60.34365179663967
41.37092915411987
15.504440705244841
15.936418209741527
43.22407035182174
64.3928128847691
79.22882180415405
87.40194465804561
88.57557452308343
82.4504227481088
68.76026974919094
47.26205314775578
17.767611924071577
17.528372778531935
47.81811946390724
71.58267417908266
88.38186891146302
97.71025581872158
99.1509315438643
92.39568822501485
77.1758470546885
53.184427673586576
20.071814351837038
19.052354917510982
52.40860732826621
78.92845192119768
97.77510758966237
108.19909710314896
109.74442139550317
102.19673296821128
85.38198226028979
58.961726217010785
22.351518299774394
20.5675836926172
57.24517029415468
86.82230385035297
107.78074524292852
119.05728810617413
120.28492770203427
111.55691171868925
92.97523014109385
64.2447094315353
24.465129820868157
22.212386193175735
62.84537893097291
96.01235078883998
119.04218723761662
130.54560669007319
130.57448377816206
119.9239585811791
99.25618594278131
68.4309045871632
26.15655727020763
24.27834693015467
70.23900820668861
107.86128977426364
132.55768473909671
142.89382777879234
140.0962380990517
126.32550681865872
103.12275731484249
70.60153240311537
27.023807935113652
27.381993596499324
81.51043077545332
124.74975204622164
149.6332739465102
155.87440714462002
147.61313896567796
129.14419734181183
103.02924570214695
69.5399506465092
26.52360983381618
32.96850321814177
101.0372626542936
150.70803487028732
171.02981442613222
167.71740169098425
150.38903671519176
126.00803779806147
97.1524108060396
63.93625056438676
24.053247255310463
44.950928316459716
139.15020920626276
190.50414656350716
194.3942432539226
172.09110414894954
143.77592695517328
114.11866599688469
83.97706631349058
52.88570017326061
19.1520090706669
78.48435228951614
216.2172614679805
246.5930295627107
200.42804980317558
157.68986101893756
122.11688484941504
91.51329967724385
63.3504170128331
36.738525550701155
11.868318766396222
191.41293529974004
389.7461700947857
240.38259919555972
159.79273586968264
112.93073353533511
82.59783659608033
58.8572235073334
37.59972242387515
18.191236562479222
3.4888069155080057
864.104882724458
235.4708731742628
103.50942230834129
59.25396472410859
40.36924768714098
29.06703975140405
20.10348432568288
11.526479798240116
3.230089340005094
-1.6354838306282617

SCALARS STRAIN_EQV float 1
LOOKUP_TABLE default
0.0016802940148781735
0.0011227529555044732
0.0006162683322662297
0.00017805694609019225
0.0003572443294880291
0.0007949281362173138
0.0012484591141045014
0.0017240042032190313
0.0022341264141007696
0.0027922746828325505
0.0016600544278886566
0.0011182340952010743
0.0006508784663924836
0.0003407348053114033
0.00048177985613846155
0.0008556092286104136
0.0012764889601264112
0.0017296413170512627
0.002223681782098595
0.002771430136399368
0.001619707995988878
0.0011097802542427342
0.0007153398689644067
0.0005336270100369775
0.0006640776905036808
0.0009657633982493383
0.0013311066607342888
0.0017412644246409808
0.002203073109563387
0.0027297245599042625
0.0015595388765533371
0.0010985674885045198
0.0008028990089528722
0.0007330565391472217
0.0008683877211779037
0.0011110622091007893
0.0014098573621387875
0.0017595698836798319
0.0021728929506103474
0.002667124179269566
0.0014800228469012387
0.0010863752936466633
0.0009073702256518915
0.0009345737981988316
0.0010821811469849123
0.0012799813625715905
0.0015098742762721061
0.001785586163961387
0.0021341082902224607
0.002583579215055164
0.0013818967469875136
0.0010755921133526474
0.0010241018362723466
0.0011367699740027295
0.0013006577423844482
0.0014648287511442501
0.0016283609235469216
0.0018206169553690397
0.002088149792607448
0.002479034142895863
0.0012662758970664362
0.0010692087422973953
0.0011499687352134488
0.0013391273293606575
0.0015217295395742987
0.0016607743239072097
0.0017628042857820768
0.001866096465745522
0.0020370099204726293
0.0023534600518763963
0.0011348667977504987
0.0010708081138845638
0.001283192635889396
0.0015416992986964357
0.0017445162807414893
0.0018647538027677002
0.0019109003523850275
0.0019232893760162614
0.0019832994724786955
0.0022069318854497535
0.0009904017813236064
0.0010845949626963503
0.0014233791109324041
0.0017452940165990755
0.001968932596423077
0.0020746605027047427
0.0020702144776291696
0.001992748894193686
0.0019301489117706469
0.0020397870349078955
0.0008376555152749428
0.0011155662632855237
0.001571933117317177
0.0019519834015012177
0.0021957087951381244
0.0022887478344321413
0.0022375712082944883
0.002073437858196289
0.0018807449887583464
0.0018529178971105798
0.0006860973738431034
0.001169997108989301
0.0017329813490388041
0.0021659645515709775
0.0024266266156387985
0.002505057183694315
0.002408109099169886
0.0021614317330934424
0.0018372060142425558
0.001648262213730289
0.0005569194839317664
0.001256510479334821
0.001915005611531751
0.002394828872864707
0.002664775059855312
0.0027205831714885655
0.0025738618378736843
0.002248177319570806
0.0017985556702220173
0.0014295423473118264
0.0004955692947651626
0.0013882159812913964
0.0021335576605685485
0.0026511996320324797
0.0029143199689430368
0.0029296341826677164
0.0027216365079314785
0.002318440261869955
0.0017579651633745006
0.0012032317335931141
0.000558770977164705
0.0015870439138542523
0.0024158210097920256
0.002954098846254095
0.0031784637294002263
0.003120208817529559
0.0028300289268343376
0.002348449391832116
0.0017003177837277947
0.0009795372077157517
0.0007563116549841447
0.001893473146851019
0.0028078196851171137
0.0033279337946231745
0.003451489417003587
0.003266815106909867
0.0028657484295934767
0.0023058458671454704
0.0016021667080530933
0.0007728360909772858
0.0010775993489810212
0.0023903437458898014
0.0033862090701446907
0.003786578763077507
0.0036990588794438505
0.003316552392467844
0.0027829992807737775
0.0021544101419139535
0.001436889030738481
0.000600482014674524
0.0015888856627275945
0.0032692510499461934
0.0042433317826557895
0.0042880973354959785
0.0038007214805848423
0.003183594839424232
0.0025318785220750564
0.001868031048326431
0.0011878487301342938
0.000478654496489649
0.002485878407501722
0.0049408353500311804
0.005450903534674944
0.004464072667507556
0.0035489643955171116
0.002768384261534234
0.002084797688124116
0.0014548865037737168
0.0008727491562874343
0.0004158642817757452
0.005272471511625535
0.008648894157853632
0.005509923082135481
0.0037947960660681015
0.002750868437378109
0.002037351464270826
0.0014722688932868877
0.000982007280822418
0.0005783418917092749
0.0004055521259103456
0.01938762357515707
0.0065735305085585964
0.0034178622054093265
0.0022755954803910243
0.0016036784799857895
0.0011532131887923402
0.0008158516146199676
0.0005631962989888098
0.00041535786254716286
0.00040158816061398536

SCALARS STRAIN_XX float 1
LOOKUP_TABLE default
0.0013986220779541743
0.0009236356830414686
0.0004808681666018806
6.113273441014108e-05
-0.00034473046810916066
-0.0007459195706862851
-0.0011517074330449338
-0.0015714422570368438
-0.0020145121185394872
-0.0024902799478650726
0.0013808122384595645
0.0009097708656693299
0.00047088391061479885
5.5022263053178716e-05
-0.0003469271915474427
-0.0007441367495372539
-0.0011458789444136219
-0.0015615272187412363
-0.0020005161383448338
-0.002472266919695182
0.0013452435858746809
0.0008820628410042325
0.00045090472025496463
4.2764921168335986e-05
-0.00035137091270995985
-0.0007406213249576157
-0.0011342583388847043
-0.0015417080102190328
-0.0019725027642904223
-0.0024361893838486673
0.001292025138301939
0.0008405564719853567
0.00042090822394220246
2.4286357660698954e-05
-0.0003581633063379746
-0.0007354744998292197
-0.0011169191315776258
-0.0015120068050470908
-0.0019304275159091836
-0.002381937614781154
0.001221336930665509
0.000785322345822884
0.000380858408613989
-5.2752488824046e-07
-0.000367457377556587
-0.0007288473563591819
-0.001093971473768711
-0.0014724572277053818
-0.0018742202487907894
-0.0023093314242021547
0.0011334468024302847
0.0007164581226982714
0.00033070285727082984
-3.1829685675317614e-05
-0.000379450960929377
-0.0007209318725647979
-0.001065555632876978
-0.0014231024463612768
-0.0018037832587167952
-0.0022181059129357276
0.0010287262433012357
0.0006340849719127417
0.0002703692266251762
-6.98032174324244e-05
-0.00039436440822522676
-0.0007119332190502177
-0.0010318207744767264
-0.0013639878157120106
-0.001718993136335373
-0.0021079024166880105
0.0009076565521629288
0.0005383322704926885
0.00019976080618679733
-0.0001146362394640483
-0.0004123869127865675
-0.0007020054251891624
-0.0009928746201548298
-0.001295142222055773
-0.0016197115735957042
-0.001978278512185588
0.000770810076265907
0.00042929882427043993
0.0001187507931410905
-0.0001664663649776321
-0.0004335665612333296
-0.0006911225977581474
-0.0009486820549229136
-0.0012165392950788051
-0.001505813612411597
-0.0018287616735259676
0.0006187811898467769
0.0003069710830723464
2.71757311439537e-05
-0.00022527048608535335
-0.0004576046174433672
-0.0006788451747240295
-0.0008988832719988311
-0.0011280279178884686
-0.0013772469534252957
-0.0016589867885656497
0.000452025029191728
0.00017106689850082853
-7.516587400019533e-05
-0.0002906539186132112
-0.00048349082260512946
-0.0006639273721029413
-0.000842500811166956
-0.0010292265749892128
-0.0012341442642067307
-0.0014689770209709175
0.0002705348329214716
2.0755227101923977e-05
-0.00018848074553998016
-0.00036144263597453195
-0.0005088767447475112
-0.000643706637808601
-0.0007775266582213886
-0.0009194008374419881
-0.001077024422523977
-0.001259643518461643
7.322166362376276e-05
-0.00014581834854045456
-0.00031280829810118217
-0.0004348605096716248
-0.0005290213081255942
-0.0006132483772937694
-0.0007004623863215197
-0.000797412161510986
-0.000907138532653411
-0.001033573463855549
-0.00014322787670553727
-0.0003322940691182054
-0.00044734480678848267
-0.0005047912782022018
-0.0005350781854723497
-0.000564373282575424
-0.0006061089215795177
-0.0006619584467779955
-0.0007270344305002514
-0.00079610865979933
-0.000386881315312693
-0.000545047769616812
-0.0005881536598362021
-0.0005580107915809723
-0.000511585164484758
-0.0004852596718224033
-0.0004883296332339514
-0.0005125275654785377
-0.0005413543151164997
-0.0005565436764877613
-0.0006748068577266532
-0.0007937946470809474
-0.0007204975657523004
-0.0005663562845718891
-0.00043430976660772036
-0.0003625566000616245
-0.0003433247261546476
-0.0003513527032805476
-0.0003577061644544112
-0.0003289598682791467
-0.0010517862461263622
-0.0010833352740842945
-0.0007960025125371296
-0.0004742700676436773
-0.0002735405230844569
-0.00019198166167686253
-0.00017563379512911155
-0.00018630591434732127
-0.00018703619210054187
-0.00013184885167361916
-0.0015890988805239196
-0.0013766277890239899
-0.000666876164325338
-0.0001938325308147239
-3.40000168251248e-05
7.280226658194951e-06
-5.92224107502648e-06
-3.3323369281556756e-05
-4.289296400295829e-05
1.4630637081413517e-05
-0.0026936854189358534
-0.0012551102158614123
1.792392847148349e-05
0.00019275936064088242
0.00021957215673941693
0.0001784410992171706
0.00012753300548766326
8.240925233346692e-05
5.9872499127989684e-05
9.497618362274904e-05
-0.003391242794721302
0.0009925587906314379
0.0005465070147914273
0.0004811288773342694
0.00034620251607995686
0.0002504511862127957
0.00017618627060982973
0.00012583843553535742
0.00010182259261299308
0.0001107214919206824

SCALARS STRAIN_YY float 1
LOOKUP_TABLE default
-0.0004650817042244834
-0.0003239102896587451
-0.00020571415663087067
-0.00010397651765984423
-1.219795905849086e-05
7.615893951682523e-05
0.00016770048466951265
0.00026910234343040934
0.0003870794477503284
0.0005283308048027388
-0.0004591936637336688
-0.0003192806115305466
-0.00020230013624581572
-0.00010178000742837312
-1.1256833974807035e-05
7.578700738802846e-05
0.00016595766615741525
0.0002659502718710405
0.000382515564263268
0.0005223974428833073
-0.0004474327466091402
-0.0003100209040098334
-0.00019545388486241766
-9.735466297926959e-05
-9.33488114829989e-06
7.508258737091988e-05
0.00016250380432373396
0.000259663930330202
0.00037338801923963993
0.0005105153838517798
-0.00042983171940547127
-0.0002961319549532604
-0.00018514122214690482
-9.06398309892878e-05
-6.358285536418873e-06
7.411853506200661e-05
0.00015739742134813356
0.00025027570918927794
0.00035969533286309835
0.0004926514933860093
-0.00040644562610263335
-0.000277618920320237
-0.00017131773539954404
-8.15569665354246e-05
-2.2336853599744244e-06
7.298536506199216e-05
0.00015071055137941963
0.00023782416805402662
0.00034142987311881756
0.00046875017184776907
-0.0003773581383854502
-0.0002544967249926283
-0.00015394063841982913
-7.003174201487133e-05
3.1210058688974085e-06
7.175781942615755e-05
0.00014250040642296846
0.00022233606689525676
0.0003185696034780153
0.00043872723292677496
-0.0003426883368496808
-0.00022679811554190965
-0.0001329909867912732
-5.603653157856825e-05
9.71732748643317e-06
7.043042525257948e-05
0.0001327543939540904
0.00020379155749489924
0.0002910640023362429
0.00040246405977665406
-0.0003025954813932266
-0.00019458466572470218
-0.00010851258434604188
-3.966666148599862e-05
1.7389884113663823e-05
6.880196066524902e-05
0.00012129133060122255
0.00018206183238735768
0.0002588114793064464
0.00035980564237972357
-0.00025727731585144936
-0.0001579607129355287
-8.06771384577673e-05
-2.127085559140013e-05
2.5615490038904953e-05
6.628086922183529e-05
0.00010759624979440191
0.00015680580143579564
0.00022162578725130194
0.0003105693787191499
-0.0002069546713794751
-0.00011708989424681626
-4.9891996805578875e-05
-1.6681981831814796e-06
3.321817506684449e-05
6.157644804103551e-05
9.056447955849145e-05
0.0001273140206665968
0.00017919181682245905
0.0002545768887652136
-0.0001518292209257907
-7.221726376251125e-05
-1.6981810641268635e-05
1.749083969267151e-05
3.7903283600329574e-05
5.223824410557215e-05
6.814257333953577e-05
9.230246435629891e-05
0.0001310212447510964
0.00019172891046138202
-9.200162282747143e-05
-2.3704397783316095e-05
1.647529007974685e-05
3.31129299627371e-05
3.553365715493889e-05
3.4026143430627986e-05
3.689773067088245e-05
4.970426905077582e-05
7.644260476977888e-05
0.00012215329604263817
-2.728568796406261e-05
2.7839615638118598e-05
4.748806150449772e-05
3.954580299953686e-05
1.9048413192092328e-05
1.5642779597688228e-07
-8.323110766171593e-06
-3.395448755331293e-06
1.470840989048483e-05
4.646221022348851e-05
4.294223423930918e-05
8.129402388891774e-05
6.999966350110937e-05
2.6569415681295533e-05
-2.315163185068192e-05
-5.9235878360458516e-05
-7.424005235852696e-05
-7.034871922810201e-05
-5.4642636830699864e-05
-3.385616410775047e-05
0.00012097696600770272
0.00013303498631035
7.151520023936098e-05
-2.503331598290026e-05
-0.00010877183335346666
-0.000156642875037475
-0.0001674857601670146
-0.00015356913278397402
-0.00013101407498714024
-0.00011594170734570419
0.00020713788982496678
0.00017534016431858604
2.0004785062900654e-05
-0.0001488919227597349
-0.0002627781529839328
-0.00030245814378922556
-0.00029022927348959157
-0.00025175582258999893
-0.00021155120679674372
-0.00019510858816079724
0.00032398424740368026
0.00015678719537333755
-0.00014863770749249522
-0.000410096651576531
-0.0005035279850567655
-0.0004931597085521926
-0.00043254254055727706
-0.0003559719703512994
-0.0002897521672159953
-0.00026471887901940647
0.0003546898967269757
1.0426903794769071e-05
-0.0006648446515573978
-0.0008478697336253265
-0.0008078237570295806
-0.0006935056237962582
-0.000564513007538063
-0.00044577554918122896
-0.000354081965260886
-0.00031669609254965196
0.0008260517753913964
-0.0013391454400561633
-0.0015865772060427007
-0.0013466657961526962
-0.0010702586099527525
-0.0008289680365576573
-0.0006347715221305585
-0.0004867774471886358
-0.00038540391992662217
-0.00034218932584864116
-0.004498103020993592
-0.0034766489338094557
-0.0022368615842697486
-0.0015800794434313262
-0.0011297705978165398
-0.0008108199419014778
-0.0005810867728383174
-0.0004283686484034526
-0.0003487439218162573
-0.0003329576031074512

SCALARS STRAIN_XY float 1
LOOKUP_TABLE default
1.2513037325037613e-05
3.3557645560150506e-05
4.937192225566017e-05
5.999883268544004e-05
6.54233221402678e-05
6.558990847297524e-05
6.042847282018704e-05
4.988273028451451e-05
3.3936318986217684e-05
1.2631142803490314e-05
3.750206284697938e-05
0.00010058521496148637
0.00014801564820330487
0.0001799198172008007
0.00019624129622419773
0.00019679776611852134
0.00018136167162505906
0.00014974833923903086
0.00010189722253110822
3.793096105093874e-05
6.23741177864165e-05
0.00016733845637103423
0.00024634850719888746
0.0002996039899973435
0.0003269712150578072
0.00032809238239146776
0.00030253053914568173
0.0002499245817423057
0.00017013372968845836
6.334914728998997e-05
8.703228473507657e-05
0.000233599071174366
0.00034413095882475375
0.0004188735577325617
0.0004575489617010056
0.00045953985784707996
0.00042411291565692955
0.00035064944080091115
0.00023886319672308115
8.89830881409745e-05
0.00011135323479454645
0.0002991028168409862
0.00044108579379131124
0.0005375312054620579
0.0005879078457783418
0.0005912167582670172
0.0005463088352529802
0.0004521951685661704
0.000308343700773199
0.00011495464047756726
0.00013518188422204785
0.00036353877549858554
0.0005369090121912848
0.0006553771149371349
0.0007179910681247431
0.0007232101634426363
0.0006693285227242704
0.0005548528928110419
0.00037886602829571847
0.0001414112044247698
0.00015833422690773868
0.00042657430812734903
0.0006313174849598077
0.0007722609559821236
0.0008477835632952901
0.0008556128880110522
0.000793352038007275
0.0006588760778231603
0.00045070934374956406
0.00016851244647771157
0.00018061509280891536
0.00048792553607743955
0.0007241609901167331
0.0008881946207661973
0.0009773774977359304
0.0009885110130055108
0.0009184409751892691
0.0007643529227574358
0.0005240317692855184
0.00019638958226643466
0.0002018612973233927
0.0005475048911230754
0.0008156422965404087
0.0010035650761859513
0.001107091299001911
0.0011219572772923903
0.001044372021476045
0.0008709634168230854
0.0005986526732049066
0.00022505641770490664
0.00022202605519473784
0.0006056961798761584
0.0009067138729350471
0.0011195036728785315
0.0012376632403704735
0.0012559117995556146
0.0011703453841835215
0.0009775607293593877
0.0006736694171987634
0.0002542429817899358
0.0002413298289551391
0.000663842359491372
0.0009997603910018374
0.0012384846961357235
0.0013705218966398869
0.0013900960043430402
0.0012944919509306763
0.0010815051086303373
0.0007468485320821366
0.0002831192317971423
0.0002605227267731512
0.000725105490392626
0.001099749182104471
0.0013652227730770947
0.0015080589826782058
0.0015236090842257674
0.0014130542151033973
0.0011776862484538554
0.0008137663194661138
0.00030989164439766334
0.000281356891780226
0.0007960414664589903
0.0012161564433253065
0.0015078677050098105
0.001653577684740927
0.001653943461190053
0.0015190368086949353
0.0012572450219418968
0.0008667914581040673
0.0003313163920892967
0.00030752572778195916
0.0008896941039513891
0.0013662430038073395
0.0016790640066952252
0.0018099884851980365
0.0017745523492546551
0.0016001230863696772
0.0013062215926546716
0.0008942860771061281
0.0003423015671781063
0.00034683858555565814
0.0010324654564890755
0.0015801635259188075
0.0018953548033224625
0.001974409157165187
0.0018697664268985878
0.0016358264996629499
0.0013050371122271948
0.0008808393748557831
0.00033596572456167165
0.00041760104076312907
0.0012798053269543856
0.0019089684416903063
0.002166377649397675
0.002124420421419134
0.0019049277983924293
0.0015961018121087786
0.0012305972035431684
0.0008098591738155657
0.00030467446523393255
0.0005693784253418231
0.0017625693166126617
0.0024130525231377577
0.0024623270812163534
0.002179820652553361
0.0018211617414321951
0.001445503102627206
0.0010637095066375474
0.0006698855355279677
0.00024259211489511406
0.0009941351290005378
0.00273875197859442
0.003123511707794336
0.002538755297506891
0.001997404906239876
0.0015468138747592574
0.001159168462578422
0.000802438615495886
0.00046535465697554804
0.00015033203770768548
0.002424563847130041
0.004936784821200619
0.00304484625647709
0.00202404132101598
0.0014304559581142448
0.0010462392635503508
0.0007455248310928898
0.00047626315070241863
0.00023042232979140348
4.419155426310141e-05
0.010945328514509802
0.002982631060207329
0.0013111193492389896
0.0007505502198387089
0.000511343804037119
0.00036818250351778464
0.0002546441347919832
0.0001460020774443748
4.091446497339786e-05
-2.0716128521291316e-05

