# vtk DataFile Version 2.0
mesh vtk view
ASCII
DATASET UNSTRUCTURED_GRID
POINTS 5151 double
0.0 -4.980284611590356 0.0
200.0 0.0 0.0
198.63094042339532 98.50441554770201 0.0
0.0 95.0280928668027 0.0
2.016110616640207 -4.97980426572004 0.0
4.032214173167412 -4.978363372604084 0.0
6.0483036102509224 -4.975962365712796 0.0
8.06437187013114 -4.972601967447337 0.0
10.080411897420898 -4.968283189064445 0.0
12.096416639923513 -4.963007330568376 0.0
14.112379049474841 -4.956775980567467 0.0
16.12829208281423 -4.949591016091915 0.0
18.144148702492572 -4.94145460236847 0.0
20.159941877822597 -4.932369192547025 0.0
22.17566458587481 -4.922337527373177 0.0
24.191309812527237 -4.9113626347998665 0.0
26.206870553573555 -4.899447829530329 0.0
28.22233981589904 -4.886596712483579 0.0
30.237710618724652 -4.872813170172582 0.0
32.25297599492439 -4.8581013739842485 0.0
34.26812899242692 -4.842465779349016 0.0
36.283162675702734 -4.82591112478685 0.0
38.29807012734207 -4.808442430814798 0.0
40.312844449728274 -4.790064998700338 0.0
42.327478766810835 -4.770784409042811 0.0
44.34196622598179 -4.750606520164038 0.0
46.356300000058695 -4.729537466287343 0.0
48.370473289376896 -4.707583655482582 0.0
50.38447932399285 -4.684751767352941 0.0
52.398311365999795 -4.661048750437102 0.0
54.41196271195599 -4.63648181929868 0.0
56.42542669542455 -4.611058451272166 0.0
58.43869668962314 -4.584786382832625 0.0
60.45176611017994 -4.557673605553818 0.0
62.464628417991136 -4.529728361616614 0.0
64.4772771221763 -4.500959138826917 0.0
66.48970578311398 -4.471374665099367 0.0
68.50190801555198 -4.440983902359771 0.0
70.51387749179645 -4.409796039815423 0.0
72.52560794493434 -4.377820486539655 0.0
74.5370931720899 -4.345066863312098 0.0
76.54832703768942 -4.3115449936523005 0.0
78.55930347670972 -4.277264893979325 0.0
80.57001649788164 -4.242236762825069 0.0
82.58046018681571 -4.206470969023172 0.0
84.5906287090131 -4.169978038789024 0.0
86.60051631271917 -4.1327686415996485 0.0
88.61011733157223 -4.094853574773959 0.0
90.61942618699376 -4.056243746645222 0.0
92.62843739025978 -4.0169501582074165 0.0
94.63714554418586 -3.976983883105345 0.0
96.64554534435057 -3.9363560458252342 0.0
98.65363157977268 -3.895077797926964 0.0
100.66139913294823 -3.8531602921408616 0.0
102.66884297914237 -3.810614654131176 0.0
104.6759581848185 -3.7674519517030713 0.0
106.68273990507349 -3.723683161201013 0.0
108.68918337993155 -3.6793191308110846 0.0
110.69528392933123 -3.6343705404386037 0.0
112.70103694662035 -3.5888478577824765 0.0
114.70643789034621 -3.5427612901683374 0.0
116.711482274103 -3.496120731630743 0.0
118.7161656541622 -3.4489357046483002 0.0
120.72048361457158 -3.4012152958307986 0.0
122.72443174936157 -3.3529680847303363 0.0
124.72800564143472 -3.3042020647933876 0.0
126.73120083764566 -3.2549245552813364 0.0
128.73401281949475 -3.205142102754293 0.0
130.73643696872483 -3.15486037042707 0.0
132.7384685270026 -3.1040840133512377 0.0
134.74010254871905 -3.0528165369359597 0.0
136.74133384563783 -3.0010601357725335 0.0
138.74215692194207 -2.9488155090345365 0.0
140.7425658978376 -2.8960816478541354 0.0
142.74255441943757 -2.8428555889661777 0.0
144.74211555207208 -2.7891321274927368 0.0
146.74124165342542 -2.7349034799111243 0.0
148.7399242219165 -2.6801588858701324 0.0
150.73815371444786 -2.6248841344003004 0.0
152.73591932592257 -2.569060995934268 0.0
154.73320872060705 -2.512666536028447 0.0
156.73000770226645 -2.45567227920189 0.0
158.7262998056684 -2.3980431810690837 0.0
160.72206578602712 -2.3397363527305037 0.0
162.7172829744629 -2.280699461366871 0.0
164.7119244554023 -2.220868702336568 0.0
166.70595800415498 -2.160166196359869 0.0
168.69934469670991 -2.0984966034436683 0.0
170.6920370641689 -2.035742651284748 0.0
172.68397660295892 -1.9717591300134685 0.0
174.675090354645 -1.9063646725989796 0.0
176.6652861103321 -1.8393302573091095 0.0
178.65444552505411 -1.770362720856122 0.0
180.6424139598834 -1.6990804041902465 0.0
182.62898497587898 -1.6249759995474027 0.0
184.6138758436743 -1.5473570406263057 0.0
186.5966861827108 -1.4652481511189714 0.0
188.57682753051256 -1.3772058392091455 0.0
190.5533688293301 -1.281021258427078 0.0
192.52478598980517 -1.1727218742341758 0.0
194.48765548386092 -1.046241487196 0.0
196.4351229646681 -0.879225600661387 0.0
198.3250138564512 -0.671139794966614 0.0
200.256902577161 1.5278195934585934 0.0
200.2745624027621 3.3205857176556854 0.0
200.29000421294617 5.203988841987787 0.0
200.28505702744584 7.120717453235908 0.0
200.2721925869922 9.056111402858185 0.0
200.253834306119 11.003137943820864 0.0
200.23188897631366 12.958277632587002 0.0
200.20735376757804 14.919404810651699 0.0
200.18088358406317 16.88515505255043 0.0
200.15291423725026 18.854596072150137 0.0
200.1237517219824 20.82706431080415 0.0
200.09361676399655 22.802071163098702 0.0
200.0626722382983 24.7792468903254 0.0
200.0310401599898 26.75830516407833 0.0
199.99881283580982 28.73901979064647 0.0
199.9660604242784 30.721208908112107 0.0
199.93283622868628 32.70472395255836 0.0
199.8991805030689 34.68944176430833 0.0
199.86512325537618 36.67525881938655 0.0
199.83068635709853 38.66208693388724 0.0
199.79588516293742 40.64985001077921 0.0
199.76072977800425 42.6384815382221 0.0
199.7252260676066 44.62792263863844 0.0
199.68937647679525 46.61812052739088 0.0
199.6531807081378 48.60902728014612 0.0
199.61663629341436 50.60059883568445 0.0
199.5797390860862 52.59279418029436 0.0
199.54248369519976 54.585574673690964 0.0
199.50486387703546 56.57890348638827 0.0
199.46687289775278 58.57274512581671 0.0
199.42850387816927 60.56706503401212 0.0
199.3897501303985 62.5618292439713 0.0
199.3506054952065 64.55700408517035 0.0
199.3110646885223 66.55255593155995 0.0
199.2711236654879 68.54845098802208 0.0
199.23078001071926 70.54465511356716 0.0
199.19003336403492 72.54113368237384 0.0
199.14888589176974 74.53785148687426 0.0
199.10734281486137 76.53477269118825 0.0
199.06541300604457 78.53186084887538 0.0
199.0231096693798 80.52907900727136 0.0
198.98045111521222 82.52638993340378 0.0
198.93746164068898 84.52375651686498 0.0
198.89417251578246 86.52114243912914 0.0
198.8506230461405 88.51851325873513 0.0
198.80686160652382 90.51583817254047 0.0
198.76294631693824 92.51309292809424 0.0
198.71894433289793 94.5102647600828 0.0
198.67492631078642 96.50736063095329 0.0
196.62995883951538 98.46045013542508 0.0
194.62893630495304 98.41651681010644 0.0
192.62783793654094 98.37256718248882 0.0
190.62665722766815 98.32853028665774 0.0
188.6254078678822 98.28433884586396 0.0
186.62411550351223 98.23993514933045 0.0
184.62281269859855 98.1952720780764 0.0
182.62153585312552 98.15031269014534 0.0
180.62032323294042 98.10502938752482 0.0
178.61921365508454 98.0594029952446 0.0
176.6182455810041 98.01342186507782 0.0
174.61745647659183 97.96708104008094 0.0
172.61688235482382 97.92038148797685 0.0
170.61655744850256 97.87332940115664 0.0
168.61651397911967 97.82593555785724 0.0
166.61678199901823 97.77821473861084 0.0
164.61738929095506 97.7301851926058 0.0
162.61836131356412 97.68186814941969 0.0
160.6197211840743 97.63328737238514 0.0
158.621489691528 97.58446875052215 0.0
156.62368533503644 97.53543992649006 0.0
154.62632438250776 97.48622995839004 0.0
152.62942094594894 97.43686901350547 0.0
150.63298706994038 97.38738809223155 0.0
148.63703283029514 97.33781878053908 0.0
146.64156644025408 97.2881930293645 0.0
144.64659436187574 97.2385429593344 0.0
142.6521214205544 97.18890068923376 0.0
140.65815092085856 97.13929818662272 0.0
138.6646847621252 97.08976713900408 0.0
136.67172355247044 97.04033884394929 0.0
134.67926672009287 96.99104411660639 0.0
132.6873126209442 96.94191321304099 0.0
130.6958586420264 96.89297576790179 0.0
128.7049012997409 96.84426074495323 0.0
126.71443633286938 96.79579639908094 0.0
124.72445878989227 96.74761024844503 0.0
122.73496311051224 96.6997290555361 0.0
120.74594320126151 96.65217881596857 0.0
118.75739250525024 96.60498475393432 0.0
116.76930406616115 96.55817132332592 0.0
114.78167058663117 96.5117622136257 0.0
112.79448448122966 96.46578035974264 0.0
110.80773792427757 96.42024795506245 0.0
108.82142289277466 96.37518646705576 0.0
106.835531204725 96.33061665486463 0.0
104.85005455315968 96.28655858835916 0.0
102.86498453616169 96.24303166822097 0.0
100.8803126831975 96.20005464667207 0.0
98.89603047805544 96.15764564852265 0.0
96.91212937868289 96.11582219226185 0.0
94.92860083420395 96.07460121096148 0.0
92.945436299386 96.03399907280273 0.0
90.96262724681011 95.99403160107228 0.0
88.98016517698412 95.95471409350644 0.0
86.99804162662231 95.91606134088889 0.0
85.01624817529988 95.87808764483302 0.0
83.03477645067264 95.84080683469946 0.0
81.0536181324398 95.80423228361842 0.0
79.07276495520955 95.76837692360056 0.0
77.09220871041495 95.7332532597337 0.0
75.11194124741188 95.69887338347235 0.0
73.13195447387973 95.66524898503613 0.0
71.15224035562628 95.63239136494 0.0
69.17279091590973 95.60031144468459 0.0
67.19359823435525 95.56901977663915 0.0
65.21465444550813 95.53852655315202 0.0
63.23595173714661 95.50884161492723 0.0
61.257482348379234 95.4799744587056 0.0
59.279238567583555 95.45193424429027 0.0
57.30121273023145 95.42472980095636 0.0
55.32339721663832 95.39836963328425 0.0
53.34578444966914 95.37286192645531 0.0
51.36836689242888 95.34821455104785 0.0
49.391137045959866 95.32443506736968 0.0
47.4140874469662 95.30153072936267 0.0
45.437210665580416 95.2795084881127 0.0
43.46049930318494 95.25837499499704 0.0
41.48394599029879 95.23813660449952 0.0
39.50754338453697 95.2187993767219 0.0
37.53128416864762 95.20036907961838 0.0
35.555161048631405 95.18285119097838 0.0
33.579166751944896 95.16625090018113 0.0
31.603294025788625 95.15057310974356 0.0
29.627535635479827 95.13582243668218 0.0
27.651884362908483 95.12200321370722 0.0
25.67633300507439 95.10911949026635 0.0
23.70087437270226 95.09717503345381 0.0
21.72550128893182 95.08617332879916 0.0
19.750206588078708 95.07611758094905 0.0
17.77498311446154 95.06701071425343 0.0
15.799823721291029 95.0588553732673 0.0
13.82472126961571 95.05165392317714 0.0
11.849668627319176 95.04540845016086 0.0
9.874658668163523 95.04012076168848 0.0
7.899684270873593 95.03579238676997 0.0
5.924738318255768 95.03242457615586 0.0
3.9498136963466393 95.03001830249532 0.0
1.9749032935846988 95.02857426045512 0.0
0.0 93.02259743796398 0.0
0.0 91.01740822625818 0.0
0.0 89.01251412581306 0.0
0.0 87.00790449640768 0.0
0.0 85.00356916551718 0.0
0.0 82.99949843020205 0.0
0.0 80.99568305882741 0.0
0.0 78.99211429260184 0.0
0.0 76.98878384692777 0.0
0.0 74.98568391255809 0.0
0.0 72.98280715655653 0.0
0.0 70.98014672306161 0.0
0.0 68.9776962338563 0.0
0.0 66.9754497887474 0.0
0.0 64.9734019657608 0.0
0.0 62.97154782116069 0.0
0.0 60.96988288930162 0.0
0.0 58.96840318232453 0.0
0.0 56.96710518969829 0.0
0.0 54.9659858776725 0.0
0.0 52.96504268855654 0.0
0.0 50.96427353992744 0.0
0.0 48.963676823751456 0.0
0.0 46.96325140543417 0.0
0.0 44.9629966228187 0.0
0.0 42.962912285149606 0.0
0.0 40.96299867201976 0.0
0.0 38.96325653231823 0.0
0.0 36.963687083196646 0.0
0.0 34.96429200907189 0.0
0.0 32.96507346068249 0.0
0.0 30.96603405421302 0.0
0.0 28.96717687050458 0.0
0.0 26.968505454398727 0.0
0.0 24.970023814142014 0.0
0.0 22.971736420965026 0.0
0.0 20.973648208796497 0.0
0.0 18.975764574134963 0.0
0.0 16.978091376088507 0.0
0.0 14.980634936591738 0.0
0.0 12.983402040807546 0.0
0.0 10.986399937718758 0.0
0.0 8.989636340913329 0.0
0.0 6.99311942956456 0.0
0.0 4.996857849604844 0.0
0.0 3.0008607150898676 0.0
0.0 1.00513760974673 0.0
0.0 -0.9903014113027222 0.0
0.0 -2.9854458196551317 0.0
2.0151580778740024 -2.984964332530165 0.0
2.0142213178381416 -0.9898188299772404 0.0
2.013299667307965 1.0056212388189927 0.0
2.012392459642828 3.001345346016084 0.0
2.011499030617383 4.997343437007341 0.0
2.010618718234076 6.993605928529998 0.0
2.0097508625203417 8.99012370693781 0.0
2.00889480531393 10.986888126649813 0.0
2.008049890039585 12.983891008783985 0.0
2.0072154614802677 14.981124639982168 0.0
2.00639086554584 16.978581771429504 0.0
2.0055754490420465 18.97625561806953 0.0
2.004768559442439 20.97413985801362 0.0
2.0039695446656682 22.97222863214099 0.0
2.003177752860454 24.970516543884134 0.0
2.0023925322002767 26.96899865919183 0.0
2.0016132306897316 28.967670506661197 0.0
2.0008391959842284 30.96652807782699 0.0
2.0000697752245955 32.96556782758733 0.0
1.999304314887903 34.964786674803165 0.0
1.9985421606557277 36.96418200295961 0.0
1.9977826573008244 38.96375166096038 0.0
1.9970251485930621 40.96349396400873 0.0
1.996268977225287 42.963407694556466 0.0
1.99551348475963 44.963492103306756 0.0
1.9947580115946273 46.963746910253334 0.0
1.994001896953364 48.96417230573832 0.0
1.9932444788927104 50.96476895151086 0.0
1.9924850943335628 52.965537981768854 0.0
1.9917230791118625 54.966481004166056 0.0
1.9909577680500667 56.96760010076759 0.0
1.9901884950485091 58.968897828933365 0.0
1.989414593196042 60.97037722211545 0.0
1.988635394899127 62.97204179058321 0.0
1.987850232028455 64.97389552197559 0.0
1.9870584360819694 66.97594288176363 0.0
1.9862593383630256 68.97818881355822 0.0
1.985452270172268 70.98063873926137 0.0
1.9846365630116092 72.98329855905001 0.0
1.9838115487985313 74.98617465118332 0.0
1.982976560088762 76.98927387162507 0.0
1.9821309303051562 78.99260355347509 0.0
1.981273993970438 80.99617150620631 0.0
1.9804050869412946 82.99998601470378 0.0
1.9795235466410628 85.00405583810723 0.0
1.978628712288093 87.00839020845895 0.0
1.9777199251166755 89.01299882916199 0.0
1.976796528587232 91.01789187325718 0.0
1.975857868582308 93.02307998152904 0.0
4.030309383722858 -2.9835200157751998 0.0
4.028436149998617 -0.9883712307362886 0.0
4.026593133642952 1.0070719811981812 0.0
4.024779001488561 3.002799093871827 0.0
4.022992425212519 4.9988000542263045 0.0
4.021232080958689 6.995065280394197 0.0
4.019496648929661 8.991585659959274 0.0
4.017784812954993 10.98835254839619 0.0
4.016095260042327 12.985357767697431 0.0
4.014426679917666 14.982593605194696 0.0
4.012777764560719 16.98005281257685 0.0
4.0111472077409935 18.97772860510632 0.0
4.009533704559866 20.975614661031734 0.0
4.007935951003584 22.973705121193188 0.0
4.006352643511706 24.971994588814773 0.0
4.004782478565169 26.970478129476575 0.0
4.00322415229779 28.96915127125672 0.0
4.001676360134622 30.968010005032376 0.0
4.000137796460214 32.96705078491831 0.0
3.9986071543194646 34.966270528879704 0.0
3.9970831251534795 36.96566661940855 0.0
3.9955643985723386 38.96523690433308 0.0
3.9940496621665376 40.96497969771468 0.0
3.9925376013583667 42.96489378081307 0.0
3.9910268992942948 44.96497840310576 0.0
3.9895162367790804 46.965233283344126 0.0
3.988004292252039 48.96565861062785 0.0
3.986489741805565 50.966255045480615 0.0
3.984971259245777 52.96702372090836 0.0
3.983447516194833 54.967966243422985 0.0
3.9819171822341937 56.96908469401369 0.0
3.9803789250878228 58.970381629046244 0.0
3.978831410843996 60.97186008107529 0.0
3.977273304214151 62.97352355958356 0.0
3.9757032688268796 64.975376051548 0.0
3.974119967554853 66.97742202191478 0.0
3.9725220628721223 68.97966641391854 0.0
3.9709082172389807 70.98211464924387 0.0
3.969277093511169 72.98477262801819 0.0
3.9676273553698476 74.9876467286261 0.0
3.9659576677684565 76.99074380733781 0.0
3.9642666973921337 78.99407119774408 0.0
3.9625531131249985 80.99763670999519 0.0
3.9608155865202987 83.00144862983939 0.0
3.959052792267852 85.0055157174627 0.0
3.957263408653054 87.00984720613101 0.0
3.955446118001082 89.01445280064029 0.0
3.9535996070998283 91.01934267558188 0.0
3.9517225675944903 93.02452747343447 0.0
6.0454471462676 -2.981113303237628 0.0
6.042638011501668 -0.9859590477760296 0.0
6.039874198671176 1.0094894023797245 0.0
6.037153708311811 3.0052215238947806 0.0
6.034474548260213 5.001227266300859 0.0
6.0318347330811966 6.997497050063691 0.0
6.029232283449407 8.99402176482303 0.0
6.026665225495759 10.99079276781691 0.0
6.024131590128416 12.987801882498031 0.0
6.021629412337807 14.985041397348855 0.0
6.019156730494619 16.98250406489775 0.0
6.0167115856491895 18.98018310093712 0.0
6.014292020840237 20.978072183941798 0.0
6.011896080420338 22.976165454683255 0.0
6.009521809404892 24.974457516034015 0.0
6.007167252850927 26.972943432954423 0.0
6.004830455271331 28.971618732651976 0.0
6.002509460089759 30.970479404901578 0.0
6.000202309140697 32.96952190250563 0.0
5.997907042218756 34.96874314192956 0.0
5.995621696680736 36.96814050400266 0.0
5.993344307103423 38.96771183475322 0.0
5.991072904999608 40.96745544633173 0.0
5.988805518594312 42.967370118003444 0.0
5.986540172662809 44.96745509719531 0.0
5.984274888431456 46.967710100580135 0.0
5.982007683542028 48.96813531517933 0.0
5.979736572079646 50.96873139946641 0.0
5.9774595646641675 52.969499484453266 0.0
5.975174668604304 54.97044117474126 0.0
5.972879888113384 56.971558549519344 0.0
5.970573224585273 58.97285416348951 0.0
5.968252676928473 60.97433104770418 0.0
5.965916241956003 62.975992710328896 0.0
5.9635619148283165 64.97784313723157 0.0
5.9611876895458185 66.97988679247838 0.0
5.958791559487319 68.98212861867228 0.0
5.956371517990084 70.98457403713147 0.0
5.953925558966724 72.9872289478975 0.0
5.951451677553602 74.9900997295619 0.0
5.948947870784869 76.993193238904 0.0
5.946412138285741 78.99651681033261 0.0
5.943842482977925 81.00007825512779 0.0
5.941236911789676 83.00388586047883 0.0
5.938593436362253 85.00794838831915 0.0
5.935910073743981 87.0122750739595 0.0
5.933184847062578 89.01687562452418 0.0
5.930415786165813 91.02176021719805 0.0
5.92760092822006 93.0269394972942 0.0
8.060564595727362 -2.9777449179501634 0.0
8.056820418768355 -0.9825830047131561 0.0
8.053136663341519 1.0128727782306255 0.0
8.049510664034184 3.0086119115204077 0.0
8.045939765232351 5.004624348333851 0.0
8.042421320344953 7.0009005124190775 0.0
8.0389526909678 8.997431296306354 0.0
8.035531246000993 10.994208059711148 0.0
8.032154360732957 12.991222628135842 0.0
8.02881941590374 14.988467291676333 0.0
8.02552379675953 16.985934804035686 0.0
8.02226489210972 18.98361838174538 0.0
8.019040093397017 20.981511703591657 0.0
8.015846793790562 22.97960891024246 0.0
8.012682387311042 24.977904604069046 0.0
8.00954426799617 26.976393849153425 0.0
8.006429829114168 28.97507217147223 0.0
8.003336462431987 30.97393555924402 0.0
8.00026155754445 32.972980463419816 0.0
7.997202501269555 34.972203798350506 0.0
7.994156677114802 36.97160294252233 0.0
7.991121464818269 38.97117573942785 0.0
7.988094239967921 40.9709204985262 0.0
7.985072373701718 42.97083599627396 0.0
7.982053232490548 44.97092147721101 0.0
7.979034178005428 46.971176655083895 0.0
7.976012567069774 48.97160171398808 0.0
7.972985751697014 50.97219730951096 0.0
7.9699510792131445 52.972964569857 0.0
7.966905892463431 54.973905096937486 0.0
7.963847530101746 56.97502096740615 0.0
7.960773326960528 58.97631473362132 0.0
7.957680614498819 60.97778942451862 0.0
7.954566721325118 62.97944854640659 0.0
7.95142897379146 64.98129608358863 0.0
7.94826469665417 66.98333649888797 0.0
7.945071213796358 68.98557473401324 0.0
7.941845849006495 70.98801620976162 0.0
7.9385859268067005 72.99066682604762 0.0
7.935288773323633 74.99353296174723 0.0
7.931951717194263 76.99662147434974 0.0
7.928572090497919 78.99993969940851 0.0
7.925147229705258 81.00349544978725 0.0
7.921674476634087 83.00729701469734 0.0
7.918151179401076 85.01135315852639 0.0
7.914574693357669 87.01567311945902 0.0
7.91094238199765 89.02026660789429 0.0
7.90725161782316 91.02514380466658 0.0
7.903499783155151 93.03031535908016 0.0
10.075654964582343 -2.9734158720601584 0.0
10.070976890333029 -0.9782441145181968 0.0
10.06637433053714 1.017221095052716 0.0
10.061843954306362 3.012969242442294 0.0
10.057382443103375 5.008990285549791 0.0
10.052986489752765 7.005274652370737 0.0
10.048652797377265 9.001813239172565 0.0
10.04437807827654 10.998597408870769 0.0
10.040159052765112 12.995618989612058 0.0
10.035992447985322 14.992870273570622 0.0
10.031874996710238 16.990344015958996 0.0
10.027803436150801 18.988033434253527 0.0
10.023774506780349 20.9859322076316 0.0
10.019784951188896 22.984034476615477 0.0
10.015831512978519 24.982334842916092 0.0
10.01191093571027 26.980828369467908 0.0
10.008019961912073 28.979510580644202 0.0
10.004155332156131 30.978377462640076 0.0
10.000313784213432 32.97742546400203 0.0
9.996492052291929 34.976651496337006 0.0
9.99268686636441 36.976052935092284 0.0
9.988894951590721 38.975627620473105 0.0
9.985113027838596 40.97537385845081 0.0
9.981337809306318 42.975290421842935 0.0
9.977566004249654 44.97537655144942 0.0
9.973794314815024 46.97563195722656 0.0
9.970019436979493 48.97605681948023 0.0
9.966238060598387 50.976651790059705 0.0
9.962446869559693 52.977417993533166 0.0
9.958642542044338 54.97835702832688 0.0
9.954821750890474 56.9794709678097 0.0
9.950981164059307 58.980762361302126 0.0
9.947117445199193 60.98223423499476 0.0
9.943227254304047 62.98389009278663 0.0
9.939307248461605 64.985733916949 0.0
9.935354082685807 66.98777016868829 0.0
9.93136441082728 68.9900037885467 0.0
9.927334886554796 70.99244019663695 0.0
9.923262164399844 72.99508529269843 0.0
9.919142900855489 74.99794545596444 0.0
9.914973755519835 77.00102754483187 0.0
9.91075139227343 79.00433889632437 0.0
9.90647248047895 81.00788732534468 0.0
9.902133696190576 83.01168112371207 0.0
9.897731723359302 85.01572905898269 0.0
9.89326325501972 87.02004037305522 0.0
9.888724994442411 89.0246247805644 0.0
9.884113656235451 91.02949246706888 0.0
9.879425967377415 93.03465408704366 0.0
12.090711488351241 -2.968127466728001 0.0
12.085100947568113 -0.9729436794195134 0.0
12.079581005737307 1.0225330496738492 0.0
12.074147667098403 3.018292212699264 0.0
12.068796950862112 5.014323773378486 0.0
12.063524889994898 7.010618164939617 0.0
12.05832752991483 9.007166288249273 0.0
12.053200927119716 11.003959510156333 0.0
12.04814114776743 13.000989662053076 0.0
12.043144266227698 14.998249038659464 0.0
12.03820636362323 16.995730397031167 0.0
12.03332352637749 18.993426955791122 0.0
12.028491844784835 20.99133239458052 0.0
12.023707411617947 22.989440853723952 0.0
12.018966320786117 24.987746934101118 0.0
12.01426466605704 26.986245697215637 0.0
12.0095985398532 28.984932665449612 0.0
12.004964032133204 30.983803822490426 0.0
12.000357229367143 32.98285561390891 0.0
11.995774213613736 34.98208494791942 0.0
11.991211061706366 36.98148919621495 0.0
11.986663844553842 38.98106619494151 0.0
11.982128626560543 40.98081424576554 0.0
11.977601465169988 42.98073211701455 0.0
11.97307841053483 44.98081904487474 0.0
11.968555505315145 46.98107473462751 0.0
11.964028784606322 48.981499361904866 0.0
11.959494275996807 50.982093573945704 0.0
11.954947999755273 52.98285849083294 0.0
11.95038596914569 54.98379570669374 0.0
11.94580419086838 56.98490729084326 0.0
11.941198665623814 58.98619578885191 0.0
11.936565388795529 60.98766422351961 0.0
11.93190035124725 62.989316095766995 0.0
11.927199540229035 64.99115538535023 0.0
11.92245894038557 66.99318655147084 0.0
11.917674534859406 68.99541453322006 0.0
11.912842306480856 70.99784474985178 0.0
11.907958239034809 73.00048310087348 0.0
11.90301831859441 75.00333596594193 0.0
11.898018534909626 77.0064102045551 0.0
11.892954882838175 79.00971315553136 0.0
11.887823363804916 81.0132526362704 0.0
11.882619987274413 83.01703694179027 0.0
11.877340772220395 85.02107484353989 0.0
11.871981748574639 87.0253755879861 0.0
11.866538958636108 89.02994889497882 0.0
11.861008458420743 91.0348049558996 0.0
11.855386318930462 93.03995443160285 0.0
14.105727406389732 -2.96188129199195 0.0
14.099186115426914 -0.9666832907753502 0.0
14.092750497694375 1.028807049569683 0.0
14.086415893302389 3.024579228791925 0.0
14.080177660033442 5.020623217567164 0.0
14.07403117188459 7.0169294553656485 0.0
14.067971817507859 9.013488848533651 0.0
14.061994998573045 11.01029276859964 0.0
14.056096128076716 13.007333050810438 0.0
14.050270628619687 15.004601992902096 0.0
14.044513930674196 17.002092354105795 0.0
14.038821470860828 18.99979735438719 0.0
14.033188690253851 20.99771067391502 0.0
14.02761103273206 22.995826452752205 0.0
14.022083943391332 24.99413929076148 0.0
14.016602867033235 26.992644247715184 0.0
14.011163246742955 28.99133684359718 0.0
14.005760522568382 30.990213059082244 0.0
14.000390130310779 32.98926933617207 0.0
13.995047500436312 34.988502579016796 0.0
13.989728057116423 36.98791015481553 0.0
13.984427217403743 38.98748989485862 0.0
13.97914039054916 40.9872400956656 0.0
13.973862977464439 42.98715952019752 0.0
13.968590370333837 44.98724739912809 0.0
13.963317952377045 46.987503432153794 0.0
13.95804109776464 48.98792778932365 0.0
13.952755171686583 50.988521112369234 0.0
13.947455530573023 52.98928451601527 0.0
13.942137522465764 54.99021958925188 0.0
13.936796487538041 56.991328396549044 0.0
13.931427758759007 58.992613478992716 0.0
13.926026662698629 60.99407785532533 0.0
13.920588520467284 62.99572502290019 0.0
13.915108648784209 64.99755895845672 0.0
13.909582361166706 66.99958411878669 0.0
13.904004969231996 69.00180544122979 0.0
13.898371784101817 71.00422834399401 0.0
13.892678117898964 73.006858726287 0.0
13.88691928532358 75.0097029682466 0.0
13.881090605295904 77.01276793066039 0.0
13.875187402650429 79.01606095446441 0.0
13.869205009865675 81.01958986001475 0.0
13.863138768811519 83.02336294612644 0.0
13.85698403249552 85.02738898887647 0.0
13.85073616678716 87.0316772401705 0.0
13.844390552098442 89.03623742607576 0.0
13.837942584997172 91.0410797449239 0.0
13.831387679728072 93.04621486519264 0.0
16.120695962713945 -2.954679226596036 0.0
16.113225923207892 -0.9594648289104457 0.0
16.105876619128647 1.036041213019562 0.0
16.098642727349702 3.0318284078321547 0.0
16.09151894521129 5.027886734324579 0.0
16.084499988801916 7.02420663924727 0.0
16.077580591125354 9.020779035327962 0.0
16.07075550018119 11.017595299535783 0.0
16.064019476986015 13.014647271589675 0.0
16.057367293561505 15.01192725271516 0.0
16.05079373091318 17.00942800464903 0.0
16.04429357702331 19.007142748889187 0.0
16.037861624879 21.005065166184618 0.0
16.031492670555405 23.003189396257973 0.0
16.025181511372246 25.001510037751544 0.0
16.01892294414011 27.000022148385575 0.0
16.012711763511767 28.998721245315792 0.0
16.006542760451712 30.99760330567477 0.0
16.00041072083607 32.996664767275476 0.0
15.994310424193024 34.995902529504725 0.0
15.988236642593089 36.99531395429983 0.0
15.982184139696525 38.99489686727028 0.0
15.976147669964458 40.99464955891709 0.0
15.970121978038344 42.99457078592914 0.0
15.964101798291903 44.99465977253909 0.0
15.958081854557753 46.99491621191918 0.0
15.952056860030575 48.99534026759714 0.0
15.946021517346724 50.99593257487163 0.0
15.93997051883983 52.99669424220792 0.0
15.933898546970498 54.997626852593676 0.0
15.927800274927165 56.99873246483545 0.0
15.921670367394317 59.00001361477447 0.0
15.915503481482922 61.00147331640429 0.0
15.909294267817007 63.00311506289837 0.0
15.903037371769338 65.00494282745599 0.0
15.896727434837455 67.00696106403376 0.0
15.89035909615064 69.00917470790164 0.0
15.883926994096804 71.01158917601826 0.0
15.877425768056925 73.01421036721051 0.0
15.870850060233437 75.01704466214517 0.0
15.864194517557245 77.02009892308138 0.0
15.857453793656633 79.02338049339315 0.0
15.850622550869646 81.02689719685522 0.0
15.843695462279937 83.03065733668447 0.0
15.8366672137543 85.03466969433434 0.0
15.829532505958348 87.03894352803951 0.0
15.82228605632523 89.04348857111235 0.0
15.814922600950455 91.0483150299951 0.0
15.807436896384196 93.05343358207419 0.0
18.135610406856568 -2.9465234377766443 0.0
18.127213905346785 -0.9512904629130086 0.0
18.11895318744682 1.0442333693006978 0.0
18.11082226784766 3.0400375777298176 0.0
18.102815184607188 5.0361121505013955 0.0
18.09492599714955 7.032447542716355 0.0
18.087148784138044 9.029034674409903 0.0
18.079477641253558 11.025864928769312 0.0
18.0719066789096 13.02293015061258 0.0
18.064430019933074 15.020222645131026 0.0
18.057041797238462 17.017735176894085 0.0
18.049736151521344 19.01546096911298 0.0
18.04250722899532 21.013393703156687 0.0
18.035349179194693 23.01152751831171 0.0
18.02825615286335 25.009857011775594 0.0
18.02122229994844 27.008377238871706 0.0
18.014241767715703 29.007083713471378 0.0
18.007308699001516 31.005972408606716 0.0
18.000417230614758 33.00503975725221 0.0
17.99356149190033 35.004282653300635 0.0
17.986735603474195 37.00369845262718 0.0
17.97993367613829 39.00328497430178 0.0
17.973149809982385 41.003040501902134 0.0
17.966378093678184 43.00296378490523 0.0
17.959612603969834 45.00305404014047 0.0
17.95284740536369 47.003310953283034 0.0
17.946076550018898 49.00373468036774 0.0
17.93929407783881 51.00432584930212 0.0
17.932494016762874 53.0050855613586 0.0
17.925670383256325 55.00601539262572 0.0
17.918817182994985 57.007117395397756 0.0
17.91192841174052 59.00839409948163 0.0
17.904998056400647 61.00984851340237 0.0
17.89802009626747 63.0114841255143 0.0
17.89098850442613 65.01330490492796 0.0
17.883897249324168 67.01531530231607 0.0
17.87674029649109 69.0175202505397 0.0
17.86951161039582 71.01992516508643 0.0
17.862205156428573 73.02253594430607 0.0
17.8548149029918 75.02535896943033 0.0
17.8473348236831 77.02840110436395 0.0
17.839758899551665 79.0316696952362 0.0
17.83208112140755 81.03517256970427 0.0
17.824295492161188 83.03891803599997 0.0
17.81639602916901 85.0429148817156 0.0
17.808376766558535 87.04717237232622 0.0
17.800231757504594 89.0517002494468 0.0
17.791955076426362 91.05650872882846 0.0
17.783540821072634 93.06160849809844 0.0
20.150463994759512 -2.9374163810028913 0.0
20.1411436022402 -0.9421626503868961 0.0
20.131974025486663 1.053381058925848 0.0
20.122948618237473 3.0492042774217865 0.0
20.114060760615644 5.045297003811889 0.0
20.10530385682136 7.0416497026538 0.0
20.09667133268725 9.038253302242676 0.0
20.088156633132538 11.035099192779398 0.0
20.0797532195505 13.03217922481783 0.0
20.07145456716236 15.029485707993762 0.0
20.063254162368143 17.027011410032205 0.0
20.055145500123754 19.02474955602862 0.0
20.047122081370954 21.022693827996132 0.0
20.039177410545154 23.020838364669224 0.0
20.03130499318369 25.019177761552307 0.0
20.023498333655173 27.017707071199645 0.0
20.01575093302871 29.01642180371163 0.0
20.008056287099183 31.015317927429262 0.0
20.00040788458353 33.014391869804314 0.0
19.9927992055006 35.0136405184692 0.0
19.985223719745402 37.013061222399934 0.0
19.97767488586724 39.01265179323112 0.0
19.970146150058678 41.012410506674264 0.0
19.9626309453617 43.0123361040172 0.0
19.95512269109535 45.01242779368601 0.0
19.947614792507636 47.01268525284864 0.0
19.940100640653508 49.01310862903839 0.0
19.93257361249898 51.013698541776876 0.0
19.92502707125056 53.01445608417468 0.0
19.917454366907453 55.015382824489436 0.0
19.909848837033127 57.01648080762054 0.0
19.902203807741415 59.01775255651808 0.0
19.894512594891104 61.01920107348717 0.0
19.886768505481292 63.02082984139399 0.0
19.87896483923939 65.02264282468307 0.0
19.87109489039102 67.02464447026885 0.0
19.86315194960017 69.02683970824017 0.0
19.855129306066832 71.02923395237092 0.0
19.847020249766466 73.03183310041992 0.0
19.838818073815148 75.03464353420583 0.0
19.830516076941496 77.03767211944384 0.0
19.82210756604485 79.0409262053314 0.0
19.81358585881708 81.04441362387334 0.0
19.804944286403238 83.04814268893715 0.0
19.796176196073844 85.05212219503217 0.0
19.7872749538797 87.05636141580828 0.0
19.77823394725756 89.06087010227255 0.0
19.76904658755258 91.0656584807252 0.0
19.75970631242159 93.07073725041882 0.0
22.1652499897062 -2.9273607996646387 0.0
22.155008561102598 -0.9320841371530753 0.0
22.144932962289346 1.06348153393043 0.0
22.13501588747451 3.0593257571494084 0.0
22.12525006039664 5.055438543103222 0.0
22.115628231683154 7.0518103669515995 0.0
22.106143176061902 9.048432166231017 0.0
22.09678768946574 11.045295338970256 0.0
22.0875545860689 13.042391742105863 0.0
22.078436695291646 15.039713690198578 0.0
22.069426858807294 17.037253954446218 0.0
22.060517927583703 19.035005761987122 0.0
22.051702758988746 21.03296279548472 0.0
22.042974213987428 23.03111919298238 0.0
22.034325154455086 25.029469548015506 0.0
22.025748440629815 27.02800890996598 0.0
22.017236928723996 29.02673278464261 0.0
22.008783468713208 31.02563713506796 0.0
22.000380902318355 33.02471838244871 0.0
21.992022061194515 35.02397340735068 0.0
21.98369976533879 37.023399550973 0.0
21.9754068217265 39.022994616577655 0.0
21.96713602318379 41.022756871025734 0.0
21.958880147503223 43.02268504639675 0.0
21.950631956806614 45.02277834167216 0.0
21.942384197158404 47.02303642446114 0.0
21.934129598431138 49.023459432746435 0.0
21.925860874423087 51.02404797662905 0.0
21.917570723226948 53.024803140049386 0.0
21.909251827846976 55.025726482464364 0.0
21.90089685706069 57.02682004045846 0.0
21.892498466519875 59.02808632926628 0.0
21.88404930008443 61.02952834418737 0.0
21.875541991380793 63.031149561897095 0.0
21.86696916557589 65.03295394156595 0.0
21.85832344135536 67.0349459258459 0.0
21.849597433093525 69.03713044166405 0.0
21.84078375320081 71.03951290081442 0.0
21.831875014632548 73.04209920033071 0.0
21.822863833540932 75.04489572262476 0.0
21.813742832050067 77.04790933537573 0.0
21.80450464113167 79.05114739115635 0.0
21.795141903556768 81.05461772678528 0.0
21.785647276896402 83.05832866239425 0.0
21.776013436541522 85.06228900020312 0.0
21.766233078709966 87.06650802299626 0.0
21.756298923405897 89.07099549229706 0.0
21.746203717293856 91.07576164624057 0.0
21.735940236447735 93.08081719714652 0.0
24.179961663300173 -2.9163597247014557 0.0
24.16880233686262 -0.9210579568934012 0.0
24.157823833904402 1.074531758216061 0.0
24.14701819073484 3.0703989787912525 0.0
24.136377476478447 5.066533728678989 0.0
24.12589379006862 7.0629264948287105 0.0
24.115559257085703 9.05956822502996 0.0
24.10536602648436 11.056450325973474 0.0
24.095306267252642 13.053564661635008 0.0
24.08537216504276 15.050903551981397 0.0
24.075555918811446 17.04845977199309 0.0
24.065849737504823 19.04622655099524 0.0
24.056245836820356 21.04419757228673 0.0
24.046736436075555 23.042366973054282 0.0
24.037313755210764 25.04072934455733 0.0
24.0279700119505 27.039279732567127 0.0
24.01869741914521 29.038013638042123 0.0
24.009488182313067 31.036927018018773 0.0
24.000334497398804 33.0360162866936 0.0
23.991228548764113 35.03527831671597 0.0
23.982162507422427 37.03471044058564 0.0
23.973128529528356 39.034310452209624 0.0
23.964118755130098 41.03407660856886 0.0
23.955125307191565 43.034007631470175 0.0
23.946140290888813 45.034102709364035 0.0
23.937155793184093 47.034361499204934 0.0
23.928163882678962 49.03478412833213 0.0
23.91915660974643 51.03537119634815 0.0
23.910126006940885 53.036123776972815 0.0
23.9010640896828 55.037043419851 0.0
23.89196285721414 57.03813215229215 0.0
23.882814293818694 59.039392480917854 0.0
23.873610370300515 61.04082739319846 0.0
23.864343045711514 63.042440358880114 0.0
23.8550042693188 65.04423533121678 0.0
23.845585982799534 67.04621674806228 0.0
23.836080122650102 69.04838953276285 0.0
23.826478622794447 71.05075909484005 0.0
23.816773417374133 73.05333133044601 0.0
23.806956443700948 75.05611262257362 0.0
23.797019645350375 77.05910984100639 0.0
23.786954975371877 79.06233034199226 0.0
23.776754399589386 81.06578196762902 0.0
23.76640989996279 83.06947304494862 0.0
23.75591347797813 85.07341238469117 0.0
23.745257158031663 87.07760927976078 0.0
23.73443299076973 89.08207350335823 0.0
23.72343305634344 91.08681530678787 0.0
23.712249467534015 93.09184541694019 0.0
26.194592296494037 -2.9044164741645937 0.0
26.182518493101966 -0.9090874307289436 0.0
26.170640484229747 1.0865284079583502 0.0
26.158949650149637 3.082420616259169 0.0
26.14743740738216 5.078579232685353 0.0
26.136095205290843 7.074994757208348 0.0
26.124914522514597 9.071658148914434 0.0
26.11388686328707 11.068560824010342 0.0
26.10300375368943 13.06569465417657 0.0
26.09225673788045 15.06305196526644 0.0
26.081637374345206 17.060625536343125 0.0
26.07113723220035 19.05840859904515 0.0
26.06074788759156 21.056394837267742 0.0
26.05046092021509 23.054578387145405 0.0
26.040267909993158 25.052953837319738 0.0
26.030160433929098 27.05151622947413 0.0
26.020130063166416 29.05026105911581 0.0
26.01016836027201 31.04918427658268 0.0
26.00026687676208 33.04828228824975 0.0
25.99041715088581 35.0475519579522 0.0
25.9806107056808 37.0469906085195 0.0
25.97083904731027 39.04659602347243 0.0
25.961093663691404 41.046366448833126 0.0
25.951366023421194 43.046300595022814 0.0
25.94164757500488 45.046397638826406 0.0
25.931929746389937 47.046657225400374 0.0
25.922203944807155 49.04707947030063 0.0
25.91246155691854 51.04766496150762 0.0
25.902693949270496 53.04841476142509 0.0
25.892892469049084 55.04933040883077 0.0
25.883048445132868 57.05041392075588 0.0
25.87315318943738 59.05166779426998 0.0
25.86319799854359 61.05309500815017 0.0
25.853174155601476 63.05469902443633 0.0
25.84307293249825 65.0564837897867 0.0
25.83288559227874 67.05845373668636 0.0
25.82260339180384 69.06061378444953 0.0
25.812217584631142 71.06296934000406 0.0
25.801719424099318 73.0655262984386 0.0
25.791100166595974 75.06829104329425 0.0
25.78035107498589 77.07127044658378 0.0
25.769463422174194 79.07447186852104 0.0
25.7584284947759 81.07790315694639 0.0
25.747237596860675 83.08157264643401 0.0
25.735882053738013 85.08548915706969 0.0
25.724353215745335 87.08966199288906 0.0
25.71264246199767 89.09410093996941 0.0
25.700741204054424 91.09881626417042 0.0
25.68864088945538 93.1038187085227 0.0
28.20913518067708 -2.891534652703151 0.0
28.19615060304399 -0.8961761667238761 0.0
28.18337676589297 1.0994678720879678 0.0
28.17080439557329 3.095387055966598 0.0
28.158424258272202 5.091571439568378 0.0
28.14622715617338 7.088011537165944 0.0
28.134203923447973 9.084698320218708 0.0
28.12234542213232 11.081623215323114 0.0
28.110642537942816 13.078778102537921 0.0
28.09908617607597 15.076155314080427 0.0
28.08766725703823 17.07374763338443 0.0
28.076376712546967 19.071548294507714 0.0
28.065205481540627 21.069550981874887 0.0
28.054144506333 23.067749830338762 0.0
28.04318472894278 25.066139425542183 0.0
28.032317087626982 27.06471480456033 0.0
28.021532513642995 29.063471456802077 0.0
28.010821928261397 31.06240532514549 0.0
28.000176240048734 33.06151280728212 0.0
27.989586342436276 35.06079075728382 0.0
27.97904311158898 37.06023648728657 0.0
27.968537404585447 39.05984776934132 0.0
27.958060057917997 41.05962283738075 0.0
27.94760188631966 43.05956038927588 0.0
27.93715368192301 45.05965958896054 0.0
27.926706213753633 47.05992006859964 0.0
27.916250227559598 49.06034193077684 0.0
27.905776445976546 51.06092575067848 0.0
27.8952755690264 53.06167257824952 0.0
27.884738274946358 55.062583940299135 0.0
27.874155221343287 57.06366184253229 0.0
27.863517046667024 59.06490877148332 0.0
27.852814371995027 61.066327696329715 0.0
27.842037803118526 63.06792207058683 0.0
27.831177932919818 65.06969583359853 0.0
27.8202253440273 67.07165341187334 0.0
27.8091706117337 69.07379972020775 0.0
27.798004307161005 71.07614016258267 0.0
27.786717000652807 73.07868063281371 0.0
27.775299265372684 75.08142751493392 0.0
27.763741681084696 77.08438768329232 0.0
27.752034838088687 79.08756850234768 0.0
27.740169341280662 81.09097782614229 0.0
27.72813581430477 83.09462399743946 0.0
27.715924903760072 85.09851584651076 0.0
27.703527283421685 87.10266268956136 0.0
27.6909336584321 89.10707432678338 0.0
27.6781347694146 91.1117610400312 0.0
27.665121396456804 93.11673359011418 0.0
30.223583618820694 -2.8777181509646734 0.0
30.209692250590308 -0.882328059305129 0.0
30.19602654117161 1.1133462528548517 0.0
30.182576565381726 3.109294397379113 0.0
30.169332441629603 5.105506446612994 0.0
30.156284327596904 7.1019729304578245 0.0
30.1434224157491 9.0986848338556 0.0
30.130736928734574 11.095633594685244 0.0
30.11821811472751 13.092811102063298 0.0
30.105856242765928 15.090209695043379 0.0
30.09364159813335 17.087822161702235 0.0
30.081564477828724 19.085641738598568 0.0
30.069615186165095 21.083662110587554 0.0
30.05778403053482 23.08187741097261 0.0
30.046061317374196 25.080282221973576 0.0
30.034437348357994 27.078871575489657 0.0
30.022902416850027 29.077640954133305 0.0
30.011446804633042 31.076586292508736 0.0
30.000060778937897 33.07570397870766 0.0
29.988734589788688 35.07499085603393 0.0
29.977458467678428 37.07444422485135 0.0
29.96622262158635 39.07406184460191 0.0
29.955017237345903 41.07384193594318 0.0
29.943832476370396 43.073783182977095 0.0
29.93265847474069 45.07388473554756 0.0
29.921485342657963 47.074146211582075 0.0
29.910303164262295 49.07456769945186 0.0
29.899101997816533 51.075149760327065 0.0
29.88787187625307 53.07589343050218 0.0
29.876602808079983 55.07680022366846 0.0
29.86528477864107 57.07787213310967 0.0
29.853907751723334 59.07911163379603 0.0
29.84246167150367 61.080521684354494 0.0
29.830936464824884 63.082105728914506 0.0
29.819322043790102 65.0838676987453 0.0
29.80760830866189 67.08581201373147 0.0
29.79578515105127 69.08794358362852 0.0
29.783842457379198 71.09026780908324 0.0
29.771770112590993 73.09279058239747 0.0
29.759558004101432 75.09551828801392 0.0
29.747196025945303 77.0984578027039 0.0
29.734674083105556 79.10161649543583 0.0
29.721982095987197 81.10500222690689 0.0
29.709110005002096 83.10862334871888 0.0
29.69604777522554 85.11248870218273 0.0
29.682785401081713 87.11660761673632 0.0
29.669312911010827 89.12098990796434 0.0
29.655620372066384 91.12564587520986 0.0
29.641697894386642 93.13058629877128 0.0
32.237930926686 -2.8629711448990416 0.0
32.22313703140913 -0.8675472885866498 0.0
32.20858368295483 1.1281593664867575 0.0
32.194260307302876 3.1241384536584587 0.0
32.180156377948556 5.120380064574475 0.0
32.16626141106156 7.11687474614172 0.0
32.152564960474464 9.113613497926929 0.0
32.13905661256369 11.11058777000167 0.0
32.12572598108308 13.107789461223721 0.0
32.112562702005725 15.105210917946776 0.0
32.09955642842608 17.102844933143793 0.0
32.0866968255699 19.100684745927488 0.0
32.073973565955924 21.09872404144859 0.0
32.06137632474874 23.096956951150545 0.0
32.04889477533837 25.095378053357855 0.0
32.036518585178065 27.09398237417377 0.0
32.02423741190824 29.09276538866139 0.0
32.01204089979051 31.09172302227971 0.0
31.999918676472547 33.09085165254578 0.0
31.987860350100814 35.09014811093207 0.0
31.975855506796126 37.08960968489243 0.0
31.963893708503168 39.089234120062585 0.0
31.95196449122269 41.089019622581716 0.0
31.94005736363343 43.08896486150734 0.0
31.928161806107724 45.0890689712995 0.0
31.916267270123402 47.08933155434843 0.0
31.90436317807261 49.089752683520125 0.0
31.892438923466248 51.090332904695096 0.0
31.88048387153176 53.09107323927544 0.0
31.868487360199747 55.0919751866361 0.0
31.856438701474335 57.0930407264966 0.0
31.84432718317992 59.09427232118709 0.0
31.83214207107621 61.09567291778714 0.0
31.8198726113312 63.09724595013401 0.0
31.807508033341122 65.09899534061849 0.0
31.795037552883276 67.10092550181201 0.0
31.782450375586638 69.10304133786629 0.0
31.769735700702796 71.10534824566926 0.0
31.756882725156743 73.1078521157351 0.0
31.743880647855168 75.11055933280434 0.0
31.73071867422601 77.11347677613247 0.0
31.71738602096051 79.11661181944501 0.0
31.703871920924623 81.11997233053732 0.0
31.6901656282035 83.12356667049914 0.0
31.676256423237753 85.12740369254497 0.0
31.662133618006468 87.1314927404327 0.0
31.64778656120674 89.1358436464556 0.0
31.63320464337476 91.14046672899437 0.0
31.61837730188879 93.14537278962041 0.0
34.25217043410307 -2.84729809495366 0.0
34.236478554083085 -0.8518383195861041 0.0
34.221042075753616 1.143902743954488 0.0
34.205849779285344 3.1399147524125084 0.0
34.19089049646226 5.136187818415349 0.0
34.17615310527024 7.1327125073019175 0.0
34.16162652431689 9.129479834437493 0.0
34.14729970715151 11.126481263011854 0.0
34.1331616365494 13.123708702308093 0.0
34.119201318820615 15.121154506431525 0.0
34.10540777819867 17.118811473480925 0.0
34.091770051360335 19.116672845142986 0.0
34.07827718212277 21.11473230668755 0.0
34.064918216359885 23.11298398733972 0.0
34.05168219717547 25.111422461003258 0.0
34.03855816036601 27.110042747308498 0.0
34.02553513020224 29.1088403129565 0.0
34.012602115554 31.10781107332829 0.0
33.99974810638013 33.106951394329315 0.0
33.98696207060009 35.106258094474704 0.0
33.97423295136283 37.10572844710901 0.0
33.961549664723314 39.10536018280328 0.0
33.94890109773588 41.10515149187558 0.0
33.93627610697034 43.105101027005645 0.0
33.92366351745482 45.105207905919116 0.0
33.91105212204722 47.105471714114294 0.0
33.89843068123549 49.10589250760581 0.0
33.88578792336511 51.10647081565911 0.0
33.873112545290546 53.10720764349126 0.0
33.860393213446585 55.10810447491299 0.0
33.84761856533324 57.109163274887905 0.0
33.834777211407285 59.11038649198249 0.0
33.8218577373719 61.11177706068495 0.0
33.808848706853915 63.11333840358801 0.0
33.79573866445734 65.11507443335535 0.0
33.78251613917977 67.11698955451209 0.0
33.769169648175584 69.11908866500112 0.0
33.75568770084884 71.12137715748752 0.0
33.74205880325539 73.1238609203868 0.0
33.72827146279087 75.12654633859266 0.0
33.714314193138605 77.12944029387957 0.0
33.70017551944738 79.13255016495619 0.0
33.68584398370521 81.1358838271461 0.0
33.67130815027153 83.13944965167278 0.0
33.65655661152461 85.14325650452662 0.0
33.64157799357715 87.14731374489398 0.0
33.62636096200706 89.15163122312929 0.0
33.61089422754525 91.15621927825443 0.0
33.59516655165664 93.16108873497176 0.0
36.2662954863222 -2.8307037451462684 0.0
36.24971044131612 -0.835205901320327 0.0
36.23339561675814 1.1605716318574233 0.0
36.217339150403234 3.156618536564709 0.0
36.20152923589457 5.152924948160987 0.0
36.18595411672872 7.149481451892536 0.0
36.170602080057755 9.146279080126648 0.0
36.155461450401575 11.143309310109181 0.0
36.14052058334027 13.140564062229437 0.0
36.12576785925049 15.138035698778966 0.0
36.11119167714486 17.135717023183382 0.0
36.0967804486693 19.133601279684587 0.0
36.08252259230678 21.131682153448278 0.0
36.068406527831925 23.129953771069367 0.0
36.054420671055524 25.128410701447052 0.0
36.04055342889338 27.127047956999753 0.0
36.02679319478929 29.12586099518928 0.0
36.01312834451785 31.124845720320362 0.0
35.99954723238821 33.1239984855837 0.0
35.986038187866484 35.12331609534582 0.0
35.97258951263132 37.12279580757804 0.0
35.95918947807322 39.122435336465514 0.0
35.945826323246024 41.122232855141306 0.0
35.93248825327569 43.12218699851482 0.0
35.9191634382303 45.12229686616973 0.0
35.9058400124519 47.12256202530263 0.0
35.89250607435004 49.122982513677236 0.0
35.8791496866547 51.12355884256693 0.0
35.86575887712509 53.12429199966074 0.0
35.85232163970929 55.125183451907915 0.0
35.83882593614871 57.12623514827595 0.0
35.82525969801978 59.12744952239647 0.0
35.81161082920429 61.12882949507503 0.0
35.79786720877803 63.130378476660766 0.0
35.784016694306366 65.1321003691952 0.0
35.77004712553322 67.1339995683788 0.0
35.755946328448 69.13608096529651 0.0
35.74170211971311 71.13834994788382 0.0
35.727302311431735 73.1408124021071 0.0
35.71273471623255 75.14347471283227 0.0
35.697987152645304 77.14634376435573 0.0
35.683047450736645 79.14942694057015 0.0
35.66790345797183 81.15273212474007 0.0
35.65254304526341 83.15626769886047 0.0
35.636954113162794 85.16004254257375 0.0
35.621124598145116 87.1640660316207 0.0
35.60504247893223 89.16834803580372 0.0
35.58869578279271 91.17289891644172 0.0
35.57207259175096 93.1777295232996 0.0
38.28029944544089 -2.813193122000885 0.0
38.26282633120242 -0.8176550657649173 0.0
38.245638216943675 1.1781609934442923 0.0
38.228722601797706 3.1742447653584254 0.0
38.21206704523782 5.170586409889632 0.0
38.19565916036292 7.167176533714399 0.0
38.1794866070282 9.164006187432449 0.0
38.16353708490061 11.161066863291898 0.0
38.14779832651321 13.15835049346109 0.0
38.13225809038716 15.155849448830086 0.0
38.11690415428417 17.15355653831767 0.0
38.101724308647135 19.151465008657492 0.0
38.08670635028039 21.149568544634757 0.0
38.071838076316155 23.147861269742847 0.0
38.05710727850759 25.14633774722821 0.0
38.04250173788422 27.14499298149095 0.0
38.02800921980059 29.143822419807208 0.0
38.01361746940317 31.142821954336974 0.0
37.99931420753808 33.141987924383635 0.0
37.98508712711595 35.14131711890526 0.0
37.97092388994857 37.14080677916931 0.0
37.95681212406707 39.14045460158932 0.0
37.94273942152917 41.140258740687365 0.0
37.92869333672017 43.140217812150766 0.0
37.914661385150346 45.14033089595649 0.0
37.900631042748635 47.140597539535314 0.0
37.88658974565175 49.14101776094812 0.0
37.872524890485685 51.14159205204846 0.0
37.85842383513525 53.14232138160528 0.0
37.844273899996516 55.143207198361 0.0
37.83006236970551 57.144251433999685 0.0
37.81577649533532 59.145456505999526 0.0
37.801403497053506 61.146825320345556 0.0
37.78693056722879 63.14836127409741 0.0
37.77234487397658 65.15006825773274 0.0
37.75763356512979 67.15195065730215 0.0
37.742783772619866 69.15401335633764 0.0
37.7277826172511 71.15626173749347 0.0
37.71261721384855 73.1587016838932 0.0
37.697274676755974 75.16133958015426 0.0
37.68174212565857 77.16418231306181 0.0
37.66600669169924 79.16723727186347 0.0
37.65005552385418 81.17051234815459 0.0
37.633875795527906 83.1740159353265 0.0
37.61745471132269 85.17775692754832 0.0
37.60077951393098 87.18174471825438 0.0
37.58383749109402 89.18598919811132 0.0
37.566615982561686 91.19050075244041 0.0
37.549102386982845 93.19529025807263 0.0
40.294175691909935 -2.794771533330593 0.0
40.27581987855875 -0.7991911266614915 0.0
40.25776380222638 1.1966655097855838 0.0
40.239994327655424 3.1927881155122204 0.0
40.22249838455632 5.189166876872941 0.0
40.20526296015148 7.185792423542112 0.0
40.18827509157752 9.182655825605254 0.0
40.17152185823067 11.179748591262305 0.0
40.15499037413435 13.1770626651195 0.0
40.138667780402386 15.174590427048884 0.0
40.122541237864354 17.172324691587377 0.0
40.10659791991383 19.170258707845036 0.0
40.09082500563392 21.168386159890296 0.0
40.07520967324788 23.16670116757748 0.0
40.05973909393776 25.16519828778174 0.0
40.04440042606677 27.163872516005245 0.0
40.02918080983705 29.162719288317636 0.0
40.01406736240852 31.161734483591577 0.0
39.99904717350005 33.16091442599746 0.0
39.984107301489644 35.160255887753934 0.0
39.96923477002711 37.15975609202551 0.0
39.954416565167925 39.1594127160029 0.0
39.93963963303513 41.15922389410915 0.0
39.924890878012434 43.15918822129838 0.0
39.91015716147014 45.15930475642077 0.0
39.89542530102313 47.15957302562386 0.0
39.88068207031831 49.15999302576343 0.0
39.86591419934812 51.1605652277972 0.0
39.85110837528509 53.16129058013505 0.0
39.83625124383124 55.16217051192138 0.0
39.82132941107593 57.1632069362241 0.0
39.806329445853905 59.164402253104335 0.0
39.79123788259526 61.165759352543006 0.0
39.776041224657014 63.16728161721824 0.0
39.76072594812587 65.1689729250552 0.0
39.74527850607935 67.17083765158242 0.0
39.72968533329093 69.17288067203603 0.0
39.71393285136281 71.17510736319025 0.0
39.6980074742675 73.17752360488589 0.0
39.68189561427536 75.1801357812267 0.0
39.66558368824347 77.18295078141338 0.0
39.64905812423461 79.18597600018322 0.0
39.63230536843281 81.18921933782403 0.0
39.61531189231493 83.19268919972903 0.0
39.59806420003255 85.1963944954612 0.0
39.58054883595194 87.20034463729418 0.0
39.56275239229267 89.20454953819966 0.0
39.544661516798136 91.20901960925114 0.0
39.526262920363344 93.21376575641742 0.0
42.307917626121586 -2.7754445668495937 0.0
42.28868475632262 -0.7798196781548832 0.0
42.26976631466936 1.2160795811156762 0.0
42.251148536223816 3.212242982544642 0.0
42.23281772581425 5.208660740885582 0.0
42.214760249772596 7.205323510419559 0.0
42.196962527546724 9.202222381989031 0.0
42.17941102327916 11.199348880692446 0.0
42.16209223743618 13.196694964211872 0.0
42.144992698565126 15.194253021748358 0.0
42.12809895525073 17.192015873532597 0.0
42.1113975683336 19.189976770876207 0.0
42.094875103448324 21.18812939672682 0.0
42.07851812393072 23.186467866688794 0.0
42.06231318413788 25.184986730470172 0.0
42.04624682321818 27.183680973716374 0.0
42.030305559362425 29.182546020190347 0.0
42.01447588456203 31.181577734256336 0.0
41.99874425989474 33.18077242362963 0.0
41.983097111353516 35.18012684238517 0.0
41.967520826231215 37.17963819411568 0.0
41.95200175006822 39.17930413527215 0.0
41.93652618416862 41.17912277862865 0.0
41.92108038368662 43.17909269683789 0.0
41.90565055628331 45.17921292604906 0.0
41.89022286135173 47.179482969559054 0.0
41.87478340980656 49.179902801468934 0.0
41.85931826443374 51.18047287031944 0.0
41.843813440794186 53.18119410267914 0.0
41.82825490867513 55.18206790666092 0.0
41.81262859408184 57.183096175341554 0.0
41.796920381761694 59.184281290058976 0.0
41.78111611825228 61.185626123563225 0.0
41.7652016154438 63.18713404301411 0.0
41.74916265464589 65.18880891274988 0.0
41.73298499114672 67.19065509685697 0.0
41.716654359251244 69.19267746148414 0.0
41.70015647778331 71.19488137687705 0.0
41.68347705603359 73.19727271910423 0.0
41.66660180013226 75.1998578714423 0.0
41.64951641982202 77.2026437253879 0.0
41.63220663560199 79.2056376812615 0.0
41.61465818620891 81.20884764836946 0.0
41.596856836395446 83.21228204468568 0.0
41.57878838496001 85.21594979601903 0.0
41.56043867297471 87.21986033462774 0.0
41.54179359215069 89.22402359724605 0.0
41.522839093271855 91.22845002248796 0.0
41.503561194619245 93.23315054759524 0.0
44.32151867008186 -2.7552180885952926 0.0
44.301414657016586 -0.7595465932409073 0.0
44.28163971373865 1.2363973283640437 0.0
44.26217945086144 3.232603482288014 0.0
44.24301955372633 5.2290621137037645 0.0
44.22414577326268 7.225763903143934 0.0
44.205543916745064 9.222699963490388 0.0
44.18719983854473 11.219861837676323 0.0
44.1690994309654 13.217241497068255 0.0
44.151228615245344 15.214831340498122 0.0
44.13357333280024 17.21262419390784 0.0
44.11611953677357 19.21061331056706 0.0
44.098853183953594 21.208792371822508 0.0
44.08176022710867 23.207155488336166 0.0
44.06482660778503 25.205697201768707 0.0
44.04803824960502 27.204412486864577 0.0
44.03138105209654 29.203296753894882 0.0
44.01484088507897 31.20234585141172 0.0
43.99840358362524 33.20155606927388 0.0
43.98205494361429 35.20092414193309 0.0
43.96578071788492 37.20044725187103 0.0
43.94956661299669 39.20012303321667 0.0
43.9333982866014 41.19994957548542 0.0
43.91726134542515 43.199925427404864 0.0
43.90114134385953 45.20004960079893 0.0
43.88502378315773 47.20032157449997 0.0
43.86889411123109 49.20074129826194 0.0
43.85273772303958 51.20130919664727 0.0
43.836539961569635 53.20202617286241 0.0
43.82028611939216 55.202893612517514 0.0
43.8039614407931 57.20391338728575 0.0
43.78755112446839 59.20508785843733 0.0
43.77104032677514 61.206419880224395 0.0
43.75441416553026 63.20791280310992 0.0
43.737657724346995 65.20957047676596 0.0
43.720756057498946 67.21139725286986 0.0
43.703694195299136 69.21339798764187 0.0
43.68645714998094 71.21557804409908 0.0
43.66902992206402 73.2179432939954 0.0
43.65139750718624 75.22050011941371 0.0
43.63354490337819 77.22325541397518 0.0
43.6154571187528 79.22621658362861 0.0
43.59711917957743 81.22939154698149 0.0
43.57851613868903 83.23278873513236 0.0
43.55963308420716 85.23641709096366 0.0
43.54045514849139 87.24028606785343 0.0
43.520967517281015 89.24440562776431 0.0
43.50115543894691 91.24878623866888 0.0
43.48100423377408 93.25343887127262 0.0
46.334972269168425 -2.7340982411395407 0.0
46.31400329427908 -0.7383780220035856 0.0
46.29337797760845 1.2576125948970978 0.0
46.27308131112231 3.253863452612749 0.0
46.25309836662834 5.250364828814217 0.0
46.23341428568334 7.24710743195997 0.0
46.21401426942554 9.24408239825711 0.0
46.19488356843497 11.241281289390255 0.0
46.1760074727179 13.238696090980007 0.0
46.15737130190164 15.236319211735648 0.0
46.138960395718094 17.234143483259256 0.0
46.120760104845886 19.232162160456568 0.0
46.10275578217205 21.23036892250756 0.0
46.084932774526486 23.228757874349245 0.0
46.06727641493393 25.227323548622348 0.0
46.04977201542167 27.226060908033894 0.0
46.0324048604129 29.22496534808785 0.0
46.01516020073007 31.22403270013357 0.0
45.99802324822664 33.22325923468978 0.0
45.98097917105931 35.2226416650291 0.0
45.96401308961006 37.222177150912515 0.0
45.94711007306136 39.22186330250094 0.0
45.930255136625505 41.22169818438361 0.0
45.9134332394266 43.221680319688296 0.0
45.89662928303074 45.22180869424332 0.0
45.87982811061877 47.222082760762 0.0
45.86301450679502 49.222502443021675 0.0
45.846173198024445 51.22306814001129 0.0
45.829288853689896 53.22378073002232 0.0
45.81234608776199 55.224641574659636 0.0
45.79532946107308 57.22565252274869 0.0
45.77822348418778 59.22681591411423 0.0
45.76101262086166 61.228134583208416 0.0
45.74368129208033 63.22961186258016 0.0
45.726213880670535 65.23125158611418 0.0
45.70859473647426 67.23305809206592 0.0
45.69080818207512 69.2350362258361 0.0
45.67283851906596 71.23719134245975 0.0
45.65467003484275 73.23952930877778 0.0
45.636287009908074 75.24205650525488 0.0
45.617673725663046 77.24477982740748 0.0
45.59881447266229 79.24770668680121 0.0
45.57969355930074 81.25084501157565 0.0
45.56029532089525 83.25420324645236 0.0
45.54060412911579 85.25779035218041 0.0
45.520604401713825 87.26161580437211 0.0
45.500280612485454 89.26568959168097 0.0
45.47961730139726 91.27002221327578 0.0
45.458599084792105 93.27462467556275 0.0
48.34827189397553 -2.7120914415664092 0.0
48.32644440446127 -0.7163203896189234 0.0
48.304975104513574 1.2797189484935405 0.0
48.28384837387087 3.2760164553856175 0.0
48.263048677364615 5.272562443357286 0.0
48.242560553793524 7.26934765048819 0.0
48.22236860475615 9.266363237590076 0.0
48.20245748355281 11.263600785985437 0.0
48.18281188425731 13.261052296068025 0.0
48.16341653105012 15.258710186603949 0.0
48.14425616789491 17.25656729472438 0.0
48.12531554863139 19.25461687655937 0.0
48.106579427546514 21.25285260846 0.0
48.08803255047936 23.251268588755956 0.0
48.06965964650437 25.249859339994767 0.0
48.051445420230394 27.2486198116103 0.0
48.033374544744866 29.247545382968113 0.0
48.0154316552262 31.24663186673356 0.0
47.99760134323977 33.24587551251726 0.0
47.97986815172856 35.2452730107795 0.0
47.962216570704065 37.2448214968816 0.0
47.94463103363898 39.24451855530869 0.0
47.92709591455924 41.24436222400296 0.0
47.909595525831584 43.24435099877119 0.0
47.89211411663936 45.24448383773634 0.0
47.87463587213887 47.244760165804195 0.0
47.857144913287016 49.24517987911693 0.0
47.839625297331516 51.24574334946884 0.0
47.82206101895379 53.24645142865964 0.0
47.804436012055845 55.2473054527633 0.0
47.78673415218262 57.24830724628923 0.0
47.768939259571894 59.24945912621316 0.0
47.75103510282413 61.25076390585559 0.0
47.733005403185295 63.252224898600915 0.0
47.71483383943582 65.25384592138687 0.0
47.696504053378334 67.25563129799016 0.0
47.67799965591613 69.25758586205171 0.0
47.65930423371287 71.25971495981656 0.0
47.64040135642259 73.26202445255456 0.0
47.62127458447501 75.26452071862488 0.0
47.60190747739855 77.2672106551452 0.0
47.5822836026581 79.27010167922163 0.0
47.56238654497955 81.2732017286944 0.0
47.54219991612516 83.27651926235026 0.0
47.52170736507791 85.28006325955069 0.0
47.500892588582005 87.2838432192222 0.0
47.47973934197849 89.28786915815598 0.0
47.4582314502631 91.29215160856042 0.0
47.43635281928175 93.29670161481371 0.0
50.36141104224538 -2.6892043791918474 0.0
50.33873174828865 -0.6933803941004264 0.0
50.31642511414677 1.302709683578561 0.0
50.294474914424214 3.299055778687264 0.0
50.27286501418788 5.295648240329625 0.0
50.25157935672184 7.2924778379126725 0.0
50.23060195128176 9.28953575811413 0.0
50.209916860966445 11.286813602737926 0.0
50.18950819081266 13.284303387406407 0.0
50.169360076210076 15.281997541041502 0.0
50.1494566717214 17.27988890607911 0.0
50.12978214038327 19.27797073935952 0.0
50.11032064355252 21.276236713634912 0.0
50.09105633135261 23.274680919634875 0.0
50.07197333376567 25.27329786863065 0.0
50.05305575240646 27.27208249544046 0.0
50.034287653006174 29.27103016181863 0.0
50.015653058626576 31.27013666017053 0.0
49.99713594361799 33.26939821754425 0.0
49.97872022832869 35.26881149987733 0.0
49.96038977456829 37.26837361638475 0.0
49.9421283818232 39.268082124110364 0.0
49.923919784218725 41.26793503257994 0.0
49.90574764822012 43.26793080851845 0.0
49.88759557106264 45.26806838060224 0.0
49.869447079899984 47.268347144216 0.0
49.85128563165935 49.26876696618852 0.0
49.833094613592046 51.26932818948255 0.0
49.81485734450869 53.27003163781569 0.0
49.7965570766889 55.27087862019196 0.0
49.778176998456345 57.27187093532211 0.0
49.75970023741173 59.27301087591184 0.0
49.74110986431617 61.27430123279699 0.0
49.72238889761983 63.27574529891963 0.0
49.70352030863018 65.27734687307755 0.0
49.68448702731504 67.279110263471 0.0
49.665271948735096 69.28104029099268 0.0
49.64585794009947 71.2831422922337 0.0
49.626227848436514 73.28542212217272 0.0
49.60636450886888 75.287886156508 0.0
49.58625075347852 77.29054129359182 0.0
49.56586942074276 79.29339495592023 0.0
49.54520336551622 81.29645509112932 0.0
49.524235469526765 83.2997301724435 0.0
49.50294865234527 85.30322919852043 0.0
49.48132588277921 87.30696169263214 0.0
49.45935019063013 89.3109377011213 0.0
49.43700467874162 91.31516779107025 0.0
49.414272535253296 93.31966304711882 0.0
52.374383240886004 -2.6654440129988424 0.0
52.35085911258509 -0.6695650037594696 0.0
52.32772204909716 1.3265778237439072 0.0
52.30495522771736 3.3229744393165 0.0
52.282541921666095 5.319615231074299 0.0
52.26046548663326 7.316491001456462 0.0
52.23870934737062 9.313592964236165 0.0
52.21725698445731 11.310912742484646 0.0
52.19609192135061 13.308442367429391 0.0
52.1751977118235 15.306174278151508 0.0
52.15455792787743 17.30410132205911 0.0
52.134156148208746 19.30221675607218 0.0
52.11397594729443 21.300514248453005 0.0
52.09400088515231 23.29898788121646 0.0
52.074214497820925 25.297632153054824 0.0
52.05460028859345 27.296441982713397 0.0
52.035141720031795 29.295412712755162 0.0
52.01582220677842 31.294540113651074 0.0
51.996625109176314 33.29382038814457 0.0
51.977533727700404 35.293250175863434 0.0
51.95853129820004 37.29282655806501 0.0
51.93960098794566 39.29254706253348 0.0
51.92072589247069 41.29240966856709 0.0
51.90188903319694 43.29241281201729 0.0
51.88307335582996 45.29255539035045 0.0
51.86426172950998 47.29283676770291 0.0
51.84543694670434 49.29325677990403 0.0
51.82658172382743 51.29381573944448 0.0
51.807678702575636 53.294514440368225 0.0
51.78871045196549 55.29535416306924 0.0
51.76965947106626 57.296336678974306 0.0
51.75050819241829 59.29746425509157 0.0
51.731238986131785 61.298739658407214 0.0
51.71183416466112 63.30016616012432 0.0
51.692275988252064 65.30174753968012 0.0
51.67254667105929 67.30348808856463 0.0
51.652628387932346 69.30539261388715 0.0
51.63250328186724 71.30746644166544 0.0
51.612153472120085 73.30971541980111 0.0
51.591561062976226 75.31214592070245 0.0
51.57070815316507 77.3147648435095 0.0
51.54957684590625 79.31757961587307 0.0
51.528149259566355 81.32059819523374 0.0
51.50640753889891 83.32382906954182 0.0
51.48433386683046 85.32728125735703 0.0
51.46191047674662 87.3309643072603 0.0
51.43911966521935 89.33488829650929 0.0
51.41594380510451 91.33906382886535 0.0
51.392365358923655 93.34350203152013 0.0
54.38718204807332 -2.6408175687592332 0.0
54.36282031205535 -0.6448814543515198 0.0
54.33885997632514 1.3513161245832794 0.0
54.31528362948517 3.3477651856109976 0.0
54.2920739615904 5.344456158088253 0.0
54.26921374938401 7.3413798791747364 0.0
54.24668584163951 9.338527590920535 0.0
54.22447314474029 11.335890938375304 0.0
54.20255860861629 13.333461968651848 0.0
54.18092521314247 15.331233130880786 0.0
54.159555955092536 17.329197276985 0.0
54.13843383572732 19.327347663201387 0.0
54.11754184908512 21.325677952276024 0.0
54.09686297102906 23.32418221626002 0.0
54.076380149095115 25.322854939833633 0.0
54.0560762931736 27.32169102408907 0.0
54.03593426704682 29.320685790704303 0.0
54.01593688079773 31.31983498644002 0.0
53.99606688409472 33.31913478790398 0.0
53.97630696035246 35.31858180655259 0.0
53.95663972176311 37.31817309381366 0.0
53.93704770518621 39.31790614634691 0.0
53.91751336888369 41.31777891137901 0.0
53.898019090083324 43.31778979207545 0.0
53.87854716335299 45.31793765291972 0.0
53.859079799767336 47.318221825071696 0.0
53.83959912684935 49.3186421116819 0.0
53.8200871892698 51.31919879313979 0.0
53.80052595029022 53.31989263223761 0.0
53.78089729393615 55.32072487923324 0.0
53.761183027890795 57.32169727679524 0.0
53.74136488710124 59.32281206481349 0.0
53.72142453809216 61.3240719850591 0.0
53.70134358398452 63.32548028569056 0.0
53.681103570218475 65.32704072554472 0.0
53.66068599098194 67.32875757823598 0.0
53.64007229634561 69.33063563601257 0.0
53.61924390010762 71.33268021334294 0.0
53.598182188347955 73.33489715019827 0.0
53.57686852869205 75.33729281498827 0.0
53.555284280278876 77.33987410710512 0.0
53.5334108044255 79.34264845902297 0.0
53.511229475972115 81.34562383789489 0.0
53.48872169528591 83.34880874658428 0.0
53.465868900891856 85.35221222406153 0.0
53.44265258268772 87.35584384509217 0.0
53.419054295688746 89.35971371913911 0.0
53.395055674232566 91.36383248839712 0.0
53.37063844655995 93.36821132487722 0.0
56.399801055434715 -2.615332535811432 0.0
56.37460919112235 -0.6193372458769311 0.0
56.34983298866731 1.3769170768747188 0.0
56.32545445745427 3.373420500616625 0.0
56.301455713875754 5.370163498179567 0.0
56.2778189651561 7.3671369430984015 0.0
56.2545264933491 9.364332106814661 0.0
56.23156063964844 11.361740656973165 0.0
56.20890378913638 13.359354656735848 0.0
56.18653835608018 15.35716656504036 0.0
56.164446769873344 17.355169237723175 0.0
56.142611461702614 19.353355929425405 0.0
56.1210148520088 21.35172029619945 0.0
56.099639338795946 23.350256398735137 0.0
56.07846728683038 25.348958706126066 0.0
56.05748101775984 27.34782210009923 0.0
56.036662801171985 29.346841879634777 0.0
56.015994846601586 31.34601376590222 0.0
55.99545929648813 33.34533390745401 0.0
55.97503822007694 35.344798885641566 0.0
55.954713608253066 37.34440572013641 0.0
55.934467369290665 39.34415187457073 0.0
55.91428132549783 41.34403526223331 0.0
55.89413721073596 43.34405425178339 0.0
55.87401666878953 45.344207672953374 0.0
55.85390125256443 47.34449482221429 0.0
55.833772424092494 49.34491546838166 0.0
55.81361155532273 51.34546985814351 0.0
55.793399929681364 53.34615872149407 0.0
55.773118744387006 55.346983277060104 0.0
55.75274911350902 57.34794523730597 0.0
55.73227207176269 59.34904681360454 0.0
55.711668579036356 61.350290721160555 0.0
55.690919525650216 63.351680183785035 0.0
55.67000573834952 65.3532189384649 0.0
55.64890798703631 67.35491123975021 0.0
55.62760699224653 69.35676186391045 0.0
55.606083433379524 71.35877611283469 0.0
55.584317957686906 73.36095981763945 0.0
55.562291190026016 75.36331934194243 0.0
55.53998374338036 77.36586158475413 0.0
55.51737623014541 79.36859398293143 0.0
55.49444927417079 81.37152451313196 0.0
55.47118352354432 83.37466169319916 0.0
55.44755966409102 85.37801458290419 0.0
55.423558433551406 87.3815927839611 0.0
55.39916063638807 89.38540643923025 0.0
55.374347159155384 91.38946623101667 0.0
55.349098986349674 93.39378337836932 0.0
58.41223389030974 -2.588996663460593 0.0
58.38621962581235 -0.5929401390024305 0.0
58.36063520636457 1.4033729101442916 0.0
58.33546207253618 3.3999326056399157 0.0
58.31068177744564 5.396729466009443 0.0
58.286275969062274 7.393754402763367 0.0
58.26222637276057 9.39099871776041 0.0
58.23851477427357 11.388454101740228 0.0
58.21512300317702 13.386112633938579 0.0
58.192032917018935 15.383966782702746 0.0
58.16922638619398 17.38200940701648 0.0
58.14668527964608 19.380233758842976 0.0
58.124391451466856 21.378633486194595 0.0
58.10232672844322 23.37720263683896 0.0
58.080472898593214 25.375935662554227 0.0
58.05881170071665 27.374827423849023 0.0
58.03732481497491 29.37387319506738 0.0
58.01599385450428 31.373068669799444 0.0
57.99480035805778 33.37240996653462 0.0
57.973725783662886 35.37189363451773 0.0
57.95275150327706 37.37151665968963 0.0
57.93185879841687 39.37127647072401 0.0
57.911028856735214 41.371170945096104 0.0
57.89024276951712 43.37119841514607 0.0
57.86948153006654 45.37135767410946 0.0
57.8487260329547 47.371647982090174 0.0
57.82795707410476 49.37206907195641 0.0
57.807155351688095 51.37262115514422 0.0
57.78630146781246 53.37330492735599 0.0
57.765375930985556 55.37412157414416 0.0
57.744359159342196 57.37507277637099 0.0
57.72323148462771 59.37616071553443 0.0
57.701973156935274 61.37738807895159 0.0
57.68056435019816 63.37875806480089 0.0
57.65898516844394 65.38027438697185 0.0
57.637215652818526 67.38194127974593 0.0
57.61523578939277 69.38376350226318 0.0
57.5930255177642 71.3857463427495 0.0
57.57056474046843 73.38789562247044 0.0
57.5478333332123 75.39021769936731 0.0
57.52481115593984 77.39271947132694 0.0
57.501478064736176 79.3954083790261 0.0
57.47781392457082 81.39829240828446 0.0
57.453798622871474 83.40138009185188 0.0
57.42941208391132 85.40468051054715 0.0
57.404634283979775 87.40820329365829 0.0
57.379445267292695 89.41195861850773 0.0
57.35382516258174 91.41595720907908 0.0
57.32775420028391 93.42021033359802 0.0
60.42447421808242 -2.561817956965499 0.0
60.39764552568047 -0.5656981510670498 0.0
60.37126077860342 1.4306755966478555 0.0
60.345300860011555 3.4272934642211457 0.0
60.319746771089626 5.424146018056925 0.0
60.29457961171084 7.421224209163732 0.0
60.269780561443014 9.41851937072935 0.0
60.24533086105322 11.416023216944957 0.0
60.221211794647814 13.413727842979977 0.0
60.197404672568204 15.411625726013737 0.0
60.1738908151442 17.409709727222122 0.0
60.150651537389535 19.40797309461685 0.0
60.12766813470667 21.40640946663558 0.0
60.104921869652344 23.40501287638279 0.0
60.082393959799646 25.403777756425086 0.0
60.06006556671785 27.40269894404863 0.0
60.03791778607951 29.401771686891774 0.0
60.015931638892 31.40099164886737 0.0
59.99408806384136 33.40035491630777 0.0
59.972367910728224 35.39985800428721 0.0
59.9507519349693 37.39949786300297 0.0
59.929220793133375 39.39927188422384 0.0
59.90775503947664 41.399177907741915 0.0
59.88633512344251 43.399214227791376 0.0
59.864941388089306 45.39937959940786 0.0
59.843554069412185 47.3996732447067 0.0
59.82215329652678 49.4000948590636 0.0
59.80071909268696 51.40064461718621 0.0
59.77923137711272 53.40132317906812 0.0
59.75766996760989 55.40213169582044 0.0
59.736014583968846 57.40307181537616 0.0
59.71424485213503 59.404145688062854 0.0
59.692340309150374 61.405355972039004 0.0
59.67028040886977 63.406705838599585 0.0
59.648044528462925 65.40819897730549 0.0
59.62561197571528 67.40983960096098 0.0
59.60296199714616 69.41163245039868 0.0
59.58007378696467 71.41358279904787 0.0
59.55692649688505 73.41569645725262 0.0
59.533499246823126 75.41797977629646 0.0
59.50977113649321 77.42043965208225 0.0
59.48572125792153 79.42308352840581 0.0
59.46132870888616 81.42591939975352 0.0
59.436572607284944 83.42895581354297 0.0
59.41143210642427 85.43220187171735 0.0
59.38588641120635 87.43566723159434 0.0
59.359914795180565 89.43936210586229 0.0
59.33349661840382 91.4432972616082 0.0
59.30661134603737 93.44748401825626 0.0
62.43651574457773 -2.533804673073561 0.0
62.408880835767604 -0.5376195516333029 0.0
62.38170388506021 1.4588168558106922 0.0
62.354965230693416 3.455494786568199 0.0
62.328645334281596 5.452404857046755 0.0
62.302724759717236 7.449538059169864 0.0
62.277184152519474 9.446885758223265 0.0
62.25200421979308 11.444439692034098 0.0
62.22716571094245 13.442191971371042 0.0
62.20264939926526 15.440135081459406 0.0
62.17843606453019 17.438261884496598 0.0
62.15450647662379 19.436565623053536 0.0
62.130841380333145 21.435039924248777 0.0
62.10742148131228 23.433678804584478 0.0
62.08422743326369 25.432476675337924 0.0
62.06123982635115 27.43142834840764 0.0
62.038439176845124 29.430529042519357 0.0
62.015805917991216 31.429774389699798 0.0
61.99332039208031 33.42916044194652 0.0
61.97096284369067 35.42868367804403 0.0
61.948713414067235 37.428341010405795 0.0
61.92655213659651 39.42812979194895 0.0
61.90445893333355 41.42804782293776 0.0
61.88241361253717 43.42809335776075 0.0
61.860395867169075 45.4282651116175 0.0
61.8383852743154 47.42856226709607 0.0
61.81636129549296 49.42898448062929 0.0
61.79430327780656 51.42953188882211 0.0
61.77219045593009 53.43020511464796 0.0
61.75000195489061 55.43100527351334 0.0
61.72771679364079 57.43193397919302 0.0
61.70531388941385 59.432993349635964 0.0
61.682772062860835 61.43418601264389 0.0
61.66007004397807 63.43551511143222 0.0
61.637186478839475 65.43698431003455 0.0
61.61409993715314 67.43859779857785 0.0
61.590788920667755 69.440360298391 0.0
61.56723187245704 71.44227706692654 0.0
61.543407187114035 73.44435390246218 0.0
61.51929322188583 75.44659714853934 0.0
61.49486830878014 77.44901369808672 0.0
61.47011076767003 79.45161099716468 0.0
61.44499892041887 81.45439704825588 0.0
61.419511106038954 83.45738041301625 0.0
61.393625696886865 85.46057021438911 0.0
61.3673211158856 87.46397613797345 0.0
61.34057585474772 89.46760843252825 0.0
61.3133684931543 91.47147790948425 0.0
61.285677718823685 93.47559594132674 0.0
64.44835221851565 -2.504965315062372 0.0
64.41991953857942 -0.5087128575415019 0.0
64.39195873743729 1.4877881591677404 0.0
64.36444962205792 3.4845280344946676 0.0
64.33737212794591 5.481497436884585 0.0
64.31070629615054 7.4786874004555735 0.0
64.28443225083981 9.47608932318451 0.0
64.2585301776137 11.473694966512967 0.0
64.23298030270705 13.471496456247273 0.0
64.20776287321146 15.469486284632346 0.0
64.1828581384232 17.467657313471157 0.0
64.15824633240186 19.466002778161645 0.0
64.13390765780521 21.46451629252543 0.0
64.10982227104333 23.463191854305236 0.0
64.08597026877895 25.46202385121422 0.0
64.06233167578205 27.461007067426262 0.0
64.03888643413256 29.460136690404468 0.0
64.01561439375122 31.459408317968528 0.0
63.99249530422768 33.458817965524396 0.0
63.969508807905314 35.45836207340143 0.0
63.94663443417685 37.45803751417557 0.0
63.92385159493845 39.457841599983105 0.0
63.9011395811481 41.45777208976235 0.0
63.878477560434824 43.45782719638923 0.0
63.85584457570427 45.458005593685904 0.0
63.8332195446921 47.45830642328758 0.0
63.81058126041907 49.45872930136009 0.0
63.78790839250958 51.45927432516661 0.0
63.765179489340944 53.459942079486915 0.0
63.74237298100024 55.460733642895974 0.0
63.71946718303299 57.46165059391001 0.0
63.696440300977436 59.46269501700781 0.0
63.673270435686696 61.463869508535566 0.0
63.64993558945036 63.465177182510615 0.0
63.626413672934575 65.46662167629302 0.0
63.60268251296757 67.46820715615544 0.0
63.578719861203574 69.46993832271912 0.0
63.55450340370342 71.47182041623869 0.0
63.53001077147338 73.4738592217053 0.0
63.50521955200526 75.47606107372515 0.0
63.48010730186111 77.47843286112138 0.0
63.45465156034235 79.48098203119245 0.0
63.42882986427849 81.48371659354875 0.0
63.40261976396306 83.4866451234354 0.0
63.37599884025275 85.48977676443609 0.0
63.34894472283361 87.49312123043953 0.0
63.32143510964016 89.49668880673795 0.0
63.29344778739368 91.50049035011534 0.0
63.26496065320333 93.50453728777252 0.0
66.45997743400281 -2.475308627243612 0.0
66.43075565606573 -0.4789868274221112 0.0
66.40201958096792 1.5175807358502116 0.0
66.3737484993177 3.514384426908598 0.0
66.3459218351475 5.511414968146332 0.0
66.31851912089022 7.5086634369822685 0.0
66.29151997305719 9.506121264464024 0.0
66.26490406880033 11.503780235382349 0.0
66.23865112351646 13.501632489755037 0.0
66.2127408696271 15.49967052554422 0.0
66.18715303664285 17.49788720246381 0.0
66.16186733259715 19.49627574673372 0.0
66.13686342691088 21.494829756641188 0.0
66.11212093472703 23.493543208772927 0.0
66.08761940273494 25.492410464789486 0.0
66.06333829648364 27.491426278620196 0.0
66.03925698916768 29.490585803966873 0.0
66.01535475185557 31.489884602009575 0.0
65.99161074511593 33.489318649232274 0.0
65.96800401199054 35.488884345308975 0.0
65.94451347225372 37.48857852092718 0.0
65.92111791789429 39.48839844555227 0.0
65.89779600975352 41.48834183507071 0.0
65.87452627525336 43.48840685928068 0.0
65.8512871071511 45.48859214921311 0.0
65.82805676326109 47.488896804272535 0.0
65.8048133670904 49.489320399196856 0.0
65.78153490934247 51.48986299084046 0.0
65.75819925025198 53.490525124791944 0.0
65.73478412272387 55.491307841840715 0.0
65.71126713625925 57.492212684308534 0.0
65.68762578166267 59.49324170226225 0.0
65.663837436535 61.494397459623364 0.0
65.63987937156715 63.49568304019712 0.0
65.6157287576604 65.49710205359865 0.0
65.59136267390689 67.49865864111065 0.0
65.56675811647285 69.50035748144703 0.0
65.54189200843366 71.50220379640912 0.0
65.51674121061383 73.50420335640679 0.0
65.49128253348917 75.50636248580318 0.0
65.46549275020767 77.50868806803047 0.0
65.43934861078482 79.51118755040811 0.0
65.41282685752408 81.51386894858197 0.0
65.38590424170545 83.51674085048504 0.0
65.35855754157544 85.51981241970829 0.0
65.33076358165623 87.52309339815149 0.0
65.30249925337581 89.5265941078118 0.0
65.2737415369992 91.53032545155224 0.0
65.24446752481532 93.53429891267989 0.0
68.4713852330531 -2.4448435888812687 0.0
68.44138325158845 -0.4484504556174631 0.0
68.41188069587592 1.548185578668174 0.0
68.38285635642373 3.5450549459021756 0.0
68.35428916168952 5.542148424172901 0.0
68.32615815087804 7.539457135091121 0.0
68.29844244759376 9.536972542898688 0.0
68.2711212345428 11.534686455183621 0.0
68.24417372944836 13.532591025042333 0.0
68.21757916231765 15.530678754535716 0.0
68.19131675417088 17.52894249927821 0.0
68.16536569731565 19.527375474000415 0.0
68.13970513722461 21.52597125892936 0.0
68.11431415604937 23.52472380683624 0.0
68.08917175778141 25.523627450609172 0.0
68.06425685504927 27.522676911218454 0.0
68.03954825752395 29.521867305952213 0.0
68.01502466188855 31.521194156807745 0.0
67.99066464331433 33.520653398950984 0.0
67.96644664837673 35.52024138917919 0.0
67.9423489893368 37.519954914263295 0.0
67.91834983970921 39.51979119917162 0.0
67.89442723103674 41.5197479151149 0.0
67.8705590507917 43.51982318738463 0.0
67.84672304132846 45.52001560297134 0.0
67.8228967998172 47.52032421795913 0.0
67.79905777909579 49.520748564701705 0.0
67.77518328938713 51.521288658792955 0.0
67.75125050083864 53.521945005851315 0.0
67.72723644685327 55.52271860814166 0.0
67.70311802819361 57.52361097106022 0.0
67.67887201785325 59.52462410950771 0.0
67.65447506670236 61.52576055417629 0.0
67.62990370992723 63.52702335778034 0.0
67.60513437429613 65.52841610121929 0.0
67.58014338629354 67.529942899712 0.0
67.55490698117548 69.53160840888462 0.0
67.5294013130077 71.53341783080366 0.0
67.50360246575259 73.53537691992997 0.0
67.47748646547828 75.53749198895527 0.0
67.45102929376162 77.53976991446832 0.0
67.42420690235926 79.54221814238153 0.0
67.39699522921426 81.54484469303164 0.0
67.36937021586125 83.54765816585125 0.0
67.34130782628014 85.5506677434895 0.0
67.31278406723649 87.55388319524296 0.0
67.28377501012645 89.55731487963985 0.0
67.25425681432392 91.56097374600458 0.0
67.22420575200007 93.56487133481356 0.0
70.48256950813699 -2.4135794074726875 0.0
70.45179643187574 -0.4171129654604133 0.0
70.42153639878627 1.579593450842303 0.0
70.3917677169889 3.5765303434964864 0.0
70.362468836613 5.573688547824804 0.0
70.33361832025881 7.571059230258985 0.0
70.30519481449005 9.568633888053988 0.0
70.27717702256155 11.566404350708016 0.0
70.24954367855297 13.56436278290957 0.0
70.22227352305241 15.562501688838802 0.0
70.19534528049964 17.56081391764312 0.0
70.16873763827127 19.559292669909283 0.0
70.14242922756048 21.557931504958418 0.0
70.1163986060763 23.55672434879803 0.0
70.09062424256301 25.555665502573767 0.0
70.06508450311664 27.554749651375992 0.0
70.03975763925698 29.55397187326821 0.0
70.01462177769424 31.553327648414076 0.0
69.98965491171799 33.55281286820936 0.0
69.96483489412338 35.55242384434919 0.0
69.94013943158433 37.552157317705635 0.0
69.9155460803771 39.55201046701707 0.0
69.8910322433585 41.551980917331605 0.0
69.86657516810382 43.552066748180046 0.0
69.84215194611508 45.552266501471195 0.0
69.81773951301668 47.55257918911264 0.0
69.79331464966549 49.55300430037035 0.0
69.76885398411376 51.553541808989685 0.0
69.7443339943748 53.554192180107194 0.0
69.71973101195736 55.55495637698718 0.0
69.69502122614739 57.555835867619734 0.0
69.6701806890322 59.55683263121618 0.0
69.64518532127674 61.557949164638316 0.0
69.62001091867695 63.559188488801034 0.0
69.59463315952937 65.56055415504775 0.0
69.56902761286896 67.56205025154512 0.0
69.54316974764008 69.56368140968743 0.0
69.51703494287442 71.56545281050865 0.0
69.49059849895916 73.56737019108232 0.0
69.46383565008442 75.5694398508745 0.0
69.43672157796078 77.5716686579975 0.0
69.40923142690069 79.57406405529491 0.0
69.38134032035185 81.5766340661678 0.0
69.35302337896685 83.57938730003377 0.0
69.32425574028045 85.58233295728886 0.0
69.29501258005412 87.58548083362182 0.0
69.2652691353271 89.58884132351142 0.0
69.23500072919087 91.59242542271525 0.0
69.20418279727627 93.59624472954273 0.0
72.49352420471243 -2.381525511337744 0.0
72.46198934891252 -0.38498380185420444 0.0
72.43098104403364 1.6117948934415818 0.0
72.40047713508137 3.6088011490990564 0.0
72.37045561254504 5.606025858955531 0.0
72.34089458035814 7.603460234577062 0.0
72.31177222508873 9.60109580569124 0.0
72.28306678657356 11.598924422429706 0.0
72.25475653017654 13.596938259179662 0.0
72.22681972081746 15.595129819849856 0.0
72.19923459888294 17.59349194434988 0.0
72.17197935809709 19.592017816083988 0.0
72.1450321253997 21.59070097026704 0.0
72.11837094284577 23.58953530287837 0.0
72.09197375151604 25.58851508008064 0.0
72.0658183774004 27.58763494794472 0.0
72.03988251919543 29.586889942336224 0.0
72.01414373793824 31.586275498830716 0.0
71.98857944838441 33.58578746255835 0.0
71.96316691202576 35.58542209790257 0.0
71.93788323163781 37.58517609792777 0.0
71.91270534724134 39.585046593537164 0.0
71.88761003336349 41.585031162305846 0.0
71.8625738974861 43.5851278369703 0.0
71.83757337957651 45.585335113573166 0.0
71.81258475260334 47.58565195927534 0.0
71.78758412395278 49.586077819858176 0.0
71.76254743767326 51.586612626949616 0.0
71.73745047749242 53.58725680501484 0.0
71.71226887056604 55.588011278158284 0.0
71.68697809193661 57.58887747678561 0.0
71.66155346969607 59.58985734417489 0.0
71.63597019086639 61.590953343004784 0.0
71.6102033080279 63.59216846189153 0.0
71.5842277467431 65.59350622194637 0.0
71.55801831383869 67.59497068340805 0.0
71.5315497066235 69.59656645235098 0.0
71.50479652313177 71.59829868747482 0.0
71.47773327349228 73.60017310696041 0.0
71.45033439253088 75.60219599536268 0.0
71.42257425371945 77.60437421048951 0.0
71.39442718458606 79.60671519019684 0.0
71.3658674836989 81.60922695900805 0.0
71.33686943933128 83.611918134443 0.0
71.30740734990536 85.61479793291885 0.0
71.27745554629794 87.61787617506226 0.0
71.24698841607243 89.62116329024691 0.0
71.21598042967804 91.62467032014997 0.0
71.1844061686268 93.62840892109611 0.0
74.50424332373285 -2.3486915414566427 0.0
74.47195620175873 -0.352072623093 0.0
74.44020902485998 1.6447802335886026 0.0
74.40897919587572 3.6418576777367972 0.0
74.37824426588422 5.639150662667015 0.0
74.34798189948593 7.636650445016679 0.0
74.31816984154153 9.634348586024364 0.0
74.28878588558942 11.632236954727317 0.0
74.25980784413223 13.630307732851726 0.0
74.2312135209414 15.628553421177122 0.0
74.20298068549192 17.62696684714989 0.0
74.17508704960063 19.625541173523875 0.0
74.14751024630624 21.624269907814462 0.0
74.12022781099638 23.62314691236189 0.0
74.09321716475337 25.62216641481342 0.0
74.06645559986566 27.62132301885002 0.0
74.03992026742561 29.620611715000635 0.0
74.0135881669154 31.620027891401282 0.0
73.98743613766626 33.61956734439294 0.0
73.96144085206441 35.61922628887803 0.0
73.93557881037103 37.61900136831028 0.0
73.90982633701803 39.61888966431944 0.0
73.88415957824488 41.61888870592025 0.0
73.85855450094344 43.618996478292985 0.0
73.8329868925885 45.61921143114256 0.0
73.80743236214084 47.61953248665814 0.0
73.78186634182431 49.619959047107734 0.0
73.75626408969426 51.620491002114115 0.0
73.73060069293291 53.621128735666176 0.0
73.70485107182576 55.621873132926424 0.0
73.67898998439445 57.62272558689841 0.0
73.65299203168122 59.62368800501678 0.0
73.62683166370182 61.62476281572259 0.0
73.60048318610306 63.625952975088346 0.0
73.57392076758235 65.62726197351884 0.0
73.54711844814364 67.62869384259233 0.0
73.52005014828165 69.63025316205453 0.0
73.49268967920173 71.63194506697872 0.0
73.4650107541941 73.63377525508547 0.0
73.43698700129262 75.63574999419708 0.0
73.40859197735392 77.63787612977887 0.0
73.37979918369636 79.64016109249819 0.0
73.350582083439 81.64261290570734 0.0
73.32091412067417 83.64524019273081 0.0
73.29076874160084 85.64805218381143 0.0
73.26011941772929 87.65105872254233 0.0
73.22893967125115 89.65427027158663 0.0
73.19720310264258 91.65769791745687 0.0
73.16488342053849 93.66135337410375 0.0
76.51472092410269 -2.3150873424928182 0.0
76.48169123826527 -0.3183892918582698 0.0
76.44921477446708 1.67853959349846 0.0
76.41726851612786 3.6756900391315686 0.0
76.38582959678892 5.673053058415526 0.0
76.35487526253313 7.6706199525511405 0.0
76.32438283611152 9.668382312835512 0.0
76.29432968301673 11.666332024963502 0.0
76.26469317969918 13.664461275107605 0.0
76.23545068407961 15.66276255753059 0.0
76.20657950846896 17.66122868347866 0.0
76.17805689496258 19.659852791108133 0.0
76.1498599933384 21.658628356207196 0.0
76.12196584144844 23.65754920348711 0.0
76.09435134806048 25.65660951823275 0.0
76.06699327807384 27.65580385812148 0.0
76.03986824000954 29.655127165039833 0.0
76.01295267565092 31.654574776744383 0.0
75.98622285169445 33.654142438254475 0.0
75.95965485325847 35.653826312891105 0.0
75.93322457909093 37.65362299283781 0.0
75.90690773831268 39.653529509225606 0.0
75.88067984853718 41.65354334169738 0.0
75.85451623521162 43.653662427445965 0.0
75.82839203203655 45.65388516974338 0.0
75.80228218233273 47.65421044599434 0.0
75.77616144124177 49.654637615362155 0.0
75.7500043786655 51.65516652602802 0.0
75.72378538287029 53.65579752215339 0.0
75.69747866470493 55.65653145062235 0.0
75.67105826240399 57.657369667643984 0.0
75.64449804697334 59.658314045294304 0.0
75.61777172817759 61.659366978076264 0.0
75.59085286117369 63.66053138957704 0.0
75.56371485385735 65.66181073926529 0.0
75.53633097501047 67.66320902950439 0.0
75.50867436335788 69.6647308128067 0.0
75.48071803765869 71.66638119935327 0.0
75.45243490797395 73.66816586478093 0.0
75.42379778826316 75.67009105821717 0.0
75.39477941047296 77.67216361052088 0.0
75.36535244028497 79.67439094266045 0.0
75.33548949469203 81.67678107413408 0.0
75.30516316156927 83.67934263130866 0.0
75.27434602139745 85.68208485552435 0.0
75.24301067128299 87.68501761078073 0.0
75.21112975140113 89.68815139079031 0.0
75.17867597396237 91.69149732515427 0.0
75.1456221547717 93.69506718438531 0.0
78.52495112505196 -2.280722952932351 0.0
78.49118875665113 -0.2839438653212465 0.0
78.45799276688638 1.7130629004224414 0.0
78.42533974443334 3.7102881476908953 0.0
78.39320642892754 5.707722950041447 0.0
78.36156967032032 7.705358652207994 0.0
78.33040639022889 9.703186873524313 0.0
78.29969354553158 11.701199513497187 0.0
78.26940809441463 13.699388759245192 0.0
78.23952696502741 15.697747094527081 0.0
78.21002702685377 17.69626731007731 0.0
78.18088506486134 19.694942514973093 0.0
78.15207775644403 21.69376614876753 0.0
78.1235816511323 23.692731994138946 0.0
78.09537315300591 25.691834189824487 0.0
78.06742850571099 27.69106724362912 0.0
78.0397237799534 29.690426045323882 0.0
78.01223486331752 31.689905879269652 0.0
77.98493745223978 33.689502436645846 0.0
77.95780704595512 35.68921182719479 0.0
77.93081894222735 37.6890305903577 0.0
77.90394823467156 39.68895570580764 0.0
77.87716981148127 41.68898460334047 0.0
77.85045835538087 43.689115172128304 0.0
77.82378834463645 45.6893457693637 0.0
77.79713405497418 47.68967522834205 0.0
77.77046956227586 49.690102866045734 0.0
77.74376874594235 51.690628490307965 0.0
77.71700529284108 53.69125240664354 0.0
77.69015270178006 55.69197542484257 0.0
77.66318428847687 57.692798865425246 0.0
77.6360731910201 59.6937245660564 0.0
77.60879237584759 61.69475488801639 0.0
77.58131464429341 63.69589272282438 0.0
77.55361263978169 65.69714149907519 0.0
77.52565885577016 67.69850518957888 0.0
77.4974256445694 69.69998831884368 0.0
77.46888522718476 71.7015959709375 0.0
77.44000970434537 73.7033337977409 0.0
77.41077106890091 75.70520802757981 0.0
77.38114121977668 77.70722547420112 0.0
77.35109197768669 79.70939354602567 0.0
77.32059510280699 81.71172025558299 0.0
77.2896223146098 83.7142142290009 0.0
77.25814531405292 85.71688471538948 0.0
77.22613580830622 87.71974159592492 0.0
77.19356553817832 89.7227953924036 0.0
77.16040630838138 91.72605727500205 0.0
77.12663002074069 93.72953906894294 0.0
80.53492810839481 -2.2456085942662294 0.0
80.50044310690737 -0.24874658427614627 0.0
80.46653751762663 1.7483398975732882 0.0
80.43318756122977 3.745641733491878 0.0
80.40036960895071 5.743150056802534 0.0
80.36806013866138 7.740856254132162 0.0
80.33623569326792 9.738751970171727 0.0
80.30487284168991 11.736829114709444 0.0
80.27394814263754 13.735079871618657 0.0
80.24343811134685 15.733496709489422 0.0
80.21331918937749 17.732072393587963 0.0
80.18356771752565 19.730799998835728 0.0
80.15415991185316 21.729672923512926 0.0
80.12507184278667 23.728684903409118 0.0
80.09627941719818 25.727830026165314 0.0
80.06775836334016 27.727102745578417 0.0
80.03948421847714 29.726497895666153 0.0
80.01143231902905 31.726010704316145 0.0
79.98357779302235 33.72563680639229 0.0
79.95589555463243 35.725372256204075 0.0
79.92836030059394 37.72521353921728 0.0
79.9009465082543 39.72515758301454 0.0
79.87362843505248 41.725201767475646 0.0
79.84638011921432 43.72534393419258 0.0
79.81917538147167 45.725582395162 0.0
79.79198782763216 47.72591594081839 0.0
79.76479085185014 49.72634384748957 0.0
79.73755764047385 51.72686588437182 0.0
79.71026117637479 53.727482320132765 0.0
79.68287424369274 55.728193929258275 0.0
79.65536943296382 57.72900199826345 0.0
79.62771914662851 59.72990833188716 0.0
79.59989560494928 61.73091525938732 0.0
79.57187085239877 63.73202564105206 0.0
79.5436167646092 65.73324287500884 0.0
79.51510505600164 67.73457090443551 0.0
79.48630728824196 69.73601422523103 0.0
79.45719487969218 71.73757789419471 0.0
79.42773911604947 73.73926753773905 0.0
79.39791116238139 75.74108936113304 0.0
79.36768207678121 77.74305015824724 0.0
79.33702282587683 79.74515732173761 0.0
79.3059043024333 81.74741885357457 0.0
79.27429734528792 83.74984337578718 0.0
79.24217276185314 85.75244014125549 0.0
79.20950135341182 87.75521904434622 0.0
79.17625394340914 89.75819063114726 0.0
79.14240140892362 91.76136610901642 0.0
79.1079147154654 93.7647573551206 0.0
82.54464612063526 -2.2097546591358035 0.0
82.5094486919833 -0.21280786122289896 0.0
82.47484358405569 1.7843601561149205 0.0
82.44080667849602 3.781740354342965 0.0
82.40731400564067 5.779323925496317 0.0
82.37434169709789 7.777102295746721 0.0
82.34186594100409 9.775067131705661 0.0
82.30986294024328 11.773210349129977 0.0
82.27830887385412 13.771524123671856 0.0
82.24717986178668 15.770000903323858 0.0
82.2164519331103 17.7686334222048 0.0
82.18610099771251 19.767414715341854 0.0
82.15610282147345 21.766338134120286 0.0
82.12643300484476 23.765397362092852 0.0
82.09706696471727 25.764586430867244 0.0
82.0679799194168 27.763899735819724 0.0
82.03914687663433 29.76333205141648 0.0
82.01054262406792 31.762878545953278 0.0
81.98214172253364 33.76253479557943 0.0
81.95391850128773 35.76229679750832 0.0
81.92584705529963 37.76216098229539 0.0
81.89790124421283 39.76212422519768 0.0
81.8700546927401 41.762183856594845 0.0
81.84228079225241 43.762337671500006 0.0
81.81455270333977 45.76258393821971 0.0
81.7868433591458 47.76292140624478 0.0
81.75912546930422 49.76334931347492 0.0
81.7313715243375 51.76386739289629 0.0
81.70355380040922 53.76447587884351 0.0
81.67564436435752 55.76517551298658 0.0
81.6476150789725 57.76596755018611 0.0
81.61943760851617 59.76685376436057 0.0
81.59108342452035 61.767836454505584 0.0
81.56252381193296 63.76891845100229 0.0
81.53372987571713 65.77010312231906 0.0
81.50467254804073 67.77139438222868 0.0
81.47532259622346 69.77279669761715 0.0
81.44565063163694 71.77431509694912 0.0
81.41562711977839 73.77595517942771 0.0
81.38522239175859 75.77772312485817 0.0
81.35440665746403 77.77962570419372 0.0
81.32315002066414 79.78167029070691 0.0
81.29142249634549 81.78386487169503 0.0
81.2591940305542 83.78621806058716 0.0
81.22643452302904 85.78873910928178 0.0
81.1931138528941 87.79143792049891 0.0
81.15920190766639 89.79432505988837 0.0
81.1246686158081 91.79741176758995 0.0
81.08948398302118 93.80070996889559 0.0
84.55409947487652 -2.173171698355313 0.0
84.51819996870833 -0.17613826731155857 0.0
84.48290556546254 1.8211130883064044 0.0
84.44819183909547 3.8185734090149683 0.0
84.41403450868263 5.816233943764814 0.0
84.38040938725179 7.814086155105249 0.0
84.34729233370227 9.812121727262962 0.0
84.31465920811516 11.81033257675845 0.0
84.282485830689 13.808710865157835 0.0
84.25074794446634 15.80724901356671 0.0
84.21942118194511 17.805939718468473 0.0
84.18848103560268 19.80477596852217 0.0
84.1579028322932 21.803751061952994 0.0
84.12766171142223 23.80285862419376 0.0
84.09773260674689 25.802092625466546 0.0
84.06809023160363 27.80144739802852 0.0
84.03870906732874 29.800917652844408 0.0
84.00956335460366 31.800498495483367 0.0
83.98062708743731 33.800185441099 0.0
83.95187400948392 35.79997442839189 0.0
83.92327761238873 37.79986183243979 0.0
83.89481113585877 39.79984447641683 0.0
83.86644756916365 41.79991964219398 0.0
83.83815965378986 43.800085079865326 0.0
83.80991988699483 45.800339016278954 0.0
83.7817005260332 47.8006801626755 0.0
83.75347359286161 49.80110772156212 0.0
83.7252108791627 51.801621392965586 0.0
83.69688395156717 53.80222138022333 0.0
83.6684641569924 55.80290839547903 0.0
83.63992262805743 57.80368366505355 0.0
83.61123028857422 59.80454893486161 0.0
83.58235785915753 61.80550647603938 0.0
83.55327586303368 63.8065590909449 0.0
83.52395463216949 65.8077101196604 0.0
83.49436431387801 67.8089634471383 0.0
83.46447487809145 69.81032351108867 0.0
83.43425612552664 71.81179531068999 0.0
83.40367769699277 73.8133844161776 0.0
83.37270908411935 75.81509697933134 0.0
83.34131964180219 77.81693974485133 0.0
83.30947860268064 79.81892006257273 0.0
83.27715509397254 81.82104590043065 0.0
83.24431815699735 83.82332585804383 0.0
83.21093676971819 85.82576918074065 0.0
83.17697987262675 87.82838577380322 0.0
83.14241639827884 89.83118621665689 0.0
83.10721530476654 91.83418177668148 0.0
83.07134561338037 93.83738442226885 0.0
86.56328255248394 -2.135870406718394 0.0
86.52669144839388 -0.13874851805306854 0.0
86.49071810274285 1.8585879618974843 0.0
86.45533781570224 3.8561301517406354 0.0
86.42052602699871 5.853869354682212 0.0
86.38625826073933 7.85179706553793 0.0
86.35251007378426 9.849904980849898 0.0
86.3192570079922 11.848185011682393 0.0
86.28647454658498 13.84662929864479 0.0
86.25413807479768 15.84523022869783 0.0
86.22222284490174 17.843980453297565 0.0
86.19070394561021 19.842872907445145 0.0
86.15955627580136 21.84190082923356 0.0
86.12875452243127 23.841057779511917 0.0
86.09827314244357 25.84033766132331 0.0
86.06808634843463 27.839734738814663 0.0
86.03816809779012 29.839243655360434 0.0
86.00849208497382 31.838859450684115 0.0
85.97903173663016 33.83857757682975 0.0
85.94976020914473 35.83839391288084 0.0
85.92065038830681 37.83830477831788 0.0
85.8916748907215 39.83830694504524 0.0
85.86280606663183 41.838397648095004 0.0
85.8340160038338 43.83857459507164 0.0
85.80527653239407 45.838835974438716 0.0
85.7765592299117 47.83918046277639 0.0
85.74783542710502 49.83960723116494 0.0
85.71907621354353 51.840115950866995 0.0
85.69025244338975 53.84070679849722 0.0
85.66133474106068 55.84138046087668 0.0
85.63229350676492 57.84213813977207 0.0
85.60309892191806 59.84298155672063 0.0
85.57372095448532 61.84391295813417 0.0
85.54412936434508 63.84493512087113 0.0
85.51429370881014 65.8460513584329 0.0
85.48418334848635 67.84726552794962 0.0
85.45376745368512 69.84858203807504 0.0
85.42301501164435 71.85000585789338 0.0
85.39189483484387 73.85154252690924 0.0
85.36037557073041 75.85319816615801 0.0
85.32842571319246 77.85497949043717 0.0
85.29601361614499 79.85689382161813 0.0
85.2631075095989 81.85894910295606 0.0
85.22967551859875 83.86115391426661 0.0
85.19568568541546 85.86351748779106 0.0
85.16110599537569 87.86604972451774 0.0
85.1259044066969 89.86876121067418 0.0
85.09004888467635 91.87166323404679 0.0
85.0535074405503 93.8747677997283 0.0
88.57218980444735 -2.0978616074869936 0.0
88.53491769705408 -0.10064945769280431 0.0
88.49827587764179 1.8967739158815142 0.0
88.46223940924367 3.894399708090746 0.0
88.42678348657806 5.892219272735444 0.0
88.39188337658243 7.8902241317020945 0.0
88.35751436301645 9.888405987412668 0.0
88.32365169548052 11.886756738102534 0.0
88.29027054311055 13.885268495417067 0.0
88.25734595311556 15.883933603826506 0.0
88.22485281423496 17.882744661358085 0.0
88.19276582510453 19.881694541161202 0.0
88.16105946743687 21.88077641344898 0.0
88.12970798384698 23.87998376739436 0.0
88.09868536008534 25.879310432601116 0.0
88.06796531138413 27.87875059981888 0.0
88.03752127257619 29.878298840622595 0.0
88.00732639160887 31.877950125826377 0.0
87.97735352605353 33.87769984247751 0.0
87.94757524219656 35.87754380932783 0.0
87.91796381629744 37.87747829068168 0.0
87.88849123760718 39.8775000086637 0.0
87.85912921275725 41.877606153932476 0.0
87.8298491711561 43.87779439492695 0.0
87.80062227106231 45.878062885773325 0.0
87.77141940604311 47.878410273010914 0.0
87.74221121156886 49.878835701323325 0.0
87.7129680715445 51.879338818481244 0.0
87.68366012462485 53.87991977971889 0.0
87.65425727021632 55.88057925177549 0.0
87.62472917411691 57.881318416835775 0.0
87.59504527380032 59.88213897660264 0.0
87.56517478340149 61.88304315672784 0.0
87.53508669851072 63.88403371181831 0.0
87.5047498009333 65.88511393120586 0.0
87.47413266361606 67.8862876456692 0.0
87.44320365598844 69.8875592352536 0.0
87.41193095000375 71.88893363831393 0.0
87.38028252720483 73.89041636187123 0.0
87.34822618717148 75.89201349333761 0.0
87.31572955773493 77.89373171362386 0.0
87.28276010736998 79.89557831160104 0.0
87.24928516019317 81.89756119983957 0.0
87.21527191400811 83.89968893149963 0.0
87.18068746184616 85.90197071819196 0.0
87.14549881744824 87.90441644857164 0.0
87.10967294512417 89.90703670736742 0.0
87.07317679440783 91.90984279448594 0.0
87.03597733989643 93.91284674376566 0.0
90.58081575237938 -2.0591562354524267 0.0
90.54287333517635 -0.06185204213393192 0.0
90.50557361148014 1.9356599777213894 0.0
90.46889144678278 3.9333710923447045 0.0
90.43280182772745 5.931272701317498 0.0
90.39727979804606 7.929356347158339 0.0
90.36230039915294 9.927613730438907 0.0
90.32783861576897 11.92603672788523 0.0
90.29386932684979 13.924617412888885 0.0
90.26036726198464 15.923348077862968 0.0
90.2273069633304 17.922221257878697 0.0
90.19466275304426 19.92122975503932 0.0
90.16240870608401 21.9203666630807 0.0
90.13051862816026 23.919625391729134 0.0
90.09896603854851 25.9189996903972 0.0
90.06772415740531 27.918483670854872 0.0
90.03676589718218 29.91807182857376 0.0
90.006063857692 31.917759062499435 0.0
89.97559032435902 33.917540693093166 0.0
89.94531726917026 35.9174124785409 0.0
89.91521635384926 37.91737062904062 0.0
89.88525893478237 39.917411819226025 0.0
89.85541606925285 41.9175331987762 0.0
89.82565852256724 43.91773240132479 0.0
89.79595677569992 45.91800755182756 0.0
89.7662810331263 47.91835727258137 0.0
89.73660123056597 49.91878068811662 0.0
89.70688704241122 51.919277429207014 0.0
89.6771078886752 53.919847636257245 0.0
89.64723294134927 55.92049196233684 0.0
89.61723113012195 57.921211576132656 0.0
89.58707114746684 59.92200816508853 0.0
89.55672145316838 61.92288393899314 0.0
89.52615027840675 63.92384163426665 0.0
89.4953256295804 65.92488451916583 0.0
89.4642152920945 67.92601640012475 0.0
89.43278683439218 69.92724162940453 0.0
89.40100761255196 71.92856511420088 0.0
89.36884477581538 73.9299923273233 0.0
89.33626527344661 75.93152931951911 0.0
89.30323586336034 77.93318273347319 0.0
89.26972312298095 79.93495981946792 0.0
89.23569346282073 81.93686845263665 0.0
89.2011131432809 83.93891715168942 0.0
89.16594829518954 85.94111509893199 0.0
89.13016494459366 87.94347216133568 0.0
89.09372904231657 89.94599891235183 0.0
89.05660649877534 91.94870665409312 0.0
89.01876322452853 93.95160743943411 0.0
92.5891549890803 -2.019765318447581 0.0
92.55055303696308 -0.02236732028692323 0.0
92.51260606328114 1.9752350821749376 0.0
92.47528877875517 3.9730332264846524 0.0
92.43857600165762 5.971018551864494 0.0
92.40244258881984 7.969182613604619 0.0
92.3668633719601 9.967517101222615 0.0
92.33181309973864 11.966013859773245 0.0
92.29726638582554 13.964664913658542 0.0
92.26319766314889 15.963462492298722 0.0
92.22958114437088 17.962399057027678 0.0
92.19639078852404 19.96146732860261 0.0
92.16360027363382 21.960660314756055 0.0
92.13118297505567 23.959971337267923 0.0
92.099111949171 25.959394058093892 0.0
92.067359922014 27.958922504153513 0.0
92.03589928234676 29.95855109045104 0.0
92.004702078659 31.958274641270158 0.0
91.97374001954327 33.95808840927988 0.0
91.94298447688642 35.95798809245331 0.0
91.91240649132398 37.95796984872517 0.0
91.88197677941768 39.95803030846584 0.0
91.85166574204777 41.958166584848975 0.0
91.82144347354935 43.95837628225836 0.0
91.79127977116852 45.95865750293 0.0
91.76114414446828 47.95900885206086 0.0
91.73100582437317 49.95942944164848 0.0
91.70083377160346 51.95991889334742 0.0
91.67059668431573 53.96047734064547 0.0
91.64026300483158 55.961105430670976 0.0
91.60980092540385 57.96180432594373 0.0
91.57917839303406 59.962575706379 0.0
91.54836311342 61.96342177184318 0.0
91.51732255417376 63.96434524554683 0.0
91.48602394751084 65.96534937853167 0.0
91.45443429266759 67.9664379554971 0.0
91.42252035835817 69.96761530217033 0.0
91.39024868563203 71.96888629439671 0.0
91.35758559154038 73.9702563690868 0.0
91.32449717406188 75.97173153711577 0.0
91.29094931877616 77.97331839822523 0.0
91.25690770780756 79.97502415792628 0.0
91.22233783158829 81.97685664635023 0.0
91.18720500401339 83.97882433893332 0.0
91.15147438157369 85.98093637875988 0.0
91.11511098706168 87.98320260032062 0.0
91.07807973844233 89.98563355437172 0.0
91.04034548347067 91.98824053350317 0.0
91.00187304061511 93.99103559794735 0.0
94.59720217859007 -1.9796999571775569 0.0
94.55795152895747 0.017793586290607788 0.0
94.51936802720236 2.015488091858749 0.0
94.48142627546345 4.013374960955112 0.0
94.44410096631015 6.011445664780712 0.0
94.4073668084552 8.009691761913464 0.0
94.3711984585422 10.008104919937544 0.0
94.33557045944792 12.006676940397707 0.0
94.3004571854021 14.005399786341936 0.0
94.26583279408912 16.004265611728147 0.0
94.23167118575881 18.003266791976028 0.0
94.1979459692414 20.0023959549771 0.0
94.16463043464016 22.001646011922055 0.0
94.13169753236457 24.001010187363686 0.0
94.09911985807184 26.000482048002866 0.0
94.06686964300596 28.00005552976358 0.0
94.03491874916162 29.99972496280465 0.0
94.00323866865831 31.999485094195563 0.0
93.97180052668512 33.999331108092065 0.0
93.94057508736687 35.99925864331982 0.0
93.90953276191472 37.99926380831193 0.0
93.87864361844332 39.999343193502106 0.0
93.8478773928751 41.99949388128433 0.0
93.81720350039843 43.999713453722904 0.0
93.78659104700242 45.99999999825127 0.0
93.75600884067393 48.000352111636374 0.0
93.7254254019106 50.00076890252046 0.0
93.69480897327603 52.00124999287353 0.0
93.66412752779567 54.00179551870757 0.0
93.63334877606864 56.00240613041 0.0
93.60244017204245 58.00308299305539 0.0
93.57136891747203 60.00382778704701 0.0
93.5401019651557 62.00464270942933 0.0
93.50860602110754 64.00553047619496 0.0
93.47684754589332 66.00649432588135 0.0
93.4447927554176 68.00753802473417 0.0
93.41240762151055 70.00866587367567 0.0
93.37965787271702 72.0098827172817 0.0
93.34650899574194 74.01119395493224 0.0
93.31292623805614 76.01260555425344 0.0
93.2788746122056 78.01412406692387 0.0
93.24431890241004 80.01575664686074 0.0
93.20922367406709 82.0175110707479 0.0
93.17355328680635 84.01939576080288 0.0
93.13727191175902 86.02141980961355 0.0
93.10034355372036 88.02359300680334 0.0
93.06273207888749 90.02592586720509 0.0
93.02440124884846 92.0284296601425 0.0
92.98531476148051 94.0311164393291 0.0
96.60495205563848 -1.9389713032223597 0.0
96.56506358795264 0.05861950561366758 0.0
96.5258543291687 2.056407819704035 0.0
96.48729882272092 4.054385097344803 0.0
96.44937168131696 6.052542832310936 0.0
96.41204750695576 8.050872575132706 0.0
96.37530081787658 10.049365958678703 0.0
96.33910598291843 12.048014727248198 0.0
96.30343716361014 14.04681076833722 0.0
96.26826826415035 16.04574614625536 0.0
96.23357288927929 18.044813136780085 0.0
96.19932430989209 20.04400426207419 0.0
96.16549543610377 22.04331232514714 0.0
96.13205879735092 24.042730443211997 0.0
96.09898652900831 26.042252079371536 0.0
96.06625036491091 28.04187107215901 0.0
96.03382163510499 30.041581662555586 0.0
96.0016712681084 32.041378518198215 0.0
95.9697697969346 34.04125675461552 0.0
95.93808736813087 36.04121195341112 0.0
95.90659375309778 38.041240177364344 0.0
95.87525836098382 40.04133798258186 0.0
95.84405025249843 42.04150242785074 0.0
95.81293815403959 44.041731081422405 0.0
95.78189047160241 46.04202202551539 0.0
95.75087530400566 48.04237385886634 0.0
95.71986045505439 50.042785697694256 0.0
95.6888134443375 52.04325717546569 0.0
95.65770151644386 54.043788441864656 0.0
95.62649164846287 56.04438016137694 0.0
95.59515055571946 58.04503351189685 0.0
95.56364469577291 60.045750183755814 0.0
95.53194027078835 62.04653237955829 0.0
95.50000322846287 64.04738281518952 0.0
95.467799261762 66.04830472233164 0.0
95.4352938077887 68.04930185279952 0.0
95.40245204617166 70.05037848496923 0.0
95.36923889742148 72.0515394325342 0.0
95.33561902175772 74.05279005578217 0.0
95.30155681896557 76.05413627553854 0.0
95.26701642988613 78.05558458987048 0.0
95.23196174019164 80.05714209359056 0.0
95.19635638713287 82.05881650053792 0.0
95.16016376998174 84.06061616854899 0.0
95.1233470649174 86.06255012695867 0.0
95.08586924512434 88.06462810639525 0.0
95.04769310688137 90.06686057054922 0.0
95.00878130242049 92.06925874950653 0.0
94.96909638032422 94.07183467414148 0.0
98.61239942439481 -1.8975905350492588 0.0
98.57188403807457 0.10009923951554267 0.0
98.5320598225849 2.097983053474719 0.0
98.49290131652103 4.096052413164516 0.0
98.45438310197324 6.0942988235360405 0.0
98.4164797184084 8.092713813627029 0.0
98.37916558445815 10.091288966647982 0.0
98.34241492813719 12.090015953773278 0.0
98.30620172583045 14.088886570686471 0.0
98.27049965020187 16.08789277594278 0.0
98.23528202699418 18.087026730227464 0.0
98.20052180051294 20.086280835634813 0.0
98.16619150743107 22.085647774160744 0.0
98.1322632584043 24.085120544685136 0.0
98.09870872686997 26.08469249781867 0.0
98.06549914430452 28.084357368096295 0.0
98.03260530114213 30.08410930311235 0.0
97.99999755251132 32.083942889300936 0.0
97.96764582792467 34.08385317420333 0.0
97.93551964405617 36.08383568515937 0.0
97.90358811976405 38.083886444423634 0.0
97.87181999255766 40.084001980879144 0.0
97.84018363576055 42.08417933854677 0.0
97.80864707569421 44.08441608217446 0.0
97.77717800828353 46.08471030025103 0.0
97.74574381457306 48.08506060583519 0.0
97.71431157473219 50.08546613562465 0.0
97.68284808022321 52.08592654771463 0.0
97.65131984389987 54.08644201850791 0.0
97.61969310789695 56.08701323924312 0.0
97.58793384926409 58.087641412603105 0.0
97.5560077833858 60.08832824985426 0.0
97.52388036531431 62.08907596894925 0.0
97.49151678922445 64.08988729400254 0.0
97.45888198627657 66.09076545651693 0.0
97.42594062124721 68.09171419871095 0.0
97.39265708835737 70.0927377792547 0.0
97.35899550679308 72.09384098168405 0.0
97.32491971647624 74.09502912571641 0.0
97.290393274699 76.09630808164167 0.0
97.2553794542927 78.09768428791055 0.0
97.2198412440494 80.09916477198104 0.0
97.18374135215974 82.10075717442335 0.0
97.14704221347212 84.10246977621279 0.0
97.10970600141134 86.10431152906483 0.0
97.07169464542032 88.10629208858606 0.0
97.03296985480996 90.10842184992396 0.0
96.99349314990738 92.11071198550354 0.0
96.95322590139098 94.11317448433479 0.0
100.61953915640346 -1.8555688318541237 0.0
100.57840774691013 0.14222159010450408 0.0
100.53797938299336 2.1402025825375106 0.0
100.49822865659445 4.1383656889147185 0.0
100.45913017208576 6.1367024116887015 0.0
100.42065845352698 8.13520424255741 0.0
100.38278786094088 10.133862697679511 0.0
100.34549251618402 12.132669356802154 0.0
100.30874623877081 14.131615905216352 0.0
100.27252249179242 16.13069417747129 0.0
100.23679433785972 18.129896201800538 0.0
100.20153440479633 20.12921424427054 0.0
100.16671486062495 22.12864085174348 0.0
100.13230739722768 24.128168892847228 0.0
100.09828322192654 26.12779159626149 0.0
100.06461305612287 28.127502585756606 0.0
100.03126714005714 30.12729591155359 0.0
99.99821524270455 32.12716607770123 0.0
99.96542667580147 34.127108065321565 0.0
99.9328703110071 36.12711735168579 0.0
99.90051459923576 38.127189925159755 0.0
99.86832759124758 40.127322296241395 0.0
99.83627695865572 42.12751150494502 0.0
99.80433001459109 44.1277551248812 0.0
99.77245373335845 46.12805126444347 0.0
99.74061476852155 48.12839856556235 0.0
99.70877946895635 50.128796200520334 0.0
99.67691389252057 52.129243867344755 0.0
99.64498381709349 54.129741784306496 0.0
99.61295474884452 56.13029068405252 0.0
99.5807919276894 58.1308918078935 0.0
99.54846032999258 60.131546900750976 0.0
99.5159246686643 62.13225820724783 0.0
99.4831493908908 64.13302846939703 0.0
99.45009867381907 66.13386092631268 0.0
99.41673641859632 68.13475931633066 0.0
99.38302624323944 70.13572788188567 0.0
99.34893147487897 72.13677137744862 0.0
99.31441514199149 74.13789508078091 0.0
99.27943996729486 76.13910480770973 0.0
99.24396836204238 78.14040693057538 0.0
99.2079624225064 80.14180840043836 0.0
99.171383929496 82.14331677307119 0.0
99.13419435179698 84.1449402386855 0.0
99.09635485446906 86.1466876552684 0.0
99.05782631296597 88.14856858531496 0.0
99.01856933407439 90.15059333564939 0.0
98.97854428468366 92.15277299992549 0.0
98.93771132940594 94.15511950328371 0.0
102.62636618758066 -1.812917345029251 0.0
102.58462962053989 0.18497538863905927 0.0
102.5436079015238 2.183055227096565 0.0
102.50327573869632 4.181313737659981 0.0
102.46360781554506 6.179742404008811 0.0
102.42457869096768 8.178332661918958 0.0
102.38616270965187 10.17707594032218 0.0
102.34833392338425 12.175963706498257 0.0
102.31106602366597 14.174987514158358 0.0
102.27433228576314 16.174139053197372 0.0
102.23810552406808 18.173410199923676 0.0
102.20235805841466 20.172793066644346 0.0
102.1670616907818 22.172280049584206 0.0
102.13218769163026 24.171863874237296 0.0
102.09770679497191 26.171537637388766 0.0
102.06358920114717 28.17129484519518 0.0
102.02980458620861 30.17112944686678 0.0
101.9963221167612 32.17103586364355 0.0
101.96311046909462 34.17100901293432 0.0
101.9301378514611 36.17104432761289 0.0
101.89737202839966 38.1711377705618 0.0
101.86478034606907 40.171285844744304 0.0
101.83232975764497 42.17148559913072 0.0
101.79998684793125 44.17173463090121 0.0
101.76771785645094 46.172031084416425 0.0
101.73548869839833 48.17237364749422 0.0
101.70326498295458 50.172761545564995 0.0
101.6710120285896 52.17319453429827 0.0
101.63869487509595 54.173672891299674 0.0
101.60627829221147 56.17419740747472 0.0
101.57372678480425 58.17476937864247 0.0
101.5410045946939 60.17539059796201 0.0
101.50807569928872 62.17606334970822 0.0
101.4749038073081 64.1767904049 0.0
101.44145235195097 66.17757501925162 0.0
101.40768448195591 68.17842093387357 0.0
101.37356305107369 70.1793323791099 0.0
101.33905060655378 72.18031408185149 0.0
101.30410937731236 74.18137127661649 0.0
101.26870126252305 76.18250972063495 0.0
101.23278782143156 78.1837357131194 0.0
101.19633026526334 80.1850561188399 0.0
101.15928945214634 82.18647839605613 0.0
101.12162588603246 84.188010628784 0.0
101.08329972064548 86.18966156329384 0.0
101.04427076953462 88.191440648647 0.0
101.004498523344 90.19335808097946 0.0
100.96394217544349 92.19542485113102 0.0
100.92256065707743 94.19765279510007 0.0
104.63287551412894 -1.7696471670298521 0.0
104.59054459731226 0.22834952705548073 0.0
104.54894027696108 2.2265298701323513 0.0
104.50803744544648 4.224885437354582 0.0
104.46781092644714 6.223407674386085 0.0
104.42823536725506 8.222087939384272 0.0
104.38928514284073 10.220917550722806 0.0
104.35093427237732 12.219887839080254 0.0
104.31315634862607 14.218990202470048 0.0
104.27592448028582 16.218216162810187 0.0
104.23921124712075 18.217557422672975 0.0
104.20298866740579 20.217005920941528 0.0
104.16722817698913 22.21655388622145 0.0
104.13190061905931 24.216193887001715 0.0
104.09697624353397 26.215918877724736 0.0
104.06242471486132 28.215722240104235 0.0
104.028215126935 30.215597819210966 0.0
103.99431602378311 32.21553995402165 0.0
103.96069542468379 34.2155435023257 0.0
103.92732085239106 36.215603860029425 0.0
103.8941593632156 38.21571697501037 0.0
103.86117757778975 40.215879355876844 0.0
103.82834171145518 42.21608807604136 0.0
103.79561760332992 44.216340773619784 0.0
103.76297074324556 46.216635647737824 0.0
103.73036629588147 48.21697145187378 0.0
103.69776912156182 50.217347484898795 0.0
103.66514379331895 52.21776358049038 0.0
103.63245460996055 54.21822009559785 0.0
103.59966560500582 56.21871789862861 0.0
103.56674055147953 58.219258358004986 0.0
103.53364296266382 60.219843331715396 0.0
103.50033608901894 62.22047515845131 0.0
103.46678291158152 64.22115665088235 0.0
103.43294613224384 66.22189109158772 0.0
103.3987881614069 68.22268223211005 0.0
103.36427110358063 70.22353429555889 0.0
103.32935674158674 72.22445198314082 0.0
103.29400652009363 74.22544048494139 0.0
103.25818152928728 76.22650549523237 0.0
103.22184248955168 78.22765323251836 0.0
103.18494973810155 80.22889046447527 0.0
103.14746321857805 82.23022453786508 0.0
103.10934247467847 84.23166341343604 0.0
103.07054664895473 86.23321570573403 0.0
103.03103448796935 88.23489072765948 0.0
102.99076435504725 90.23669853949977 0.0
102.94969425190313 92.23865000205367 0.0
102.90778185045654 94.24075683333757 0.0
106.63906218720987 -1.725769297381201 0.0
106.59614764017661 0.27233299241215025 0.0
106.55397140623236 2.2706154923157937 0.0
106.51250863551947 4.26906976619605 0.0
106.47173435756864 6.267687199069566 0.0
106.43162336513976 8.26645904623173 0.0
106.39215011150968 10.265376488583728 0.0
106.35328862198445 12.264430692572487 0.0
106.31501242005903 14.263612873102712 0.0
106.2772944682961 16.26291435781024 0.0
106.24010712365616 18.26232665114089 0.0
106.2034221066921 20.261841496787696 0.0
106.1672104837452 22.261450937187007 0.0
106.13144266103563 24.26114736895115 0.0
106.09608838935412 26.260923593313326 0.0
106.06111677791851 28.26077286087299 0.0
106.02649631587335 30.260688910143422 0.0
105.99219489986712 32.26066599960803 0.0
105.95817986615275 34.260698933218464 0.0
105.92441802569947 36.26078307943332 0.0
105.89087570088867 38.26091438402964 0.0
105.85751876247483 40.26108937713193 0.0
105.82431266562207 42.261305174968356 0.0
105.79122248397717 44.261559476969694 0.0
105.7582129408909 46.26185055889876 0.0
105.72524843706222 48.2621772627421 0.0
105.69229307403792 50.262538984124674 0.0
105.65931067315526 52.26293565801596 0.0
105.62626478966652 54.263367743491855 0.0
105.59311872192347 56.26383620829942 0.0
105.55983551563283 58.26434251394438 0.0
105.52637796331712 60.26488860198801 0.0
105.49270859922903 62.265476882200964 0.0
105.45878969007151 64.26611022317617 0.0
105.42458322197648 66.2667919459659 0.0
105.39005088428408 68.2675258212489 0.0
105.35515405075274 70.26831607049549 0.0
105.31985375891055 72.26916737154289 0.0
105.28411068834134 74.27008486894444 0.0
105.2478851387732 76.27107418939988 0.0
105.21113700891506 78.27214146251869 0.0
105.17382577706174 80.27329334710394 0.0
105.13591048456234 82.27453706307872 0.0
105.09734972331836 84.2758804290999 0.0
105.05810162855133 86.27733190582165 0.0
105.0181238781452 88.27890064467609 0.0
104.97737369993234 90.28059654193311 0.0
104.93580788834912 92.2824302976811 0.0
104.89338283193162 94.28441347923936 0.0
108.64492130619091 -1.6812946055326976 0.0
108.6014337273665 0.31691490455225857 0.0
108.55869617309081 2.315301210207024 0.0
108.51668413095562 4.313855841321929 0.0
108.47537290697502 6.312570095762442 0.0
108.43473750018686 8.311435096675037 0.0
108.3947524926572 10.310441856503832 0.0
108.355391955747 12.309581345879982 0.0
108.31662937308954 14.308844565488165 0.0
108.27843758030288 16.308222619053122 0.0
108.24078872106801 18.30770678566251 0.0
108.20365421882862 20.30728858977797 0.0
108.16700476305019 22.30695986746732 0.0
108.13081030869782 24.30671282760583 0.0
108.09504008738679 26.306540107032838 0.0
108.05966262850242 28.30643481890166 0.0
108.02464578850126 30.306390593713708 0.0
107.9899567865729 32.30640161276598 0.0
107.95556224486413 34.30646263399973 0.0
107.9214282315352 36.30656901042621 0.0
107.88752030502877 38.306716701461134 0.0
107.85380355806817 40.3069022777231 0.0
107.82024266006218 42.307122919925526 0.0
107.78680189677274 44.30737641260082 0.0
107.75344520628073 46.30766113346595 0.0
107.72013621047574 48.3079760392798 0.0
107.68683824147239 50.308320649062985 0.0
107.65351436253646 52.308695025551316 0.0
107.62012738326482 54.309099755739894 0.0
107.58663986892248 56.309535931347256 0.0
107.55301414397833 58.310005129992845 0.0
107.51921229001522 60.31050939783863 0.0
107.48519613830697 62.31105123439797 0.0
107.45092725746854 64.31163358016367 0.0
107.41636693667985 66.31225980766527 0.0
107.3814761650838 68.31293371650082 0.0
107.3462156080455 70.3136595328484 0.0
107.31054558104148 72.31444191390806 0.0
107.2744260220359 74.31528595767153 0.0
107.23781646327555 76.31619721836645 0.0
107.20067600352158 78.31718172786238 0.0
107.16296328181556 80.31824602326812 0.0
107.12463645395793 82.31939718088172 0.0
107.08565317296359 84.3206428565813 0.0
107.04597057483669 86.3219913326612 0.0
107.0055452710931 88.32345157102404 0.0
106.9643333495315 90.3250332725306 0.0
106.92229038483273 92.3267469421875 0.0
106.87937146062661 94.32860395971309 0.0
110.65044801026188 -1.6362337902225494 0.0
110.60639784119292 0.36208455733001443 0.0
110.56310943473518 2.360576318092642 0.0
110.52055870233058 4.359232961210605 0.0
110.47872130250762 6.358045666465648 0.0
110.43757250536825 8.357005390955136 0.0
110.39708707474718 10.356102943053811 0.0
110.3572391690022 12.355329061520173 0.0
110.31800226089987 14.354674497549489 0.0
110.2793490765629 16.3541300976262 0.0
110.24125155297523 18.35368688512589 0.0
110.20368081310932 20.35333613878671 0.0
110.16660715736514 22.353069466393162 0.0
110.1300000697035 24.352878872276655 0.0
110.09382823661568 26.352756817524387 0.0
110.05805957691805 28.35269627208834 0.0
110.02266128026628 30.352690758283693 0.0
109.9875998522711 32.352734385445544 0.0
109.95284116414062 34.352821875806065 0.0
109.91835050487167 36.35294858186893 0.0
109.88409263415636 38.35311049573649 0.0
109.85003183434135 40.35330425107968 0.0
109.8161319599774 42.353527118524 0.0
109.78235648370634 44.353776995334215 0.0
109.7486685374489 46.35405239034818 0.0
109.71503094807399 48.35435240514327 0.0
109.68140626693351 50.35467671242974 0.0
109.64775679284836 52.35502553265413 0.0
109.61404458831095 54.35539960976827 0.0
109.58023148883933 56.35580018708072 0.0
109.54627910556962 58.35622898405826 0.0
109.5121488213111 60.356688174892135 0.0
109.4778017804142 62.35718036958784 0.0
109.44319887290861 64.3577085982753 0.0
109.4083007134784 66.35827629939482 0.0
109.37306761592784 68.35888731233803 0.0
109.33745956388584 70.35954587508664 0.0
109.30143617858026 72.36025662733314 0.0
109.26495668459746 74.36102461951809 0.0
109.22797987462734 76.36185532816569 0.0
109.19046407427841 78.36275467784637 0.0
109.15236710813728 80.3637290700382 0.0
109.11364626833391 82.36478541909362 0.0
109.07425828696991 84.36593119544915 0.0
109.03415931386063 86.36717447613258 0.0
108.99330490113688 88.3685240025307 0.0
108.9516499963487 90.36998924527039 0.0
108.90914894580386 92.37158047594362 0.0
108.86575550996093 94.37330884526102 0.0
112.65563746818331 -1.590597334965902 0.0
112.61103495467665 0.4078314637980953 0.0
112.56720600607154 2.406430333869462 0.0
112.5241270514814 4.4051906522016875 0.0
112.48177418386518 6.404103444488834 0.0
112.44012301340416 8.403159462608205 0.0
112.39914854119769 10.402349269985754 0.0
112.35882505435008 12.401663332387017 0.0
112.3191260429218 14.401092111576087 0.0
112.28002413863138 16.40062615935239 0.0
112.2414910746344 18.400256209604184 0.0
112.20349766520047 20.399973266230422 0.0
112.16601380368002 22.399768685059023 0.0
112.12900847679715 24.39963424820784 0.0
112.09244979304832 26.39956222968229 0.0
112.05630502281679 28.3995454513612 0.0
112.02054064773252 30.39957732887402 0.0
111.98512241681263 32.39965190719906 0.0
111.9500154069892 34.399763886146204 0.0
111.91518408576947 36.399908636130455 0.0
111.88059237395747 38.40008220484581 0.0
111.84620370658209 40.40028131569455 0.0
111.8119810904219 42.4005033589152 0.0
111.77788715676668 44.40074637646225 0.0
111.74388420831225 46.401009041749035 0.0
111.70993425933159 48.4012906353881 0.0
111.67599906850445 50.40159101806103 0.0
111.64204016400444 52.40191060162046 0.0
111.6080188606456 54.40225031948632 0.0
111.57389626907067 56.40261159734178 0.0
111.5396332971255 58.40299632507154 0.0
111.50519064370478 60.40340683081988 0.0
111.47052878548439 62.40384585797819 0.0
111.43560795706507 64.40431654584219 0.0
111.40038812515326 66.40482241463212 0.0
111.36482895750123 68.40536735548734 0.0
111.32888978741211 70.40595562601038 0.0
111.29252957470258 72.40659185187641 0.0
111.25570686409975 74.40728103497653 0.0
111.21837974213341 76.40802856851327 0.0
111.18050579367642 78.40884025941911 0.0
111.14204205937692 80.40972235841363 0.0
111.10294499532621 82.41068159795843 0.0
111.06317043640796 84.41172523830149 0.0
111.02267356488521 86.41286112172551 0.0
110.98140888589006 88.4140977350254 0.0
110.9393302115979 90.41544428013202 0.0
110.89639065597764 92.41691075267595 0.0
110.85254264212408 94.41850802813815 0.0
114.66048486589676 -1.5443954592180065 0.0
114.61534001570143 0.45414540581701157 0.0
114.5709806412757 2.4528530494471594 0.0
114.52738379144698 4.45171871961705 0.0
114.4845260819526 6.450733246111588 0.0
114.44238353656917 8.449887130385957 0.0
114.40093145166405 10.449170644035156 0.0
114.36014428536427 12.448573932974769 0.0
114.3199955718175 14.448087124345491 0.0
114.28045786032033 16.44770043324555 0.0
114.2415026784222 18.447404266564067 0.0
114.20310051752502 20.447189321458232 0.0
114.16522083899778 22.447046676358315 0.0
114.1278320984253 24.44696787277571 0.0
114.09090178533097 26.446944986608674 0.0
114.05439647553462 28.44697068806871 0.0
114.01828189324733 30.447038289765477 0.0
113.98252298003133 32.44714178286957 0.0
113.94708396787402 34.4472758616513 0.0
113.91192845380587 36.4474359369684 0.0
113.87701947373189 38.4476181395029 0.0
113.84231957341993 40.44781931380234 0.0
113.80779087487956 42.44803700427233 0.0
113.77339513667403 44.44826943437055 0.0
113.73909380700037 46.448515480299655 0.0
113.70484806866271 48.44877464050296 0.0
113.67061887533157 50.44904700224433 0.0
113.6363669787223 52.449333206506076 0.0
113.60205294655098 54.44963441237587 0.0
113.56763717131274 56.44995226201911 0.0
113.5330798701022 58.45028884725224 0.0
113.49834107583641 60.45064667865285 0.0
113.46338062037192 62.451028658062285 0.0
113.42815811011373 64.45143805525744 0.0
113.39263289481366 66.45187848951683 0.0
113.35676403034542 68.45235391671818 0.0
113.32051023632388 70.45286862256935 0.0
113.28382984952236 72.45342722251648 0.0
113.24668077412012 74.45403466882809 0.0
113.20902042990106 76.45469626531003 0.0
113.17080569961718 78.45541769006353 0.0
113.1319928768251 80.45620502665074 0.0
113.09253761561602 82.45706480398282 0.0
113.05239488376837 84.45800404518418 0.0
113.0115189209802 86.45903032561691 0.0
112.9698632039622 88.46015184016429 0.0
112.92738042031205 90.46137747976886 0.0
112.88402245322222 92.46271691709815 0.0
112.8397403792149 94.4641807010632 0.0
116.6649853916862 -1.497638064690594 0.0
116.61930792832715 0.5010164886228505 0.0
116.57442801226223 2.499834586220344 0.0
116.53032342322363 4.498807304042403 0.0
116.48697139512358 6.497925227456553 0.0
116.44434844363852 8.497178555379627 0.0
116.40243022086665 10.49655721384246 0.0
116.36119139838951 12.49605097554814 0.0
116.32060557920187 14.495649581922052 0.0
116.28064523812972 16.49534286427434 0.0
116.24128168956899 18.495120860919876 0.0
116.2024850806835 20.494973927440167 0.0
116.16422440762192 22.494892837698252 0.0
116.12646755186495 24.494868873696127 0.0
116.0891813335092 26.49489390287404 0.0
116.05233157811634 28.49496044196306 0.0
116.01588319372341 30.49506170699327 0.0
115.97980025467504 32.495191649503994 0.0
115.9440460891139 34.49534497943257 0.0
115.9085833672117 36.495517175466304 0.0
115.8733741875284 38.49570448389411 0.0
115.83838015922576 40.49590390725515 0.0
115.80356247822209 42.49611318417322 0.0
115.76888199573365 44.496330761856946 0.0
115.73429927799913 46.49655576277451 0.0
115.69977465631115 48.49678794699642 0.0
115.66526826678223 50.49702767165117 0.0
115.63074007953819 52.49727584886551 0.0
115.59614991727302 54.49753390347324 0.0
115.56145746330122 56.497803731677166 0.0
115.52662225941515 58.49808766174971 0.0
115.49160369400394 60.498388417758214 0.0
115.45636098101211 62.49870908720916 0.0
115.42085313042043 64.49905309341467 0.0
115.38503891102239 66.49942417333045 0.0
115.34887680635185 68.49982636151788 0.0
115.31232496469312 70.50026398085365 0.0
115.2753411441823 72.50074164055076 0.0
115.2378826540866 74.5012642420179 0.0
115.19990629343484 76.50183699304534 0.0
115.1613682882638 78.50246543077151 0.0
115.12222422884997 80.5031554538471 0.0
115.08242900841005 82.50391336417125 0.0
115.04193676487957 84.5047459185248 0.0
115.00070082751654 86.50566039036333 0.0
114.95867367022502 88.50666464195609 0.0
114.91580687365001 90.50776720695954 0.0
114.87205109825904 92.5089773833963 0.0
114.82735607079243 94.5103053368643 0.0
118.669134218531 -1.4503346762107574 0.0
118.62293353083692 0.5484352009815123 0.0
118.57754268360407 2.5473654562543278 0.0
118.53294030887771 4.546446943424341 0.0
118.48910436189085 6.545669947229474 0.0
118.44601193361383 8.545024303988857 0.0
118.40363909469559 10.544499532603119 0.0
118.36196077227343 12.544084971816112 0.0
118.3209506600807 14.543769919616944 0.0
118.28058116126512 16.543543770827704 0.0
118.24082336239151 18.5433961492175 0.0
118.20164703628885 20.543317030915293 0.0
118.16302067073171 22.54329685642505 0.0
118.12491151944349 24.54332662913693 0.0
118.0872856715829 26.543397998847574 0.0
118.05010813571153 28.54350332941548 0.0
118.01334293423692 30.54363575025863 0.0
117.9769532044552 32.54378919191754 0.0
117.94090130256183 34.54395840639345 0.0
117.90514890732528 36.54413897331506 0.0
117.86965712050981 38.54432729326107 0.0
117.8343865615513 40.54452056982861 0.0
117.79929745443019 42.544716782122116 0.0
117.76434970511079 44.5449146494088 0.0
117.72950296832362 46.54511358969004 0.0
117.6947167028461 48.5453136738908 0.0
117.65995021477094 50.54551557728927 0.0
117.62516268854874 52.5457205297013 0.0
117.59031320584172 54.545930265817 0.0
117.55536075244044 56.54614697695825 0.0
117.5202642136661 58.5463732654034 0.0
117.48498235882566 60.54661210230644 0.0
117.4494738154015 62.54686679013011 0.0
117.41369703375064 64.54714093041213 0.0
117.37761024317045 66.54743839762426 0.0
117.34117140025626 68.54776331978358 0.0
117.30433813054283 70.54812006644838 0.0
117.26706766449168 72.54851324467786 0.0
117.22931676895715 74.54894770350391 0.0
117.19104167534591 76.54942854743292 0.0
117.15219800578029 78.54996115947588 0.0
117.11274069868031 80.55055123417533 0.0
117.07262393530351 82.55120482107137 0.0
117.03180106891666 84.55192837900995 0.0
116.99022455843101 86.5527288416466 0.0
116.94784590849638 88.55361369443241 0.0
116.90461561823355 90.55459106328256 0.0
116.86048314097621 92.55566981501426 0.0
116.81539685759209 94.55685966950263 0.0
120.67292648323077 -1.4024943764039222 0.0
120.62621157002707 0.5963924816687451 0.0
120.58031908336753 2.595436629943074 0.0
120.53522864048361 4.594628641753189 0.0
120.4909190296152 6.593958436095168 0.0
120.4473680058196 8.59341541748394 0.0
120.40455212329846 10.592988627152561 0.0
120.36244660587946 12.59266690074826 0.0
120.32102525601292 14.592439027656656 0.0
120.28026040141258 16.592293907312396 0.0
120.2401228773561 18.592220698243004 0.0
120.2005820416946 20.592208956143438 0.0
120.16160581885514 22.592248757943125 0.0
120.12316076855822 24.592330809556323 0.0
120.08521217463144 26.59244653575974 0.0
120.04772414915912 28.592588151377814 0.0
120.01065974726345 30.592748713640752 0.0
119.9739810880156 32.592922156181 0.0
119.93764947732033 34.59310330568056 0.0
119.90162552904262 36.59328788256164 0.0
119.86586928114232 38.593472487404775 0.0
119.83034030410393 40.59365457503731 0.0
119.79499779947213 42.593832418303144 0.0
119.75980068681476 44.59400506356659 0.0
119.72470767790706 46.59417227997013 0.0
119.6896773373557 48.59433450437772 0.0
119.65466812925827 50.594492783812825 0.0
119.61963844981348 52.59464871705352 0.0
119.58454664605941 54.59480439688922 0.0
119.5493510211384 56.59496235438564 0.0
119.51400982665136 58.59512550635091 0.0
119.47848124280281 60.59529710705685 0.0
119.44272334713516 62.59548070514504 0.0
119.40669407273268 64.59568010653533 0.0
119.37035115683847 66.59589934409276 0.0
119.33365208088041 68.59614265470388 0.0
119.29655400295859 70.5964144643938 0.0
119.25901368389793 72.59671938206708 0.0
119.22098740803743 74.59706220243545 0.0
119.1824309000036 76.59744791867843 0.0
119.14329923880486 78.59788174537452 0.0
119.10354677069705 80.59836915222957 0.0
119.06312702239866 82.59891590911485 0.0
119.02199261638174 84.59952814290666 0.0
118.98009519013766 86.60021240658256 0.0
118.93738532150569 88.60097576097786 0.0
118.89381246235791 90.6018258695323 0.0
118.84932488316068 92.60277110625245 0.0
118.8038696311685 94.60382067698642 0.0
122.67635726181494 -1.3541257333517591 0.0
122.62913667115755 0.6448797931502064 0.0
122.5827514692393 2.644039611036429 0.0
122.53718240426518 4.643343945241506 0.0
122.49240921860797 6.6427822735948725 0.0
122.44841042591197 8.642343489039797 0.0
122.40516313083805 10.642016074308199 0.0
122.36264289324524 12.641788283269193 0.0
122.32082363705187 14.641648323177057 0.0
122.27967760252629 16.64158453235432 0.0
122.23917533942165 18.64158554835711 0.0
122.19928573723648 20.64164046237435 0.0
122.15997608800116 22.64173895644603 0.0
122.1212121763701 24.64187142098796 0.0
122.08295839145445 26.642029051028832 0.0
122.04517785473493 28.64220392044861 0.0
122.0078325585209 30.642389034315446 0.0
121.9708835097461 32.64257836011298 0.0
121.93429087434492 34.64276683926143 0.0
121.89801411802284 36.642950380750584 0.0
121.86201213985382 38.643125839006096 0.0
121.82624339578112 40.643290978354145 0.0
121.79066600973253 42.64344442648981 0.0
121.75523787065892 44.643585619352756 0.0
121.71991671435141 46.64371473973215 0.0
121.68466018937427 48.64383265178035 0.0
121.64942590686148 50.64394083344022 0.0
121.614171474268 52.64404130859289 0.0
121.57885451343967 54.644136580531786 0.0
121.54343266357903 56.64422956817003 0.0
121.50786356984709 58.644323546204596 0.0
121.47210485845157 60.64442209029772 0.0
121.43611409916127 62.644529028193546 0.0
121.39984875623713 64.64464839756641 0.0
121.36326612881587 66.64478441133335 0.0
121.32632328181325 68.64494143105698 0.0
121.28897696844787 70.64512394905366 0.0
121.25118354553017 72.64533657978272 0.0
121.21289888270752 74.64558406108678 0.0
121.17407826693005 76.64587126585094 0.0
121.13467630348858 78.64620322465832 0.0
121.09464681508777 80.64658516002692 0.0
121.0539427405542 82.64702253281854 0.0
121.01251603494089 84.64752110140785 0.0
120.97031757297692 86.6480869941826 0.0
120.92729705802367 88.64872679591306 0.0
120.88340293893513 90.64944764846838 0.0
120.8385823374777 92.65025736627105 0.0
120.79278098924085 94.65116456675973 0.0
124.67942154065992 -1.305236720216203 0.0
124.63170330288182 0.6938892035010529 0.0
124.5848338892094 2.693166520102948 0.0
124.53879533922057 4.692585027078913 0.0
124.49356848100018 6.692133673677962 0.0
124.44913268728462 8.691800749276084 0.0
124.40546568158814 10.691574085428954 0.0
124.36254339627011 12.691441264678716 0.0
124.32033988259063 14.691389829240247 0.0
124.27882727099303 16.691407483114745 0.0
124.23797577825036 18.69148228185395 0.0
124.19775375677862 20.69160280510127 0.0
124.15812778040906 22.69175830808537 0.0
124.11906276024297 24.691938849361357 0.0
124.08052208387181 26.692135393214638 0.0
124.04246777122617 28.69233988620349 0.0
124.00486064055589 30.69254530826702 0.0
123.96766047850925 32.692745699625185 0.0
123.93082620890101 34.69293616537706 0.0
123.89431605548772 36.69311286014672 0.0
123.8580876948539 38.69327295543103 0.0
123.82209839629863 40.69341459251869 0.0
123.78630514637331 42.69353682384348 0.0
123.75066475642525 44.69363954557536 0.0
123.71513395212584 46.693723424102785 0.0
123.67966944449962 48.693789818850966 0.0
123.64422798242147 50.69384070363806 0.0
123.60876638690452 52.69387858851493 0.0
123.57324156777776 54.693906443777415 0.0
123.53761052355809 56.69392762759948 0.0
123.50183032545982 58.69394581851564 0.0
123.46585808657564 60.693964953791884 0.0
123.42965091731956 62.69398917456661 0.0
123.3931658682462 64.69402277851 0.0
123.35635986137515 66.69407018068864 0.0
123.31918961115366 68.69413588321497 0.0
123.28161153620363 70.6942244542632 0.0
123.24358166301678 72.69434051700799 0.0
123.2050555227977 74.69448874905004 0.0
123.16598804271659 76.6946738929149 0.0
123.12633343291432 78.69490077823954 0.0
123.08604507071391 80.69517435629142 0.0
123.04507538363919 82.69549974749617 0.0
123.00337573301103 84.69588230266754 0.0
122.96089630010016 86.6963276786423 0.0
122.91758597704955 88.69684192900792 0.0
122.87339226505021 90.6974316105737 0.0
122.82826118254259 92.69810390616702 0.0
122.78213718654075 94.69886676422891 0.0
126.68211418263289 -1.2558346256255972 0.0
126.63390573634142 0.7434134778061128 0.0
126.58656013593966 2.742810187701756 0.0
126.54006088937638 4.742344782051667 0.0
126.49439005362815 6.742005580122614 0.0
126.44952796729382 8.741780161526084 0.0
126.40545304201866 10.741655600316982 0.0
126.36214161485776 12.741618705776016 0.0
126.31956786132511 14.74165626165873 0.0
126.27770376668006 16.741755256271404 0.0
126.2365191510689 18.74190309662681 0.0
126.19598174257855 20.74208780109368 0.0
126.15605729110891 22.742298166278673 0.0
126.11670971525075 24.742523905270588 0.0
126.07790127406167 26.742755755744998 0.0
126.03959275571528 28.74298555769946 0.0
126.00174367540059 30.743206301706103 0.0
125.96431247550703 32.7434121494826 0.0
125.92725672196293 34.743598429329815 0.0
125.89053329153097 36.74376160944663 0.0
125.85409854584796 38.7438992524223 0.0
125.81790848895487 40.74400995437302 0.0
125.78191890597323 42.74409327211535 0.0
125.74608548140128 44.74414964162809 0.0
125.7103638962157 46.74418029081769 0.0
125.67470990355686 48.744187149305944 0.0
125.63907938325882 50.74417275763663 0.0
125.60342837584813 52.744140177967324 0.0
125.56771309690801 54.74409290799625 0.0
125.53188993288276 56.74403479958153 0.0
125.49591541951213 58.74396998325383 0.0
125.45974620413517 60.74390279960703 0.0
125.42333899312466 62.74383773837771 0.0
125.3866504856954 64.74377938588351 0.0
125.34963729530847 66.74373238143343 0.0
125.31225585986664 68.74370138321842 0.0
125.27446234187262 70.74369104421186 0.0
125.23621251972128 72.74370599859864 0.0
125.19746167131187 74.74375085928258 0.0
125.15816445121429 76.7438302270688 0.0
125.1182747626958 78.74394871216927 0.0
125.07774562603245 80.74411096874145 0.0
125.0365290446715 82.74432174322433 0.0
124.99457587100177 84.74458593728504 0.0
124.95183567371276 86.74490868622316 0.0
124.90825660898258 88.74529545369222 0.0
124.86378529803888 90.74575214358488 0.0
124.81836671396448 92.7462852298809 0.0
124.77194408098791 94.74690190517212 0.0
128.68442988745514 -1.2059259533788071 0.0
128.6357379974646 0.7934461805306041 0.0
128.58792369378918 2.79296425879177 0.0
128.5409721486791 4.79261693257141 0.0
128.4948668040721 6.792391773368438 0.0
128.4495890776633 8.79227552828548 0.0
128.405118138526 10.792254391783093 0.0
128.3614307545055 12.792314283818541 0.0
128.3185012106904 14.792441124508674 0.0
128.27630129557386 16.79262109624725 0.0
128.23480034920155 18.792840885387626 0.0
128.19396536576244 20.793087897099483 0.0
128.15376114178756 22.793350438685493 0.0
128.11415046037087 24.793617868374675 0.0
128.07509430161122 26.79388070828176 0.0
128.03655206971877 28.794130721745894 0.0
127.99848182785544 30.794360956566237 0.0
127.96084053269199 32.79456575669031 0.0
127.92358426176712 34.79474074571833 0.0
127.88666842793502 36.794882786051865 0.0
127.85004797640579 38.794989917767516 0.0
127.81367756105352 40.79506128138374 0.0
127.77751169774258 42.795097028520665 0.0
127.74150489336836 44.7950982242006 0.0
127.70561175010891 46.79506674418913 0.0
127.66978704503225 48.795005170372654 0.0
127.63398578570467 50.79491668674817 0.0
127.59816324281155 52.794804978185034 0.0
127.56227496104874 54.7946741337333 0.0
127.52627674968826 56.79452855590404 0.0
127.49012465429007 58.794372877052325 0.0
127.45377491103693 60.79421188375032 0.0
127.41718388513416 62.794050449849536 0.0
127.38030799465571 64.79389347878795 0.0
127.34310362114645 66.79374585564778 0.0
127.30552700822251 68.79361240937374 0.0
127.26753414935555 70.79349788560629 0.0
127.22908066599278 72.79340693059314 0.0
127.19012167715945 74.79334408670321 0.0
127.15061166171981 76.79331380013957 0.0
127.11050431454056 78.79332044153495 0.0
127.0697523979103 80.79336834020285 0.0
127.02830758972301 82.79346183290728 0.0
126.98612033013008 84.79360532809348 0.0
126.94313966861404 86.7938033865887 0.0
126.89931311372125 88.79406081982465 0.0
126.85458648802539 90.7943828066494 0.0
126.8089037912718 92.7947750297773 0.0
126.76220707505888 94.79524383286356 0.0
130.6863631452944 -1.1555163097278855 0.0
130.637193811287 0.8439817906569007 0.0
130.5889176772439 2.843623310220141 0.0
130.5415217973252 4.843396147970952 0.0
130.4949911688305 6.843286990585619 0.0
130.4493084083373 8.843281610567875 0.0
130.40445351044715 10.843365182430292 0.0
130.36040369141057 12.843522604620654 0.0
130.3171333162818 14.843738815316236 0.0
130.2746139049493 16.843999091290073 0.0
130.23281420960282 18.84428932062078 0.0
130.19170035404593 20.844596241953425 0.0
130.15123602381752 22.844907645147913 0.0
130.1113826953462 24.845212530308586 0.0
130.07209989228113 26.845501224232653 0.0
130.0333454576191 28.84576545513573 0.0
129.99507583119112 30.845998388029624 0.0
129.95724632331178 32.84619462429104 0.0
129.91981137685664 34.84635016981411 0.0
129.88272481154817 36.846462376582366 0.0
129.8459400457475 38.84652986267414 0.0
129.80941029245773 40.84655241568934 0.0
129.773088727511 42.846530884282245 0.0
129.73692862899406 44.84646706208949 0.0
129.70088348785544 46.84636356785189 0.0
129.6649070903279 48.846223724992285 0.0
129.62895357331436 50.8460514433753 0.0
129.59297745422376 52.845851105460454 0.0
129.55693363696014 54.84562745859653 0.0
129.520777395852 56.84538551479803 0.0
129.48446433932034 58.84513045900836 0.0
129.4479503550225 60.84486756658817 0.0
129.4111915381102 62.84460213056825 0.0
129.3741441041188 64.84433939906454 0.0
129.33676428787703 66.84408452321607 0.0
129.2990082297103 68.84384251592742 0.0
129.26083185011097 70.84361822176756 0.0
129.22219071398172 72.84341629841614 0.0
129.18303988552614 74.84324121013975 0.0
129.14333377487108 76.84309723389002 0.0
129.1030259775624 78.84298847873669 0.0
129.0620691081832 80.84291891947696 0.0
129.02041462950118 82.84289244538898 0.0
128.9780126787637 84.84291292521485 0.0
128.93481189302372 86.84298428956052 0.0
128.89075923569763 88.84311063198022 0.0
128.845799826922 90.84329633006098 0.0
128.79987678069838 92.84354618783748 0.0
128.7529310522769 94.84386560083448 0.0
132.68790818241783 -1.104610276132962 0.0
132.63826653690055 0.895015831763633 0.0
132.58953475927538 2.8947829835215417 0.0
132.54170202813566 4.894678179313935 0.0
132.4947550824735 6.894687061177748 0.0
132.44867786399985 8.8947942622302 0.0
132.4034512580541 10.894983775488686 0.0
132.35905293531962 12.895239327298667 0.0
132.31545729203881 14.895544741007848 0.0
132.27263548236564 16.895884278007067 0.0
132.230555533131 18.896242945342156 0.0
132.1891825287945 20.89660676161187 0.0
132.14847885277206 22.896962975575853 0.0
132.10840447064612 24.89730023458627 0.0
132.06891724090602 26.897608702453965 0.0
132.02997323968978 28.897880128527163 0.0
131.99152708735272 30.89810787151071 0.0
131.95353226638287 32.8982868828368 0.0
131.9159414220785 34.898413655274794 0.0
131.87870663932722 36.89848614284588 0.0
131.84177969068847 38.89850365816671 0.0
131.80511225266895 40.898466753154416 0.0
131.76865608855755 42.898377088541224 0.0
131.73236319740917 44.89823729706309 0.0
131.69618592973433 46.89805084451898 0.0
131.6600770711762 48.89782189220113 0.0
131.6239898959475 50.897555163522895 0.0
131.58787819211022 52.897255817046904 0.0
131.55169626092143 54.89692932756625 0.0
131.51539889248187 56.896581376425644 0.0
131.47894131985302 58.89621775189403 0.0
131.44227915366088 60.89584426011443 0.0
131.40536829903203 62.895466646954645 0.0
131.368164856504 64.89509053094893 0.0
131.3306250083681 66.8947213475043 0.0
131.29270489171984 68.89436430449071 0.0
131.254360459351 70.89402434943707 0.0
131.21554732950665 72.89370614863141 0.0
131.17622062546977 74.89341407855332 0.0
131.1363348059265 76.89315223021565 0.0
131.09584348710743 78.89292442715863 0.0
131.05469925780304 80.89273425800734 0.0
131.01285348852045 82.8925851246742 0.0
130.97025613626124 84.89248030744899 0.0
130.9268555466996 86.89242304836075 0.0
130.88259825587417 88.8924166543181 0.0
130.83742879392184 90.89246462162203 0.0
130.7912894938411 92.89257078349591 0.0
130.7441203087941 94.89273948228191 0.0
134.68905889750673 -1.0532112649262737 0.0
134.6389490913508 0.9465450196967908 0.0
134.58976708786395 2.9464401357448713 0.0
134.54150446133005 4.946460012447378 0.0
134.49414989644862 6.946589060373818 0.0
134.44768879242102 8.946810581739221 0.0
134.40210298529743 10.947107201865947 0.0
134.35737059056788 12.947461303395501 0.0
134.31346596231484 14.94785544581834 0.0
134.27035976024058 16.94827275492518 0.0
134.22801911183973 18.948697269560586 0.0
134.1864078540896 20.949114236326068 0.0
134.1454868373355 22.949510346331692 0.0
134.10521427351458 24.94987391145335 0.0
134.06554611134442 26.950194980596052 0.0
134.02643642241824 28.950465399032325 0.0
133.987837784063 30.95067881587977 0.0
133.94970164710182 32.95083064616767 0.0
133.9119786791082 34.9509179947953 0.0
133.87461907616594 36.95093954994074 0.0
133.83757283841652 38.95089545335011 0.0
133.8007900066827 40.95078715451436 0.0
133.76422085915883 42.95061725501402 0.0
133.72781606851683 44.95038934848944 0.0
133.69152682080986 46.95010786080685 0.0
133.6553048982791 48.94977789410524 0.0
133.61910272862477 50.94940507757717 0.0
133.58287340353058 52.94899542709221 0.0
133.5465706692804 54.94855521513234 0.0
133.51014889221725 56.94809085198423 0.0
133.47356300161076 58.947608778725105 0.0
133.4367684122547 60.94711537224152 0.0
133.39972092883966 62.94661686232429 0.0
133.3623766338632 64.94611926076584 0.0
133.3246917605705 66.94562830240298 0.0
133.28662255217776 68.94514939802285 0.0
133.2481251084292 70.94468759919798 0.0
133.20915522038845 72.94424757523437 0.0
133.1696681942679 74.94383360259184 0.0
133.12961866506973 76.94344956733349 0.0
133.08896040083516 78.9430989813729 0.0
133.04764609840862 80.94278501350593 0.0
133.00562717177613 82.94251053643175 0.0
132.96285353428922 84.94227819117573 0.0
132.919273376381 86.94209047051747 0.0
132.87483294076597 88.94194982319398 0.0
132.82947629755716 90.9418587807809 0.0
132.78314512224725 92.94182010924797 0.0
132.73577848007616 94.94183698722978 0.0
136.68980878682913 -1.001321354754674 0.0
136.6392338603467 0.9985674310725066 0.0
136.58960618846382 2.9985930116273867 0.0
136.54092004566024 4.998740042624032 0.0
136.4931662859314 6.998991484128341 0.0
136.44633190366469 8.99932908434547 0.0
136.40039973711922 10.999733885966753 0.0
136.3553483159841 13.000186732370507 0.0
136.31115184735444 15.000668752439235 0.0
136.26778032828042 17.00116180555838 0.0
136.22519976818697 19.001648872071847 0.0
136.18337250113723 21.002114378732532 0.0
136.14225756617182 23.002544453091204 0.0
136.10181113369765 25.00292710495948 0.0
136.06198695691305 27.003252336781646 0.0
136.02273682925252 29.003512187771616 0.0
135.9840110315138 31.003700718913066 0.0
135.94575875536972 33.00381394736766 0.0
135.90792849312137 35.00384973959617 0.0
135.8704683865686 37.003807672546216 0.0
135.8333265306239 39.003688871853406 0.0
135.7964512296525 41.003495835264 0.0
135.7597912064539 43.00323224844159 0.0
135.72329576527662 45.00290279919796 0.0
135.68691491132597 47.00251299503601 0.0
135.65059942991255 49.00206898778466 0.0
135.61430092875756 51.001577408100644 0.0
135.57797184708667 53.00104521173628 0.0
135.54156543505718 55.000479538746255 0.0
135.50503570684043 56.99988758622901 0.0
135.46833737035655 58.99927649476709 0.0
135.4314257362945 60.998653248434906 0.0
135.39425660865092 62.998024588063245 0.0
135.3567861586435 64.9973969373645 0.0
135.318970783495 66.99677634158107 0.0
135.28076695127143 68.99616841833702 0.0
135.24213103269702 70.99557832057383 0.0
135.20301912067086 72.99501071161903 0.0
135.16338683807672 74.99446975266704 0.0
135.12318913442357 76.99395910319967 0.0
135.08238007186426 78.99348193514287 0.0
135.04091260123633 80.99304096182483 0.0
134.99873832893948 82.99263848307523 0.0
134.95580727571402 84.9922764480629 0.0
134.91206762871602 86.99195653771632 0.0
134.8674654886923 88.991680268786 0.0
134.82194461454668 90.9914491217937 0.0
134.77544616814995 92.99126469525271 0.0
134.72790846288112 94.99112888863684 0.0
138.69015085613952 -0.94894110195092 0.0
138.6391125932416 1.0510826965979851 0.0
138.58904284978468 3.0512414411993785 0.0
138.53993894353502 5.051518274774212 0.0
138.49179414293343 7.051894449251984 0.0
138.44459717921046 9.052349898237502 0.0
138.3983319314036 11.052863833297367 0.0
138.35297728480694 13.053415335715002 0.0
138.3085071543667 15.05398391774866 0.0
138.2648906568724 17.054550031292727 0.0
138.22209240997367 19.05509550681732 0.0
138.18007293229203 21.055603911036076 0.0
138.13878911722486 23.05606081738506 0.0
138.09819475326293 25.0564539886218 0.0
138.05824106543082 27.056773475332818 0.0
138.01887725542227 29.057011637654604 0.0
137.98005102169262 31.057163099979924 0.0
137.94170904479466 33.057224649854014 0.0
137.9037974272672 35.05719509282675 0.0
137.86626208112642 37.05707507474759 0.0
137.82904905930178 39.056866882184735 0.0
137.79210483009226 41.05657423048588 0.0
137.75537649586798 43.05620204754185 0.0
137.71881195880346 45.055756259823326 0.0
137.68236003748575 47.055243585791864 0.0
137.645970538827 49.05467134042827 0.0
137.60959428994815 51.05404725342666 0.0
137.57318313463972 53.05337930259589 0.0
137.53668989874262 55.052675563202364 0.0
137.50006832838906 57.05194407337229 0.0
137.46327300455528 59.05119271523317 0.0
137.42625923685543 61.05042911119555 0.0
137.38898293898077 63.04966053463322 0.0
137.35140048769003 65.04889383417975 0.0
137.3134685668039 67.04813537097463 0.0
137.27514399726445 69.04739096826401 0.0
137.23638355399515 71.04666587302496 0.0
137.19714377005025 73.04596472950931 0.0
137.1573807283731 75.04529156489335 0.0
137.11704984139888 77.04464978752955 0.0
137.07610561873682 79.04404219862232 0.0
137.03450142325403 81.04347101848037 0.0
136.99218921605924 83.0429379288288 0.0
136.9491192911484 85.04244413298287 0.0
136.90524000082553 87.04199043598803 0.0
136.86049747345962 89.04157734710425 0.0
136.8148353256609 91.04120520725371 0.0
136.76819437157945 93.04087434424534 0.0
136.72051233272353 95.0405852587333 0.0
140.69007751662508 -0.8960693230787173 0.0
140.63857627910212 1.1040922241388658 0.0
140.58806698963036 3.1043870678636676 0.0
140.5385503972545 5.104796554449793 0.0
140.49002245357525 7.105299923566084 0.0
140.4424737700133 9.105874988985576 0.0
140.3958892859005 11.106498843409183 0.0
140.3502481463247 13.107148552241593 0.0
140.30552377720042 15.107801804464192 0.0
140.2616841355371 17.108437494099483 0.0
140.21869210592152 19.109036212451652 0.0
140.17650601007807 21.109580638619168 0.0
140.135080194959 23.110055822982023 0.0
140.09436566582582 25.11044936487123 0.0
140.05431073371963 27.11075149101566 0.0
140.0148616510023 29.11095504539864 0.0
139.9759632136978 31.111055403783823 0.0
139.93755931463784 33.11105032746598 0.0
139.89959343651344 35.11093977100765 0.0
139.86200907851608 37.11072565794637 0.0
139.8247501141503 39.11041163709719 0.0
139.7877610809112 41.110002830346716 0.0
139.75098740484773 43.10950558086276 0.0
139.71437556462462 45.10892720870222 0.0
139.67787320065437 47.10827577896822 0.0
139.64142917529426 49.10755988603153 0.0
139.6049935901175 51.106788455941164 0.0
139.56851776597645 53.105970568018776 0.0
139.53195419107666 55.105115295760996 0.0
139.4952564416529 57.10423156653809 0.0
139.4583790791509 59.10332803915806 0.0
139.4212775271172 61.10241299812628 0.0
139.38390793032548 63.101494263344875 0.0
139.34622699803984 65.10057911402089 0.0
139.30819183276324 67.09967422573985 0.0
139.26975974534238 69.09878561980062 0.0
139.2308880569064 71.09791862424477 0.0
139.19153388782746 73.09707784630812 0.0
139.15165393367434 75.09626715638073 0.0
139.11120422802887 77.09548968393564 0.0
139.0701398920134 79.09474782627798 0.0
139.02841487046166 81.09404327136042 0.0
138.9859816548429 83.09337703630442 0.0
138.9427909933283 85.09274952365037 0.0
138.89879158876516 87.09216059772473 0.0
138.85392978579995 89.09160968385012 0.0
138.80814924896612 91.0910958934258 0.0
138.76139063422093 93.09061817816165 0.0
138.71359125717743 95.09017551695108 0.0
142.6895804615373 -0.8427028427430789 0.0
142.63761499989408 1.1575994576619526 0.0
142.58666749678352 3.158033613217511 0.0
142.53674257288424 5.158578835656684 0.0
142.4878391571276 7.159211991963521 0.0
142.43994988257978 9.159908417481988 0.0
142.39306074091263 11.160642752359312 0.0
142.34715099177401 13.161389757376028 0.0
142.30219330875798 15.162125069957963 0.0
142.25815413188153 17.162825868593256 0.0
142.21499418823169 19.163471422905545 0.0
142.17266913800603 21.16404351624448 0.0
142.13113030234177 23.164526736877168 0.0
142.09032543158352 25.16490864193366 0.0
142.05019947723264 27.165179804681152 0.0
142.01069533692967 29.165333760241285 0.0
141.97175454865112 31.165366867526537 0.0
141.93331791716943 33.16527810613312 0.0
141.89532606221806 35.16506882654875 0.0
141.85771988335296 37.16474247053317 0.0
141.8204409410427 39.16430427640856 0.0
141.78343175697884 41.16376098153904 0.0
141.7466360390305 43.16312053166464 0.0
141.7099988377899 45.16239180428365 0.0
141.67346664240807 47.161584351036076 0.0
141.63698742357383 49.16070816211299 0.0
141.6005106311906 51.1597734541383 0.0
141.56398715369906 53.158790481737846 0.0
141.52736924519667 55.15776937210308 0.0
141.49061042560282 57.15671998124042 0.0
141.45366535819866 59.15565177022351 0.0
141.41648970796365 61.154573699600974 0.0
141.37903998329276 63.15349414010743 0.0
141.34127336291817 65.15242079793825 0.0
141.303147509195 67.15136065312585 0.0
141.2646203683521 69.15031990977549 0.0
141.2256499578537 71.14930395734072 0.0
141.18619414067004 73.14831734248708 0.0
141.14621038601297 75.14736375152496 0.0
141.1056555159562 77.1464460038381 0.0
141.06448543732947 79.14556605719102 0.0
141.02265485835042 81.14472502626425 0.0
140.98011698964112 83.14392321622508 0.0
140.93682322956542 85.14316017359576 0.0
140.89272283422787 87.14243475711358 0.0
140.84776257298103 89.14174523168546 0.0
140.8018863709118 91.1410893889095 0.0
140.75503494050153 93.14046469795876 0.0
140.70714540548497 95.13986849088808 0.0
144.68865051929086 -0.7888361992789608 0.0
144.6362177558139 1.2116101797223373 0.0
144.5848320439586 3.2121871864499996 0.0
144.534502377576 5.212871493308497 0.0
144.48523098410053 7.213637165621409 0.0
144.4370126523169 9.214456637677557 0.0
144.38983437923076 11.215301709575652 0.0
144.3436753282095 13.216144509523426 0.0
144.2985070718351 15.21695837320356 0.0
144.25429407827576 17.21771860217335 0.0
144.210994390322 19.21840307548899 0.0
144.1685604417461 21.218992701402552 0.0
144.12693995591982 23.219471707772545 0.0
144.08607687580152 25.219827779788005 0.0
144.04591228137187 27.220052061159066 0.0
144.00638525920039 29.22013903987798 0.0
143.96743369798273 31.220086342123306 0.0
143.9289949927494 33.219894458204614 0.0
143.8910066483728 35.21956642315736 0.0
143.85340677963129 37.21910747206699 0.0
143.81613451025817 39.21852468706386 0.0
143.7791302771294 41.21782664954413 0.0
143.7423360481571 43.217023107781955 0.0
143.70569546375128 45.21612466701813 0.0
143.66915391211913 47.21514250642785 0.0
143.63265854840958 49.2140881251546 0.0
143.59615826698902 51.212973117856336 0.0
143.5596036351169 53.21180897891741 0.0
143.52294679512173 55.210606933585105 0.0
143.48614134095703 57.209377793732834 0.0
143.4491421738215 59.20813183567415 0.0
143.41190534040433 61.20687869739358 0.0
143.37438785629922 63.205627292670556 0.0
143.33654751623405 65.20438573979662 0.0
143.29834269199026 67.20316130297226 0.0
143.25973211825084 69.20196034478451 0.0
143.22067466609448 71.20078828868107 0.0
143.18112910346477 73.19964959080846 0.0
143.1410538416643 75.1985477210897 0.0
143.1004066667673 77.19748515393565 0.0
143.05914445479453 79.19646336951408 0.0
143.01722286956755 81.1954828670332 0.0
142.97459604233987 83.19454319203103 0.0
142.93121623260825 85.19364298018498 0.0
142.8870334699299 87.19278002066696 0.0
142.84199517711687 89.1919513425515 0.0
142.79604577584777 91.1911533282308 0.0
142.74912627652193 93.19038185818785 0.0
142.70117385508416 95.18963249181547 0.0
146.68727747766064 -0.7344612990224237 0.0
146.63437225646857 1.2661328671536398 0.0
146.58254686562805 3.266856648166117 0.0
146.5318152452641 5.267683689973023 0.0
146.48218327032959 7.268584743323767 0.0
146.43364800374792 9.269528841737667 0.0
146.38619734583716 11.270484494802389 0.0
146.33981006569792 13.271420826726379 0.0
146.29445617616784 15.272308600282512 0.0
146.25009759581363 17.273121080778157 0.0
146.20668903029957 19.273834711293564 0.0
146.16417900141 21.27442958712632 0.0
146.12251095419447 23.274889732430026 0.0
146.0816243798094 25.27520319422881 0.0
146.04145590196777 27.275361977703405 0.0
146.00194028689128 29.275361851789057 0.0
145.96301134883421 31.27520205602147 0.0
145.92460273454975 33.274884938803645 0.0
145.88664857977827 35.27441555461809 0.0
145.84908403859703 37.27380124375167 0.0
145.8118456921957 39.27305121362756 0.0
145.77487184747156 41.27217613630227 0.0
145.73810273802096 43.27118777238162 0.0
145.7014806409644 45.270098627858076 0.0
145.66494992289543 47.26892164724231 0.0
145.62845702740339 49.267669943889544 0.0
145.59195041532783 51.26635656657487 0.0
145.5553804673742 53.264994300082485 0.0
145.51869935710766 55.26359549675912 0.0
145.4818609007473 57.26217193554976 0.0
145.44482038869526 59.26073470490214 0.0
145.40753440236952 61.259294106023184 0.0
145.36996061872082 63.25785957322889 0.0
145.3320576037768 65.25643960849152 0.0
145.2937845956895 67.25504172780022 0.0
145.2551012770503 69.25367241737364 0.0
145.2159675356661 71.25233709837731 0.0
145.17634321256014 73.25104009933548 0.0
145.13618783565443 75.2497846360147 0.0
145.095460337415 77.24857279914774 0.0
145.05411875467348 79.24740555096793 0.0
145.01211990890738 81.2462827321294 0.0
144.96941906544066 83.24520308119496 0.0
144.92596957034095 85.24416426947656 0.0
144.88172246423323 87.24316295460234 0.0
144.8366260728301 89.24219485675174 0.0
144.79062557469334 91.24125486203029 0.0
144.7436625475953 93.2403371579369 0.0
144.69567449582394 95.23943540629224 0.0
148.68544987221182 -0.6795670073829398 0.0
148.63206466989834 1.3211791122124312 0.0
148.5797964929479 3.32205404110894 0.0
148.5286648846008 5.323027809076627 0.0
148.47867974372204 7.324067236009569 0.0
148.42984049782552 9.325137361838127 0.0
148.3821357714473 11.326202881641592 0.0
148.3355435255223 13.327229496785996 0.0
148.29003161233234 15.328185107906755 0.0
148.24555866821555 17.32904079594614 0.0
148.2020752537598 19.329771560094322 0.0
148.1595251483904 21.330356803521777 0.0
148.1178467116694 23.330780576926298 0.0
148.0769742350876 25.3310316046729 0.0
148.03683922325342 27.331103128070744 0.0
147.99737155987935 29.330992605240823 0.0
147.95850052999637 31.330701307746544 0.0
147.92015568406495 33.33023385164854 0.0
147.88226754133282 35.32959769602278 0.0
147.84476813863782 37.328802636089584 0.0
147.8075914369426 39.32786031192155 0.0
147.77067360153598 41.32678374777084 0.0
147.73395317348144 43.32558693171961 0.0
147.69737115002175 45.32428444090402 0.0
147.66087099069298 47.32289111402337 0.0
147.62439856426613 49.32142177019057 0.0
147.58790204962096 51.319890971323105 0.0
147.55133180150324 53.31831282408627 0.0
147.5146401899828 55.316700816756494 0.0
147.47778142043515 57.315067686144694 0.0
147.44071133904902 59.31342530980163 0.0
147.40338722727884 61.31178461902691 0.0
147.36576758728694 63.310155528649645 0.0
147.32781191927106 65.30854688007386 0.0
147.28948049061748 67.30696639473716 0.0
147.25073409605292 69.30542063566946 0.0
147.2115338073561 71.30391497555642 0.0
147.17184071073166 73.30245357033438 0.0
147.1316156296207 75.30103933800761 0.0
147.09081883052602 77.29967394304113 0.0
147.04940970935485 79.29835778735173 0.0
147.00734645583083 81.29709000959727 0.0
146.96458569371117 83.2958684951441 0.0
146.92108209485878 85.29468989977681 0.0
146.87678796568042 87.29354969089125 0.0
146.83165280505384 89.29244221057054 0.0
146.7856228336297 91.29136076556996 0.0
146.73864049531528 93.29029774981171 0.0
146.69064393280905 95.28924480549757 0.0
150.68315473010102 -0.6241386616707567 0.0
150.62927931916605 1.3767641248347404 0.0
150.57656343600058 3.377795103682432 0.0
150.52503298170745 5.37891996995871 0.0
150.47470228013952 7.380100868385305 0.0
150.42557316765476 9.3812981397288 0.0
150.3776347062634 11.382472055037784 0.0
150.33086348036534 13.38358442361862 0.0
150.2852243970389 15.384599982769025 0.0
150.2406718824149 17.385487506108426 0.0
150.19715135334948 19.38622059829966 0.0
150.15460084349183 21.386778173040824 0.0
150.11295267343806 23.387144635384324 0.0
150.07213507261923 25.387309806981612 0.0
150.0320736823539 27.387268643301507 0.0
149.99269289200387 29.387020795785567 0.0
149.95391698101608 31.386570070506753 0.0
149.91567105728754 33.38592382970176 0.0
149.87788179602921 35.38509237513792 0.0
149.84047799303067 37.38408834382637 0.0
149.80339095230534 39.38292613828884 0.0
149.76655473111387 41.38162140604043 0.0
149.72990626604184 43.3801905765037 0.0
149.69338540279423 45.378650458449734 0.0
149.65693485029934 47.377017897211275 0.0
149.6205000770354 49.37530948821404 0.0
149.58402916458573 51.373541341644675 0.0
149.5474726305448 53.37172889212634 0.0
149.51078323018498 55.369886746918226 0.0
149.47391574386032 57.368028566228325 0.0
149.43682675499576 59.366166969599 0.0
149.39947442169407 61.36431346288407 0.0
149.36181824348023 63.36247838100534 0.0
149.3238188234524 65.36067084238826 0.0
149.28543762509793 67.35889871178733 0.0
149.24663672222516 69.35716856886853 0.0
149.20737853983545 71.35548568073644 0.0
149.1676255832755 73.35385397729581 0.0
149.1273401526773 75.35227602907094 0.0
149.0864840394754 77.35075302783065 0.0
149.04501820170393 79.34928477110269 0.0
149.00290241480974 81.34786965239984 0.0
148.96009489489083 83.34650465973928 0.0
148.91655189157797 85.34518538580065 0.0
148.87222724825043 87.34390605384091 0.0
148.82707192790937 89.3426595642443 0.0
148.78103350384924 91.3414375673222 0.0
148.73405561525325 93.34023056866046 0.0
148.68607738900243 95.33902807392404 0.0
152.6803772577052 -0.5681574863027066 0.0
152.62599831322822 1.4329073361825841 0.0
152.5728278009562 3.434099886707517 0.0
152.52089884880036 5.435380644372088 0.0
152.4702306249347 7.436706174883971 0.0
152.42082734573074 9.43803127743712 0.0
152.37267807373232 11.43931109075619 0.0
152.3257572420898 13.440503011610698 0.0
152.2800257896764 15.441568311844108 0.0
152.23543275792693 17.44247338090411 0.0
152.19191718739248 19.443190563301297 0.0
152.1494101570076 21.443698598732077 0.0
152.1078368279158 23.443982702851738 0.0
152.0671183811647 25.44403434697966 0.0
152.0271737696102 27.44385080532978 0.0
151.987921234712 29.443434540005594 0.0
151.94927956562316 31.442792489075998 0.0
151.91116909942318 33.44193531386596 0.0
151.87351247697663 35.44087665035431 0.0
151.83623517903862 37.43963239783196 0.0
151.79926587264495 39.43822006711897 0.0
151.7625365995659 41.436658201302556 0.0
151.72598283768494 43.43496587441517 0.0
151.68954346353814 45.43316226781775 0.0
151.6531606406592 47.431266320087715 0.0
151.61677965440123 49.429296443679426 0.0
151.5803487099331 51.427270300234724 0.0
151.54381870639875 53.42520462588945 0.0
151.50714299690466 55.423115098002945 0.0
151.47027714113025 57.42101623522411 0.0
151.43317865493918 59.41892132354516 0.0
151.39580675936787 61.416842361867964 0.0
151.3581221297461 63.41479002153153 0.0
151.32008664440113 65.41277361516599 0.0
151.28166313135893 67.41080107120652 0.0
151.24281511064962 69.40887891117413 0.0
151.2035065291871 71.40701222774322 0.0
151.16370148472254 73.40520466238577 0.0
151.12336393502096 75.40345838217124 0.0
151.08245738819065 77.4017740560797 0.0
151.0409445699813 79.40015083196977 0.0
150.99878706388924 81.39858631614435 0.0
150.9559449200445 83.39707655828462 0.0
150.9123762291606 85.39561604537367 0.0
150.86803665828637 87.39419770910273 0.0
150.82287894575356 89.39281295213142 0.0
150.77685235357023 91.39145169943313 0.0
150.7299020765728 93.39010248177235 0.0
150.68196860891732 95.38875255909484 0.0
154.67710045690907 -0.5115998852056518 0.0
154.62220109476235 1.4896331297176615 0.0
154.56856682637132 3.490993499882478 0.0
154.51623900797287 5.4924353995366655 0.0
154.46524207714353 7.493908711603387 0.0
154.41558248871442 9.49536168505953 0.0
154.36724865917228 11.496743505257378 0.0
154.32021181931435 13.498006587690774 0.0
154.2744276071993 15.499108454461615 0.0
154.22983819412886 17.50001311116491 0.0
154.18637472593156 19.500691900203517 0.0
154.14395987599187 21.50112385679839 0.0
154.10251033819026 23.501295631222096 0.0
154.06193912925576 25.50120106326784 0.0
154.02215761366637 27.500840503550506 0.0
153.98307720461221 29.500219973557368 0.0
153.94461072815878 31.499350245853478 0.0
153.9066734630545 33.498245910924794 0.0
153.86918388561654 35.49692448078061 0.0
153.8320641587615 37.49540556361183 0.0
153.79524040802312 39.493710130025875 0.0
153.75864282689753 41.491859880207244 0.0
153.72220565057634 43.48987671288143 0.0
153.6858670322618 45.48778229105231 0.0
153.64956885074267 47.48559769572524 0.0
153.6132564723594 49.48334315677487 0.0
153.57687848531316 51.481037849336346 0.0
153.54038641967887 53.47869974420489 0.0
153.50373446255298 55.476345501413725 0.0
153.4668791745053 57.47399039718075 0.0
153.42977921084633 59.471648275598966 0.0
153.3923950491093 61.46933151767995 0.0
153.35468872247134 63.467051021562696 0.0
153.31662355753977 65.4648161888243 0.0
153.27816391391374 67.46263491295049 0.0
153.23927492215662 69.46051356689901 0.0
153.1999222162065 71.4584569876758 0.0
153.16007165579828 73.45646845666205 0.0
153.1196890341275 75.45454967525747 0.0
153.0787397657543 77.45270073621265 0.0
153.037188549612 79.45092009184725 0.0
152.99499900196508 81.44920452119862 0.0
152.9521332542719 83.44754909903592 0.0
152.90855151116304 85.44594717061268 0.0
152.86421156419175 87.44439033701153 0.0
152.81906825765967 89.44286845694248 0.0
152.77307290371485 91.44136967186736 0.0
152.72617264505325 93.43988046229484 0.0
152.6783097649489 95.43838574397887 0.0
156.67330464989823 -0.45443657836834483 0.0
156.617863882162 1.5469717342524034 0.0
156.56375431843955 3.5485070225454636 0.0
156.51102669743617 5.550115800126553 0.0
156.4597111346092 7.551739911339995 0.0
156.40981601045036 9.553319844416592 0.0
156.36132815566583 11.554797883972212 0.0
156.31421417631543 13.556120857076456 0.0
156.26842267430033 15.557242300184832 0.0
156.22388707369612 17.55812395813029 0.0
156.18052875997918 19.55873660648564 0.0
156.13826026911602 21.559060254042322 0.0
156.09698831513734 23.5590838269422 0.0
156.05661650606518 25.5588044590724 0.0
156.0170476586717 27.5582265173594 0.0
155.97818567537385 29.55736048038314 0.0
155.9399369878211 31.556221769698915 0.0
155.9022116004077 33.55482961031992 0.0
155.86492378405043 35.55320597384211 0.0
155.82799247820017 37.551374637017595 0.0
155.7913414596863 39.54936037169573 0.0
155.75489933299514 41.54718826923548 0.0
155.7185993899398 43.54488319350021 0.0
155.682379378899 45.54246935087631 0.0
155.64618121591522 47.53996996268692 0.0
155.60995066259824 49.53740702422274 0.0
155.5736369893112 51.53480113478248 0.0
155.53719263665064 53.53217138411806 0.0
155.50057288376243 55.52953528215023 0.0
155.46373552846936 57.52690872049042 0.0
155.42664058139798 59.52430595600625 0.0
155.3892499741539 61.5217396082922 0.0
155.3515272799631 63.51922066439678 0.0
155.31343744396867 65.51675848547703 0.0
155.2749465194397 67.51436081130554 0.0
155.23602140544907 69.51203375950467 0.0
155.19662958102938 71.50978181741515 0.0
155.15673883039702 73.50760782534253 0.0
155.11631695351014 75.5055129507613 0.0
155.07533145597873 77.50349665387157 0.0
155.0337492121802 79.50155664574011 0.0
154.9915360953651 81.49968884113821 0.0
154.94865656858164 83.49788730913093 0.0
154.90507323044156 85.49614422549628 0.0
154.8607463101406 87.49444983214742 0.0
154.81563310676881 89.49279240989185 0.0
154.7696873688471 91.49115827204943 0.0
154.72285861124098 93.48953178762048 0.0
154.67509136812697 95.48789544377897 0.0
158.66896688541325 -0.39663153869251144 0.0
158.61295897542857 1.60496032469533 0.0
158.55835995925221 3.6066786243893643 0.0
158.50523128544737 5.608460511226933 0.0
158.45360910101428 7.610238115701052 0.0
158.40350314138234 9.61194271020348 0.0
158.35489730080982 11.613508594118008 0.0
158.30775163801974 13.614876382072403 0.0
158.2620054591509 15.61599548592864 0.0
158.2175810721781 17.6168257020649 0.0
158.1743878186423 19.617337925466998 0.0
158.13232604492765 21.61751409627366 0.0
158.09129075739565 23.617346536144378 0.0
158.0511747952015 25.616836852022086 0.0
158.01187143750954 27.61599457951913 0.0
157.9732764294237 29.614835715551905 0.0
157.93528945978483 31.61338125827623 0.0
157.89781515447703 33.61165583863435 0.0
157.86076366384435 35.60968649668668 0.0
157.8240509260752 37.60750162984106 0.0
157.78759868381775 39.6051301202678 0.0
157.75133432216137 41.60260063491603 0.0
157.71519058496818 43.599941082788106 0.0
157.67910521512775 45.597178209454974 0.0
157.64302055367375 47.594337307085326 0.0
157.60688312342677 49.59144201855163 0.0
157.57064321507573 51.588514215699405 0.0
157.53425448739043 53.58557393404252 0.0
157.49767358838338 55.58263934857581 0.0
157.460859800539 57.579726777817406 0.0
157.42377471044844 59.57685070544981 0.0
157.38638190116188 61.574023810951466 0.0
157.3486466640881 63.571257002364014 0.0
157.31053572619987 65.56855944582563 0.0
157.27201698752512 67.56593858784794 0.0
157.2330592633203 69.56340016729479 0.0
157.19363202487298 71.56094821506053 0.0
157.15370513251833 73.55858504025952 0.0
157.11324855414608 75.55631120254785 0.0
157.07223206221852 77.55412547098767 0.0
157.03062490210525 79.55202477068833 0.0
156.98839542439944 81.55000411934503 0.0
156.9455106738269 83.54805655677912 0.0
156.90193592745405 85.54617307168213 0.0
156.85763417518916 87.5443425309879 0.0
156.8125655361286 89.54255161862592 0.0
156.7666866051813 91.54078479181845 0.0
156.71994972567592 93.5390242644991 0.0
156.67230218533004 95.53725002877204 0.0
160.66406018971142 -0.33814067027051653 0.0
160.60745388536566 1.6636443918667472 0.0
160.55234845462502 3.6655549569767327 0.0
160.49881757528982 5.667516657187109 0.0
160.446903660965 7.669449826766422 0.0
160.39661684438434 9.671274772637968 0.0
160.34793615459927 11.672916583630922 0.0
160.30081250461987 13.674309062107497 0.0
160.25517296298096 15.675397529301476 0.0
160.21092573851212 17.67614043079769 0.0
160.16796534898262 19.676509818877676 0.0
160.1261775443793 21.676490894360597 0.0
160.08544368355217 23.676080846209757 0.0
160.04564439186663 25.675287237815716 0.0
160.00666243864958 27.674126166302408 0.0
159.96838485708483 29.672620379128972 0.0
159.93070438398382 31.670797482889878 0.0
159.8935203258417 33.66868833151085 0.0
159.85673896661078 35.66632564042214 0.0
159.8202736280354 37.66374284187029 0.0
159.78404448081176 39.660973174594005 0.0
159.74797818862368 41.658048987336784 0.0
159.7120074502409 43.655001228363666 0.0
159.67607048918154 45.65185909055312 0.0
159.6401105268443 47.64864978214629 0.0
159.60407526382912 49.64539839560338 0.0
159.56791638533164 51.64212785031897 0.0
159.53158909973578 53.63885888856261 0.0
159.4950517145286 55.63561010753923 0.0
159.45826525003352 57.632398013687684 0.0
159.42119308891327 59.62923708814915 0.0
159.3838006576263 61.626139854720236 0.0
159.34605513482546 63.62311694357446 0.0
159.30792518087233 65.62017714562427 0.0
159.26938068208275 67.61732745377606 0.0
159.23039250290873 69.614573088287 0.0
159.19093223893768 71.61191750442224 0.0
159.15097196330044 73.60936238135706 0.0
159.11048395879698 75.60690759200455 0.0
159.06944042777423 77.60455115417527 0.0
159.0278131715065 79.60228916424781 0.0
158.9855732305877 81.60011571539542 0.0
158.9426904776533 83.59802280341128 0.0
158.89913315368688 85.59600022433963 0.0
158.85486733930202 87.59403546946876 0.0
158.8098563528097 89.59211362476742 0.0
158.76406006769366 91.5902172835191 0.0
158.7174341434123 93.58832648264381 0.0
158.66992916527545 95.58641867488518 0.0
162.65855261165888 -0.2789101480087395 0.0
162.6013102310344 1.7230794648318088 0.0
162.5456784782707 3.7251928980409854 0.0
162.49174498367313 5.7273415085772665 0.0
162.43955843873076 7.7294312310167195 0.0
162.38912783583785 9.731369306426672 0.0
162.34042459360288 11.733070258358055 0.0
162.29338696590625 13.734460574522673 0.0
162.24792595574056 15.735481809765162 0.0
162.20393192952034 17.736092079983827 0.0
162.1612812243508 19.736266120252626 0.0
162.1198422119208 21.73599420904282 0.0
162.07948047890443 23.735280312163265 0.0
162.04006296610578 25.73413978899302 0.0
162.00146105368373 27.73259695145822 0.0
161.96355267914598 29.730682694753185 0.0
161.92622363092286 31.72843234523139 0.0
161.88936818171447 33.725883806172746 0.0
161.85288922302655 35.72307603155848 0.0
161.8166980450789 37.72004782231731 0.0
161.780713882308 39.71683691731768 0.0
161.74486331926298 41.71347933974668 0.0
161.70907962802983 43.71000895544892 0.0
161.67330208797486 45.70645720069801 0.0
161.63747532210618 47.70285294063314 0.0
161.60154867156646 49.69922242471037 0.0
161.5654756202306 51.69558931100537 0.0
161.52921327451656 53.69197473645442 0.0
161.4927218987297 55.688397414815384 0.0
161.45596450304924 57.684873748139694 0.0
161.41890647917398 59.68141794085106 0.0
161.38151527735593 61.67804210818535 0.0
161.34376011776473 63.67475637283566 0.0
161.30561172868275 65.67156894525134 0.0
161.2670421037559 67.66848618436914 0.0
161.22802427034003 69.66551263641445 0.0
161.18853206080726 71.66265105028555 0.0
161.14853987847374 73.659902368655 0.0
161.10802244955937 75.65726569453548 0.0
161.06695455227376 77.65473823367044 0.0
161.02531071376254 79.65231521379428 0.0
160.9830648652589 81.64998978260766 0.0
160.94018994541116 83.64775288729865 0.0
160.89665744146922 85.64559313964683 0.0
160.8524368579083 87.6434966722189 0.0
160.80749510226428 89.64144699290952 0.0
160.761795778606 91.63942484707161 0.0
160.71529838032737 93.63740809862867 0.0
160.66795737591318 95.63537164372121 0.0
164.6524059913497 -0.21887430809322828 0.0
164.5944823300073 1.7833333007859826 0.0
164.5383013564841 3.7856617603181224 0.0
164.4839665761115 5.78800459267321 0.0
164.43153257309734 7.790250060060934 0.0
164.381004790732 9.792289828016225 0.0
164.3323431337749 11.794026411609881 0.0
164.28546844281175 13.795378704796462 0.0
164.2402706815443 15.796285290189768 0.0
164.196617702919 17.796705595180697 0.0
164.1543636570373 19.796619231589204 0.0
164.11335638899286 21.79602400261185 0.0
164.0734434704574 23.794933091697203 0.0
164.034476760851 25.793371894351104 0.0
163.996315576086 27.791374853587733 0.0
163.95882865215225 29.78898254586749 0.0
163.92189513862263 31.78623915965583 0.0
163.8854048608883 33.78319042509327 0.0
163.8492580668223 35.77988199407308 0.0
163.8133648376002 37.77635823306299 0.0
163.77764430323785 39.77266137191183 0.0
163.74202376685193 41.76883094539261 0.0
163.70643781050782 43.76490346579337 0.0
163.67082743065876 45.76091227096057 0.0
163.63513923231397 47.75688750029503 0.0
163.59932469736003 49.7528561596901 0.0
163.56333953289803 51.74884224435624 0.0
163.5271430990713 53.74486689543415 0.0
163.49069791178934 55.740948572104486 0.0
163.453969213321 57.737103225574415 0.0
163.4169246023976 59.733344464971694 0.0
163.3795337148446 61.72968370796374 0.0
163.3417679455458 63.72613031099148 0.0
163.3036002025572 65.7226916755102 0.0
163.26500468426607 67.71937332780378 0.0
163.22595667056336 69.71617897061678 0.0
163.1864323189934 71.7131105055358 0.0
163.1464084567362 73.71016802548574 0.0
163.10586235904526 75.70734977714139 0.0
163.06477150440543 77.70465209350773 0.0
163.02311329620215 79.7020692974637 0.0
162.98086474012476 81.6995935777611 0.0
162.93800206590657 83.69721483989055 0.0
162.89450028141596 85.69492053544215 0.0
162.85033264664935 87.69269547516403 0.0
162.80547005502845 89.69052163289443 0.0
162.7598803097506 91.68837794991435 0.0
162.7135272840403 93.6862401519437 0.0
162.66636995620732 95.68408059380685 0.0
166.64557435214326 -0.1579529343794388 0.0
166.5869153767179 1.8444887034919617 0.0
166.53015942149008 3.847046119064166 0.0
166.4754279488748 5.849590354037463 0.0
166.42278037048433 7.8519878650993915 0.0
166.37221485827692 9.854111772452757 0.0
166.32367424977465 11.855851147015581 0.0
166.2770555358982 13.857117444412815 0.0
166.23222119774493 15.857847811723161 0.0
166.1890107967669 17.8580055257785 0.0
166.14725159729628 19.85757817263598 0.0
166.10676746554748 21.856574324231563 0.0
166.0673857256187 23.85501944492975 0.0
166.02894198998985 25.852951630007652 0.0
165.9912831970552 27.850417603054535 0.0
165.95426919274223 29.847469227357855 0.0
165.91777321529798 31.844160644811616 0.0
165.88168161291975 33.84054605443993 0.0
165.84589306913978 35.83667807951112 0.0
165.8103175490927 37.83260663970271 0.0
165.77487512186033 39.82837823405373 0.0
165.739494765215 41.824035543237756 0.0
165.70411322072545 43.8196172697655 0.0
165.66867393875935 45.81515814780525 0.0
165.63312613284097 47.81068906771102 0.0
165.59742394933335 49.80623727260987 0.0
165.56152574980305 51.80182659487541 0.0
165.52539349829826 53.79747770883994 0.0
165.48899224300587 55.79320838278527 0.0
165.45228968053766 57.7890337183333 0.0
165.41525579080943 59.784966369114066 0.0
165.37786253072818 61.78101673328655 0.0
165.34008357538488 63.77719311636693 0.0
165.30189409599794 65.7735018620674 0.0
165.2632705643322 67.76994744975417 0.0
165.22419057366835 69.766532557531 0.0
165.18463266657147 71.76325809038028 0.0
165.14457615969008 73.7601231729765 0.0
165.10400095559825 75.75712510698872 0.0
165.06288733127303 77.75425929292818 0.0
165.02121569218843 79.75151911694695 0.0
164.9789662802263 81.7488958035248 0.0
164.9361188226763 83.74637823578226 0.0
164.8926521086091 85.74395274632056 0.0
164.84854347796335 87.74160288312275 0.0
164.8037682079952 89.73930915724267 0.0
164.75829878158473 91.73704878180662 0.0
164.71210402262346 93.73479541519521 0.0
164.66514808571304 95.73251892495479 0.0
168.63800177169693 -0.09604771967798653 0.0
168.57854306179965 1.9066471993665228 0.0
168.5211839420119 3.9094494736126784 0.0
168.46606596321053 5.912201533213894 0.0
168.41325115044083 7.914742792228905 0.0
168.36272469080328 9.916924374836553 0.0
168.31440444141128 11.918620676066112 0.0
168.2681548322997 13.919736652373416 0.0
168.22380256040398 15.920210704279244 0.0
168.18115184489574 17.920013775519426 0.0
168.1399976973046 19.91914572229713 0.0
168.1001364029938 21.91763010641646 0.0
168.06137303690667 23.915508426992833 0.0
168.02352626483048 25.912834543671554 0.0
167.98643090910682 27.909669759281655 0.0
167.94993882715553 29.906078784460078 0.0
167.91391861863295 31.902126627630736 0.0
167.87825459277818 33.897876341818204 0.0
167.84284532748782 35.89338750281148 0.0
167.80760205724874 37.888715274619834 0.0
167.7724470481824 39.88390992322932 0.0
167.7373120577685 41.87901665681466 0.0
167.70213693300295 43.874075692181165 0.0
167.6668683708364 45.869122468813856 0.0
167.6314588454497 47.86418795116744 0.0
167.59586569528665 49.859298975838804 0.0
167.56005035637395 51.854478612940454 0.0
167.5239777255186 53.849746520651756 0.0
167.48761563615238 55.84511927904846 0.0
167.4509344300193 57.84061069440202 0.0
167.41390660893802 59.83623206865848 0.0
167.37650655216234 61.83199243114608 0.0
167.33871028613228 63.82789873102879 0.0
167.3004952945388 65.82395598985578 0.0
167.26184035752414 67.82016741406815 0.0
167.22272540946344 69.81653446734634 0.0
167.18313140512552 71.81305690277573 0.0
167.14304018406412 73.80973275467704 0.0
167.10243432287106 75.8065582898704 0.0
167.0612969644311 77.80352791811731 0.0
167.0196116125496 79.80063406159007 0.0
166.97736187929542 81.7978669835211 0.0
166.93453117112446 83.79521457678801 0.0
166.89110229835887 85.79266211421012 0.0
166.8470569910176 87.79019196393718 0.0
166.80237530252745 89.78778327566313 0.0
166.75703488186636 91.78541164664364 0.0
166.71101009471826 93.78304878064618 0.0
166.6642709758798 95.78066215782907 0.0
170.6296195196126 -0.03303758036855764 0.0
170.56928442303908 1.9699339032069254 0.0
170.5112925173732 3.9729990477112116 0.0
170.45580737401542 5.975963485626703 0.0
170.4028894885904 7.978632946763823 0.0
170.35250231090149 9.980832684219136 0.0
170.3045274202695 11.982421766187521 0.0
170.25878491864475 13.983300943250306 0.0
170.21505512357257 15.9834143186763 0.0
170.17309848935304 17.982746115634033 0.0
170.132671894977 19.981314303297854 0.0
170.09354059592485 21.979162796306646 0.0
170.05548599942787 23.976353579329192 0.0
170.018309922416 25.972959636312183 0.0
169.981836180318 27.969059128647007 0.0
169.94591033446832 29.96473093935662 0.0
169.91039829565656 31.960051494513575 0.0
169.87518431495357 33.95509266883446 0.0
169.84016873411963 35.94992054927927 0.0
169.80526573663505 37.94459483963736 0.0
169.7704012416414 39.939168719120225 0.0
169.73551101394395 41.93368900474136 0.0
169.70053901783808 43.92819650289548 0.0
169.6654360146671 45.92272646638439 0.0
169.6301583883283 47.91730909799167 0.0
169.59466717525427 49.911970060764745 0.0
169.5589272726907 51.90673096921413 0.0
169.52290679930513 53.90160984564269 0.0
169.48657658390061 55.896621532699854 0.0
169.44990976043445 57.89177805780888 0.0
169.41288145011524 59.88708894797486 0.0
169.37546851376126 61.88256149514502 0.0
169.33764935971402 63.878200973121075 0.0
169.29940379430332 65.87401080727469 0.0
169.26071290316006 67.8699926983148 0.0
169.22155895255693 69.86614670092207 0.0
169.1819253004423 71.86247125776089 0.0
169.1417963069456 73.85896318889395 0.0
169.10115723389566 75.85561763622322 0.0
169.0599941223023 77.85242796225303 0.0
169.0182936358323 79.84938560228612 0.0
168.9760428570224 81.84647986917048 0.0
168.9332290213106 83.84369771002606 0.0
168.88983917191536 85.84102341513285 0.0
168.8458597162007 87.838438280584 0.0
168.8012758616423 89.83592022868238 0.0
168.75607090726194 91.83344339368956 0.0
168.71022536517665 93.83097768561029 0.0
168.66371588768072 95.8284883511126 0.0
172.62034214260044 0.031227653791316312 0.0
172.55903962601832 2.0345040643899353 0.0
172.50038580068056 4.0378521653290775 0.0
172.44456747235824 6.041029730280139 0.0
172.39163622166714 8.043800410979864 0.0
172.34152033755902 10.045959520997004 0.0
172.2940489683103 12.047351429739727 0.0
172.24898206972952 14.047877250696969 0.0
172.206040270014 16.047493884736806 0.0
172.16493053551903 18.046206906853072 0.0
172.12536561126598 20.044060157092034 0.0
172.0870769558837 22.04112449603689 0.0
172.04982200059553 24.0374874208996 0.0
172.01338705175212 26.03324445145958 0.0
171.97758720107026 28.02849257640953 0.0
171.94226440880612 30.02332565545874 0.0
171.90728463995632 32.017831473038356 0.0
171.87253465666004 34.01209007709637 0.0
171.83791884374955 36.00617305389197 0.0
171.80335627856573 38.00014344389623 0.0
171.76877814420973 39.99405606835123 0.0
171.734125515249 41.98795809642266 0.0
171.69934750439276 43.98188973330659 0.0
171.66439973781195 45.97588494886517 0.0
171.62924311819506 47.96997219532628 0.0
171.59384283322828 49.964175083103584 0.0
171.55816756962992 51.95851299780374 0.0
171.5221888970865 53.953001650680925 0.0
171.48588079121657 55.947653560555004 0.0
171.4492192693379 57.94247846856919 0.0
171.41218211698273 59.93748368890134 0.0
171.3747486866632 61.932674399207606 0.0
171.33689975326595 63.9280538745482 0.0
171.29861741270045 65.9236236680704 0.0
171.25988501205273 67.91938374111537 0.0
171.22068710058835 69.9153325444616 0.0
171.18100939152586 71.9114670516775 0.0
171.1408387246397 73.90778274468248 0.0
171.10016301946098 75.90427355086875 0.0
171.05897120816894 77.90093173048258 0.0
171.0172531361806 79.89774771244731 0.0
170.97499941693692 81.89470987647016 0.0
170.93220122535152 83.89180427918512 0.0
170.88885001175552 85.88901432240732 0.0
170.84493711485368 87.886320362575 0.0
170.80045324829274 89.88369926258139 0.0
170.75538783135798 91.88112389099761 0.0
170.70972813096654 93.8785625796816 0.0
170.66345818105287 95.87597855913579 0.0
174.6100620060556 0.09693590333970037 0.0
174.54768423354233 2.1005520352447373 0.0
174.48834340943495 4.104204835147572 0.0
174.43224902001967 6.107589093706319 0.0
174.37943086043677 8.11041589626317 0.0
174.32976140480758 10.112446957140829 0.0
174.2829942742753 12.113515120733885 0.0
174.23880822402896 14.113530175158294 0.0
174.19684791161208 16.112472808773568 0.0
174.15675622200666 18.11038127326914 0.0
174.11819642787674 20.107335248710545 0.0
174.0808649591415 22.103440261573937 0.0
174.04449681280303 24.098814573821077 0.0
174.00886591185525 26.093579248851928 0.0
173.97378243328964 28.08785130528715 0.0
173.93908862151406 30.08173946728047 0.0
173.9046541006261 32.075341896217495 0.0
173.87037129311867 34.06874532237881 0.0
173.83615126403697 36.06202509726673 0.0
173.80192012312455 38.05524580403573 0.0
173.76761600712317 40.04846216885719 0.0
173.7331866054478 42.041720100492306 0.0
173.6985871657929 44.03505774823483 0.0
173.6637789083819 46.02850651279713 0.0
173.6287277798635 48.022091974712616 0.0
173.59340348491736 50.01583472425086 0.0
173.5577787423974 52.00975108883475 0.0
173.52182872162956 54.00385376089366 0.0
173.48553062246938 55.99815233270426 0.0
173.44886336960835 57.99265374625934 0.0
173.41180739729558 59.98736266637567 0.0
173.3743445051983 61.98228178463846 0.0
173.33645776966128 63.97741206072687 0.0
173.29813149727346 65.97275290636745 0.0
173.25935120952616 67.96830231589433 0.0
173.22010364854833 69.96405694589858 0.0
173.1803767945304 71.9600121452559 0.0
173.14015988554777 73.95616193555915 0.0
173.09944343014254 75.95249894088259 0.0
173.0582192022368 77.94901426482005 0.0
173.01648020674216 79.94569731188231 0.0
172.97422060254453 81.94253554960692 0.0
172.9314355672527 83.93951420716256 0.0
172.88812108496032 85.93661590592004 0.0
172.84427363402762 87.93382021772308 0.0
172.7998897463196 89.93110314799195 0.0
172.75496540269677 91.92843654426673 0.0
172.7094952228343 93.92578743743063 0.0
172.66347140283958 95.92311733346742 0.0
176.59864151536573 0.16432499740546525 0.0
176.5350613129259 2.1683238103923657 0.0
176.4750189203301 4.172303469681254 0.0
176.41874207697384 6.175874877085173 0.0
176.3662165537334 8.178683790460086 0.0
176.31722710065287 10.180456446645351 0.0
176.27141889678703 12.1810221455048 0.0
176.22836198607254 14.180313694147648 0.0
176.18760603428507 16.1783521226564 0.0
176.1487194911059 18.175223738317325 0.0
176.11131287984364 20.171056264246577 0.0
176.0750491799734 22.165998246771142 0.0
176.0396453031434 24.160203461840744 0.0
176.0048683123424 26.15382036931906 0.0
175.97052911809877 28.146985802330033 0.0
175.93647542870983 30.13982181649954 0.0
175.90258496860164 32.132434691650886 0.0
175.86875945580078 34.12491527936577 0.0
175.8349195090694 36.117340110350995 0.0
175.8010004787031 38.10977286537216 0.0
175.76694911016435 40.10226595852272 0.0
175.732720918529 42.09486208413403 0.0
175.69827814925029 44.08759564716107 0.0
175.66358821193873 46.08049404048902 0.0
175.62862249020478 48.07357875895953 0.0
175.5933554476426 50.06686635484616 0.0
175.55776396564914 52.06036924714779 0.0
175.5218268621483 54.05409640022247 0.0
175.4855245513071 56.0480538877913 0.0
175.4488388131328 58.042245357368 0.0
175.41175264874548 60.036672408435656 0.0
175.37425020240954 62.031334895628554 0.0
175.33631673538258 64.0262311660173 0.0
175.29793863952304 66.02135823745824 0.0
175.25910348057542 68.01671192304767 0.0
175.21980006228668 70.01228690470086 0.0
175.18001850308502 72.0080767572553 0.0
175.1397503170848 74.00407392286097 0.0
175.09898849071945 76.00026963398669 0.0
175.0577275454138 77.99665378206987 0.0
175.0159635753966 79.9932147276533 0.0
174.97369424800357 81.98993904673637 0.0
174.93091875143898 83.98681120696361 0.0
174.8876376716084 85.98381316617117 0.0
174.84385277467834 87.98092388491958 0.0
174.7995666647851 89.97811874460952 0.0
174.75478227640883 91.97536886496034 0.0
174.70950214913435 93.97264032104532 0.0
174.6637274215987 95.9698932728285 0.0
178.58590175024813 0.2337001743423246 0.0
178.520970413764 2.2381349608335253 0.0
178.46023401020693 4.242461100325064 0.0
178.40392597928232 6.246176451203581 0.0
178.35194962801162 8.24884683811716 0.0
178.30395251693986 10.250165858467678 0.0
178.2594249183469 12.249976036189594 0.0
178.21779342462997 14.248257013326985 0.0
178.1784923068208 16.245094287605664 0.0
178.1410077588055 18.240642124847042 0.0
178.10489860790935 20.23509008879416 0.0
178.06980051393023 22.22863754376685 0.0
178.03542055491178 24.22147674110639 0.0
178.00152739897865 26.213783119009538 0.0
177.96794033982573 28.205710846758574 0.0
177.9345189590278 30.197391784483287 0.0
177.90115418332581 32.18893644666377 0.0
177.86776093549832 34.180435993120334 0.0
177.83427229151695 36.17196462633977 0.0
177.80063493890626 38.163582029288506 0.0
177.76680570321514 40.155335647518676 0.0
177.7327489241554 42.1472627252131 0.0
177.6984344942235 44.139392067097305 0.0
177.66383640726715 46.131745532340474 0.0
177.62893169647143 48.12433928345574 0.0
177.59369966841825 50.11718481990467 0.0
177.5581213618831 52.110289827109106 0.0
177.52217917733353 54.10365886960134 0.0
177.48585663643868 56.097293953715955 0.0
177.449138241037 58.09119498143649 0.0
177.41200940863217 60.085360113240014 0.0
177.37445646712948 62.079786054253134 0.0
177.33646669564172 64.0744682748229 0.0
177.29802840109318 66.06940117370254 0.0
177.25913102228884 68.06457818956454 0.0
177.21976525426487 70.05999186408238 0.0
177.17992318620813 72.0556338578352 0.0
177.1395984461394 74.05149491832196 0.0
177.09878634495857 76.04756479763547 0.0
177.05748401142768 78.04383211575593 0.0
177.0156905082883 80.0402841639517 0.0
176.9734069179871 82.0369066413337 0.0
176.93063638428748 84.03368331602151 0.0
176.88738409294305 86.03059560042735 0.0
176.84365716962478 88.0276220277509 0.0
176.79946446490098 90.02473761437237 0.0
176.75481618264092 92.0219130920959 0.0
176.70972328929983 94.01911399842867 0.0
176.66419662000197 96.01629962677477 0.0
180.57160537096718 0.3054600098394251 0.0
180.50515198239216 2.3103969595447773 0.0
180.44377230428924 4.315080055416523 0.0
180.38767606559495 6.3188533905064475 0.0
180.33661728290437 8.32118848489394 0.0
180.29002961553337 10.321759994881706 0.0
180.24718423067367 12.32045603246152 0.0
180.20732315507922 14.317341207687093 0.0
180.16974713148852 16.312599014279453 0.0
180.1338589721468 18.30647547642522 0.0
180.09917452201756 20.29923541385499 0.0
180.06531488753637 22.29113396052863 0.0
180.03199046454097 24.28240101754938 0.0
179.9989831896349 26.273234837284633 0.0
179.9661302341093 28.26380122768927 0.0
179.93331035407795 30.25423579083892 0.0
179.90043306132551 32.244647516371245 0.0
179.8674303151527 34.235122741829635 0.0
179.83425028774352 36.2257289536625 0.0
179.800852756952 38.2165181857791 0.0
179.76720574074233 40.20752993426986 0.0
179.7332830624608 42.19879359222896 0.0
179.69906260640886 44.190330448801646 0.0
179.66452508213027 46.18215531148875 0.0
179.62965316245342 48.17427781234798 0.0
179.5944308960147 50.16670345396758 0.0
179.55884332173144 52.15943444378594 0.0
179.52287623249052 54.15247035749491 0.0
179.48651604983925 56.14580866486493 0.0
179.44974978206588 58.13944514475519 0.0
179.4125650457381 60.13337421041629 0.0
179.37495013629615 62.12758916140024 0.0
179.33689413721552 64.12208237433387 0.0
179.29838705995294 66.11684544133304 0.0
179.2594200086269 68.1118692619422 0.0
179.2199853643621 70.10714409169535 0.0
179.18007698453516 72.10265954813931 0.0
179.13969041190694 74.09840457292785 0.0
179.0988230878608 76.09436734659455 0.0
179.0574745627927 78.09053515075476 0.0
179.01564669522088 80.08689417077211 0.0
178.97334382954367 82.08342923025447 0.0
178.93057294062902 84.08012344686033 0.0
178.8873437312474 86.07695779628627 0.0
178.84366866459894 88.07391056728154 0.0
178.79956290626188 90.07095668481605 0.0
178.75504413391272 92.06806687247271 0.0
178.7101321455849 94.06520662336733 0.0
178.66484815890433 96.06233495984118 0.0
182.55543003077287 0.38013624301434445 0.0
182.48726514680314 2.385656881066497 0.0
182.42537484384644 4.390683908950483 0.0
182.36988052429356 6.3943510850708325 0.0
182.32026970453444 8.396028265371315 0.0
182.2756440686843 10.395407990582415 0.0
182.23497084902192 12.392483282332709 0.0
182.19726516990934 14.387461893653693 0.0
182.16168617076488 16.38066845950495 0.0
182.1275655748052 18.372465164395642 0.0
182.09439682785205 20.363200840741797 0.0
182.0618078154463 22.3531847150085 0.0
182.02953071114027 24.342677023150802 0.0
181.99737520522 26.331889267648382 0.0
181.96520701109606 28.320989124559617 0.0
181.93293154841288 30.310107012348823 0.0
181.90048196353976 32.29934274172205 0.0
181.8678105192543 34.2887715197902 0.0
181.8348824937122 36.27844905427349 0.0
181.8016719029031 38.26841574138859 0.0
181.7681585290017 40.25870002686317 0.0
181.73432587604307 42.24932106546127 0.0
181.70015978112653 44.240290806278665 0.0
181.66564748819516 46.231615618206135 0.0
181.63077704834612 48.223297552247885 0.0
181.59553695116824 50.21533531954995 0.0
181.55991592028548 52.207725048029694 0.0
181.52390282649154 54.20046086701995 0.0
181.48748668608528 56.19353535832884 0.0
181.4506567220164 58.18693990326838 0.0
181.41340247247976 60.18066494815097 0.0
181.37571393650956 62.17470020512212 0.0
181.33758174952584 64.16903480065181 0.0
181.29899738406326 66.16365738024815 0.0
181.25995337233965 68.15855617489856 0.0
181.22044354805274 70.15371903182513 0.0
181.18046330492277 72.14913340975401 0.0
181.1400098690767 74.14478633649169 0.0
181.09908258143838 76.140664324371 0.0
181.05768318491337 78.1367532370086 0.0
181.0158161095098 80.13303809885232 0.0
180.97348874689288 82.1295028371772 0.0
180.93071170465174 84.12612994429969 0.0
180.88749902996298 86.122900045072 0.0
180.8438683915984 88.11979134969366 0.0
180.7998412050901 90.11677896255972 0.0
180.75544267120603 92.11383400371966 0.0
180.71070166268169 94.11092248522677 0.0
180.66565033194098 96.10800388404128 0.0
184.53692533095145 0.45845715901449346 0.0
184.4668561370475 2.464659516123792 0.0
184.40474271326144 4.469961828028582 0.0
184.35047840952728 6.473213594221457 0.0
184.30307732288554 8.473699482637787 0.0
184.26113146503846 10.47121530803079 0.0
184.22320274934518 12.46596162021595 0.0
184.18805026216742 14.458372026574676 0.0
184.15470796306766 16.448959738576708 0.0
184.12247133442264 18.438219738033688 0.0
184.09084790479108 20.426581307182552 0.0
184.0595028733129 22.414394219879473 0.0
184.02821303387555 24.401932265159346 0.0
183.99683172841029 26.38940388116306 0.0
183.9652636948231 28.376964400936547 0.0
183.93344759247123 30.364727419503833 0.0
183.90134409931053 32.35277439260196 0.0
183.86892790770352 34.341162344619164 0.0
183.83618239435884 36.32992988027347 0.0
183.8030961042879 38.3191017913764 0.0
183.7696604581789 40.30869254900116 0.0
183.73586828261227 42.298708933171355 0.0
183.70171289320584 44.2891520050727 0.0
183.66718754942798 46.28001858256438 0.0
183.63228515957584 48.27130234244571 0.0
183.59699815461212 50.26299464308021 0.0
183.56131847659742 52.255085137802034 0.0
183.52523764568969 54.247562231831935 0.0
183.4887468820141 56.24041342203934 0.0
183.45183726707575 58.23362554877601 0.0
183.41449993507962 60.227184981356075 0.0
183.3767262883932 62.22107775291326 0.0
183.33850823399834 64.21528965581844 0.0
183.29983843949043 66.20980630518196 0.0
183.26071060821022 68.20461317503822 0.0
183.22111977357332 70.19969560899415 0.0
183.18106261262463 72.19503880478116 0.0
183.14053777830844 74.19062776968296 0.0
183.0995462488752 76.18644724140151 0.0
183.05809169127497 78.18248156650395 0.0
183.0161808334363 80.17871452628754 0.0
182.9738238384116 82.1751290978627 0.0
182.93103467231174 84.17170713655041 0.0
182.88783145900229 86.1684289637539 0.0
182.84423681853525 88.16527284016756 0.0
182.8002781910887 90.16221429300852 0.0
182.75598814395258 92.15922524230334 0.0
182.71140462495453 94.15627283535513 0.0
182.66657103626224 96.15331786814195 0.0
186.51543980821143 0.5414555920856647 0.0
186.44331501389112 2.5484459493192473 0.0
186.38156164137075 4.553828897045957 0.0
186.32954187197322 6.556078568415092 0.0
186.28542998253155 8.55448630413456 0.0
186.24705804943636 10.549127595222414 0.0
186.2124884957698 12.540578948575556 0.0
186.18024156809204 14.529599404942289 0.0
186.14928847103715 16.516925589900477 0.0
186.11895517281343 18.503177160703515 0.0
186.0888165000934 20.48883711423151 0.0
186.0586123272045 22.474264761146017 0.0
186.02818819278622 24.459719113106775 0.0
185.99745570343055 26.44538228156922 0.0
185.96636689930997 28.43137925203091 0.0
185.93489795072992 30.4177933560293 0.0
185.90303890630173 32.40467789971353 0.0
185.87078731129654 34.392064709625004 0.0
185.8381442836523 36.37997033290829 0.0
185.80511214573647 38.368400502475446 0.0
185.7716930392964 40.357353338621714 0.0
185.7378881607992 42.346821638231575 0.0
185.7036973873017 44.336794508010684 0.0
185.6691191472257 46.32725852706476 0.0
185.6341504438888 48.31819857206519 0.0
185.5987869737297 50.30959840060687 0.0
185.56302330298246 52.301441061355234 0.0
185.5268530805926 54.293709180238515 0.0
185.4902692742411 56.28638515808174 0.0
185.4532644222502 58.27945130510424 0.0
185.41583089800284 60.27288993047292 0.0
185.3779611860428 62.26668339978912 0.0
185.3396481706888 64.26081416939 0.0
185.30088543905944 66.25526480320096 0.0
185.261667601025 68.25001797540546 0.0
185.22199062885952 70.24505645974762 0.0
185.18185221923756 72.24036310419636 0.0
185.14125217966955 74.23592078733735 0.0
185.10019284038643 76.23171235035247 0.0
185.0586794909861 78.2277204957092 0.0
185.01672083884029 80.22392764083857 0.0
184.97432948366222 82.22031571248971 0.0
184.93152240082978 84.21686586565075 0.0
184.88832142743607 86.213558110271 0.0
184.84475375366065 88.21037082816548 0.0
184.80085244092496 90.20728015482361 0.0
184.7566570104835 92.2042591722804 0.0
184.7122141387387 94.20127679393266 0.0
184.66757839431207 96.19829613042138 0.0
188.48998977497308 0.630653219829634 0.0
188.41582313055025 2.6385248147259275 0.0
188.35559022355724 4.643488422093476 0.0
188.30744695920185 6.643618246614611 0.0
188.26810142654426 8.638466262606906 0.0
188.23432071599944 10.628751686766115 0.0
188.20366169680852 12.615653447502876 0.0
188.17452422679415 14.600340156938174 0.0
188.14595038897278 16.583751076123185 0.0
188.1173952056317 18.566573466034377 0.0
188.08856432620584 20.549283140826123 0.0
188.0593092346209 22.532197618781815 0.0
188.02956403187636 24.515522039920228 0.0
187.99930812598612 26.499384022431638 0.0
187.96854456989288 28.483858578811557 0.0
187.9372876231253 30.468985411830744 0.0
187.90555571744048 32.45478073970394 0.0
187.87336757693046 34.4412453170466 0.0
187.84074017586462 36.42836985100817 0.0
187.8076877627296 38.416138646258915 0.0
187.77422149759923 40.40453204878885 0.0
187.74034943665916 42.39352807533456 0.0
187.70607670764787 44.383103490436945 0.0
187.67140578505425 46.373234508761946 0.0
187.63633681264562 48.36389724342373 0.0
187.6008679440353 50.35506798264885 0.0
187.56499568586142 52.346723351135424 0.0
187.52871523647016 54.33884039479972 0.0
187.4920208179859 56.33139661554467 0.0
187.45490600265595 58.32436997439532 0.0
187.4173640361722 60.317738875598806 0.0
187.37938816177723 62.311482140243456 0.0
187.3409719496583 64.30557897502723 0.0
187.30210963656532 66.30000893956682 0.0
187.2627964808556 68.29475191393377 0.0
187.22302913826763 70.2897880662801 0.0
187.18280606362623 72.2850978188304 0.0
187.14212794326838 74.28066180848191 0.0
187.10099816208484 76.27646083584791 0.0
187.05942330747422 78.27247579360149 0.0
187.01741370995632 80.26868756146192 0.0
186.97498401670205 82.26507685145506 0.0
186.93215379050395 84.26162398413506 0.0
186.8889481255581 86.25830857603881 0.0
186.84539827989417 88.2551091224719 0.0
186.80154235639142 90.25200246486311 0.0
186.7574261307986 92.24896311569496 0.0
186.71310419885103 94.24596232947033 0.0
186.66864157345162 96.24296661357481 0.0
190.45900858185487 0.7284634787476434 0.0
190.38332929662764 2.7371174520092074 0.0
190.32691279999096 4.740482196561262 0.0
190.28522435951467 6.736287798936892 0.0
190.25248268353724 8.725171357100852 0.0
190.22423320237013 10.70904006676481 0.0
190.1977579174485 12.689927328781657 0.0
190.17164202109882 14.669347079902286 0.0
190.14519343545578 16.648307112919785 0.0
190.11810836683696 18.627433922386047 0.0
190.09027889571735 20.60709906086253 0.0
190.06169269166423 22.58751123788791 0.0
190.0323807726775 24.568777758434447 0.0
190.0023909098004 26.55094378045823 0.0
189.97177433130736 28.534016973920956 0.0
189.9405793639787 30.517982884104725 0.0
189.90884866870326 32.502814459829764 0.0
189.8766183206574 34.4884779326767 0.0
189.8439178117415 36.47493641363522 0.0
189.81077048947765 38.462152059440946 0.0
189.77719417815348 40.45008734168352 0.0
189.74320185179928 42.43870575361021 0.0
189.7088022949497 44.42797216613795 0.0
189.67400072263808 46.417852967280616 0.0
189.6387993498579 48.40831607046234 0.0
189.60319791044867 50.39933084626887 0.0
189.56719413017535 52.39086801246403 0.0
189.53078416096477 54.382899504456574 0.0
189.4939629840948 56.37539834027784 0.0
189.45672479029622 58.368338488895986 0.0
189.41906334461135 60.3616947473172 0.0
189.38097234365785 62.355442629735634 0.0
189.34244577278534 64.34955827054338 0.0
189.30347827052083 66.344018341968 0.0
189.26406550769906 68.33879998640413 0.0
189.22420458872358 70.33388076253875 0.0
189.18389448244102 72.3292386035339 0.0
189.143136490009 74.32485178412284 0.0
189.10193475668262 76.32069889151268 0.0
189.0602968332964 78.31675879212364 0.0
189.01823429091124 80.31301058220598 0.0
188.9757633880203 82.30943350525028 0.0
188.93290578360694 84.3060068135737 0.0
188.88968928248704 86.30270954800214 0.0
188.84614859873614 88.29952021389053 0.0
188.80232614979298 90.29641635197353 0.0
188.7582730020749 92.29337403471008 0.0
188.71405031677438 94.2903672716362 0.0
188.66973186223538 96.28736701532767 0.0
192.41984428708707 0.8387600857320225 0.0
192.34468905165045 2.847767855205041 0.0
192.2966878677088 4.846321812887318 0.0
192.26515187500283 6.8336982456292645 0.0
192.24084101808162 8.812842155082688 0.0
192.21845855215975 10.787853183285023 0.0
192.19587006670224 12.76135903133684 0.0
192.172251390173 14.734865875716643 0.0
192.14737971097819 16.709157197328672 0.0
192.12126836000547 18.684608563349606 0.0
192.09401797771247 20.661372333363584 0.0
192.06575145561337 22.63948219101801 0.0
192.03658778645092 24.618910657455253 0.0
192.00663240306355 26.599600570995666 0.0
191.9759747105266 28.581482190566888 0.0
191.94468857793345 30.564482361962874 0.0
191.91283393052885 32.548529282160345 0.0
191.88045862336466 34.53355481862152 0.0
191.84760025472744 36.5194954760222 0.0
191.81428779280662 38.506292625208346 0.0
191.78054298503517 40.4938923423326 0.0
191.746381560067 42.48224505526589 0.0
191.71181424741374 44.47130510833415 0.0
191.67684764335755 46.46103030701623 0.0
191.6414849505094 48.451381475773246 0.0
191.60572661538458 50.442322045822046 0.0
191.5695708850007 52.43381768035905 0.0
191.533014300399 54.42583593956549 0.0
191.49605214234418 56.418345984975105 0.0
191.45867884233124 58.41131832145471 0.0
191.42088837039887 60.40472457454297 0.0
191.38267461005972 62.39853730085308 0.0
191.34403172986856 64.39272982944941 0.0
191.3049545606993 66.38727613238696 0.0
191.2654389876419 68.3821507230211 0.0
191.22548236552277 70.37732858072752 0.0
191.1850839673057 72.37278510080078 0.0
191.14424547494673 74.36849606784477 0.0
191.10297152246198 76.3644376499476 0.0
191.06127030065684 78.36058640889371 0.0
191.01915423154432 80.35691931808657 0.0
190.9766407168974 82.35341377410927 0.0
190.93375295802159 84.35004757952426 0.0
190.89052083098002 86.34679886464097 0.0
190.846981783907 88.34364591042286 0.0
190.80318171640528 90.34056685189906 0.0
190.75917586959443 92.33753932040088 0.0
190.71503014037864 94.33454023904405 0.0
190.67082406224418 96.33154577545645 0.0
194.36769426833752 0.9698066168829631 0.0
194.29997336833483 2.974797981604879 0.0
194.2687281183244 4.961738606384337 0.0
194.2517552096247 6.932424868087531 0.0
194.23603758913808 8.897399129778186 0.0
194.21864048597527 10.861556432445582 0.0
194.19881419293634 12.827066318951475 0.0
194.17669390681746 14.794706462152666 0.0
194.15258864870486 16.76466235435443 0.0
194.126818148732 18.73687214780061 0.0
194.09965840824177 20.71118149970017 0.0
194.0713349801097 22.687410634220726 0.0
194.04202790153175 24.665382826281103 0.0
194.01187950093197 26.644935488329956 0.0
193.98100176226268 28.625923475350266 0.0
193.94948249566892 30.6082189862979 0.0
193.917390271297 32.59171008705552 0.0
193.88477829900177 34.576298787580825 0.0
193.8516874672955 36.56189909241396 0.0
193.81814873064872 38.54843519991505 0.0
193.78418499743188 40.535839910665274 0.0
193.74981263653427 42.52405325255899 0.0
193.71504269271466 44.51302130739252 0.0
193.67988187911064 46.50269521556083 0.0
193.64433339901873 48.493030334105796 0.0
193.60839763691737 50.48398552500848 0.0
193.57207274971054 52.47552255341843 0.0
193.5353551825395 54.46760557857786 0.0
193.49824012864045 56.46020072312784 0.0
193.4607219491824 58.453275709128974 0.0
193.42279456648237 60.446799551452266 0.0
193.384451842235 62.44074230122207 0.0
193.34568795126194 64.4350748337548 0.0
193.306497760647 66.4297686769589 0.0
193.2668772239279 68.42479587764822 0.0
193.22682380017795 70.42012890425853 0.0
193.1863369083024 72.41574058564882 0.0
193.14541842759505 74.41160408641997 0.0
193.10407325645352 76.40769291962016 0.0
193.06230994183736 78.40398099742315 0.0
193.02014139203226 80.40044271878322 0.0
192.9775856833905 82.39705308913805 0.0
192.934666965624 84.3937878592527 0.0
192.8914164554221 86.39062365609112 0.0
192.8478734770556 88.3875380574627 0.0
192.8040864525442 90.38450954456043 0.0
192.7601136867981 92.38151730776585 0.0
192.71602391965646 94.37854117504467 0.0
192.67189819662542 96.37556270815185 0.0
196.29492893252305 1.1315787539000524 0.0
196.2542922783523 3.126724256299032 0.0
196.25454161416283 5.078020594965567 0.0
196.25019141407802 7.023371061817188 0.0
196.24049186114095 8.971685900586323 0.0
196.22556195435405 10.925148511914102 0.0
196.20666958301447 12.883635812989768 0.0
196.1847448008629 14.846539104112427 0.0
196.16048921895458 16.81321245548447 0.0
196.13440745528592 18.78309287917071 0.0
196.10686803412807 20.755715886109442 0.0
196.07814297431005 22.730704520138897 0.0
196.04843573277972 24.707753334407105 0.0
196.01790009832033 26.686613650504167 0.0
195.98665323915617 28.66708146646524 0.0
195.95478483991235 30.648987936815658 0.0
195.92236362391614 32.63219198307669 0.0
195.88944209518067 34.616574572471684 0.0
195.85606004890568 36.602034274702106 0.0
195.82224721578308 38.588483791048766 0.0
195.78802528752826 40.57584722343948 0.0
195.7534094940577 42.56405790887952 0.0
195.71840985171897 44.55305668842112 0.0
195.6830321676445 46.54279051247062 0.0
195.64727886188174 48.53321130841532 0.0
195.61114965273427 50.52427505449388 0.0
195.57464213943118 52.51594101720575 0.0
195.53775230823567 54.50817111959136 0.0
195.5004749824473 56.50092941532193 0.0
195.46280423273626 58.49418164936886 0.0
195.42473376144787 60.487894890567375 0.0
195.38625727260464 62.482037225002465 0.0
195.34736883812272 64.47657750208982 0.0
195.30806327011382 66.47148512769088 0.0
195.2683365089624 68.46672990091916 0.0
195.2281860371186 70.46228189316595 0.0
195.18761132918252 72.45811137002666 0.0
195.14661434984544 74.45418875880051 0.0
195.10520011254624 76.45048466639075 0.0
195.06337731314713 78.44696995463313 0.0
195.02115905415496 80.4436158821118 0.0
194.97856367513896 82.44039432273698 0.0
194.93561570188237 84.43727807016832 0.0
194.89234691544013 86.43424122997149 0.0
194.84879751051332 88.43125968074187 0.0
194.80501723241863 90.42831153867498 0.0
194.76106619046539 92.4253774852079 0.0
194.71701468822937 94.42244083337505 0.0
194.6729412946672 96.41948832529634 0.0
198.1930988451266 1.3844865226444523 0.0
198.24856597571903 3.26990007308644 0.0
198.26215615646 5.170370155896828 0.0
198.26327302388478 7.090941821903158 0.0
198.25388163861345 9.026782260824492 0.0
198.23828064573019 10.973423631047115 0.0
198.21839478937332 12.927942880205553 0.0
198.1954744036684 14.888421569144777 0.0
198.17029838636557 16.853559592694495 0.0
198.14339167026293 18.82244361354103 0.0
198.1151191548986 20.794411042423413 0.0
198.0857427464984 22.768967793577442 0.0
198.0554546029065 24.74573661157788 0.0
198.0243980695173 26.724423467407618 0.0
197.992681284275 28.704795006400047 0.0
197.96038635502399 30.686662991666232 0.0
197.92757573480253 32.669873309145366 0.0
197.89429677046476 34.65429802789735 0.0
197.86058502552217 36.639829555821144 0.0
197.82646676024214 38.626376263178216 0.0
197.79196081985106 40.6138591539814 0.0
197.75708009934726 42.60220929828094 0.0
197.721832700725 44.59136582553565 0.0
197.68622286391692 46.58127433755714 0.0
197.6502517297098 48.57188563926034 0.0
197.61391797722607 50.56315471302697 0.0
197.57721836774815 52.55503988194188 0.0
197.54014821912833 54.54750212110196 0.0
197.50270182972724 56.54050448635365 0.0
197.46487286711857 58.534011637342935 0.0
197.42665473420962 60.52798943745072 0.0
197.38804092370364 62.52240461760035 0.0
197.34902537073916 64.51722449445383 0.0
197.3096028129906 66.51241673644321 0.0
197.26976916739147 68.50794917383294 0.0
197.22952193293588 70.50378965134718 0.0
197.1888606296712 72.4999059246679 0.0
197.14778728501605 74.49626560500955 0.0
197.10630697988998 76.49283615957499 0.0
197.06442846872937 78.48958498027744 0.0
197.02216488904486 80.48647953918017 0.0
196.9795345770946 82.4834876572586 0.0
196.936562004869 84.48057792396835 0.0
196.89327884571838 86.4777203188243 0.0
196.84972515063427 88.47488710033441 0.0
196.80595054321927 90.47205403014688 0.0
196.76201512640057 92.46920194502297 0.0
196.71798914238423 94.46631844928154 0.0
196.6739483902169 96.46339887907115 0.0

CELLS 5000 25000
4 0 4 300 299
4 299 300 301 298
4 298 301 302 297
4 297 302 303 296
4 296 303 304 295
4 295 304 305 294
4 294 305 306 293
4 293 306 307 292
4 292 307 308 291
4 291 308 309 290
4 290 309 310 289
4 289 310 311 288
4 288 311 312 287
4 287 312 313 286
4 286 313 314 285
4 285 314 315 284
4 284 315 316 283
4 283 316 317 282
4 282 317 318 281
4 281 318 319 280
4 280 319 320 279
4 279 320 321 278
4 278 321 322 277
4 277 322 323 276
4 276 323 324 275
4 275 324 325 274
4 274 325 326 273
4 273 326 327 272
4 272 327 328 271
4 271 328 329 270
4 270 329 330 269
4 269 330 331 268
4 268 331 332 267
4 267 332 333 266
4 266 333 334 265
4 265 334 335 264
4 264 335 336 263
4 263 336 337 262
4 262 337 338 261
4 261 338 339 260
4 260 339 340 259
4 259 340 341 258
4 258 341 342 257
4 257 342 343 256
4 256 343 344 255
4 255 344 345 254
4 254 345 346 253
4 253 346 347 252
4 252 347 348 251
4 251 348 250 3
4 4 5 349 300
4 300 349 350 301
4 301 350 351 302
4 302 351 352 303
4 303 352 353 304
4 304 353 354 305
4 305 354 355 306
4 306 355 356 307
4 307 356 357 308
4 308 357 358 309
4 309 358 359 310
4 310 359 360 311
4 311 360 361 312
4 312 361 362 313
4 313 362 363 314
4 314 363 364 315
4 315 364 365 316
4 316 365 366 317
4 317 366 367 318
4 318 367 368 319
4 319 368 369 320
4 320 369 370 321
4 321 370 371 322
4 322 371 372 323
4 323 372 373 324
4 324 373 374 325
4 325 374 375 326
4 326 375 376 327
4 327 376 377 328
4 328 377 378 329
4 329 378 379 330
4 330 379 380 331
4 331 380 381 332
4 332 381 382 333
4 333 382 383 334
4 334 383 384 335
4 335 384 385 336
4 336 385 386 337
4 337 386 387 338
4 338 387 388 339
4 339 388 389 340
4 340 389 390 341
4 341 390 391 342
4 342 391 392 343
4 343 392 393 344
4 344 393 394 345
4 345 394 395 346
4 346 395 396 347
4 347 396 397 348
4 348 397 249 250
4 5 6 398 349
4 349 398 399 350
4 350 399 400 351
4 351 400 401 352
4 352 401 402 353
4 353 402 403 354
4 354 403 404 355
4 355 404 405 356
4 356 405 406 357
4 357 406 407 358
4 358 407 408 359
4 359 408 409 360
4 360 409 410 361
4 361 410 411 362
4 362 411 412 363
4 363 412 413 364
4 364 413 414 365
4 365 414 415 366
4 366 415 416 367
4 367 416 417 368
4 368 417 418 369
4 369 418 419 370
4 370 419 420 371
4 371 420 421 372
4 372 421 422 373
4 373 422 423 374
4 374 423 424 375
4 375 424 425 376
4 376 425 426 377
4 377 426 427 378
4 378 427 428 379
4 379 428 429 380
4 380 429 430 381
4 381 430 431 382
4 382 431 432 383
4 383 432 433 384
4 384 433 434 385
4 385 434 435 386
4 386 435 436 387
4 387 436 437 388
4 388 437 438 389
4 389 438 439 390
4 390 439 440 391
4 391 440 441 392
4 392 441 442 393
4 393 442 443 394
4 394 443 444 395
4 395 444 445 396
4 396 445 446 397
4 397 446 248 249
4 6 7 447 398
4 398 447 448 399
4 399 448 449 400
4 400 449 450 401
4 401 450 451 402
4 402 451 452 403
4 403 452 453 404
4 404 453 454 405
4 405 454 455 406
4 406 455 456 407
4 407 456 457 408
4 408 457 458 409
4 409 458 459 410
4 410 459 460 411
4 411 460 461 412
4 412 461 462 413
4 413 462 463 414
4 414 463 464 415
4 415 464 465 416
4 416 465 466 417
4 417 466 467 418
4 418 467 468 419
4 419 468 469 420
4 420 469 470 421
4 421 470 471 422
4 422 471 472 423
4 423 472 473 424
4 424 473 474 425
4 425 474 475 426
4 426 475 476 427
4 427 476 477 428
4 428 477 478 429
4 429 478 479 430
4 430 479 480 431
4 431 480 481 432
4 432 481 482 433
4 433 482 483 434
4 434 483 484 435
4 435 484 485 436
4 436 485 486 437
4 437 486 487 438
4 438 487 488 439
4 439 488 489 440
4 440 489 490 441
4 441 490 491 442
4 442 491 492 443
4 443 492 493 444
4 444 493 494 445
4 445 494 495 446
4 446 495 247 248
4 7 8 496 447
4 447 496 497 448
4 448 497 498 449
4 449 498 499 450
4 450 499 500 451
4 451 500 501 452
4 452 501 502 453
4 453 502 503 454
4 454 503 504 455
4 455 504 505 456
4 456 505 506 457
4 457 506 507 458
4 458 507 508 459
4 459 508 509 460
4 460 509 510 461
4 461 510 511 462
4 462 511 512 463
4 463 512 513 464
4 464 513 514 465
4 465 514 515 466
4 466 515 516 467
4 467 516 517 468
4 468 517 518 469
4 469 518 519 470
4 470 519 520 471
4 471 520 521 472
4 472 521 522 473
4 473 522 523 474
4 474 523 524 475
4 475 524 525 476
4 476 525 526 477
4 477 526 527 478
4 478 527 528 479
4 479 528 529 480
4 480 529 530 481
4 481 530 531 482
4 482 531 532 483
4 483 532 533 484
4 484 533 534 485
4 485 534 535 486
4 486 535 536 487
4 487 536 537 488
4 488 537 538 489
4 489 538 539 490
4 490 539 540 491
4 491 540 541 492
4 492 541 542 493
4 493 542 543 494
4 494 543 544 495
4 495 544 246 247
4 8 9 545 496
4 496 545 546 497
4 497 546 547 498
4 498 547 548 499
4 499 548 549 500
4 500 549 550 501
4 501 550 551 502
4 502 551 552 503
4 503 552 553 504
4 504 553 554 505
4 505 554 555 506
4 506 555 556 507
4 507 556 557 508
4 508 557 558 509
4 509 558 559 510
4 510 559 560 511
4 511 560 561 512
4 512 561 562 513
4 513 562 563 514
4 514 563 564 515
4 515 564 565 516
4 516 565 566 517
4 517 566 567 518
4 518 567 568 519
4 519 568 569 520
4 520 569 570 521
4 521 570 571 522
4 522 571 572 523
4 523 572 573 524
4 524 573 574 525
4 525 574 575 526
4 526 575 576 527
4 527 576 577 528
4 528 577 578 529
4 529 578 579 530
4 530 579 580 531
4 531 580 581 532
4 532 581 582 533
4 533 582 583 534
4 534 583 584 535
4 535 584 585 536
4 536 585 586 537
4 537 586 587 538
4 538 587 588 539
4 539 588 589 540
4 540 589 590 541
4 541 590 591 542
4 542 591 592 543
4 543 592 593 544
4 544 593 245 246
4 9 10 594 545
4 545 594 595 546
4 546 595 596 547
4 547 596 597 548
4 548 597 598 549
4 549 598 599 550
4 550 599 600 551
4 551 600 601 552
4 552 601 602 553
4 553 602 603 554
4 554 603 604 555
4 555 604 605 556
4 556 605 606 557
4 557 606 607 558
4 558 607 608 559
4 559 608 609 560
4 560 609 610 561
4 561 610 611 562
4 562 611 612 563
4 563 612 613 564
4 564 613 614 565
4 565 614 615 566
4 566 615 616 567
4 567 616 617 568
4 568 617 618 569
4 569 618 619 570
4 570 619 620 571
4 571 620 621 572
4 572 621 622 573
4 573 622 623 574
4 574 623 624 575
4 575 624 625 576
4 576 625 626 577
4 577 626 627 578
4 578 627 628 579
4 579 628 629 580
4 580 629 630 581
4 581 630 631 582
4 582 631 632 583
4 583 632 633 584
4 584 633 634 585
4 585 634 635 586
4 586 635 636 587
4 587 636 637 588
4 588 637 638 589
4 589 638 639 590
4 590 639 640 591
4 591 640 641 592
4 592 641 642 593
4 593 642 244 245
4 10 11 643 594
4 594 643 644 595
4 595 644 645 596
4 596 645 646 597
4 597 646 647 598
4 598 647 648 599
4 599 648 649 600
4 600 649 650 601
4 601 650 651 602
4 602 651 652 603
4 603 652 653 604
4 604 653 654 605
4 605 654 655 606
4 606 655 656 607
4 607 656 657 608
4 608 657 658 609
4 609 658 659 610
4 610 659 660 611
4 611 660 661 612
4 612 661 662 613
4 613 662 663 614
4 614 663 664 615
4 615 664 665 616
4 616 665 666 617
4 617 666 667 618
4 618 667 668 619
4 619 668 669 620
4 620 669 670 621
4 621 670 671 622
4 622 671 672 623
4 623 672 673 624
4 624 673 674 625
4 625 674 675 626
4 626 675 676 627
4 627 676 677 628
4 628 677 678 629
4 629 678 679 630
4 630 679 680 631
4 631 680 681 632
4 632 681 682 633
4 633 682 683 634
4 634 683 684 635
4 635 684 685 636
4 636 685 686 637
4 637 686 687 638
4 638 687 688 639
4 639 688 689 640
4 640 689 690 641
4 641 690 691 642
4 642 691 243 244
4 11 12 692 643
4 643 692 693 644
4 644 693 694 645
4 645 694 695 646
4 646 695 696 647
4 647 696 697 648
4 648 697 698 649
4 649 698 699 650
4 650 699 700 651
4 651 700 701 652
4 652 701 702 653
4 653 702 703 654
4 654 703 704 655
4 655 704 705 656
4 656 705 706 657
4 657 706 707 658
4 658 707 708 659
4 659 708 709 660
4 660 709 710 661
4 661 710 711 662
4 662 711 712 663
4 663 712 713 664
4 664 713 714 665
4 665 714 715 666
4 666 715 716 667
4 667 716 717 668
4 668 717 718 669
4 669 718 719 670
4 670 719 720 671
4 671 720 721 672
4 672 721 722 673
4 673 722 723 674
4 674 723 724 675
4 675 724 725 676
4 676 725 726 677
4 677 726 727 678
4 678 727 728 679
4 679 728 729 680
4 680 729 730 681
4 681 730 731 682
4 682 731 732 683
4 683 732 733 684
4 684 733 734 685
4 685 734 735 686
4 686 735 736 687
4 687 736 737 688
4 688 737 738 689
4 689 738 739 690
4 690 739 740 691
4 691 740 242 243
4 12 13 741 692
4 692 741 742 693
4 693 742 743 694
4 694 743 744 695
4 695 744 745 696
4 696 745 746 697
4 697 746 747 698
4 698 747 748 699
4 699 748 749 700
4 700 749 750 701
4 701 750 751 702
4 702 751 752 703
4 703 752 753 704
4 704 753 754 705
4 705 754 755 706
4 706 755 756 707
4 707 756 757 708
4 708 757 758 709
4 709 758 759 710
4 710 759 760 711
4 711 760 761 712
4 712 761 762 713
4 713 762 763 714
4 714 763 764 715
4 715 764 765 716
4 716 765 766 717
4 717 766 767 718
4 718 767 768 719
4 719 768 769 720
4 720 769 770 721
4 721 770 771 722
4 722 771 772 723
4 723 772 773 724
4 724 773 774 725
4 725 774 775 726
4 726 775 776 727
4 727 776 777 728
4 728 777 778 729
4 729 778 779 730
4 730 779 780 731
4 731 780 781 732
4 732 781 782 733
4 733 782 783 734
4 734 783 784 735
4 735 784 785 736
4 736 785 786 737
4 737 786 787 738
4 738 787 788 739
4 739 788 789 740
4 740 789 241 242
4 13 14 790 741
4 741 790 791 742
4 742 791 792 743
4 743 792 793 744
4 744 793 794 745
4 745 794 795 746
4 746 795 796 747
4 747 796 797 748
4 748 797 798 749
4 749 798 799 750
4 750 799 800 751
4 751 800 801 752
4 752 801 802 753
4 753 802 803 754
4 754 803 804 755
4 755 804 805 756
4 756 805 806 757
4 757 806 807 758
4 758 807 808 759
4 759 808 809 760
4 760 809 810 761
4 761 810 811 762
4 762 811 812 763
4 763 812 813 764
4 764 813 814 765
4 765 814 815 766
4 766 815 816 767
4 767 816 817 768
4 768 817 818 769
4 769 818 819 770
4 770 819 820 771
4 771 820 821 772
4 772 821 822 773
4 773 822 823 774
4 774 823 824 775
4 775 824 825 776
4 776 825 826 777
4 777 826 827 778
4 778 827 828 779
4 779 828 829 780
4 780 829 830 781
4 781 830 831 782
4 782 831 832 783
4 783 832 833 784
4 784 833 834 785
4 785 834 835 786
4 786 835 836 787
4 787 836 837 788
4 788 837 838 789
4 789 838 240 241
4 14 15 839 790
4 790 839 840 791
4 791 840 841 792
4 792 841 842 793
4 793 842 843 794
4 794 843 844 795
4 795 844 845 796
4 796 845 846 797
4 797 846 847 798
4 798 847 848 799
4 799 848 849 800
4 800 849 850 801
4 801 850 851 802
4 802 851 852 803
4 803 852 853 804
4 804 853 854 805
4 805 854 855 806
4 806 855 856 807
4 807 856 857 808
4 808 857 858 809
4 809 858 859 810
4 810 859 860 811
4 811 860 861 812
4 812 861 862 813
4 813 862 863 814
4 814 863 864 815
4 815 864 865 816
4 816 865 866 817
4 817 866 867 818
4 818 867 868 819
4 819 868 869 820
4 820 869 870 821
4 821 870 871 822
4 822 871 872 823
4 823 872 873 824
4 824 873 874 825
4 825 874 875 826
4 826 875 876 827
4 827 876 877 828
4 828 877 878 829
4 829 878 879 830
4 830 879 880 831
4 831 880 881 832
4 832 881 882 833
4 833 882 883 834
4 834 883 884 835
4 835 884 885 836
4 836 885 886 837
4 837 886 887 838
4 838 887 239 240
4 15 16 888 839
4 839 888 889 840
4 840 889 890 841
4 841 890 891 842
4 842 891 892 843
4 843 892 893 844
4 844 893 894 845
4 845 894 895 846
4 846 895 896 847
4 847 896 897 848
4 848 897 898 849
4 849 898 899 850
4 850 899 900 851
4 851 900 901 852
4 852 901 902 853
4 853 902 903 854
4 854 903 904 855
4 855 904 905 856
4 856 905 906 857
4 857 906 907 858
4 858 907 908 859
4 859 908 909 860
4 860 909 910 861
4 861 910 911 862
4 862 911 912 863
4 863 912 913 864
4 864 913 914 865
4 865 914 915 866
4 866 915 916 867
4 867 916 917 868
4 868 917 918 869
4 869 918 919 870
4 870 919 920 871
4 871 920 921 872
4 872 921 922 873
4 873 922 923 874
4 874 923 924 875
4 875 924 925 876
4 876 925 926 877
4 877 926 927 878
4 878 927 928 879
4 879 928 929 880
4 880 929 930 881
4 881 930 931 882
4 882 931 932 883
4 883 932 933 884
4 884 933 934 885
4 885 934 935 886
4 886 935 936 887
4 887 936 238 239
4 16 17 937 888
4 888 937 938 889
4 889 938 939 890
4 890 939 940 891
4 891 940 941 892
4 892 941 942 893
4 893 942 943 894
4 894 943 944 895
4 895 944 945 896
4 896 945 946 897
4 897 946 947 898
4 898 947 948 899
4 899 948 949 900
4 900 949 950 901
4 901 950 951 902
4 902 951 952 903
4 903 952 953 904
4 904 953 954 905
4 905 954 955 906
4 906 955 956 907
4 907 956 957 908
4 908 957 958 909
4 909 958 959 910
4 910 959 960 911
4 911 960 961 912
4 912 961 962 913
4 913 962 963 914
4 914 963 964 915
4 915 964 965 916
4 916 965 966 917
4 917 966 967 918
4 918 967 968 919
4 919 968 969 920
4 920 969 970 921
4 921 970 971 922
4 922 971 972 923
4 923 972 973 924
4 924 973 974 925
4 925 974 975 926
4 926 975 976 927
4 927 976 977 928
4 928 977 978 929
4 929 978 979 930
4 930 979 980 931
4 931 980 981 932
4 932 981 982 933
4 933 982 983 934
4 934 983 984 935
4 935 984 985 936
4 936 985 237 238
4 17 18 986 937
4 937 986 987 938
4 938 987 988 939
4 939 988 989 940
4 940 989 990 941
4 941 990 991 942
4 942 991 992 943
4 943 992 993 944
4 944 993 994 945
4 945 994 995 946
4 946 995 996 947
4 947 996 997 948
4 948 997 998 949
4 949 998 999 950
4 950 999 1000 951
4 951 1000 1001 952
4 952 1001 1002 953
4 953 1002 1003 954
4 954 1003 1004 955
4 955 1004 1005 956
4 956 1005 1006 957
4 957 1006 1007 958
4 958 1007 1008 959
4 959 1008 1009 960
4 960 1009 1010 961
4 961 1010 1011 962
4 962 1011 1012 963
4 963 1012 1013 964
4 964 1013 1014 965
4 965 1014 1015 966
4 966 1015 1016 967
4 967 1016 1017 968
4 968 1017 1018 969
4 969 1018 1019 970
4 970 1019 1020 971
4 971 1020 1021 972
4 972 1021 1022 973
4 973 1022 1023 974
4 974 1023 1024 975
4 975 1024 1025 976
4 976 1025 1026 977
4 977 1026 1027 978
4 978 1027 1028 979
4 979 1028 1029 980
4 980 1029 1030 981
4 981 1030 1031 982
4 982 1031 1032 983
4 983 1032 1033 984
4 984 1033 1034 985
4 985 1034 236 237
4 18 19 1035 986
4 986 1035 1036 987
4 987 1036 1037 988
4 988 1037 1038 989
4 989 1038 1039 990
4 990 1039 1040 991
4 991 1040 1041 992
4 992 1041 1042 993
4 993 1042 1043 994
4 994 1043 1044 995
4 995 1044 1045 996
4 996 1045 1046 997
4 997 1046 1047 998
4 998 1047 1048 999
4 999 1048 1049 1000
4 1000 1049 1050 1001
4 1001 1050 1051 1002
4 1002 1051 1052 1003
4 1003 1052 1053 1004
4 1004 1053 1054 1005
4 1005 1054 1055 1006
4 1006 1055 1056 1007
4 1007 1056 1057 1008
4 1008 1057 1058 1009
4 1009 1058 1059 1010
4 1010 1059 1060 1011
4 1011 1060 1061 1012
4 1012 1061 1062 1013
4 1013 1062 1063 1014
4 1014 1063 1064 1015
4 1015 1064 1065 1016
4 1016 1065 1066 1017
4 1017 1066 1067 1018
4 1018 1067 1068 1019
4 1019 1068 1069 1020
4 1020 1069 1070 1021
4 1021 1070 1071 1022
4 1022 1071 1072 1023
4 1023 1072 1073 1024
4 1024 1073 1074 1025
4 1025 1074 1075 1026
4 1026 1075 1076 1027
4 1027 1076 1077 1028
4 1028 1077 1078 1029
4 1029 1078 1079 1030
4 1030 1079 1080 1031
4 1031 1080 1081 1032
4 1032 1081 1082 1033
4 1033 1082 1083 1034
4 1034 1083 235 236
4 19 20 1084 1035
4 1035 1084 1085 1036
4 1036 1085 1086 1037
4 1037 1086 1087 1038
4 1038 1087 1088 1039
4 1039 1088 1089 1040
4 1040 1089 1090 1041
4 1041 1090 1091 1042
4 1042 1091 1092 1043
4 1043 1092 1093 1044
4 1044 1093 1094 1045
4 1045 1094 1095 1046
4 1046 1095 1096 1047
4 1047 1096 1097 1048
4 1048 1097 1098 1049
4 1049 1098 1099 1050
4 1050 1099 1100 1051
4 1051 1100 1101 1052
4 1052 1101 1102 1053
4 1053 1102 1103 1054
4 1054 1103 1104 1055
4 1055 1104 1105 1056
4 1056 1105 1106 1057
4 1057 1106 1107 1058
4 1058 1107 1108 1059
4 1059 1108 1109 1060
4 1060 1109 1110 1061
4 1061 1110 1111 1062
4 1062 1111 1112 1063
4 1063 1112 1113 1064
4 1064 1113 1114 1065
4 1065 1114 1115 1066
4 1066 1115 1116 1067
4 1067 1116 1117 1068
4 1068 1117 1118 1069
4 1069 1118 1119 1070
4 1070 1119 1120 1071
4 1071 1120 1121 1072
4 1072 1121 1122 1073
4 1073 1122 1123 1074
4 1074 1123 1124 1075
4 1075 1124 1125 1076
4 1076 1125 1126 1077
4 1077 1126 1127 1078
4 1078 1127 1128 1079
4 1079 1128 1129 1080
4 1080 1129 1130 1081
4 1081 1130 1131 1082
4 1082 1131 1132 1083
4 1083 1132 234 235
4 20 21 1133 1084
4 1084 1133 1134 1085
4 1085 1134 1135 1086
4 1086 1135 1136 1087
4 1087 1136 1137 1088
4 1088 1137 1138 1089
4 1089 1138 1139 1090
4 1090 1139 1140 1091
4 1091 1140 1141 1092
4 1092 1141 1142 1093
4 1093 1142 1143 1094
4 1094 1143 1144 1095
4 1095 1144 1145 1096
4 1096 1145 1146 1097
4 1097 1146 1147 1098
4 1098 1147 1148 1099
4 1099 1148 1149 1100
4 1100 1149 1150 1101
4 1101 1150 1151 1102
4 1102 1151 1152 1103
4 1103 1152 1153 1104
4 1104 1153 1154 1105
4 1105 1154 1155 1106
4 1106 1155 1156 1107
4 1107 1156 1157 1108
4 1108 1157 1158 1109
4 1109 1158 1159 1110
4 1110 1159 1160 1111
4 1111 1160 1161 1112
4 1112 1161 1162 1113
4 1113 1162 1163 1114
4 1114 1163 1164 1115
4 1115 1164 1165 1116
4 1116 1165 1166 1117
4 1117 1166 1167 1118
4 1118 1167 1168 1119
4 1119 1168 1169 1120
4 1120 1169 1170 1121
4 1121 1170 1171 1122
4 1122 1171 1172 1123
4 1123 1172 1173 1124
4 1124 1173 1174 1125
4 1125 1174 1175 1126
4 1126 1175 1176 1127
4 1127 1176 1177 1128
4 1128 1177 1178 1129
4 1129 1178 1179 1130
4 1130 1179 1180 1131
4 1131 1180 1181 1132
4 1132 1181 233 234
4 21 22 1182 1133
4 1133 1182 1183 1134
4 1134 1183 1184 1135
4 1135 1184 1185 1136
4 1136 1185 1186 1137
4 1137 1186 1187 1138
4 1138 1187 1188 1139
4 1139 1188 1189 1140
4 1140 1189 1190 1141
4 1141 1190 1191 1142
4 1142 1191 1192 1143
4 1143 1192 1193 1144
4 1144 1193 1194 1145
4 1145 1194 1195 1146
4 1146 1195 1196 1147
4 1147 1196 1197 1148
4 1148 1197 1198 1149
4 1149 1198 1199 1150
4 1150 1199 1200 1151
4 1151 1200 1201 1152
4 1152 1201 1202 1153
4 1153 1202 1203 1154
4 1154 1203 1204 1155
4 1155 1204 1205 1156
4 1156 1205 1206 1157
4 1157 1206 1207 1158
4 1158 1207 1208 1159
4 1159 1208 1209 1160
4 1160 1209 1210 1161
4 1161 1210 1211 1162
4 1162 1211 1212 1163
4 1163 1212 1213 1164
4 1164 1213 1214 1165
4 1165 1214 1215 1166
4 1166 1215 1216 1167
4 1167 1216 1217 1168
4 1168 1217 1218 1169
4 1169 1218 1219 1170
4 1170 1219 1220 1171
4 1171 1220 1221 1172
4 1172 1221 1222 1173
4 1173 1222 1223 1174
4 1174 1223 1224 1175
4 1175 1224 1225 1176
4 1176 1225 1226 1177
4 1177 1226 1227 1178
4 1178 1227 1228 1179
4 1179 1228 1229 1180
4 1180 1229 1230 1181
4 1181 1230 232 233
4 22 23 1231 1182
4 1182 1231 1232 1183
4 1183 1232 1233 1184
4 1184 1233 1234 1185
4 1185 1234 1235 1186
4 1186 1235 1236 1187
4 1187 1236 1237 1188
4 1188 1237 1238 1189
4 1189 1238 1239 1190
4 1190 1239 1240 1191
4 1191 1240 1241 1192
4 1192 1241 1242 1193
4 1193 1242 1243 1194
4 1194 1243 1244 1195
4 1195 1244 1245 1196
4 1196 1245 1246 1197
4 1197 1246 1247 1198
4 1198 1247 1248 1199
4 1199 1248 1249 1200
4 1200 1249 1250 1201
4 1201 1250 1251 1202
4 1202 1251 1252 1203
4 1203 1252 1253 1204
4 1204 1253 1254 1205
4 1205 1254 1255 1206
4 1206 1255 1256 1207
4 1207 1256 1257 1208
4 1208 1257 1258 1209
4 1209 1258 1259 1210
4 1210 1259 1260 1211
4 1211 1260 1261 1212
4 1212 1261 1262 1213
4 1213 1262 1263 1214
4 1214 1263 1264 1215
4 1215 1264 1265 1216
4 1216 1265 1266 1217
4 1217 1266 1267 1218
4 1218 1267 1268 1219
4 1219 1268 1269 1220
4 1220 1269 1270 1221
4 1221 1270 1271 1222
4 1222 1271 1272 1223
4 1223 1272 1273 1224
4 1224 1273 1274 1225
4 1225 1274 1275 1226
4 1226 1275 1276 1227
4 1227 1276 1277 1228
4 1228 1277 1278 1229
4 1229 1278 1279 1230
4 1230 1279 231 232
4 23 24 1280 1231
4 1231 1280 1281 1232
4 1232 1281 1282 1233
4 1233 1282 1283 1234
4 1234 1283 1284 1235
4 1235 1284 1285 1236
4 1236 1285 1286 1237
4 1237 1286 1287 1238
4 1238 1287 1288 1239
4 1239 1288 1289 1240
4 1240 1289 1290 1241
4 1241 1290 1291 1242
4 1242 1291 1292 1243
4 1243 1292 1293 1244
4 1244 1293 1294 1245
4 1245 1294 1295 1246
4 1246 1295 1296 1247
4 1247 1296 1297 1248
4 1248 1297 1298 1249
4 1249 1298 1299 1250
4 1250 1299 1300 1251
4 1251 1300 1301 1252
4 1252 1301 1302 1253
4 1253 1302 1303 1254
4 1254 1303 1304 1255
4 1255 1304 1305 1256
4 1256 1305 1306 1257
4 1257 1306 1307 1258
4 1258 1307 1308 1259
4 1259 1308 1309 1260
4 1260 1309 1310 1261
4 1261 1310 1311 1262
4 1262 1311 1312 1263
4 1263 1312 1313 1264
4 1264 1313 1314 1265
4 1265 1314 1315 1266
4 1266 1315 1316 1267
4 1267 1316 1317 1268
4 1268 1317 1318 1269
4 1269 1318 1319 1270
4 1270 1319 1320 1271
4 1271 1320 1321 1272
4 1272 1321 1322 1273
4 1273 1322 1323 1274
4 1274 1323 1324 1275
4 1275 1324 1325 1276
4 1276 1325 1326 1277
4 1277 1326 1327 1278
4 1278 1327 1328 1279
4 1279 1328 230 231
4 24 25 1329 1280
4 1280 1329 1330 1281
4 1281 1330 1331 1282
4 1282 1331 1332 1283
4 1283 1332 1333 1284
4 1284 1333 1334 1285
4 1285 1334 1335 1286
4 1286 1335 1336 1287
4 1287 1336 1337 1288
4 1288 1337 1338 1289
4 1289 1338 1339 1290
4 1290 1339 1340 1291
4 1291 1340 1341 1292
4 1292 1341 1342 1293
4 1293 1342 1343 1294
4 1294 1343 1344 1295
4 1295 1344 1345 1296
4 1296 1345 1346 1297
4 1297 1346 1347 1298
4 1298 1347 1348 1299
4 1299 1348 1349 1300
4 1300 1349 1350 1301
4 1301 1350 1351 1302
4 1302 1351 1352 1303
4 1303 1352 1353 1304
4 1304 1353 1354 1305
4 1305 1354 1355 1306
4 1306 1355 1356 1307
4 1307 1356 1357 1308
4 1308 1357 1358 1309
4 1309 1358 1359 1310
4 1310 1359 1360 1311
4 1311 1360 1361 1312
4 1312 1361 1362 1313
4 1313 1362 1363 1314
4 1314 1363 1364 1315
4 1315 1364 1365 1316
4 1316 1365 1366 1317
4 1317 1366 1367 1318
4 1318 1367 1368 1319
4 1319 1368 1369 1320
4 1320 1369 1370 1321
4 1321 1370 1371 1322
4 1322 1371 1372 1323
4 1323 1372 1373 1324
4 1324 1373 1374 1325
4 1325 1374 1375 1326
4 1326 1375 1376 1327
4 1327 1376 1377 1328
4 1328 1377 229 230
4 25 26 1378 1329
4 1329 1378 1379 1330
4 1330 1379 1380 1331
4 1331 1380 1381 1332
4 1332 1381 1382 1333
4 1333 1382 1383 1334
4 1334 1383 1384 1335
4 1335 1384 1385 1336
4 1336 1385 1386 1337
4 1337 1386 1387 1338
4 1338 1387 1388 1339
4 1339 1388 1389 1340
4 1340 1389 1390 1341
4 1341 1390 1391 1342
4 1342 1391 1392 1343
4 1343 1392 1393 1344
4 1344 1393 1394 1345
4 1345 1394 1395 1346
4 1346 1395 1396 1347
4 1347 1396 1397 1348
4 1348 1397 1398 1349
4 1349 1398 1399 1350
4 1350 1399 1400 1351
4 1351 1400 1401 1352
4 1352 1401 1402 1353
4 1353 1402 1403 1354
4 1354 1403 1404 1355
4 1355 1404 1405 1356
4 1356 1405 1406 1357
4 1357 1406 1407 1358
4 1358 1407 1408 1359
4 1359 1408 1409 1360
4 1360 1409 1410 1361
4 1361 1410 1411 1362
4 1362 1411 1412 1363
4 1363 1412 1413 1364
4 1364 1413 1414 1365
4 1365 1414 1415 1366
4 1366 1415 1416 1367
4 1367 1416 1417 1368
4 1368 1417 1418 1369
4 1369 1418 1419 1370
4 1370 1419 1420 1371
4 1371 1420 1421 1372
4 1372 1421 1422 1373
4 1373 1422 1423 1374
4 1374 1423 1424 1375
4 1375 1424 1425 1376
4 1376 1425 1426 1377
4 1377 1426 228 229
4 26 27 1427 1378
4 1378 1427 1428 1379
4 1379 1428 1429 1380
4 1380 1429 1430 1381
4 1381 1430 1431 1382
4 1382 1431 1432 1383
4 1383 1432 1433 1384
4 1384 1433 1434 1385
4 1385 1434 1435 1386
4 1386 1435 1436 1387
4 1387 1436 1437 1388
4 1388 1437 1438 1389
4 1389 1438 1439 1390
4 1390 1439 1440 1391
4 1391 1440 1441 1392
4 1392 1441 1442 1393
4 1393 1442 1443 1394
4 1394 1443 1444 1395
4 1395 1444 1445 1396
4 1396 1445 1446 1397
4 1397 1446 1447 1398
4 1398 1447 1448 1399
4 1399 1448 1449 1400
4 1400 1449 1450 1401
4 1401 1450 1451 1402
4 1402 1451 1452 1403
4 1403 1452 1453 1404
4 1404 1453 1454 1405
4 1405 1454 1455 1406
4 1406 1455 1456 1407
4 1407 1456 1457 1408
4 1408 1457 1458 1409
4 1409 1458 1459 1410
4 1410 1459 1460 1411
4 1411 1460 1461 1412
4 1412 1461 1462 1413
4 1413 1462 1463 1414
4 1414 1463 1464 1415
4 1415 1464 1465 1416
4 1416 1465 1466 1417
4 1417 1466 1467 1418
4 1418 1467 1468 1419
4 1419 1468 1469 1420
4 1420 1469 1470 1421
4 1421 1470 1471 1422
4 1422 1471 1472 1423
4 1423 1472 1473 1424
4 1424 1473 1474 1425
4 1425 1474 1475 1426
4 1426 1475 227 228
4 27 28 1476 1427
4 1427 1476 1477 1428
4 1428 1477 1478 1429
4 1429 1478 1479 1430
4 1430 1479 1480 1431
4 1431 1480 1481 1432
4 1432 1481 1482 1433
4 1433 1482 1483 1434
4 1434 1483 1484 1435
4 1435 1484 1485 1436
4 1436 1485 1486 1437
4 1437 1486 1487 1438
4 1438 1487 1488 1439
4 1439 1488 1489 1440
4 1440 1489 1490 1441
4 1441 1490 1491 1442
4 1442 1491 1492 1443
4 1443 1492 1493 1444
4 1444 1493 1494 1445
4 1445 1494 1495 1446
4 1446 1495 1496 1447
4 1447 1496 1497 1448
4 1448 1497 1498 1449
4 1449 1498 1499 1450
4 1450 1499 1500 1451
4 1451 1500 1501 1452
4 1452 1501 1502 1453
4 1453 1502 1503 1454
4 1454 1503 1504 1455
4 1455 1504 1505 1456
4 1456 1505 1506 1457
4 1457 1506 1507 1458
4 1458 1507 1508 1459
4 1459 1508 1509 1460
4 1460 1509 1510 1461
4 1461 1510 1511 1462
4 1462 1511 1512 1463
4 1463 1512 1513 1464
4 1464 1513 1514 1465
4 1465 1514 1515 1466
4 1466 1515 1516 1467
4 1467 1516 1517 1468
4 1468 1517 1518 1469
4 1469 1518 1519 1470
4 1470 1519 1520 1471
4 1471 1520 1521 1472
4 1472 1521 1522 1473
4 1473 1522 1523 1474
4 1474 1523 1524 1475
4 1475 1524 226 227
4 28 29 1525 1476
4 1476 1525 1526 1477
4 1477 1526 1527 1478
4 1478 1527 1528 1479
4 1479 1528 1529 1480
4 1480 1529 1530 1481
4 1481 1530 1531 1482
4 1482 1531 1532 1483
4 1483 1532 1533 1484
4 1484 1533 1534 1485
4 1485 1534 1535 1486
4 1486 1535 1536 1487
4 1487 1536 1537 1488
4 1488 1537 1538 1489
4 1489 1538 1539 1490
4 1490 1539 1540 1491
4 1491 1540 1541 1492
4 1492 1541 1542 1493
4 1493 1542 1543 1494
4 1494 1543 1544 1495
4 1495 1544 1545 1496
4 1496 1545 1546 1497
4 1497 1546 1547 1498
4 1498 1547 1548 1499
4 1499 1548 1549 1500
4 1500 1549 1550 1501
4 1501 1550 1551 1502
4 1502 1551 1552 1503
4 1503 1552 1553 1504
4 1504 1553 1554 1505
4 1505 1554 1555 1506
4 1506 1555 1556 1507
4 1507 1556 1557 1508
4 1508 1557 1558 1509
4 1509 1558 1559 1510
4 1510 1559 1560 1511
4 1511 1560 1561 1512
4 1512 1561 1562 1513
4 1513 1562 1563 1514
4 1514 1563 1564 1515
4 1515 1564 1565 1516
4 1516 1565 1566 1517
4 1517 1566 1567 1518
4 1518 1567 1568 1519
4 1519 1568 1569 1520
4 1520 1569 1570 1521
4 1521 1570 1571 1522
4 1522 1571 1572 1523
4 1523 1572 1573 1524
4 1524 1573 225 226
4 29 30 1574 1525
4 1525 1574 1575 1526
4 1526 1575 1576 1527
4 1527 1576 1577 1528
4 1528 1577 1578 1529
4 1529 1578 1579 1530
4 1530 1579 1580 1531
4 1531 1580 1581 1532
4 1532 1581 1582 1533
4 1533 1582 1583 1534
4 1534 1583 1584 1535
4 1535 1584 1585 1536
4 1536 1585 1586 1537
4 1537 1586 1587 1538
4 1538 1587 1588 1539
4 1539 1588 1589 1540
4 1540 1589 1590 1541
4 1541 1590 1591 1542
4 1542 1591 1592 1543
4 1543 1592 1593 1544
4 1544 1593 1594 1545
4 1545 1594 1595 1546
4 1546 1595 1596 1547
4 1547 1596 1597 1548
4 1548 1597 1598 1549
4 1549 1598 1599 1550
4 1550 1599 1600 1551
4 1551 1600 1601 1552
4 1552 1601 1602 1553
4 1553 1602 1603 1554
4 1554 1603 1604 1555
4 1555 1604 1605 1556
4 1556 1605 1606 1557
4 1557 1606 1607 1558
4 1558 1607 1608 1559
4 1559 1608 1609 1560
4 1560 1609 1610 1561
4 1561 1610 1611 1562
4 1562 1611 1612 1563
4 1563 1612 1613 1564
4 1564 1613 1614 1565
4 1565 1614 1615 1566
4 1566 1615 1616 1567
4 1567 1616 1617 1568
4 1568 1617 1618 1569
4 1569 1618 1619 1570
4 1570 1619 1620 1571
4 1571 1620 1621 1572
4 1572 1621 1622 1573
4 1573 1622 224 225
4 30 31 1623 1574
4 1574 1623 1624 1575
4 1575 1624 1625 1576
4 1576 1625 1626 1577
4 1577 1626 1627 1578
4 1578 1627 1628 1579
4 1579 1628 1629 1580
4 1580 1629 1630 1581
4 1581 1630 1631 1582
4 1582 1631 1632 1583
4 1583 1632 1633 1584
4 1584 1633 1634 1585
4 1585 1634 1635 1586
4 1586 1635 1636 1587
4 1587 1636 1637 1588
4 1588 1637 1638 1589
4 1589 1638 1639 1590
4 1590 1639 1640 1591
4 1591 1640 1641 1592
4 1592 1641 1642 1593
4 1593 1642 1643 1594
4 1594 1643 1644 1595
4 1595 1644 1645 1596
4 1596 1645 1646 1597
4 1597 1646 1647 1598
4 1598 1647 1648 1599
4 1599 1648 1649 1600
4 1600 1649 1650 1601
4 1601 1650 1651 1602
4 1602 1651 1652 1603
4 1603 1652 1653 1604
4 1604 1653 1654 1605
4 1605 1654 1655 1606
4 1606 1655 1656 1607
4 1607 1656 1657 1608
4 1608 1657 1658 1609
4 1609 1658 1659 1610
4 1610 1659 1660 1611
4 1611 1660 1661 1612
4 1612 1661 1662 1613
4 1613 1662 1663 1614
4 1614 1663 1664 1615
4 1615 1664 1665 1616
4 1616 1665 1666 1617
4 1617 1666 1667 1618
4 1618 1667 1668 1619
4 1619 1668 1669 1620
4 1620 1669 1670 1621
4 1621 1670 1671 1622
4 1622 1671 223 224
4 31 32 1672 1623
4 1623 1672 1673 1624
4 1624 1673 1674 1625
4 1625 1674 1675 1626
4 1626 1675 1676 1627
4 1627 1676 1677 1628
4 1628 1677 1678 1629
4 1629 1678 1679 1630
4 1630 1679 1680 1631
4 1631 1680 1681 1632
4 1632 1681 1682 1633
4 1633 1682 1683 1634
4 1634 1683 1684 1635
4 1635 1684 1685 1636
4 1636 1685 1686 1637
4 1637 1686 1687 1638
4 1638 1687 1688 1639
4 1639 1688 1689 1640
4 1640 1689 1690 1641
4 1641 1690 1691 1642
4 1642 1691 1692 1643
4 1643 1692 1693 1644
4 1644 1693 1694 1645
4 1645 1694 1695 1646
4 1646 1695 1696 1647
4 1647 1696 1697 1648
4 1648 1697 1698 1649
4 1649 1698 1699 1650
4 1650 1699 1700 1651
4 1651 1700 1701 1652
4 1652 1701 1702 1653
4 1653 1702 1703 1654
4 1654 1703 1704 1655
4 1655 1704 1705 1656
4 1656 1705 1706 1657
4 1657 1706 1707 1658
4 1658 1707 1708 1659
4 1659 1708 1709 1660
4 1660 1709 1710 1661
4 1661 1710 1711 1662
4 1662 1711 1712 1663
4 1663 1712 1713 1664
4 1664 1713 1714 1665
4 1665 1714 1715 1666
4 1666 1715 1716 1667
4 1667 1716 1717 1668
4 1668 1717 1718 1669
4 1669 1718 1719 1670
4 1670 1719 1720 1671
4 1671 1720 222 223
4 32 33 1721 1672
4 1672 1721 1722 1673
4 1673 1722 1723 1674
4 1674 1723 1724 1675
4 1675 1724 1725 1676
4 1676 1725 1726 1677
4 1677 1726 1727 1678
4 1678 1727 1728 1679
4 1679 1728 1729 1680
4 1680 1729 1730 1681
4 1681 1730 1731 1682
4 1682 1731 1732 1683
4 1683 1732 1733 1684
4 1684 1733 1734 1685
4 1685 1734 1735 1686
4 1686 1735 1736 1687
4 1687 1736 1737 1688
4 1688 1737 1738 1689
4 1689 1738 1739 1690
4 1690 1739 1740 1691
4 1691 1740 1741 1692
4 1692 1741 1742 1693
4 1693 1742 1743 1694
4 1694 1743 1744 1695
4 1695 1744 1745 1696
4 1696 1745 1746 1697
4 1697 1746 1747 1698
4 1698 1747 1748 1699
4 1699 1748 1749 1700
4 1700 1749 1750 1701
4 1701 1750 1751 1702
4 1702 1751 1752 1703
4 1703 1752 1753 1704
4 1704 1753 1754 1705
4 1705 1754 1755 1706
4 1706 1755 1756 1707
4 1707 1756 1757 1708
4 1708 1757 1758 1709
4 1709 1758 1759 1710
4 1710 1759 1760 1711
4 1711 1760 1761 1712
4 1712 1761 1762 1713
4 1713 1762 1763 1714
4 1714 1763 1764 1715
4 1715 1764 1765 1716
4 1716 1765 1766 1717
4 1717 1766 1767 1718
4 1718 1767 1768 1719
4 1719 1768 1769 1720
4 1720 1769 221 222
4 33 34 1770 1721
4 1721 1770 1771 1722
4 1722 1771 1772 1723
4 1723 1772 1773 1724
4 1724 1773 1774 1725
4 1725 1774 1775 1726
4 1726 1775 1776 1727
4 1727 1776 1777 1728
4 1728 1777 1778 1729
4 1729 1778 1779 1730
4 1730 1779 1780 1731
4 1731 1780 1781 1732
4 1732 1781 1782 1733
4 1733 1782 1783 1734
4 1734 1783 1784 1735
4 1735 1784 1785 1736
4 1736 1785 1786 1737
4 1737 1786 1787 1738
4 1738 1787 1788 1739
4 1739 1788 1789 1740
4 1740 1789 1790 1741
4 1741 1790 1791 1742
4 1742 1791 1792 1743
4 1743 1792 1793 1744
4 1744 1793 1794 1745
4 1745 1794 1795 1746
4 1746 1795 1796 1747
4 1747 1796 1797 1748
4 1748 1797 1798 1749
4 1749 1798 1799 1750
4 1750 1799 1800 1751
4 1751 1800 1801 1752
4 1752 1801 1802 1753
4 1753 1802 1803 1754
4 1754 1803 1804 1755
4 1755 1804 1805 1756
4 1756 1805 1806 1757
4 1757 1806 1807 1758
4 1758 1807 1808 1759
4 1759 1808 1809 1760
4 1760 1809 1810 1761
4 1761 1810 1811 1762
4 1762 1811 1812 1763
4 1763 1812 1813 1764
4 1764 1813 1814 1765
4 1765 1814 1815 1766
4 1766 1815 1816 1767
4 1767 1816 1817 1768
4 1768 1817 1818 1769
4 1769 1818 220 221
4 34 35 1819 1770
4 1770 1819 1820 1771
4 1771 1820 1821 1772
4 1772 1821 1822 1773
4 1773 1822 1823 1774
4 1774 1823 1824 1775
4 1775 1824 1825 1776
4 1776 1825 1826 1777
4 1777 1826 1827 1778
4 1778 1827 1828 1779
4 1779 1828 1829 1780
4 1780 1829 1830 1781
4 1781 1830 1831 1782
4 1782 1831 1832 1783
4 1783 1832 1833 1784
4 1784 1833 1834 1785
4 1785 1834 1835 1786
4 1786 1835 1836 1787
4 1787 1836 1837 1788
4 1788 1837 1838 1789
4 1789 1838 1839 1790
4 1790 1839 1840 1791
4 1791 1840 1841 1792
4 1792 1841 1842 1793
4 1793 1842 1843 1794
4 1794 1843 1844 1795
4 1795 1844 1845 1796
4 1796 1845 1846 1797
4 1797 1846 1847 1798
4 1798 1847 1848 1799
4 1799 1848 1849 1800
4 1800 1849 1850 1801
4 1801 1850 1851 1802
4 1802 1851 1852 1803
4 1803 1852 1853 1804
4 1804 1853 1854 1805
4 1805 1854 1855 1806
4 1806 1855 1856 1807
4 1807 1856 1857 1808
4 1808 1857 1858 1809
4 1809 1858 1859 1810
4 1810 1859 1860 1811
4 1811 1860 1861 1812
4 1812 1861 1862 1813
4 1813 1862 1863 1814
4 1814 1863 1864 1815
4 1815 1864 1865 1816
4 1816 1865 1866 1817
4 1817 1866 1867 1818
4 1818 1867 219 220
4 35 36 1868 1819
4 1819 1868 1869 1820
4 1820 1869 1870 1821
4 1821 1870 1871 1822
4 1822 1871 1872 1823
4 1823 1872 1873 1824
4 1824 1873 1874 1825
4 1825 1874 1875 1826
4 1826 1875 1876 1827
4 1827 1876 1877 1828
4 1828 1877 1878 1829
4 1829 1878 1879 1830
4 1830 1879 1880 1831
4 1831 1880 1881 1832
4 1832 1881 1882 1833
4 1833 1882 1883 1834
4 1834 1883 1884 1835
4 1835 1884 1885 1836
4 1836 1885 1886 1837
4 1837 1886 1887 1838
4 1838 1887 1888 1839
4 1839 1888 1889 1840
4 1840 1889 1890 1841
4 1841 1890 1891 1842
4 1842 1891 1892 1843
4 1843 1892 1893 1844
4 1844 1893 1894 1845
4 1845 1894 1895 1846
4 1846 1895 1896 1847
4 1847 1896 1897 1848
4 1848 1897 1898 1849
4 1849 1898 1899 1850
4 1850 1899 1900 1851
4 1851 1900 1901 1852
4 1852 1901 1902 1853
4 1853 1902 1903 1854
4 1854 1903 1904 1855
4 1855 1904 1905 1856
4 1856 1905 1906 1857
4 1857 1906 1907 1858
4 1858 1907 1908 1859
4 1859 1908 1909 1860
4 1860 1909 1910 1861
4 1861 1910 1911 1862
4 1862 1911 1912 1863
4 1863 1912 1913 1864
4 1864 1913 1914 1865
4 1865 1914 1915 1866
4 1866 1915 1916 1867
4 1867 1916 218 219
4 36 37 1917 1868
4 1868 1917 1918 1869
4 1869 1918 1919 1870
4 1870 1919 1920 1871
4 1871 1920 1921 1872
4 1872 1921 1922 1873
4 1873 1922 1923 1874
4 1874 1923 1924 1875
4 1875 1924 1925 1876
4 1876 1925 1926 1877
4 1877 1926 1927 1878
4 1878 1927 1928 1879
4 1879 1928 1929 1880
4 1880 1929 1930 1881
4 1881 1930 1931 1882
4 1882 1931 1932 1883
4 1883 1932 1933 1884
4 1884 1933 1934 1885
4 1885 1934 1935 1886
4 1886 1935 1936 1887
4 1887 1936 1937 1888
4 1888 1937 1938 1889
4 1889 1938 1939 1890
4 1890 1939 1940 1891
4 1891 1940 1941 1892
4 1892 1941 1942 1893
4 1893 1942 1943 1894
4 1894 1943 1944 1895
4 1895 1944 1945 1896
4 1896 1945 1946 1897
4 1897 1946 1947 1898
4 1898 1947 1948 1899
4 1899 1948 1949 1900
4 1900 1949 1950 1901
4 1901 1950 1951 1902
4 1902 1951 1952 1903
4 1903 1952 1953 1904
4 1904 1953 1954 1905
4 1905 1954 1955 1906
4 1906 1955 1956 1907
4 1907 1956 1957 1908
4 1908 1957 1958 1909
4 1909 1958 1959 1910
4 1910 1959 1960 1911
4 1911 1960 1961 1912
4 1912 1961 1962 1913
4 1913 1962 1963 1914
4 1914 1963 1964 1915
4 1915 1964 1965 1916
4 1916 1965 217 218
4 37 38 1966 1917
4 1917 1966 1967 1918
4 1918 1967 1968 1919
4 1919 1968 1969 1920
4 1920 1969 1970 1921
4 1921 1970 1971 1922
4 1922 1971 1972 1923
4 1923 1972 1973 1924
4 1924 1973 1974 1925
4 1925 1974 1975 1926
4 1926 1975 1976 1927
4 1927 1976 1977 1928
4 1928 1977 1978 1929
4 1929 1978 1979 1930
4 1930 1979 1980 1931
4 1931 1980 1981 1932
4 1932 1981 1982 1933
4 1933 1982 1983 1934
4 1934 1983 1984 1935
4 1935 1984 1985 1936
4 1936 1985 1986 1937
4 1937 1986 1987 1938
4 1938 1987 1988 1939
4 1939 1988 1989 1940
4 1940 1989 1990 1941
4 1941 1990 1991 1942
4 1942 1991 1992 1943
4 1943 1992 1993 1944
4 1944 1993 1994 1945
4 1945 1994 1995 1946
4 1946 1995 1996 1947
4 1947 1996 1997 1948
4 1948 1997 1998 1949
4 1949 1998 1999 1950
4 1950 1999 2000 1951
4 1951 2000 2001 1952
4 1952 2001 2002 1953
4 1953 2002 2003 1954
4 1954 2003 2004 1955
4 1955 2004 2005 1956
4 1956 2005 2006 1957
4 1957 2006 2007 1958
4 1958 2007 2008 1959
4 1959 2008 2009 1960
4 1960 2009 2010 1961
4 1961 2010 2011 1962
4 1962 2011 2012 1963
4 1963 2012 2013 1964
4 1964 2013 2014 1965
4 1965 2014 216 217
4 38 39 2015 1966
4 1966 2015 2016 1967
4 1967 2016 2017 1968
4 1968 2017 2018 1969
4 1969 2018 2019 1970
4 1970 2019 2020 1971
4 1971 2020 2021 1972
4 1972 2021 2022 1973
4 1973 2022 2023 1974
4 1974 2023 2024 1975
4 1975 2024 2025 1976
4 1976 2025 2026 1977
4 1977 2026 2027 1978
4 1978 2027 2028 1979
4 1979 2028 2029 1980
4 1980 2029 2030 1981
4 1981 2030 2031 1982
4 1982 2031 2032 1983
4 1983 2032 2033 1984
4 1984 2033 2034 1985
4 1985 2034 2035 1986
4 1986 2035 2036 1987
4 1987 2036 2037 1988
4 1988 2037 2038 1989
4 1989 2038 2039 1990
4 1990 2039 2040 1991
4 1991 2040 2041 1992
4 1992 2041 2042 1993
4 1993 2042 2043 1994
4 1994 2043 2044 1995
4 1995 2044 2045 1996
4 1996 2045 2046 1997
4 1997 2046 2047 1998
4 1998 2047 2048 1999
4 1999 2048 2049 2000
4 2000 2049 2050 2001
4 2001 2050 2051 2002
4 2002 2051 2052 2003
4 2003 2052 2053 2004
4 2004 2053 2054 2005
4 2005 2054 2055 2006
4 2006 2055 2056 2007
4 2007 2056 2057 2008
4 2008 2057 2058 2009
4 2009 2058 2059 2010
4 2010 2059 2060 2011
4 2011 2060 2061 2012
4 2012 2061 2062 2013
4 2013 2062 2063 2014
4 2014 2063 215 216
4 39 40 2064 2015
4 2015 2064 2065 2016
4 2016 2065 2066 2017
4 2017 2066 2067 2018
4 2018 2067 2068 2019
4 2019 2068 2069 2020
4 2020 2069 2070 2021
4 2021 2070 2071 2022
4 2022 2071 2072 2023
4 2023 2072 2073 2024
4 2024 2073 2074 2025
4 2025 2074 2075 2026
4 2026 2075 2076 2027
4 2027 2076 2077 2028
4 2028 2077 2078 2029
4 2029 2078 2079 2030
4 2030 2079 2080 2031
4 2031 2080 2081 2032
4 2032 2081 2082 2033
4 2033 2082 2083 2034
4 2034 2083 2084 2035
4 2035 2084 2085 2036
4 2036 2085 2086 2037
4 2037 2086 2087 2038
4 2038 2087 2088 2039
4 2039 2088 2089 2040
4 2040 2089 2090 2041
4 2041 2090 2091 2042
4 2042 2091 2092 2043
4 2043 2092 2093 2044
4 2044 2093 2094 2045
4 2045 2094 2095 2046
4 2046 2095 2096 2047
4 2047 2096 2097 2048
4 2048 2097 2098 2049
4 2049 2098 2099 2050
4 2050 2099 2100 2051
4 2051 2100 2101 2052
4 2052 2101 2102 2053
4 2053 2102 2103 2054
4 2054 2103 2104 2055
4 2055 2104 2105 2056
4 2056 2105 2106 2057
4 2057 2106 2107 2058
4 2058 2107 2108 2059
4 2059 2108 2109 2060
4 2060 2109 2110 2061
4 2061 2110 2111 2062
4 2062 2111 2112 2063
4 2063 2112 214 215
4 40 41 2113 2064
4 2064 2113 2114 2065
4 2065 2114 2115 2066
4 2066 2115 2116 2067
4 2067 2116 2117 2068
4 2068 2117 2118 2069
4 2069 2118 2119 2070
4 2070 2119 2120 2071
4 2071 2120 2121 2072
4 2072 2121 2122 2073
4 2073 2122 2123 2074
4 2074 2123 2124 2075
4 2075 2124 2125 2076
4 2076 2125 2126 2077
4 2077 2126 2127 2078
4 2078 2127 2128 2079
4 2079 2128 2129 2080
4 2080 2129 2130 2081
4 2081 2130 2131 2082
4 2082 2131 2132 2083
4 2083 2132 2133 2084
4 2084 2133 2134 2085
4 2085 2134 2135 2086
4 2086 2135 2136 2087
4 2087 2136 2137 2088
4 2088 2137 2138 2089
4 2089 2138 2139 2090
4 2090 2139 2140 2091
4 2091 2140 2141 2092
4 2092 2141 2142 2093
4 2093 2142 2143 2094
4 2094 2143 2144 2095
4 2095 2144 2145 2096
4 2096 2145 2146 2097
4 2097 2146 2147 2098
4 2098 2147 2148 2099
4 2099 2148 2149 2100
4 2100 2149 2150 2101
4 2101 2150 2151 2102
4 2102 2151 2152 2103
4 2103 2152 2153 2104
4 2104 2153 2154 2105
4 2105 2154 2155 2106
4 2106 2155 2156 2107
4 2107 2156 2157 2108
4 2108 2157 2158 2109
4 2109 2158 2159 2110
4 2110 2159 2160 2111
4 2111 2160 2161 2112
4 2112 2161 213 214
4 41 42 2162 2113
4 2113 2162 2163 2114
4 2114 2163 2164 2115
4 2115 2164 2165 2116
4 2116 2165 2166 2117
4 2117 2166 2167 2118
4 2118 2167 2168 2119
4 2119 2168 2169 2120
4 2120 2169 2170 2121
4 2121 2170 2171 2122
4 2122 2171 2172 2123
4 2123 2172 2173 2124
4 2124 2173 2174 2125
4 2125 2174 2175 2126
4 2126 2175 2176 2127
4 2127 2176 2177 2128
4 2128 2177 2178 2129
4 2129 2178 2179 2130
4 2130 2179 2180 2131
4 2131 2180 2181 2132
4 2132 2181 2182 2133
4 2133 2182 2183 2134
4 2134 2183 2184 2135
4 2135 2184 2185 2136
4 2136 2185 2186 2137
4 2137 2186 2187 2138
4 2138 2187 2188 2139
4 2139 2188 2189 2140
4 2140 2189 2190 2141
4 2141 2190 2191 2142
4 2142 2191 2192 2143
4 2143 2192 2193 2144
4 2144 2193 2194 2145
4 2145 2194 2195 2146
4 2146 2195 2196 2147
4 2147 2196 2197 2148
4 2148 2197 2198 2149
4 2149 2198 2199 2150
4 2150 2199 2200 2151
4 2151 2200 2201 2152
4 2152 2201 2202 2153
4 2153 2202 2203 2154
4 2154 2203 2204 2155
4 2155 2204 2205 2156
4 2156 2205 2206 2157
4 2157 2206 2207 2158
4 2158 2207 2208 2159
4 2159 2208 2209 2160
4 2160 2209 2210 2161
4 2161 2210 212 213
4 42 43 2211 2162
4 2162 2211 2212 2163
4 2163 2212 2213 2164
4 2164 2213 2214 2165
4 2165 2214 2215 2166
4 2166 2215 2216 2167
4 2167 2216 2217 2168
4 2168 2217 2218 2169
4 2169 2218 2219 2170
4 2170 2219 2220 2171
4 2171 2220 2221 2172
4 2172 2221 2222 2173
4 2173 2222 2223 2174
4 2174 2223 2224 2175
4 2175 2224 2225 2176
4 2176 2225 2226 2177
4 2177 2226 2227 2178
4 2178 2227 2228 2179
4 2179 2228 2229 2180
4 2180 2229 2230 2181
4 2181 2230 2231 2182
4 2182 2231 2232 2183
4 2183 2232 2233 2184
4 2184 2233 2234 2185
4 2185 2234 2235 2186
4 2186 2235 2236 2187
4 2187 2236 2237 2188
4 2188 2237 2238 2189
4 2189 2238 2239 2190
4 2190 2239 2240 2191
4 2191 2240 2241 2192
4 2192 2241 2242 2193
4 2193 2242 2243 2194
4 2194 2243 2244 2195
4 2195 2244 2245 2196
4 2196 2245 2246 2197
4 2197 2246 2247 2198
4 2198 2247 2248 2199
4 2199 2248 2249 2200
4 2200 2249 2250 2201
4 2201 2250 2251 2202
4 2202 2251 2252 2203
4 2203 2252 2253 2204
4 2204 2253 2254 2205
4 2205 2254 2255 2206
4 2206 2255 2256 2207
4 2207 2256 2257 2208
4 2208 2257 2258 2209
4 2209 2258 2259 2210
4 2210 2259 211 212
4 43 44 2260 2211
4 2211 2260 2261 2212
4 2212 2261 2262 2213
4 2213 2262 2263 2214
4 2214 2263 2264 2215
4 2215 2264 2265 2216
4 2216 2265 2266 2217
4 2217 2266 2267 2218
4 2218 2267 2268 2219
4 2219 2268 2269 2220
4 2220 2269 2270 2221
4 2221 2270 2271 2222
4 2222 2271 2272 2223
4 2223 2272 2273 2224
4 2224 2273 2274 2225
4 2225 2274 2275 2226
4 2226 2275 2276 2227
4 2227 2276 2277 2228
4 2228 2277 2278 2229
4 2229 2278 2279 2230
4 2230 2279 2280 2231
4 2231 2280 2281 2232
4 2232 2281 2282 2233
4 2233 2282 2283 2234
4 2234 2283 2284 2235
4 2235 2284 2285 2236
4 2236 2285 2286 2237
4 2237 2286 2287 2238
4 2238 2287 2288 2239
4 2239 2288 2289 2240
4 2240 2289 2290 2241
4 2241 2290 2291 2242
4 2242 2291 2292 2243
4 2243 2292 2293 2244
4 2244 2293 2294 2245
4 2245 2294 2295 2246
4 2246 2295 2296 2247
4 2247 2296 2297 2248
4 2248 2297 2298 2249
4 2249 2298 2299 2250
4 2250 2299 2300 2251
4 2251 2300 2301 2252
4 2252 2301 2302 2253
4 2253 2302 2303 2254
4 2254 2303 2304 2255
4 2255 2304 2305 2256
4 2256 2305 2306 2257
4 2257 2306 2307 2258
4 2258 2307 2308 2259
4 2259 2308 210 211
4 44 45 2309 2260
4 2260 2309 2310 2261
4 2261 2310 2311 2262
4 2262 2311 2312 2263
4 2263 2312 2313 2264
4 2264 2313 2314 2265
4 2265 2314 2315 2266
4 2266 2315 2316 2267
4 2267 2316 2317 2268
4 2268 2317 2318 2269
4 2269 2318 2319 2270
4 2270 2319 2320 2271
4 2271 2320 2321 2272
4 2272 2321 2322 2273
4 2273 2322 2323 2274
4 2274 2323 2324 2275
4 2275 2324 2325 2276
4 2276 2325 2326 2277
4 2277 2326 2327 2278
4 2278 2327 2328 2279
4 2279 2328 2329 2280
4 2280 2329 2330 2281
4 2281 2330 2331 2282
4 2282 2331 2332 2283
4 2283 2332 2333 2284
4 2284 2333 2334 2285
4 2285 2334 2335 2286
4 2286 2335 2336 2287
4 2287 2336 2337 2288
4 2288 2337 2338 2289
4 2289 2338 2339 2290
4 2290 2339 2340 2291
4 2291 2340 2341 2292
4 2292 2341 2342 2293
4 2293 2342 2343 2294
4 2294 2343 2344 2295
4 2295 2344 2345 2296
4 2296 2345 2346 2297
4 2297 2346 2347 2298
4 2298 2347 2348 2299
4 2299 2348 2349 2300
4 2300 2349 2350 2301
4 2301 2350 2351 2302
4 2302 2351 2352 2303
4 2303 2352 2353 2304
4 2304 2353 2354 2305
4 2305 2354 2355 2306
4 2306 2355 2356 2307
4 2307 2356 2357 2308
4 2308 2357 209 210
4 45 46 2358 2309
4 2309 2358 2359 2310
4 2310 2359 2360 2311
4 2311 2360 2361 2312
4 2312 2361 2362 2313
4 2313 2362 2363 2314
4 2314 2363 2364 2315
4 2315 2364 2365 2316
4 2316 2365 2366 2317
4 2317 2366 2367 2318
4 2318 2367 2368 2319
4 2319 2368 2369 2320
4 2320 2369 2370 2321
4 2321 2370 2371 2322
4 2322 2371 2372 2323
4 2323 2372 2373 2324
4 2324 2373 2374 2325
4 2325 2374 2375 2326
4 2326 2375 2376 2327
4 2327 2376 2377 2328
4 2328 2377 2378 2329
4 2329 2378 2379 2330
4 2330 2379 2380 2331
4 2331 2380 2381 2332
4 2332 2381 2382 2333
4 2333 2382 2383 2334
4 2334 2383 2384 2335
4 2335 2384 2385 2336
4 2336 2385 2386 2337
4 2337 2386 2387 2338
4 2338 2387 2388 2339
4 2339 2388 2389 2340
4 2340 2389 2390 2341
4 2341 2390 2391 2342
4 2342 2391 2392 2343
4 2343 2392 2393 2344
4 2344 2393 2394 2345
4 2345 2394 2395 2346
4 2346 2395 2396 2347
4 2347 2396 2397 2348
4 2348 2397 2398 2349
4 2349 2398 2399 2350
4 2350 2399 2400 2351
4 2351 2400 2401 2352
4 2352 2401 2402 2353
4 2353 2402 2403 2354
4 2354 2403 2404 2355
4 2355 2404 2405 2356
4 2356 2405 2406 2357
4 2357 2406 208 209
4 46 47 2407 2358
4 2358 2407 2408 2359
4 2359 2408 2409 2360
4 2360 2409 2410 2361
4 2361 2410 2411 2362
4 2362 2411 2412 2363
4 2363 2412 2413 2364
4 2364 2413 2414 2365
4 2365 2414 2415 2366
4 2366 2415 2416 2367
4 2367 2416 2417 2368
4 2368 2417 2418 2369
4 2369 2418 2419 2370
4 2370 2419 2420 2371
4 2371 2420 2421 2372
4 2372 2421 2422 2373
4 2373 2422 2423 2374
4 2374 2423 2424 2375
4 2375 2424 2425 2376
4 2376 2425 2426 2377
4 2377 2426 2427 2378
4 2378 2427 2428 2379
4 2379 2428 2429 2380
4 2380 2429 2430 2381
4 2381 2430 2431 2382
4 2382 2431 2432 2383
4 2383 2432 2433 2384
4 2384 2433 2434 2385
4 2385 2434 2435 2386
4 2386 2435 2436 2387
4 2387 2436 2437 2388
4 2388 2437 2438 2389
4 2389 2438 2439 2390
4 2390 2439 2440 2391
4 2391 2440 2441 2392
4 2392 2441 2442 2393
4 2393 2442 2443 2394
4 2394 2443 2444 2395
4 2395 2444 2445 2396
4 2396 2445 2446 2397
4 2397 2446 2447 2398
4 2398 2447 2448 2399
4 2399 2448 2449 2400
4 2400 2449 2450 2401
4 2401 2450 2451 2402
4 2402 2451 2452 2403
4 2403 2452 2453 2404
4 2404 2453 2454 2405
4 2405 2454 2455 2406
4 2406 2455 207 208
4 47 48 2456 2407
4 2407 2456 2457 2408
4 2408 2457 2458 2409
4 2409 2458 2459 2410
4 2410 2459 2460 2411
4 2411 2460 2461 2412
4 2412 2461 2462 2413
4 2413 2462 2463 2414
4 2414 2463 2464 2415
4 2415 2464 2465 2416
4 2416 2465 2466 2417
4 2417 2466 2467 2418
4 2418 2467 2468 2419
4 2419 2468 2469 2420
4 2420 2469 2470 2421
4 2421 2470 2471 2422
4 2422 2471 2472 2423
4 2423 2472 2473 2424
4 2424 2473 2474 2425
4 2425 2474 2475 2426
4 2426 2475 2476 2427
4 2427 2476 2477 2428
4 2428 2477 2478 2429
4 2429 2478 2479 2430
4 2430 2479 2480 2431
4 2431 2480 2481 2432
4 2432 2481 2482 2433
4 2433 2482 2483 2434
4 2434 2483 2484 2435
4 2435 2484 2485 2436
4 2436 2485 2486 2437
4 2437 2486 2487 2438
4 2438 2487 2488 2439
4 2439 2488 2489 2440
4 2440 2489 2490 2441
4 2441 2490 2491 2442
4 2442 2491 2492 2443
4 2443 2492 2493 2444
4 2444 2493 2494 2445
4 2445 2494 2495 2446
4 2446 2495 2496 2447
4 2447 2496 2497 2448
4 2448 2497 2498 2449
4 2449 2498 2499 2450
4 2450 2499 2500 2451
4 2451 2500 2501 2452
4 2452 2501 2502 2453
4 2453 2502 2503 2454
4 2454 2503 2504 2455
4 2455 2504 206 207
4 48 49 2505 2456
4 2456 2505 2506 2457
4 2457 2506 2507 2458
4 2458 2507 2508 2459
4 2459 2508 2509 2460
4 2460 2509 2510 2461
4 2461 2510 2511 2462
4 2462 2511 2512 2463
4 2463 2512 2513 2464
4 2464 2513 2514 2465
4 2465 2514 2515 2466
4 2466 2515 2516 2467
4 2467 2516 2517 2468
4 2468 2517 2518 2469
4 2469 2518 2519 2470
4 2470 2519 2520 2471
4 2471 2520 2521 2472
4 2472 2521 2522 2473
4 2473 2522 2523 2474
4 2474 2523 2524 2475
4 2475 2524 2525 2476
4 2476 2525 2526 2477
4 2477 2526 2527 2478
4 2478 2527 2528 2479
4 2479 2528 2529 2480
4 2480 2529 2530 2481
4 2481 2530 2531 2482
4 2482 2531 2532 2483
4 2483 2532 2533 2484
4 2484 2533 2534 2485
4 2485 2534 2535 2486
4 2486 2535 2536 2487
4 2487 2536 2537 2488
4 2488 2537 2538 2489
4 2489 2538 2539 2490
4 2490 2539 2540 2491
4 2491 2540 2541 2492
4 2492 2541 2542 2493
4 2493 2542 2543 2494
4 2494 2543 2544 2495
4 2495 2544 2545 2496
4 2496 2545 2546 2497
4 2497 2546 2547 2498
4 2498 2547 2548 2499
4 2499 2548 2549 2500
4 2500 2549 2550 2501
4 2501 2550 2551 2502
4 2502 2551 2552 2503
4 2503 2552 2553 2504
4 2504 2553 205 206
4 49 50 2554 2505
4 2505 2554 2555 2506
4 2506 2555 2556 2507
4 2507 2556 2557 2508
4 2508 2557 2558 2509
4 2509 2558 2559 2510
4 2510 2559 2560 2511
4 2511 2560 2561 2512
4 2512 2561 2562 2513
4 2513 2562 2563 2514
4 2514 2563 2564 2515
4 2515 2564 2565 2516
4 2516 2565 2566 2517
4 2517 2566 2567 2518
4 2518 2567 2568 2519
4 2519 2568 2569 2520
4 2520 2569 2570 2521
4 2521 2570 2571 2522
4 2522 2571 2572 2523
4 2523 2572 2573 2524
4 2524 2573 2574 2525
4 2525 2574 2575 2526
4 2526 2575 2576 2527
4 2527 2576 2577 2528
4 2528 2577 2578 2529
4 2529 2578 2579 2530
4 2530 2579 2580 2531
4 2531 2580 2581 2532
4 2532 2581 2582 2533
4 2533 2582 2583 2534
4 2534 2583 2584 2535
4 2535 2584 2585 2536
4 2536 2585 2586 2537
4 2537 2586 2587 2538
4 2538 2587 2588 2539
4 2539 2588 2589 2540
4 2540 2589 2590 2541
4 2541 2590 2591 2542
4 2542 2591 2592 2543
4 2543 2592 2593 2544
4 2544 2593 2594 2545
4 2545 2594 2595 2546
4 2546 2595 2596 2547
4 2547 2596 2597 2548
4 2548 2597 2598 2549
4 2549 2598 2599 2550
4 2550 2599 2600 2551
4 2551 2600 2601 2552
4 2552 2601 2602 2553
4 2553 2602 204 205
4 50 51 2603 2554
4 2554 2603 2604 2555
4 2555 2604 2605 2556
4 2556 2605 2606 2557
4 2557 2606 2607 2558
4 2558 2607 2608 2559
4 2559 2608 2609 2560
4 2560 2609 2610 2561
4 2561 2610 2611 2562
4 2562 2611 2612 2563
4 2563 2612 2613 2564
4 2564 2613 2614 2565
4 2565 2614 2615 2566
4 2566 2615 2616 2567
4 2567 2616 2617 2568
4 2568 2617 2618 2569
4 2569 2618 2619 2570
4 2570 2619 2620 2571
4 2571 2620 2621 2572
4 2572 2621 2622 2573
4 2573 2622 2623 2574
4 2574 2623 2624 2575
4 2575 2624 2625 2576
4 2576 2625 2626 2577
4 2577 2626 2627 2578
4 2578 2627 2628 2579
4 2579 2628 2629 2580
4 2580 2629 2630 2581
4 2581 2630 2631 2582
4 2582 2631 2632 2583
4 2583 2632 2633 2584
4 2584 2633 2634 2585
4 2585 2634 2635 2586
4 2586 2635 2636 2587
4 2587 2636 2637 2588
4 2588 2637 2638 2589
4 2589 2638 2639 2590
4 2590 2639 2640 2591
4 2591 2640 2641 2592
4 2592 2641 2642 2593
4 2593 2642 2643 2594
4 2594 2643 2644 2595
4 2595 2644 2645 2596
4 2596 2645 2646 2597
4 2597 2646 2647 2598
4 2598 2647 2648 2599
4 2599 2648 2649 2600
4 2600 2649 2650 2601
4 2601 2650 2651 2602
4 2602 2651 203 204
4 51 52 2652 2603
4 2603 2652 2653 2604
4 2604 2653 2654 2605
4 2605 2654 2655 2606
4 2606 2655 2656 2607
4 2607 2656 2657 2608
4 2608 2657 2658 2609
4 2609 2658 2659 2610
4 2610 2659 2660 2611
4 2611 2660 2661 2612
4 2612 2661 2662 2613
4 2613 2662 2663 2614
4 2614 2663 2664 2615
4 2615 2664 2665 2616
4 2616 2665 2666 2617
4 2617 2666 2667 2618
4 2618 2667 2668 2619
4 2619 2668 2669 2620
4 2620 2669 2670 2621
4 2621 2670 2671 2622
4 2622 2671 2672 2623
4 2623 2672 2673 2624
4 2624 2673 2674 2625
4 2625 2674 2675 2626
4 2626 2675 2676 2627
4 2627 2676 2677 2628
4 2628 2677 2678 2629
4 2629 2678 2679 2630
4 2630 2679 2680 2631
4 2631 2680 2681 2632
4 2632 2681 2682 2633
4 2633 2682 2683 2634
4 2634 2683 2684 2635
4 2635 2684 2685 2636
4 2636 2685 2686 2637
4 2637 2686 2687 2638
4 2638 2687 2688 2639
4 2639 2688 2689 2640
4 2640 2689 2690 2641
4 2641 2690 2691 2642
4 2642 2691 2692 2643
4 2643 2692 2693 2644
4 2644 2693 2694 2645
4 2645 2694 2695 2646
4 2646 2695 2696 2647
4 2647 2696 2697 2648
4 2648 2697 2698 2649
4 2649 2698 2699 2650
4 2650 2699 2700 2651
4 2651 2700 202 203
4 52 53 2701 2652
4 2652 2701 2702 2653
4 2653 2702 2703 2654
4 2654 2703 2704 2655
4 2655 2704 2705 2656
4 2656 2705 2706 2657
4 2657 2706 2707 2658
4 2658 2707 2708 2659
4 2659 2708 2709 2660
4 2660 2709 2710 2661
4 2661 2710 2711 2662
4 2662 2711 2712 2663
4 2663 2712 2713 2664
4 2664 2713 2714 2665
4 2665 2714 2715 2666
4 2666 2715 2716 2667
4 2667 2716 2717 2668
4 2668 2717 2718 2669
4 2669 2718 2719 2670
4 2670 2719 2720 2671
4 2671 2720 2721 2672
4 2672 2721 2722 2673
4 2673 2722 2723 2674
4 2674 2723 2724 2675
4 2675 2724 2725 2676
4 2676 2725 2726 2677
4 2677 2726 2727 2678
4 2678 2727 2728 2679
4 2679 2728 2729 2680
4 2680 2729 2730 2681
4 2681 2730 2731 2682
4 2682 2731 2732 2683
4 2683 2732 2733 2684
4 2684 2733 2734 2685
4 2685 2734 2735 2686
4 2686 2735 2736 2687
4 2687 2736 2737 2688
4 2688 2737 2738 2689
4 2689 2738 2739 2690
4 2690 2739 2740 2691
4 2691 2740 2741 2692
4 2692 2741 2742 2693
4 2693 2742 2743 2694
4 2694 2743 2744 2695
4 2695 2744 2745 2696
4 2696 2745 2746 2697
4 2697 2746 2747 2698
4 2698 2747 2748 2699
4 2699 2748 2749 2700
4 2700 2749 201 202
4 53 54 2750 2701
4 2701 2750 2751 2702
4 2702 2751 2752 2703
4 2703 2752 2753 2704
4 2704 2753 2754 2705
4 2705 2754 2755 2706
4 2706 2755 2756 2707
4 2707 2756 2757 2708
4 2708 2757 2758 2709
4 2709 2758 2759 2710
4 2710 2759 2760 2711
4 2711 2760 2761 2712
4 2712 2761 2762 2713
4 2713 2762 2763 2714
4 2714 2763 2764 2715
4 2715 2764 2765 2716
4 2716 2765 2766 2717
4 2717 2766 2767 2718
4 2718 2767 2768 2719
4 2719 2768 2769 2720
4 2720 2769 2770 2721
4 2721 2770 2771 2722
4 2722 2771 2772 2723
4 2723 2772 2773 2724
4 2724 2773 2774 2725
4 2725 2774 2775 2726
4 2726 2775 2776 2727
4 2727 2776 2777 2728
4 2728 2777 2778 2729
4 2729 2778 2779 2730
4 2730 2779 2780 2731
4 2731 2780 2781 2732
4 2732 2781 2782 2733
4 2733 2782 2783 2734
4 2734 2783 2784 2735
4 2735 2784 2785 2736
4 2736 2785 2786 2737
4 2737 2786 2787 2738
4 2738 2787 2788 2739
4 2739 2788 2789 2740
4 2740 2789 2790 2741
4 2741 2790 2791 2742
4 2742 2791 2792 2743
4 2743 2792 2793 2744
4 2744 2793 2794 2745
4 2745 2794 2795 2746
4 2746 2795 2796 2747
4 2747 2796 2797 2748
4 2748 2797 2798 2749
4 2749 2798 200 201
4 54 55 2799 2750
4 2750 2799 2800 2751
4 2751 2800 2801 2752
4 2752 2801 2802 2753
4 2753 2802 2803 2754
4 2754 2803 2804 2755
4 2755 2804 2805 2756
4 2756 2805 2806 2757
4 2757 2806 2807 2758
4 2758 2807 2808 2759
4 2759 2808 2809 2760
4 2760 2809 2810 2761
4 2761 2810 2811 2762
4 2762 2811 2812 2763
4 2763 2812 2813 2764
4 2764 2813 2814 2765
4 2765 2814 2815 2766
4 2766 2815 2816 2767
4 2767 2816 2817 2768
4 2768 2817 2818 2769
4 2769 2818 2819 2770
4 2770 2819 2820 2771
4 2771 2820 2821 2772
4 2772 2821 2822 2773
4 2773 2822 2823 2774
4 2774 2823 2824 2775
4 2775 2824 2825 2776
4 2776 2825 2826 2777
4 2777 2826 2827 2778
4 2778 2827 2828 2779
4 2779 2828 2829 2780
4 2780 2829 2830 2781
4 2781 2830 2831 2782
4 2782 2831 2832 2783
4 2783 2832 2833 2784
4 2784 2833 2834 2785
4 2785 2834 2835 2786
4 2786 2835 2836 2787
4 2787 2836 2837 2788
4 2788 2837 2838 2789
4 2789 2838 2839 2790
4 2790 2839 2840 2791
4 2791 2840 2841 2792
4 2792 2841 2842 2793
4 2793 2842 2843 2794
4 2794 2843 2844 2795
4 2795 2844 2845 2796
4 2796 2845 2846 2797
4 2797 2846 2847 2798
4 2798 2847 199 200
4 55 56 2848 2799
4 2799 2848 2849 2800
4 2800 2849 2850 2801
4 2801 2850 2851 2802
4 2802 2851 2852 2803
4 2803 2852 2853 2804
4 2804 2853 2854 2805
4 2805 2854 2855 2806
4 2806 2855 2856 2807
4 2807 2856 2857 2808
4 2808 2857 2858 2809
4 2809 2858 2859 2810
4 2810 2859 2860 2811
4 2811 2860 2861 2812
4 2812 2861 2862 2813
4 2813 2862 2863 2814
4 2814 2863 2864 2815
4 2815 2864 2865 2816
4 2816 2865 2866 2817
4 2817 2866 2867 2818
4 2818 2867 2868 2819
4 2819 2868 2869 2820
4 2820 2869 2870 2821
4 2821 2870 2871 2822
4 2822 2871 2872 2823
4 2823 2872 2873 2824
4 2824 2873 2874 2825
4 2825 2874 2875 2826
4 2826 2875 2876 2827
4 2827 2876 2877 2828
4 2828 2877 2878 2829
4 2829 2878 2879 2830
4 2830 2879 2880 2831
4 2831 2880 2881 2832
4 2832 2881 2882 2833
4 2833 2882 2883 2834
4 2834 2883 2884 2835
4 2835 2884 2885 2836
4 2836 2885 2886 2837
4 2837 2886 2887 2838
4 2838 2887 2888 2839
4 2839 2888 2889 2840
4 2840 2889 2890 2841
4 2841 2890 2891 2842
4 2842 2891 2892 2843
4 2843 2892 2893 2844
4 2844 2893 2894 2845
4 2845 2894 2895 2846
4 2846 2895 2896 2847
4 2847 2896 198 199
4 56 57 2897 2848
4 2848 2897 2898 2849
4 2849 2898 2899 2850
4 2850 2899 2900 2851
4 2851 2900 2901 2852
4 2852 2901 2902 2853
4 2853 2902 2903 2854
4 2854 2903 2904 2855
4 2855 2904 2905 2856
4 2856 2905 2906 2857
4 2857 2906 2907 2858
4 2858 2907 2908 2859
4 2859 2908 2909 2860
4 2860 2909 2910 2861
4 2861 2910 2911 2862
4 2862 2911 2912 2863
4 2863 2912 2913 2864
4 2864 2913 2914 2865
4 2865 2914 2915 2866
4 2866 2915 2916 2867
4 2867 2916 2917 2868
4 2868 2917 2918 2869
4 2869 2918 2919 2870
4 2870 2919 2920 2871
4 2871 2920 2921 2872
4 2872 2921 2922 2873
4 2873 2922 2923 2874
4 2874 2923 2924 2875
4 2875 2924 2925 2876
4 2876 2925 2926 2877
4 2877 2926 2927 2878
4 2878 2927 2928 2879
4 2879 2928 2929 2880
4 2880 2929 2930 2881
4 2881 2930 2931 2882
4 2882 2931 2932 2883
4 2883 2932 2933 2884
4 2884 2933 2934 2885
4 2885 2934 2935 2886
4 2886 2935 2936 2887
4 2887 2936 2937 2888
4 2888 2937 2938 2889
4 2889 2938 2939 2890
4 2890 2939 2940 2891
4 2891 2940 2941 2892
4 2892 2941 2942 2893
4 2893 2942 2943 2894
4 2894 2943 2944 2895
4 2895 2944 2945 2896
4 2896 2945 197 198
4 57 58 2946 2897
4 2897 2946 2947 2898
4 2898 2947 2948 2899
4 2899 2948 2949 2900
4 2900 2949 2950 2901
4 2901 2950 2951 2902
4 2902 2951 2952 2903
4 2903 2952 2953 2904
4 2904 2953 2954 2905
4 2905 2954 2955 2906
4 2906 2955 2956 2907
4 2907 2956 2957 2908
4 2908 2957 2958 2909
4 2909 2958 2959 2910
4 2910 2959 2960 2911
4 2911 2960 2961 2912
4 2912 2961 2962 2913
4 2913 2962 2963 2914
4 2914 2963 2964 2915
4 2915 2964 2965 2916
4 2916 2965 2966 2917
4 2917 2966 2967 2918
4 2918 2967 2968 2919
4 2919 2968 2969 2920
4 2920 2969 2970 2921
4 2921 2970 2971 2922
4 2922 2971 2972 2923
4 2923 2972 2973 2924
4 2924 2973 2974 2925
4 2925 2974 2975 2926
4 2926 2975 2976 2927
4 2927 2976 2977 2928
4 2928 2977 2978 2929
4 2929 2978 2979 2930
4 2930 2979 2980 2931
4 2931 2980 2981 2932
4 2932 2981 2982 2933
4 2933 2982 2983 2934
4 2934 2983 2984 2935
4 2935 2984 2985 2936
4 2936 2985 2986 2937
4 2937 2986 2987 2938
4 2938 2987 2988 2939
4 2939 2988 2989 2940
4 2940 2989 2990 2941
4 2941 2990 2991 2942
4 2942 2991 2992 2943
4 2943 2992 2993 2944
4 2944 2993 2994 2945
4 2945 2994 196 197
4 58 59 2995 2946
4 2946 2995 2996 2947
4 2947 2996 2997 2948
4 2948 2997 2998 2949
4 2949 2998 2999 2950
4 2950 2999 3000 2951
4 2951 3000 3001 2952
4 2952 3001 3002 2953
4 2953 3002 3003 2954
4 2954 3003 3004 2955
4 2955 3004 3005 2956
4 2956 3005 3006 2957
4 2957 3006 3007 2958
4 2958 3007 3008 2959
4 2959 3008 3009 2960
4 2960 3009 3010 2961
4 2961 3010 3011 2962
4 2962 3011 3012 2963
4 2963 3012 3013 2964
4 2964 3013 3014 2965
4 2965 3014 3015 2966
4 2966 3015 3016 2967
4 2967 3016 3017 2968
4 2968 3017 3018 2969
4 2969 3018 3019 2970
4 2970 3019 3020 2971
4 2971 3020 3021 2972
4 2972 3021 3022 2973
4 2973 3022 3023 2974
4 2974 3023 3024 2975
4 2975 3024 3025 2976
4 2976 3025 3026 2977
4 2977 3026 3027 2978
4 2978 3027 3028 2979
4 2979 3028 3029 2980
4 2980 3029 3030 2981
4 2981 3030 3031 2982
4 2982 3031 3032 2983
4 2983 3032 3033 2984
4 2984 3033 3034 2985
4 2985 3034 3035 2986
4 2986 3035 3036 2987
4 2987 3036 3037 2988
4 2988 3037 3038 2989
4 2989 3038 3039 2990
4 2990 3039 3040 2991
4 2991 3040 3041 2992
4 2992 3041 3042 2993
4 2993 3042 3043 2994
4 2994 3043 195 196
4 59 60 3044 2995
4 2995 3044 3045 2996
4 2996 3045 3046 2997
4 2997 3046 3047 2998
4 2998 3047 3048 2999
4 2999 3048 3049 3000
4 3000 3049 3050 3001
4 3001 3050 3051 3002
4 3002 3051 3052 3003
4 3003 3052 3053 3004
4 3004 3053 3054 3005
4 3005 3054 3055 3006
4 3006 3055 3056 3007
4 3007 3056 3057 3008
4 3008 3057 3058 3009
4 3009 3058 3059 3010
4 3010 3059 3060 3011
4 3011 3060 3061 3012
4 3012 3061 3062 3013
4 3013 3062 3063 3014
4 3014 3063 3064 3015
4 3015 3064 3065 3016
4 3016 3065 3066 3017
4 3017 3066 3067 3018
4 3018 3067 3068 3019
4 3019 3068 3069 3020
4 3020 3069 3070 3021
4 3021 3070 3071 3022
4 3022 3071 3072 3023
4 3023 3072 3073 3024
4 3024 3073 3074 3025
4 3025 3074 3075 3026
4 3026 3075 3076 3027
4 3027 3076 3077 3028
4 3028 3077 3078 3029
4 3029 3078 3079 3030
4 3030 3079 3080 3031
4 3031 3080 3081 3032
4 3032 3081 3082 3033
4 3033 3082 3083 3034
4 3034 3083 3084 3035
4 3035 3084 3085 3036
4 3036 3085 3086 3037
4 3037 3086 3087 3038
4 3038 3087 3088 3039
4 3039 3088 3089 3040
4 3040 3089 3090 3041
4 3041 3090 3091 3042
4 3042 3091 3092 3043
4 3043 3092 194 195
4 60 61 3093 3044
4 3044 3093 3094 3045
4 3045 3094 3095 3046
4 3046 3095 3096 3047
4 3047 3096 3097 3048
4 3048 3097 3098 3049
4 3049 3098 3099 3050
4 3050 3099 3100 3051
4 3051 3100 3101 3052
4 3052 3101 3102 3053
4 3053 3102 3103 3054
4 3054 3103 3104 3055
4 3055 3104 3105 3056
4 3056 3105 3106 3057
4 3057 3106 3107 3058
4 3058 3107 3108 3059
4 3059 3108 3109 3060
4 3060 3109 3110 3061
4 3061 3110 3111 3062
4 3062 3111 3112 3063
4 3063 3112 3113 3064
4 3064 3113 3114 3065
4 3065 3114 3115 3066
4 3066 3115 3116 3067
4 3067 3116 3117 3068
4 3068 3117 3118 3069
4 3069 3118 3119 3070
4 3070 3119 3120 3071
4 3071 3120 3121 3072
4 3072 3121 3122 3073
4 3073 3122 3123 3074
4 3074 3123 3124 3075
4 3075 3124 3125 3076
4 3076 3125 3126 3077
4 3077 3126 3127 3078
4 3078 3127 3128 3079
4 3079 3128 3129 3080
4 3080 3129 3130 3081
4 3081 3130 3131 3082
4 3082 3131 3132 3083
4 3083 3132 3133 3084
4 3084 3133 3134 3085
4 3085 3134 3135 3086
4 3086 3135 3136 3087
4 3087 3136 3137 3088
4 3088 3137 3138 3089
4 3089 3138 3139 3090
4 3090 3139 3140 3091
4 3091 3140 3141 3092
4 3092 3141 193 194
4 61 62 3142 3093
4 3093 3142 3143 3094
4 3094 3143 3144 3095
4 3095 3144 3145 3096
4 3096 3145 3146 3097
4 3097 3146 3147 3098
4 3098 3147 3148 3099
4 3099 3148 3149 3100
4 3100 3149 3150 3101
4 3101 3150 3151 3102
4 3102 3151 3152 3103
4 3103 3152 3153 3104
4 3104 3153 3154 3105
4 3105 3154 3155 3106
4 3106 3155 3156 3107
4 3107 3156 3157 3108
4 3108 3157 3158 3109
4 3109 3158 3159 3110
4 3110 3159 3160 3111
4 3111 3160 3161 3112
4 3112 3161 3162 3113
4 3113 3162 3163 3114
4 3114 3163 3164 3115
4 3115 3164 3165 3116
4 3116 3165 3166 3117
4 3117 3166 3167 3118
4 3118 3167 3168 3119
4 3119 3168 3169 3120
4 3120 3169 3170 3121
4 3121 3170 3171 3122
4 3122 3171 3172 3123
4 3123 3172 3173 3124
4 3124 3173 3174 3125
4 3125 3174 3175 3126
4 3126 3175 3176 3127
4 3127 3176 3177 3128
4 3128 3177 3178 3129
4 3129 3178 3179 3130
4 3130 3179 3180 3131
4 3131 3180 3181 3132
4 3132 3181 3182 3133
4 3133 3182 3183 3134
4 3134 3183 3184 3135
4 3135 3184 3185 3136
4 3136 3185 3186 3137
4 3137 3186 3187 3138
4 3138 3187 3188 3139
4 3139 3188 3189 3140
4 3140 3189 3190 3141
4 3141 3190 192 193
4 62 63 3191 3142
4 3142 3191 3192 3143
4 3143 3192 3193 3144
4 3144 3193 3194 3145
4 3145 3194 3195 3146
4 3146 3195 3196 3147
4 3147 3196 3197 3148
4 3148 3197 3198 3149
4 3149 3198 3199 3150
4 3150 3199 3200 3151
4 3151 3200 3201 3152
4 3152 3201 3202 3153
4 3153 3202 3203 3154
4 3154 3203 3204 3155
4 3155 3204 3205 3156
4 3156 3205 3206 3157
4 3157 3206 3207 3158
4 3158 3207 3208 3159
4 3159 3208 3209 3160
4 3160 3209 3210 3161
4 3161 3210 3211 3162
4 3162 3211 3212 3163
4 3163 3212 3213 3164
4 3164 3213 3214 3165
4 3165 3214 3215 3166
4 3166 3215 3216 3167
4 3167 3216 3217 3168
4 3168 3217 3218 3169
4 3169 3218 3219 3170
4 3170 3219 3220 3171
4 3171 3220 3221 3172
4 3172 3221 3222 3173
4 3173 3222 3223 3174
4 3174 3223 3224 3175
4 3175 3224 3225 3176
4 3176 3225 3226 3177
4 3177 3226 3227 3178
4 3178 3227 3228 3179
4 3179 3228 3229 3180
4 3180 3229 3230 3181
4 3181 3230 3231 3182
4 3182 3231 3232 3183
4 3183 3232 3233 3184
4 3184 3233 3234 3185
4 3185 3234 3235 3186
4 3186 3235 3236 3187
4 3187 3236 3237 3188
4 3188 3237 3238 3189
4 3189 3238 3239 3190
4 3190 3239 191 192
4 63 64 3240 3191
4 3191 3240 3241 3192
4 3192 3241 3242 3193
4 3193 3242 3243 3194
4 3194 3243 3244 3195
4 3195 3244 3245 3196
4 3196 3245 3246 3197
4 3197 3246 3247 3198
4 3198 3247 3248 3199
4 3199 3248 3249 3200
4 3200 3249 3250 3201
4 3201 3250 3251 3202
4 3202 3251 3252 3203
4 3203 3252 3253 3204
4 3204 3253 3254 3205
4 3205 3254 3255 3206
4 3206 3255 3256 3207
4 3207 3256 3257 3208
4 3208 3257 3258 3209
4 3209 3258 3259 3210
4 3210 3259 3260 3211
4 3211 3260 3261 3212
4 3212 3261 3262 3213
4 3213 3262 3263 3214
4 3214 3263 3264 3215
4 3215 3264 3265 3216
4 3216 3265 3266 3217
4 3217 3266 3267 3218
4 3218 3267 3268 3219
4 3219 3268 3269 3220
4 3220 3269 3270 3221
4 3221 3270 3271 3222
4 3222 3271 3272 3223
4 3223 3272 3273 3224
4 3224 3273 3274 3225
4 3225 3274 3275 3226
4 3226 3275 3276 3227
4 3227 3276 3277 3228
4 3228 3277 3278 3229
4 3229 3278 3279 3230
4 3230 3279 3280 3231
4 3231 3280 3281 3232
4 3232 3281 3282 3233
4 3233 3282 3283 3234
4 3234 3283 3284 3235
4 3235 3284 3285 3236
4 3236 3285 3286 3237
4 3237 3286 3287 3238
4 3238 3287 3288 3239
4 3239 3288 190 191
4 64 65 3289 3240
4 3240 3289 3290 3241
4 3241 3290 3291 3242
4 3242 3291 3292 3243
4 3243 3292 3293 3244
4 3244 3293 3294 3245
4 3245 3294 3295 3246
4 3246 3295 3296 3247
4 3247 3296 3297 3248
4 3248 3297 3298 3249
4 3249 3298 3299 3250
4 3250 3299 3300 3251
4 3251 3300 3301 3252
4 3252 3301 3302 3253
4 3253 3302 3303 3254
4 3254 3303 3304 3255
4 3255 3304 3305 3256
4 3256 3305 3306 3257
4 3257 3306 3307 3258
4 3258 3307 3308 3259
4 3259 3308 3309 3260
4 3260 3309 3310 3261
4 3261 3310 3311 3262
4 3262 3311 3312 3263
4 3263 3312 3313 3264
4 3264 3313 3314 3265
4 3265 3314 3315 3266
4 3266 3315 3316 3267
4 3267 3316 3317 3268
4 3268 3317 3318 3269
4 3269 3318 3319 3270
4 3270 3319 3320 3271
4 3271 3320 3321 3272
4 3272 3321 3322 3273
4 3273 3322 3323 3274
4 3274 3323 3324 3275
4 3275 3324 3325 3276
4 3276 3325 3326 3277
4 3277 3326 3327 3278
4 3278 3327 3328 3279
4 3279 3328 3329 3280
4 3280 3329 3330 3281
4 3281 3330 3331 3282
4 3282 3331 3332 3283
4 3283 3332 3333 3284
4 3284 3333 3334 3285
4 3285 3334 3335 3286
4 3286 3335 3336 3287
4 3287 3336 3337 3288
4 3288 3337 189 190
4 65 66 3338 3289
4 3289 3338 3339 3290
4 3290 3339 3340 3291
4 3291 3340 3341 3292
4 3292 3341 3342 3293
4 3293 3342 3343 3294
4 3294 3343 3344 3295
4 3295 3344 3345 3296
4 3296 3345 3346 3297
4 3297 3346 3347 3298
4 3298 3347 3348 3299
4 3299 3348 3349 3300
4 3300 3349 3350 3301
4 3301 3350 3351 3302
4 3302 3351 3352 3303
4 3303 3352 3353 3304
4 3304 3353 3354 3305
4 3305 3354 3355 3306
4 3306 3355 3356 3307
4 3307 3356 3357 3308
4 3308 3357 3358 3309
4 3309 3358 3359 3310
4 3310 3359 3360 3311
4 3311 3360 3361 3312
4 3312 3361 3362 3313
4 3313 3362 3363 3314
4 3314 3363 3364 3315
4 3315 3364 3365 3316
4 3316 3365 3366 3317
4 3317 3366 3367 3318
4 3318 3367 3368 3319
4 3319 3368 3369 3320
4 3320 3369 3370 3321
4 3321 3370 3371 3322
4 3322 3371 3372 3323
4 3323 3372 3373 3324
4 3324 3373 3374 3325
4 3325 3374 3375 3326
4 3326 3375 3376 3327
4 3327 3376 3377 3328
4 3328 3377 3378 3329
4 3329 3378 3379 3330
4 3330 3379 3380 3331
4 3331 3380 3381 3332
4 3332 3381 3382 3333
4 3333 3382 3383 3334
4 3334 3383 3384 3335
4 3335 3384 3385 3336
4 3336 3385 3386 3337
4 3337 3386 188 189
4 66 67 3387 3338
4 3338 3387 3388 3339
4 3339 3388 3389 3340
4 3340 3389 3390 3341
4 3341 3390 3391 3342
4 3342 3391 3392 3343
4 3343 3392 3393 3344
4 3344 3393 3394 3345
4 3345 3394 3395 3346
4 3346 3395 3396 3347
4 3347 3396 3397 3348
4 3348 3397 3398 3349
4 3349 3398 3399 3350
4 3350 3399 3400 3351
4 3351 3400 3401 3352
4 3352 3401 3402 3353
4 3353 3402 3403 3354
4 3354 3403 3404 3355
4 3355 3404 3405 3356
4 3356 3405 3406 3357
4 3357 3406 3407 3358
4 3358 3407 3408 3359
4 3359 3408 3409 3360
4 3360 3409 3410 3361
4 3361 3410 3411 3362
4 3362 3411 3412 3363
4 3363 3412 3413 3364
4 3364 3413 3414 3365
4 3365 3414 3415 3366
4 3366 3415 3416 3367
4 3367 3416 3417 3368
4 3368 3417 3418 3369
4 3369 3418 3419 3370
4 3370 3419 3420 3371
4 3371 3420 3421 3372
4 3372 3421 3422 3373
4 3373 3422 3423 3374
4 3374 3423 3424 3375
4 3375 3424 3425 3376
4 3376 3425 3426 3377
4 3377 3426 3427 3378
4 3378 3427 3428 3379
4 3379 3428 3429 3380
4 3380 3429 3430 3381
4 3381 3430 3431 3382
4 3382 3431 3432 3383
4 3383 3432 3433 3384
4 3384 3433 3434 3385
4 3385 3434 3435 3386
4 3386 3435 187 188
4 67 68 3436 3387
4 3387 3436 3437 3388
4 3388 3437 3438 3389
4 3389 3438 3439 3390
4 3390 3439 3440 3391
4 3391 3440 3441 3392
4 3392 3441 3442 3393
4 3393 3442 3443 3394
4 3394 3443 3444 3395
4 3395 3444 3445 3396
4 3396 3445 3446 3397
4 3397 3446 3447 3398
4 3398 3447 3448 3399
4 3399 3448 3449 3400
4 3400 3449 3450 3401
4 3401 3450 3451 3402
4 3402 3451 3452 3403
4 3403 3452 3453 3404
4 3404 3453 3454 3405
4 3405 3454 3455 3406
4 3406 3455 3456 3407
4 3407 3456 3457 3408
4 3408 3457 3458 3409
4 3409 3458 3459 3410
4 3410 3459 3460 3411
4 3411 3460 3461 3412
4 3412 3461 3462 3413
4 3413 3462 3463 3414
4 3414 3463 3464 3415
4 3415 3464 3465 3416
4 3416 3465 3466 3417
4 3417 3466 3467 3418
4 3418 3467 3468 3419
4 3419 3468 3469 3420
4 3420 3469 3470 3421
4 3421 3470 3471 3422
4 3422 3471 3472 3423
4 3423 3472 3473 3424
4 3424 3473 3474 3425
4 3425 3474 3475 3426
4 3426 3475 3476 3427
4 3427 3476 3477 3428
4 3428 3477 3478 3429
4 3429 3478 3479 3430
4 3430 3479 3480 3431
4 3431 3480 3481 3432
4 3432 3481 3482 3433
4 3433 3482 3483 3434
4 3434 3483 3484 3435
4 3435 3484 186 187
4 68 69 3485 3436
4 3436 3485 3486 3437
4 3437 3486 3487 3438
4 3438 3487 3488 3439
4 3439 3488 3489 3440
4 3440 3489 3490 3441
4 3441 3490 3491 3442
4 3442 3491 3492 3443
4 3443 3492 3493 3444
4 3444 3493 3494 3445
4 3445 3494 3495 3446
4 3446 3495 3496 3447
4 3447 3496 3497 3448
4 3448 3497 3498 3449
4 3449 3498 3499 3450
4 3450 3499 3500 3451
4 3451 3500 3501 3452
4 3452 3501 3502 3453
4 3453 3502 3503 3454
4 3454 3503 3504 3455
4 3455 3504 3505 3456
4 3456 3505 3506 3457
4 3457 3506 3507 3458
4 3458 3507 3508 3459
4 3459 3508 3509 3460
4 3460 3509 3510 3461
4 3461 3510 3511 3462
4 3462 3511 3512 3463
4 3463 3512 3513 3464
4 3464 3513 3514 3465
4 3465 3514 3515 3466
4 3466 3515 3516 3467
4 3467 3516 3517 3468
4 3468 3517 3518 3469
4 3469 3518 3519 3470
4 3470 3519 3520 3471
4 3471 3520 3521 3472
4 3472 3521 3522 3473
4 3473 3522 3523 3474
4 3474 3523 3524 3475
4 3475 3524 3525 3476
4 3476 3525 3526 3477
4 3477 3526 3527 3478
4 3478 3527 3528 3479
4 3479 3528 3529 3480
4 3480 3529 3530 3481
4 3481 3530 3531 3482
4 3482 3531 3532 3483
4 3483 3532 3533 3484
4 3484 3533 185 186
4 69 70 3534 3485
4 3485 3534 3535 3486
4 3486 3535 3536 3487
4 3487 3536 3537 3488
4 3488 3537 3538 3489
4 3489 3538 3539 3490
4 3490 3539 3540 3491
4 3491 3540 3541 3492
4 3492 3541 3542 3493
4 3493 3542 3543 3494
4 3494 3543 3544 3495
4 3495 3544 3545 3496
4 3496 3545 3546 3497
4 3497 3546 3547 3498
4 3498 3547 3548 3499
4 3499 3548 3549 3500
4 3500 3549 3550 3501
4 3501 3550 3551 3502
4 3502 3551 3552 3503
4 3503 3552 3553 3504
4 3504 3553 3554 3505
4 3505 3554 3555 3506
4 3506 3555 3556 3507
4 3507 3556 3557 3508
4 3508 3557 3558 3509
4 3509 3558 3559 3510
4 3510 3559 3560 3511
4 3511 3560 3561 3512
4 3512 3561 3562 3513
4 3513 3562 3563 3514
4 3514 3563 3564 3515
4 3515 3564 3565 3516
4 3516 3565 3566 3517
4 3517 3566 3567 3518
4 3518 3567 3568 3519
4 3519 3568 3569 3520
4 3520 3569 3570 3521
4 3521 3570 3571 3522
4 3522 3571 3572 3523
4 3523 3572 3573 3524
4 3524 3573 3574 3525
4 3525 3574 3575 3526
4 3526 3575 3576 3527
4 3527 3576 3577 3528
4 3528 3577 3578 3529
4 3529 3578 3579 3530
4 3530 3579 3580 3531
4 3531 3580 3581 3532
4 3532 3581 3582 3533
4 3533 3582 184 185
4 70 71 3583 3534
4 3534 3583 3584 3535
4 3535 3584 3585 3536
4 3536 3585 3586 3537
4 3537 3586 3587 3538
4 3538 3587 3588 3539
4 3539 3588 3589 3540
4 3540 3589 3590 3541
4 3541 3590 3591 3542
4 3542 3591 3592 3543
4 3543 3592 3593 3544
4 3544 3593 3594 3545
4 3545 3594 3595 3546
4 3546 3595 3596 3547
4 3547 3596 3597 3548
4 3548 3597 3598 3549
4 3549 3598 3599 3550
4 3550 3599 3600 3551
4 3551 3600 3601 3552
4 3552 3601 3602 3553
4 3553 3602 3603 3554
4 3554 3603 3604 3555
4 3555 3604 3605 3556
4 3556 3605 3606 3557
4 3557 3606 3607 3558
4 3558 3607 3608 3559
4 3559 3608 3609 3560
4 3560 3609 3610 3561
4 3561 3610 3611 3562
4 3562 3611 3612 3563
4 3563 3612 3613 3564
4 3564 3613 3614 3565
4 3565 3614 3615 3566
4 3566 3615 3616 3567
4 3567 3616 3617 3568
4 3568 3617 3618 3569
4 3569 3618 3619 3570
4 3570 3619 3620 3571
4 3571 3620 3621 3572
4 3572 3621 3622 3573
4 3573 3622 3623 3574
4 3574 3623 3624 3575
4 3575 3624 3625 3576
4 3576 3625 3626 3577
4 3577 3626 3627 3578
4 3578 3627 3628 3579
4 3579 3628 3629 3580
4 3580 3629 3630 3581
4 3581 3630 3631 3582
4 3582 3631 183 184
4 71 72 3632 3583
4 3583 3632 3633 3584
4 3584 3633 3634 3585
4 3585 3634 3635 3586
4 3586 3635 3636 3587
4 3587 3636 3637 3588
4 3588 3637 3638 3589
4 3589 3638 3639 3590
4 3590 3639 3640 3591
4 3591 3640 3641 3592
4 3592 3641 3642 3593
4 3593 3642 3643 3594
4 3594 3643 3644 3595
4 3595 3644 3645 3596
4 3596 3645 3646 3597
4 3597 3646 3647 3598
4 3598 3647 3648 3599
4 3599 3648 3649 3600
4 3600 3649 3650 3601
4 3601 3650 3651 3602
4 3602 3651 3652 3603
4 3603 3652 3653 3604
4 3604 3653 3654 3605
4 3605 3654 3655 3606
4 3606 3655 3656 3607
4 3607 3656 3657 3608
4 3608 3657 3658 3609
4 3609 3658 3659 3610
4 3610 3659 3660 3611
4 3611 3660 3661 3612
4 3612 3661 3662 3613
4 3613 3662 3663 3614
4 3614 3663 3664 3615
4 3615 3664 3665 3616
4 3616 3665 3666 3617
4 3617 3666 3667 3618
4 3618 3667 3668 3619
4 3619 3668 3669 3620
4 3620 3669 3670 3621
4 3621 3670 3671 3622
4 3622 3671 3672 3623
4 3623 3672 3673 3624
4 3624 3673 3674 3625
4 3625 3674 3675 3626
4 3626 3675 3676 3627
4 3627 3676 3677 3628
4 3628 3677 3678 3629
4 3629 3678 3679 3630
4 3630 3679 3680 3631
4 3631 3680 182 183
4 72 73 3681 3632
4 3632 3681 3682 3633
4 3633 3682 3683 3634
4 3634 3683 3684 3635
4 3635 3684 3685 3636
4 3636 3685 3686 3637
4 3637 3686 3687 3638
4 3638 3687 3688 3639
4 3639 3688 3689 3640
4 3640 3689 3690 3641
4 3641 3690 3691 3642
4 3642 3691 3692 3643
4 3643 3692 3693 3644
4 3644 3693 3694 3645
4 3645 3694 3695 3646
4 3646 3695 3696 3647
4 3647 3696 3697 3648
4 3648 3697 3698 3649
4 3649 3698 3699 3650
4 3650 3699 3700 3651
4 3651 3700 3701 3652
4 3652 3701 3702 3653
4 3653 3702 3703 3654
4 3654 3703 3704 3655
4 3655 3704 3705 3656
4 3656 3705 3706 3657
4 3657 3706 3707 3658
4 3658 3707 3708 3659
4 3659 3708 3709 3660
4 3660 3709 3710 3661
4 3661 3710 3711 3662
4 3662 3711 3712 3663
4 3663 3712 3713 3664
4 3664 3713 3714 3665
4 3665 3714 3715 3666
4 3666 3715 3716 3667
4 3667 3716 3717 3668
4 3668 3717 3718 3669
4 3669 3718 3719 3670
4 3670 3719 3720 3671
4 3671 3720 3721 3672
4 3672 3721 3722 3673
4 3673 3722 3723 3674
4 3674 3723 3724 3675
4 3675 3724 3725 3676
4 3676 3725 3726 3677
4 3677 3726 3727 3678
4 3678 3727 3728 3679
4 3679 3728 3729 3680
4 3680 3729 181 182
4 73 74 3730 3681
4 3681 3730 3731 3682
4 3682 3731 3732 3683
4 3683 3732 3733 3684
4 3684 3733 3734 3685
4 3685 3734 3735 3686
4 3686 3735 3736 3687
4 3687 3736 3737 3688
4 3688 3737 3738 3689
4 3689 3738 3739 3690
4 3690 3739 3740 3691
4 3691 3740 3741 3692
4 3692 3741 3742 3693
4 3693 3742 3743 3694
4 3694 3743 3744 3695
4 3695 3744 3745 3696
4 3696 3745 3746 3697
4 3697 3746 3747 3698
4 3698 3747 3748 3699
4 3699 3748 3749 3700
4 3700 3749 3750 3701
4 3701 3750 3751 3702
4 3702 3751 3752 3703
4 3703 3752 3753 3704
4 3704 3753 3754 3705
4 3705 3754 3755 3706
4 3706 3755 3756 3707
4 3707 3756 3757 3708
4 3708 3757 3758 3709
4 3709 3758 3759 3710
4 3710 3759 3760 3711
4 3711 3760 3761 3712
4 3712 3761 3762 3713
4 3713 3762 3763 3714
4 3714 3763 3764 3715
4 3715 3764 3765 3716
4 3716 3765 3766 3717
4 3717 3766 3767 3718
4 3718 3767 3768 3719
4 3719 3768 3769 3720
4 3720 3769 3770 3721
4 3721 3770 3771 3722
4 3722 3771 3772 3723
4 3723 3772 3773 3724
4 3724 3773 3774 3725
4 3725 3774 3775 3726
4 3726 3775 3776 3727
4 3727 3776 3777 3728
4 3728 3777 3778 3729
4 3729 3778 180 181
4 74 75 3779 3730
4 3730 3779 3780 3731
4 3731 3780 3781 3732
4 3732 3781 3782 3733
4 3733 3782 3783 3734
4 3734 3783 3784 3735
4 3735 3784 3785 3736
4 3736 3785 3786 3737
4 3737 3786 3787 3738
4 3738 3787 3788 3739
4 3739 3788 3789 3740
4 3740 3789 3790 3741
4 3741 3790 3791 3742
4 3742 3791 3792 3743
4 3743 3792 3793 3744
4 3744 3793 3794 3745
4 3745 3794 3795 3746
4 3746 3795 3796 3747
4 3747 3796 3797 3748
4 3748 3797 3798 3749
4 3749 3798 3799 3750
4 3750 3799 3800 3751
4 3751 3800 3801 3752
4 3752 3801 3802 3753
4 3753 3802 3803 3754
4 3754 3803 3804 3755
4 3755 3804 3805 3756
4 3756 3805 3806 3757
4 3757 3806 3807 3758
4 3758 3807 3808 3759
4 3759 3808 3809 3760
4 3760 3809 3810 3761
4 3761 3810 3811 3762
4 3762 3811 3812 3763
4 3763 3812 3813 3764
4 3764 3813 3814 3765
4 3765 3814 3815 3766
4 3766 3815 3816 3767
4 3767 3816 3817 3768
4 3768 3817 3818 3769
4 3769 3818 3819 3770
4 3770 3819 3820 3771
4 3771 3820 3821 3772
4 3772 3821 3822 3773
4 3773 3822 3823 3774
4 3774 3823 3824 3775
4 3775 3824 3825 3776
4 3776 3825 3826 3777
4 3777 3826 3827 3778
4 3778 3827 179 180
4 75 76 3828 3779
4 3779 3828 3829 3780
4 3780 3829 3830 3781
4 3781 3830 3831 3782
4 3782 3831 3832 3783
4 3783 3832 3833 3784
4 3784 3833 3834 3785
4 3785 3834 3835 3786
4 3786 3835 3836 3787
4 3787 3836 3837 3788
4 3788 3837 3838 3789
4 3789 3838 3839 3790
4 3790 3839 3840 3791
4 3791 3840 3841 3792
4 3792 3841 3842 3793
4 3793 3842 3843 3794
4 3794 3843 3844 3795
4 3795 3844 3845 3796
4 3796 3845 3846 3797
4 3797 3846 3847 3798
4 3798 3847 3848 3799
4 3799 3848 3849 3800
4 3800 3849 3850 3801
4 3801 3850 3851 3802
4 3802 3851 3852 3803
4 3803 3852 3853 3804
4 3804 3853 3854 3805
4 3805 3854 3855 3806
4 3806 3855 3856 3807
4 3807 3856 3857 3808
4 3808 3857 3858 3809
4 3809 3858 3859 3810
4 3810 3859 3860 3811
4 3811 3860 3861 3812
4 3812 3861 3862 3813
4 3813 3862 3863 3814
4 3814 3863 3864 3815
4 3815 3864 3865 3816
4 3816 3865 3866 3817
4 3817 3866 3867 3818
4 3818 3867 3868 3819
4 3819 3868 3869 3820
4 3820 3869 3870 3821
4 3821 3870 3871 3822
4 3822 3871 3872 3823
4 3823 3872 3873 3824
4 3824 3873 3874 3825
4 3825 3874 3875 3826
4 3826 3875 3876 3827
4 3827 3876 178 179
4 76 77 3877 3828
4 3828 3877 3878 3829
4 3829 3878 3879 3830
4 3830 3879 3880 3831
4 3831 3880 3881 3832
4 3832 3881 3882 3833
4 3833 3882 3883 3834
4 3834 3883 3884 3835
4 3835 3884 3885 3836
4 3836 3885 3886 3837
4 3837 3886 3887 3838
4 3838 3887 3888 3839
4 3839 3888 3889 3840
4 3840 3889 3890 3841
4 3841 3890 3891 3842
4 3842 3891 3892 3843
4 3843 3892 3893 3844
4 3844 3893 3894 3845
4 3845 3894 3895 3846
4 3846 3895 3896 3847
4 3847 3896 3897 3848
4 3848 3897 3898 3849
4 3849 3898 3899 3850
4 3850 3899 3900 3851
4 3851 3900 3901 3852
4 3852 3901 3902 3853
4 3853 3902 3903 3854
4 3854 3903 3904 3855
4 3855 3904 3905 3856
4 3856 3905 3906 3857
4 3857 3906 3907 3858
4 3858 3907 3908 3859
4 3859 3908 3909 3860
4 3860 3909 3910 3861
4 3861 3910 3911 3862
4 3862 3911 3912 3863
4 3863 3912 3913 3864
4 3864 3913 3914 3865
4 3865 3914 3915 3866
4 3866 3915 3916 3867
4 3867 3916 3917 3868
4 3868 3917 3918 3869
4 3869 3918 3919 3870
4 3870 3919 3920 3871
4 3871 3920 3921 3872
4 3872 3921 3922 3873
4 3873 3922 3923 3874
4 3874 3923 3924 3875
4 3875 3924 3925 3876
4 3876 3925 177 178
4 77 78 3926 3877
4 3877 3926 3927 3878
4 3878 3927 3928 3879
4 3879 3928 3929 3880
4 3880 3929 3930 3881
4 3881 3930 3931 3882
4 3882 3931 3932 3883
4 3883 3932 3933 3884
4 3884 3933 3934 3885
4 3885 3934 3935 3886
4 3886 3935 3936 3887
4 3887 3936 3937 3888
4 3888 3937 3938 3889
4 3889 3938 3939 3890
4 3890 3939 3940 3891
4 3891 3940 3941 3892
4 3892 3941 3942 3893
4 3893 3942 3943 3894
4 3894 3943 3944 3895
4 3895 3944 3945 3896
4 3896 3945 3946 3897
4 3897 3946 3947 3898
4 3898 3947 3948 3899
4 3899 3948 3949 3900
4 3900 3949 3950 3901
4 3901 3950 3951 3902
4 3902 3951 3952 3903
4 3903 3952 3953 3904
4 3904 3953 3954 3905
4 3905 3954 3955 3906
4 3906 3955 3956 3907
4 3907 3956 3957 3908
4 3908 3957 3958 3909
4 3909 3958 3959 3910
4 3910 3959 3960 3911
4 3911 3960 3961 3912
4 3912 3961 3962 3913
4 3913 3962 3963 3914
4 3914 3963 3964 3915
4 3915 3964 3965 3916
4 3916 3965 3966 3917
4 3917 3966 3967 3918
4 3918 3967 3968 3919
4 3919 3968 3969 3920
4 3920 3969 3970 3921
4 3921 3970 3971 3922
4 3922 3971 3972 3923
4 3923 3972 3973 3924
4 3924 3973 3974 3925
4 3925 3974 176 177
4 78 79 3975 3926
4 3926 3975 3976 3927
4 3927 3976 3977 3928
4 3928 3977 3978 3929
4 3929 3978 3979 3930
4 3930 3979 3980 3931
4 3931 3980 3981 3932
4 3932 3981 3982 3933
4 3933 3982 3983 3934
4 3934 3983 3984 3935
4 3935 3984 3985 3936
4 3936 3985 3986 3937
4 3937 3986 3987 3938
4 3938 3987 3988 3939
4 3939 3988 3989 3940
4 3940 3989 3990 3941
4 3941 3990 3991 3942
4 3942 3991 3992 3943
4 3943 3992 3993 3944
4 3944 3993 3994 3945
4 3945 3994 3995 3946
4 3946 3995 3996 3947
4 3947 3996 3997 3948
4 3948 3997 3998 3949
4 3949 3998 3999 3950
4 3950 3999 4000 3951
4 3951 4000 4001 3952
4 3952 4001 4002 3953
4 3953 4002 4003 3954
4 3954 4003 4004 3955
4 3955 4004 4005 3956
4 3956 4005 4006 3957
4 3957 4006 4007 3958
4 3958 4007 4008 3959
4 3959 4008 4009 3960
4 3960 4009 4010 3961
4 3961 4010 4011 3962
4 3962 4011 4012 3963
4 3963 4012 4013 3964
4 3964 4013 4014 3965
4 3965 4014 4015 3966
4 3966 4015 4016 3967
4 3967 4016 4017 3968
4 3968 4017 4018 3969
4 3969 4018 4019 3970
4 3970 4019 4020 3971
4 3971 4020 4021 3972
4 3972 4021 4022 3973
4 3973 4022 4023 3974
4 3974 4023 175 176
4 79 80 4024 3975
4 3975 4024 4025 3976
4 3976 4025 4026 3977
4 3977 4026 4027 3978
4 3978 4027 4028 3979
4 3979 4028 4029 3980
4 3980 4029 4030 3981
4 3981 4030 4031 3982
4 3982 4031 4032 3983
4 3983 4032 4033 3984
4 3984 4033 4034 3985
4 3985 4034 4035 3986
4 3986 4035 4036 3987
4 3987 4036 4037 3988
4 3988 4037 4038 3989
4 3989 4038 4039 3990
4 3990 4039 4040 3991
4 3991 4040 4041 3992
4 3992 4041 4042 3993
4 3993 4042 4043 3994
4 3994 4043 4044 3995
4 3995 4044 4045 3996
4 3996 4045 4046 3997
4 3997 4046 4047 3998
4 3998 4047 4048 3999
4 3999 4048 4049 4000
4 4000 4049 4050 4001
4 4001 4050 4051 4002
4 4002 4051 4052 4003
4 4003 4052 4053 4004
4 4004 4053 4054 4005
4 4005 4054 4055 4006
4 4006 4055 4056 4007
4 4007 4056 4057 4008
4 4008 4057 4058 4009
4 4009 4058 4059 4010
4 4010 4059 4060 4011
4 4011 4060 4061 4012
4 4012 4061 4062 4013
4 4013 4062 4063 4014
4 4014 4063 4064 4015
4 4015 4064 4065 4016
4 4016 4065 4066 4017
4 4017 4066 4067 4018
4 4018 4067 4068 4019
4 4019 4068 4069 4020
4 4020 4069 4070 4021
4 4021 4070 4071 4022
4 4022 4071 4072 4023
4 4023 4072 174 175
4 80 81 4073 4024
4 4024 4073 4074 4025
4 4025 4074 4075 4026
4 4026 4075 4076 4027
4 4027 4076 4077 4028
4 4028 4077 4078 4029
4 4029 4078 4079 4030
4 4030 4079 4080 4031
4 4031 4080 4081 4032
4 4032 4081 4082 4033
4 4033 4082 4083 4034
4 4034 4083 4084 4035
4 4035 4084 4085 4036
4 4036 4085 4086 4037
4 4037 4086 4087 4038
4 4038 4087 4088 4039
4 4039 4088 4089 4040
4 4040 4089 4090 4041
4 4041 4090 4091 4042
4 4042 4091 4092 4043
4 4043 4092 4093 4044
4 4044 4093 4094 4045
4 4045 4094 4095 4046
4 4046 4095 4096 4047
4 4047 4096 4097 4048
4 4048 4097 4098 4049
4 4049 4098 4099 4050
4 4050 4099 4100 4051
4 4051 4100 4101 4052
4 4052 4101 4102 4053
4 4053 4102 4103 4054
4 4054 4103 4104 4055
4 4055 4104 4105 4056
4 4056 4105 4106 4057
4 4057 4106 4107 4058
4 4058 4107 4108 4059
4 4059 4108 4109 4060
4 4060 4109 4110 4061
4 4061 4110 4111 4062
4 4062 4111 4112 4063
4 4063 4112 4113 4064
4 4064 4113 4114 4065
4 4065 4114 4115 4066
4 4066 4115 4116 4067
4 4067 4116 4117 4068
4 4068 4117 4118 4069
4 4069 4118 4119 4070
4 4070 4119 4120 4071
4 4071 4120 4121 4072
4 4072 4121 173 174
4 81 82 4122 4073
4 4073 4122 4123 4074
4 4074 4123 4124 4075
4 4075 4124 4125 4076
4 4076 4125 4126 4077
4 4077 4126 4127 4078
4 4078 4127 4128 4079
4 4079 4128 4129 4080
4 4080 4129 4130 4081
4 4081 4130 4131 4082
4 4082 4131 4132 4083
4 4083 4132 4133 4084
4 4084 4133 4134 4085
4 4085 4134 4135 4086
4 4086 4135 4136 4087
4 4087 4136 4137 4088
4 4088 4137 4138 4089
4 4089 4138 4139 4090
4 4090 4139 4140 4091
4 4091 4140 4141 4092
4 4092 4141 4142 4093
4 4093 4142 4143 4094
4 4094 4143 4144 4095
4 4095 4144 4145 4096
4 4096 4145 4146 4097
4 4097 4146 4147 4098
4 4098 4147 4148 4099
4 4099 4148 4149 4100
4 4100 4149 4150 4101
4 4101 4150 4151 4102
4 4102 4151 4152 4103
4 4103 4152 4153 4104
4 4104 4153 4154 4105
4 4105 4154 4155 4106
4 4106 4155 4156 4107
4 4107 4156 4157 4108
4 4108 4157 4158 4109
4 4109 4158 4159 4110
4 4110 4159 4160 4111
4 4111 4160 4161 4112
4 4112 4161 4162 4113
4 4113 4162 4163 4114
4 4114 4163 4164 4115
4 4115 4164 4165 4116
4 4116 4165 4166 4117
4 4117 4166 4167 4118
4 4118 4167 4168 4119
4 4119 4168 4169 4120
4 4120 4169 4170 4121
4 4121 4170 172 173
4 82 83 4171 4122
4 4122 4171 4172 4123
4 4123 4172 4173 4124
4 4124 4173 4174 4125
4 4125 4174 4175 4126
4 4126 4175 4176 4127
4 4127 4176 4177 4128
4 4128 4177 4178 4129
4 4129 4178 4179 4130
4 4130 4179 4180 4131
4 4131 4180 4181 4132
4 4132 4181 4182 4133
4 4133 4182 4183 4134
4 4134 4183 4184 4135
4 4135 4184 4185 4136
4 4136 4185 4186 4137
4 4137 4186 4187 4138
4 4138 4187 4188 4139
4 4139 4188 4189 4140
4 4140 4189 4190 4141
4 4141 4190 4191 4142
4 4142 4191 4192 4143
4 4143 4192 4193 4144
4 4144 4193 4194 4145
4 4145 4194 4195 4146
4 4146 4195 4196 4147
4 4147 4196 4197 4148
4 4148 4197 4198 4149
4 4149 4198 4199 4150
4 4150 4199 4200 4151
4 4151 4200 4201 4152
4 4152 4201 4202 4153
4 4153 4202 4203 4154
4 4154 4203 4204 4155
4 4155 4204 4205 4156
4 4156 4205 4206 4157
4 4157 4206 4207 4158
4 4158 4207 4208 4159
4 4159 4208 4209 4160
4 4160 4209 4210 4161
4 4161 4210 4211 4162
4 4162 4211 4212 4163
4 4163 4212 4213 4164
4 4164 4213 4214 4165
4 4165 4214 4215 4166
4 4166 4215 4216 4167
4 4167 4216 4217 4168
4 4168 4217 4218 4169
4 4169 4218 4219 4170
4 4170 4219 171 172
4 83 84 4220 4171
4 4171 4220 4221 4172
4 4172 4221 4222 4173
4 4173 4222 4223 4174
4 4174 4223 4224 4175
4 4175 4224 4225 4176
4 4176 4225 4226 4177
4 4177 4226 4227 4178
4 4178 4227 4228 4179
4 4179 4228 4229 4180
4 4180 4229 4230 4181
4 4181 4230 4231 4182
4 4182 4231 4232 4183
4 4183 4232 4233 4184
4 4184 4233 4234 4185
4 4185 4234 4235 4186
4 4186 4235 4236 4187
4 4187 4236 4237 4188
4 4188 4237 4238 4189
4 4189 4238 4239 4190
4 4190 4239 4240 4191
4 4191 4240 4241 4192
4 4192 4241 4242 4193
4 4193 4242 4243 4194
4 4194 4243 4244 4195
4 4195 4244 4245 4196
4 4196 4245 4246 4197
4 4197 4246 4247 4198
4 4198 4247 4248 4199
4 4199 4248 4249 4200
4 4200 4249 4250 4201
4 4201 4250 4251 4202
4 4202 4251 4252 4203
4 4203 4252 4253 4204
4 4204 4253 4254 4205
4 4205 4254 4255 4206
4 4206 4255 4256 4207
4 4207 4256 4257 4208
4 4208 4257 4258 4209
4 4209 4258 4259 4210
4 4210 4259 4260 4211
4 4211 4260 4261 4212
4 4212 4261 4262 4213
4 4213 4262 4263 4214
4 4214 4263 4264 4215
4 4215 4264 4265 4216
4 4216 4265 4266 4217
4 4217 4266 4267 4218
4 4218 4267 4268 4219
4 4219 4268 170 171
4 84 85 4269 4220
4 4220 4269 4270 4221
4 4221 4270 4271 4222
4 4222 4271 4272 4223
4 4223 4272 4273 4224
4 4224 4273 4274 4225
4 4225 4274 4275 4226
4 4226 4275 4276 4227
4 4227 4276 4277 4228
4 4228 4277 4278 4229
4 4229 4278 4279 4230
4 4230 4279 4280 4231
4 4231 4280 4281 4232
4 4232 4281 4282 4233
4 4233 4282 4283 4234
4 4234 4283 4284 4235
4 4235 4284 4285 4236
4 4236 4285 4286 4237
4 4237 4286 4287 4238
4 4238 4287 4288 4239
4 4239 4288 4289 4240
4 4240 4289 4290 4241
4 4241 4290 4291 4242
4 4242 4291 4292 4243
4 4243 4292 4293 4244
4 4244 4293 4294 4245
4 4245 4294 4295 4246
4 4246 4295 4296 4247
4 4247 4296 4297 4248
4 4248 4297 4298 4249
4 4249 4298 4299 4250
4 4250 4299 4300 4251
4 4251 4300 4301 4252
4 4252 4301 4302 4253
4 4253 4302 4303 4254
4 4254 4303 4304 4255
4 4255 4304 4305 4256
4 4256 4305 4306 4257
4 4257 4306 4307 4258
4 4258 4307 4308 4259
4 4259 4308 4309 4260
4 4260 4309 4310 4261
4 4261 4310 4311 4262
4 4262 4311 4312 4263
4 4263 4312 4313 4264
4 4264 4313 4314 4265
4 4265 4314 4315 4266
4 4266 4315 4316 4267
4 4267 4316 4317 4268
4 4268 4317 169 170
4 85 86 4318 4269
4 4269 4318 4319 4270
4 4270 4319 4320 4271
4 4271 4320 4321 4272
4 4272 4321 4322 4273
4 4273 4322 4323 4274
4 4274 4323 4324 4275
4 4275 4324 4325 4276
4 4276 4325 4326 4277
4 4277 4326 4327 4278
4 4278 4327 4328 4279
4 4279 4328 4329 4280
4 4280 4329 4330 4281
4 4281 4330 4331 4282
4 4282 4331 4332 4283
4 4283 4332 4333 4284
4 4284 4333 4334 4285
4 4285 4334 4335 4286
4 4286 4335 4336 4287
4 4287 4336 4337 4288
4 4288 4337 4338 4289
4 4289 4338 4339 4290
4 4290 4339 4340 4291
4 4291 4340 4341 4292
4 4292 4341 4342 4293
4 4293 4342 4343 4294
4 4294 4343 4344 4295
4 4295 4344 4345 4296
4 4296 4345 4346 4297
4 4297 4346 4347 4298
4 4298 4347 4348 4299
4 4299 4348 4349 4300
4 4300 4349 4350 4301
4 4301 4350 4351 4302
4 4302 4351 4352 4303
4 4303 4352 4353 4304
4 4304 4353 4354 4305
4 4305 4354 4355 4306
4 4306 4355 4356 4307
4 4307 4356 4357 4308
4 4308 4357 4358 4309
4 4309 4358 4359 4310
4 4310 4359 4360 4311
4 4311 4360 4361 4312
4 4312 4361 4362 4313
4 4313 4362 4363 4314
4 4314 4363 4364 4315
4 4315 4364 4365 4316
4 4316 4365 4366 4317
4 4317 4366 168 169
4 86 87 4367 4318
4 4318 4367 4368 4319
4 4319 4368 4369 4320
4 4320 4369 4370 4321
4 4321 4370 4371 4322
4 4322 4371 4372 4323
4 4323 4372 4373 4324
4 4324 4373 4374 4325
4 4325 4374 4375 4326
4 4326 4375 4376 4327
4 4327 4376 4377 4328
4 4328 4377 4378 4329
4 4329 4378 4379 4330
4 4330 4379 4380 4331
4 4331 4380 4381 4332
4 4332 4381 4382 4333
4 4333 4382 4383 4334
4 4334 4383 4384 4335
4 4335 4384 4385 4336
4 4336 4385 4386 4337
4 4337 4386 4387 4338
4 4338 4387 4388 4339
4 4339 4388 4389 4340
4 4340 4389 4390 4341
4 4341 4390 4391 4342
4 4342 4391 4392 4343
4 4343 4392 4393 4344
4 4344 4393 4394 4345
4 4345 4394 4395 4346
4 4346 4395 4396 4347
4 4347 4396 4397 4348
4 4348 4397 4398 4349
4 4349 4398 4399 4350
4 4350 4399 4400 4351
4 4351 4400 4401 4352
4 4352 4401 4402 4353
4 4353 4402 4403 4354
4 4354 4403 4404 4355
4 4355 4404 4405 4356
4 4356 4405 4406 4357
4 4357 4406 4407 4358
4 4358 4407 4408 4359
4 4359 4408 4409 4360
4 4360 4409 4410 4361
4 4361 4410 4411 4362
4 4362 4411 4412 4363
4 4363 4412 4413 4364
4 4364 4413 4414 4365
4 4365 4414 4415 4366
4 4366 4415 167 168
4 87 88 4416 4367
4 4367 4416 4417 4368
4 4368 4417 4418 4369
4 4369 4418 4419 4370
4 4370 4419 4420 4371
4 4371 4420 4421 4372
4 4372 4421 4422 4373
4 4373 4422 4423 4374
4 4374 4423 4424 4375
4 4375 4424 4425 4376
4 4376 4425 4426 4377
4 4377 4426 4427 4378
4 4378 4427 4428 4379
4 4379 4428 4429 4380
4 4380 4429 4430 4381
4 4381 4430 4431 4382
4 4382 4431 4432 4383
4 4383 4432 4433 4384
4 4384 4433 4434 4385
4 4385 4434 4435 4386
4 4386 4435 4436 4387
4 4387 4436 4437 4388
4 4388 4437 4438 4389
4 4389 4438 4439 4390
4 4390 4439 4440 4391
4 4391 4440 4441 4392
4 4392 4441 4442 4393
4 4393 4442 4443 4394
4 4394 4443 4444 4395
4 4395 4444 4445 4396
4 4396 4445 4446 4397
4 4397 4446 4447 4398
4 4398 4447 4448 4399
4 4399 4448 4449 4400
4 4400 4449 4450 4401
4 4401 4450 4451 4402
4 4402 4451 4452 4403
4 4403 4452 4453 4404
4 4404 4453 4454 4405
4 4405 4454 4455 4406
4 4406 4455 4456 4407
4 4407 4456 4457 4408
4 4408 4457 4458 4409
4 4409 4458 4459 4410
4 4410 4459 4460 4411
4 4411 4460 4461 4412
4 4412 4461 4462 4413
4 4413 4462 4463 4414
4 4414 4463 4464 4415
4 4415 4464 166 167
4 88 89 4465 4416
4 4416 4465 4466 4417
4 4417 4466 4467 4418
4 4418 4467 4468 4419
4 4419 4468 4469 4420
4 4420 4469 4470 4421
4 4421 4470 4471 4422
4 4422 4471 4472 4423
4 4423 4472 4473 4424
4 4424 4473 4474 4425
4 4425 4474 4475 4426
4 4426 4475 4476 4427
4 4427 4476 4477 4428
4 4428 4477 4478 4429
4 4429 4478 4479 4430
4 4430 4479 4480 4431
4 4431 4480 4481 4432
4 4432 4481 4482 4433
4 4433 4482 4483 4434
4 4434 4483 4484 4435
4 4435 4484 4485 4436
4 4436 4485 4486 4437
4 4437 4486 4487 4438
4 4438 4487 4488 4439
4 4439 4488 4489 4440
4 4440 4489 4490 4441
4 4441 4490 4491 4442
4 4442 4491 4492 4443
4 4443 4492 4493 4444
4 4444 4493 4494 4445
4 4445 4494 4495 4446
4 4446 4495 4496 4447
4 4447 4496 4497 4448
4 4448 4497 4498 4449
4 4449 4498 4499 4450
4 4450 4499 4500 4451
4 4451 4500 4501 4452
4 4452 4501 4502 4453
4 4453 4502 4503 4454
4 4454 4503 4504 4455
4 4455 4504 4505 4456
4 4456 4505 4506 4457
4 4457 4506 4507 4458
4 4458 4507 4508 4459
4 4459 4508 4509 4460
4 4460 4509 4510 4461
4 4461 4510 4511 4462
4 4462 4511 4512 4463
4 4463 4512 4513 4464
4 4464 4513 165 166
4 89 90 4514 4465
4 4465 4514 4515 4466
4 4466 4515 4516 4467
4 4467 4516 4517 4468
4 4468 4517 4518 4469
4 4469 4518 4519 4470
4 4470 4519 4520 4471
4 4471 4520 4521 4472
4 4472 4521 4522 4473
4 4473 4522 4523 4474
4 4474 4523 4524 4475
4 4475 4524 4525 4476
4 4476 4525 4526 4477
4 4477 4526 4527 4478
4 4478 4527 4528 4479
4 4479 4528 4529 4480
4 4480 4529 4530 4481
4 4481 4530 4531 4482
4 4482 4531 4532 4483
4 4483 4532 4533 4484
4 4484 4533 4534 4485
4 4485 4534 4535 4486
4 4486 4535 4536 4487
4 4487 4536 4537 4488
4 4488 4537 4538 4489
4 4489 4538 4539 4490
4 4490 4539 4540 4491
4 4491 4540 4541 4492
4 4492 4541 4542 4493
4 4493 4542 4543 4494
4 4494 4543 4544 4495
4 4495 4544 4545 4496
4 4496 4545 4546 4497
4 4497 4546 4547 4498
4 4498 4547 4548 4499
4 4499 4548 4549 4500
4 4500 4549 4550 4501
4 4501 4550 4551 4502
4 4502 4551 4552 4503
4 4503 4552 4553 4504
4 4504 4553 4554 4505
4 4505 4554 4555 4506
4 4506 4555 4556 4507
4 4507 4556 4557 4508
4 4508 4557 4558 4509
4 4509 4558 4559 4510
4 4510 4559 4560 4511
4 4511 4560 4561 4512
4 4512 4561 4562 4513
4 4513 4562 164 165
4 90 91 4563 4514
4 4514 4563 4564 4515
4 4515 4564 4565 4516
4 4516 4565 4566 4517
4 4517 4566 4567 4518
4 4518 4567 4568 4519
4 4519 4568 4569 4520
4 4520 4569 4570 4521
4 4521 4570 4571 4522
4 4522 4571 4572 4523
4 4523 4572 4573 4524
4 4524 4573 4574 4525
4 4525 4574 4575 4526
4 4526 4575 4576 4527
4 4527 4576 4577 4528
4 4528 4577 4578 4529
4 4529 4578 4579 4530
4 4530 4579 4580 4531
4 4531 4580 4581 4532
4 4532 4581 4582 4533
4 4533 4582 4583 4534
4 4534 4583 4584 4535
4 4535 4584 4585 4536
4 4536 4585 4586 4537
4 4537 4586 4587 4538
4 4538 4587 4588 4539
4 4539 4588 4589 4540
4 4540 4589 4590 4541
4 4541 4590 4591 4542
4 4542 4591 4592 4543
4 4543 4592 4593 4544
4 4544 4593 4594 4545
4 4545 4594 4595 4546
4 4546 4595 4596 4547
4 4547 4596 4597 4548
4 4548 4597 4598 4549
4 4549 4598 4599 4550
4 4550 4599 4600 4551
4 4551 4600 4601 4552
4 4552 4601 4602 4553
4 4553 4602 4603 4554
4 4554 4603 4604 4555
4 4555 4604 4605 4556
4 4556 4605 4606 4557
4 4557 4606 4607 4558
4 4558 4607 4608 4559
4 4559 4608 4609 4560
4 4560 4609 4610 4561
4 4561 4610 4611 4562
4 4562 4611 163 164
4 91 92 4612 4563
4 4563 4612 4613 4564
4 4564 4613 4614 4565
4 4565 4614 4615 4566
4 4566 4615 4616 4567
4 4567 4616 4617 4568
4 4568 4617 4618 4569
4 4569 4618 4619 4570
4 4570 4619 4620 4571
4 4571 4620 4621 4572
4 4572 4621 4622 4573
4 4573 4622 4623 4574
4 4574 4623 4624 4575
4 4575 4624 4625 4576
4 4576 4625 4626 4577
4 4577 4626 4627 4578
4 4578 4627 4628 4579
4 4579 4628 4629 4580
4 4580 4629 4630 4581
4 4581 4630 4631 4582
4 4582 4631 4632 4583
4 4583 4632 4633 4584
4 4584 4633 4634 4585
4 4585 4634 4635 4586
4 4586 4635 4636 4587
4 4587 4636 4637 4588
4 4588 4637 4638 4589
4 4589 4638 4639 4590
4 4590 4639 4640 4591
4 4591 4640 4641 4592
4 4592 4641 4642 4593
4 4593 4642 4643 4594
4 4594 4643 4644 4595
4 4595 4644 4645 4596
4 4596 4645 4646 4597
4 4597 4646 4647 4598
4 4598 4647 4648 4599
4 4599 4648 4649 4600
4 4600 4649 4650 4601
4 4601 4650 4651 4602
4 4602 4651 4652 4603
4 4603 4652 4653 4604
4 4604 4653 4654 4605
4 4605 4654 4655 4606
4 4606 4655 4656 4607
4 4607 4656 4657 4608
4 4608 4657 4658 4609
4 4609 4658 4659 4610
4 4610 4659 4660 4611
4 4611 4660 162 163
4 92 93 4661 4612
4 4612 4661 4662 4613
4 4613 4662 4663 4614
4 4614 4663 4664 4615
4 4615 4664 4665 4616
4 4616 4665 4666 4617
4 4617 4666 4667 4618
4 4618 4667 4668 4619
4 4619 4668 4669 4620
4 4620 4669 4670 4621
4 4621 4670 4671 4622
4 4622 4671 4672 4623
4 4623 4672 4673 4624
4 4624 4673 4674 4625
4 4625 4674 4675 4626
4 4626 4675 4676 4627
4 4627 4676 4677 4628
4 4628 4677 4678 4629
4 4629 4678 4679 4630
4 4630 4679 4680 4631
4 4631 4680 4681 4632
4 4632 4681 4682 4633
4 4633 4682 4683 4634
4 4634 4683 4684 4635
4 4635 4684 4685 4636
4 4636 4685 4686 4637
4 4637 4686 4687 4638
4 4638 4687 4688 4639
4 4639 4688 4689 4640
4 4640 4689 4690 4641
4 4641 4690 4691 4642
4 4642 4691 4692 4643
4 4643 4692 4693 4644
4 4644 4693 4694 4645
4 4645 4694 4695 4646
4 4646 4695 4696 4647
4 4647 4696 4697 4648
4 4648 4697 4698 4649
4 4649 4698 4699 4650
4 4650 4699 4700 4651
4 4651 4700 4701 4652
4 4652 4701 4702 4653
4 4653 4702 4703 4654
4 4654 4703 4704 4655
4 4655 4704 4705 4656
4 4656 4705 4706 4657
4 4657 4706 4707 4658
4 4658 4707 4708 4659
4 4659 4708 4709 4660
4 4660 4709 161 162
4 93 94 4710 4661
4 4661 4710 4711 4662
4 4662 4711 4712 4663
4 4663 4712 4713 4664
4 4664 4713 4714 4665
4 4665 4714 4715 4666
4 4666 4715 4716 4667
4 4667 4716 4717 4668
4 4668 4717 4718 4669
4 4669 4718 4719 4670
4 4670 4719 4720 4671
4 4671 4720 4721 4672
4 4672 4721 4722 4673
4 4673 4722 4723 4674
4 4674 4723 4724 4675
4 4675 4724 4725 4676
4 4676 4725 4726 4677
4 4677 4726 4727 4678
4 4678 4727 4728 4679
4 4679 4728 4729 4680
4 4680 4729 4730 4681
4 4681 4730 4731 4682
4 4682 4731 4732 4683
4 4683 4732 4733 4684
4 4684 4733 4734 4685
4 4685 4734 4735 4686
4 4686 4735 4736 4687
4 4687 4736 4737 4688
4 4688 4737 4738 4689
4 4689 4738 4739 4690
4 4690 4739 4740 4691
4 4691 4740 4741 4692
4 4692 4741 4742 4693
4 4693 4742 4743 4694
4 4694 4743 4744 4695
4 4695 4744 4745 4696
4 4696 4745 4746 4697
4 4697 4746 4747 4698
4 4698 4747 4748 4699
4 4699 4748 4749 4700
4 4700 4749 4750 4701
4 4701 4750 4751 4702
4 4702 4751 4752 4703
4 4703 4752 4753 4704
4 4704 4753 4754 4705
4 4705 4754 4755 4706
4 4706 4755 4756 4707
4 4707 4756 4757 4708
4 4708 4757 4758 4709
4 4709 4758 160 161
4 94 95 4759 4710
4 4710 4759 4760 4711
4 4711 4760 4761 4712
4 4712 4761 4762 4713
4 4713 4762 4763 4714
4 4714 4763 4764 4715
4 4715 4764 4765 4716
4 4716 4765 4766 4717
4 4717 4766 4767 4718
4 4718 4767 4768 4719
4 4719 4768 4769 4720
4 4720 4769 4770 4721
4 4721 4770 4771 4722
4 4722 4771 4772 4723
4 4723 4772 4773 4724
4 4724 4773 4774 4725
4 4725 4774 4775 4726
4 4726 4775 4776 4727
4 4727 4776 4777 4728
4 4728 4777 4778 4729
4 4729 4778 4779 4730
4 4730 4779 4780 4731
4 4731 4780 4781 4732
4 4732 4781 4782 4733
4 4733 4782 4783 4734
4 4734 4783 4784 4735
4 4735 4784 4785 4736
4 4736 4785 4786 4737
4 4737 4786 4787 4738
4 4738 4787 4788 4739
4 4739 4788 4789 4740
4 4740 4789 4790 4741
4 4741 4790 4791 4742
4 4742 4791 4792 4743
4 4743 4792 4793 4744
4 4744 4793 4794 4745
4 4745 4794 4795 4746
4 4746 4795 4796 4747
4 4747 4796 4797 4748
4 4748 4797 4798 4749
4 4749 4798 4799 4750
4 4750 4799 4800 4751
4 4751 4800 4801 4752
4 4752 4801 4802 4753
4 4753 4802 4803 4754
4 4754 4803 4804 4755
4 4755 4804 4805 4756
4 4756 4805 4806 4757
4 4757 4806 4807 4758
4 4758 4807 159 160
4 95 96 4808 4759
4 4759 4808 4809 4760
4 4760 4809 4810 4761
4 4761 4810 4811 4762
4 4762 4811 4812 4763
4 4763 4812 4813 4764
4 4764 4813 4814 4765
4 4765 4814 4815 4766
4 4766 4815 4816 4767
4 4767 4816 4817 4768
4 4768 4817 4818 4769
4 4769 4818 4819 4770
4 4770 4819 4820 4771
4 4771 4820 4821 4772
4 4772 4821 4822 4773
4 4773 4822 4823 4774
4 4774 4823 4824 4775
4 4775 4824 4825 4776
4 4776 4825 4826 4777
4 4777 4826 4827 4778
4 4778 4827 4828 4779
4 4779 4828 4829 4780
4 4780 4829 4830 4781
4 4781 4830 4831 4782
4 4782 4831 4832 4783
4 4783 4832 4833 4784
4 4784 4833 4834 4785
4 4785 4834 4835 4786
4 4786 4835 4836 4787
4 4787 4836 4837 4788
4 4788 4837 4838 4789
4 4789 4838 4839 4790
4 4790 4839 4840 4791
4 4791 4840 4841 4792
4 4792 4841 4842 4793
4 4793 4842 4843 4794
4 4794 4843 4844 4795
4 4795 4844 4845 4796
4 4796 4845 4846 4797
4 4797 4846 4847 4798
4 4798 4847 4848 4799
4 4799 4848 4849 4800
4 4800 4849 4850 4801
4 4801 4850 4851 4802
4 4802 4851 4852 4803
4 4803 4852 4853 4804
4 4804 4853 4854 4805
4 4805 4854 4855 4806
4 4806 4855 4856 4807
4 4807 4856 158 159
4 96 97 4857 4808
4 4808 4857 4858 4809
4 4809 4858 4859 4810
4 4810 4859 4860 4811
4 4811 4860 4861 4812
4 4812 4861 4862 4813
4 4813 4862 4863 4814
4 4814 4863 4864 4815
4 4815 4864 4865 4816
4 4816 4865 4866 4817
4 4817 4866 4867 4818
4 4818 4867 4868 4819
4 4819 4868 4869 4820
4 4820 4869 4870 4821
4 4821 4870 4871 4822
4 4822 4871 4872 4823
4 4823 4872 4873 4824
4 4824 4873 4874 4825
4 4825 4874 4875 4826
4 4826 4875 4876 4827
4 4827 4876 4877 4828
4 4828 4877 4878 4829
4 4829 4878 4879 4830
4 4830 4879 4880 4831
4 4831 4880 4881 4832
4 4832 4881 4882 4833
4 4833 4882 4883 4834
4 4834 4883 4884 4835
4 4835 4884 4885 4836
4 4836 4885 4886 4837
4 4837 4886 4887 4838
4 4838 4887 4888 4839
4 4839 4888 4889 4840
4 4840 4889 4890 4841
4 4841 4890 4891 4842
4 4842 4891 4892 4843
4 4843 4892 4893 4844
4 4844 4893 4894 4845
4 4845 4894 4895 4846
4 4846 4895 4896 4847
4 4847 4896 4897 4848
4 4848 4897 4898 4849
4 4849 4898 4899 4850
4 4850 4899 4900 4851
4 4851 4900 4901 4852
4 4852 4901 4902 4853
4 4853 4902 4903 4854
4 4854 4903 4904 4855
4 4855 4904 4905 4856
4 4856 4905 157 158
4 97 98 4906 4857
4 4857 4906 4907 4858
4 4858 4907 4908 4859
4 4859 4908 4909 4860
4 4860 4909 4910 4861
4 4861 4910 4911 4862
4 4862 4911 4912 4863
4 4863 4912 4913 4864
4 4864 4913 4914 4865
4 4865 4914 4915 4866
4 4866 4915 4916 4867
4 4867 4916 4917 4868
4 4868 4917 4918 4869
4 4869 4918 4919 4870
4 4870 4919 4920 4871
4 4871 4920 4921 4872
4 4872 4921 4922 4873
4 4873 4922 4923 4874
4 4874 4923 4924 4875
4 4875 4924 4925 4876
4 4876 4925 4926 4877
4 4877 4926 4927 4878
4 4878 4927 4928 4879
4 4879 4928 4929 4880
4 4880 4929 4930 4881
4 4881 4930 4931 4882
4 4882 4931 4932 4883
4 4883 4932 4933 4884
4 4884 4933 4934 4885
4 4885 4934 4935 4886
4 4886 4935 4936 4887
4 4887 4936 4937 4888
4 4888 4937 4938 4889
4 4889 4938 4939 4890
4 4890 4939 4940 4891
4 4891 4940 4941 4892
4 4892 4941 4942 4893
4 4893 4942 4943 4894
4 4894 4943 4944 4895
4 4895 4944 4945 4896
4 4896 4945 4946 4897
4 4897 4946 4947 4898
4 4898 4947 4948 4899
4 4899 4948 4949 4900
4 4900 4949 4950 4901
4 4901 4950 4951 4902
4 4902 4951 4952 4903
4 4903 4952 4953 4904
4 4904 4953 4954 4905
4 4905 4954 156 157
4 98 99 4955 4906
4 4906 4955 4956 4907
4 4907 4956 4957 4908
4 4908 4957 4958 4909
4 4909 4958 4959 4910
4 4910 4959 4960 4911
4 4911 4960 4961 4912
4 4912 4961 4962 4913
4 4913 4962 4963 4914
4 4914 4963 4964 4915
4 4915 4964 4965 4916
4 4916 4965 4966 4917
4 4917 4966 4967 4918
4 4918 4967 4968 4919
4 4919 4968 4969 4920
4 4920 4969 4970 4921
4 4921 4970 4971 4922
4 4922 4971 4972 4923
4 4923 4972 4973 4924
4 4924 4973 4974 4925
4 4925 4974 4975 4926
4 4926 4975 4976 4927
4 4927 4976 4977 4928
4 4928 4977 4978 4929
4 4929 4978 4979 4930
4 4930 4979 4980 4931
4 4931 4980 4981 4932
4 4932 4981 4982 4933
4 4933 4982 4983 4934
4 4934 4983 4984 4935
4 4935 4984 4985 4936
4 4936 4985 4986 4937
4 4937 4986 4987 4938
4 4938 4987 4988 4939
4 4939 4988 4989 4940
4 4940 4989 4990 4941
4 4941 4990 4991 4942
4 4942 4991 4992 4943
4 4943 4992 4993 4944
4 4944 4993 4994 4945
4 4945 4994 4995 4946
4 4946 4995 4996 4947
4 4947 4996 4997 4948
4 4948 4997 4998 4949
4 4949 4998 4999 4950
4 4950 4999 5000 4951
4 4951 5000 5001 4952
4 4952 5001 5002 4953
4 4953 5002 5003 4954
4 4954 5003 155 156
4 99 100 5004 4955
4 4955 5004 5005 4956
4 4956 5005 5006 4957
4 4957 5006 5007 4958
4 4958 5007 5008 4959
4 4959 5008 5009 4960
4 4960 5009 5010 4961
4 4961 5010 5011 4962
4 4962 5011 5012 4963
4 4963 5012 5013 4964
4 4964 5013 5014 4965
4 4965 5014 5015 4966
4 4966 5015 5016 4967
4 4967 5016 5017 4968
4 4968 5017 5018 4969
4 4969 5018 5019 4970
4 4970 5019 5020 4971
4 4971 5020 5021 4972
4 4972 5021 5022 4973
4 4973 5022 5023 4974
4 4974 5023 5024 4975
4 4975 5024 5025 4976
4 4976 5025 5026 4977
4 4977 5026 5027 4978
4 4978 5027 5028 4979
4 4979 5028 5029 4980
4 4980 5029 5030 4981
4 4981 5030 5031 4982
4 4982 5031 5032 4983
4 4983 5032 5033 4984
4 4984 5033 5034 4985
4 4985 5034 5035 4986
4 4986 5035 5036 4987
4 4987 5036 5037 4988
4 4988 5037 5038 4989
4 4989 5038 5039 4990
4 4990 5039 5040 4991
4 4991 5040 5041 4992
4 4992 5041 5042 4993
4 4993 5042 5043 4994
4 4994 5043 5044 4995
4 4995 5044 5045 4996
4 4996 5045 5046 4997
4 4997 5046 5047 4998
4 4998 5047 5048 4999
4 4999 5048 5049 5000
4 5000 5049 5050 5001
4 5001 5050 5051 5002
4 5002 5051 5052 5003
4 5003 5052 154 155
4 100 101 5053 5004
4 5004 5053 5054 5005
4 5005 5054 5055 5006
4 5006 5055 5056 5007
4 5007 5056 5057 5008
4 5008 5057 5058 5009
4 5009 5058 5059 5010
4 5010 5059 5060 5011
4 5011 5060 5061 5012
4 5012 5061 5062 5013
4 5013 5062 5063 5014
4 5014 5063 5064 5015
4 5015 5064 5065 5016
4 5016 5065 5066 5017
4 5017 5066 5067 5018
4 5018 5067 5068 5019
4 5019 5068 5069 5020
4 5020 5069 5070 5021
4 5021 5070 5071 5022
4 5022 5071 5072 5023
4 5023 5072 5073 5024
4 5024 5073 5074 5025
4 5025 5074 5075 5026
4 5026 5075 5076 5027
4 5027 5076 5077 5028
4 5028 5077 5078 5029
4 5029 5078 5079 5030
4 5030 5079 5080 5031
4 5031 5080 5081 5032
4 5032 5081 5082 5033
4 5033 5082 5083 5034
4 5034 5083 5084 5035
4 5035 5084 5085 5036
4 5036 5085 5086 5037
4 5037 5086 5087 5038
4 5038 5087 5088 5039
4 5039 5088 5089 5040
4 5040 5089 5090 5041
4 5041 5090 5091 5042
4 5042 5091 5092 5043
4 5043 5092 5093 5044
4 5044 5093 5094 5045
4 5045 5094 5095 5046
4 5046 5095 5096 5047
4 5047 5096 5097 5048
4 5048 5097 5098 5049
4 5049 5098 5099 5050
4 5050 5099 5100 5051
4 5051 5100 5101 5052
4 5052 5101 153 154
4 101 102 5102 5053
4 5053 5102 5103 5054
4 5054 5103 5104 5055
4 5055 5104 5105 5056
4 5056 5105 5106 5057
4 5057 5106 5107 5058
4 5058 5107 5108 5059
4 5059 5108 5109 5060
4 5060 5109 5110 5061
4 5061 5110 5111 5062
4 5062 5111 5112 5063
4 5063 5112 5113 5064
4 5064 5113 5114 5065
4 5065 5114 5115 5066
4 5066 5115 5116 5067
4 5067 5116 5117 5068
4 5068 5117 5118 5069
4 5069 5118 5119 5070
4 5070 5119 5120 5071
4 5071 5120 5121 5072
4 5072 5121 5122 5073
4 5073 5122 5123 5074
4 5074 5123 5124 5075
4 5075 5124 5125 5076
4 5076 5125 5126 5077
4 5077 5126 5127 5078
4 5078 5127 5128 5079
4 5079 5128 5129 5080
4 5080 5129 5130 5081
4 5081 5130 5131 5082
4 5082 5131 5132 5083
4 5083 5132 5133 5084
4 5084 5133 5134 5085
4 5085 5134 5135 5086
4 5086 5135 5136 5087
4 5087 5136 5137 5088
4 5088 5137 5138 5089
4 5089 5138 5139 5090
4 5090 5139 5140 5091
4 5091 5140 5141 5092
4 5092 5141 5142 5093
4 5093 5142 5143 5094
4 5094 5143 5144 5095
4 5095 5144 5145 5096
4 5096 5145 5146 5097
4 5097 5146 5147 5098
4 5098 5147 5148 5099
4 5099 5148 5149 5100
4 5100 5149 5150 5101
4 5101 5150 152 153
4 102 1 103 5102
4 5102 103 104 5103
4 5103 104 105 5104
4 5104 105 106 5105
4 5105 106 107 5106
4 5106 107 108 5107
4 5107 108 109 5108
4 5108 109 110 5109
4 5109 110 111 5110
4 5110 111 112 5111
4 5111 112 113 5112
4 5112 113 114 5113
4 5113 114 115 5114
4 5114 115 116 5115
4 5115 116 117 5116
4 5116 117 118 5117
4 5117 118 119 5118
4 5118 119 120 5119
4 5119 120 121 5120
4 5120 121 122 5121
4 5121 122 123 5122
4 5122 123 124 5123
4 5123 124 125 5124
4 5124 125 126 5125
4 5125 126 127 5126
4 5126 127 128 5127
4 5127 128 129 5128
4 5128 129 130 5129
4 5129 130 131 5130
4 5130 131 132 5131
4 5131 132 133 5132
4 5132 133 134 5133
4 5133 134 135 5134
4 5134 135 136 5135
4 5135 136 137 5136
4 5136 137 138 5137
4 5137 138 139 5138
4 5138 139 140 5139
4 5139 140 141 5140
4 5140 141 142 5141
4 5141 142 143 5142
4 5142 143 144 5143
4 5143 144 145 5144
4 5144 145 146 5145
4 5145 146 147 5146
4 5146 147 148 5147
4 5147 148 149 5148
4 5148 149 150 5149
4 5149 150 151 5150
4 5150 151 2 152

CELL_TYPES 5000
9
9
9
9
9
9
9
9
9
9
9
9
9
9
9
9
9
9
9
9
9
9
9
9
9
9
9
9
9
9
9
9
9
9
9
9
9
9
9
9
9
9
9
9
9
9
9
9
9
9
9
9
9
9
9
9
9
9
9
9
9
9
9
9
9
9
9
9
9
9
9
9
9
9
9
9
9
9
9
9
9
9
9
9
9
9
9
9
9
9
9
9
9
9
9
9
9
9
9
9
9
9
9
9
9
9
9
9
9
9
9
9
9
9
9
9
9
9
9
9
9
9
9
9
9
9
9
9
9
9
9
9
9
9
9
9
9
9
9
9
9
9
9
9
9
9
9
9
9
9
9
9
9
9
9
9
9
9
9
9
9
9
9
9
9
9
9
9
9
9
9
9
9
9
9
9
9
9
9
9
9
9
9
9
9
9
9
9
9
9
9
9
9
9
9
9
9
9
9
9
9
9
9
9
9
9
9
9
9
9
9
9
9
9
9
9
9
9
9
9
9
9
9
9
9
9
9
9
9
9
9
9
9
9
9
9
9
9
9
9
9
9
9
9
9
9
9
9
9
9
9
9
9
9
9
9
9
9
9
9
9
9
9
9
9
9
9
9
9
9
9
9
9
9
9
9
9
9
9
9
9
9
9
9
9
9
9
9
9
9
9
9
9
9
9
9
9
9
9
9
9
9
9
9
9
9
9
9
9
9
9
9
9
9
9
9
9
9
9
9
9
9
9
9
9
9
9
9
9
9
9
9
9
9
9
9
9
9
9
9
9
9
9
9
9
9
9
9
9
9
9
9
9
9
9
9
9
9
9
9
9
9
9
9
9
9
9
9
9
9
9
9
9
9
9
9
9
9
9
9
9
9
9
9
9
9
9
9
9
9
9
9
9
9
9
9
9
9
9
9
9
9
9
9
9
9
9
9
9
9
9
9
9
9
9
9
9
9
9
9
9
9
9
9
9
9
9
9
9
9
9
9
9
9
9
9
9
9
9
9
9
9
9
9
9
9
9
9
9
9
9
9
9
9
9
9
9
9
9
9
9
9
9
9
9
9
9
9
9
9
9
9
9
9
9
9
9
9
9
9
9
9
9
9
9
9
9
9
9
9
9
9
9
9
9
9
9
9
9
9
9
9
9
9
9
9
9
9
9
9
9
9
9
9
9
9
9
9
9
9
9
9
9
9
9
9
9
9
9
9
9
9
9
9
9
9
9
9
9
9
9
9
9
9
9
9
9
9
9
9
9
9
9
9
9
9
9
9
9
9
9
9
9
9
9
9
9
9
9
9
9
9
9
9
9
9
9
9
9
9
9
9
9
9
9
9
9
9
9
9
9
9
9
9
9
9
9
9
9
9
9
9
9
9
9
9
9
9
9
9
9
9
9
9
9
9
9
9
9
9
9
9
9
9
9
9
9
9
9
9
9
9
9
9
9
9
9
9
9
9
9
9
9
9
9
9
9
9
9
9
9
9
9
9
9
9
9
9
9
9
9
9
9
9
9
9
9
9
9
9
9
9
9
9
9
9
9
9
9
9
9
9
9
9
9
9
9
9
9
9
9
9
9
9
9
9
9
9
9
9
9
9
9
9
9
9
9
9
9
9
9
9
9
9
9
9
9
9
9
9
9
9
9
9
9
9
9
9
9
9
9
9
9
9
9
9
9
9
9
9
9
9
9
9
9
9
9
9
9
9
9
9
9
9
9
9
9
9
9
9
9
9
9
9
9
9
9
9
9
9
9
9
9
9
9
9
9
9
9
9
9
9
9
9
9
9
9
9
9
9
9
9
9
9
9
9
9
9
9
9
9
9
9
9
9
9
9
9
9
9
9
9
9
9
9
9
9
9
9
9
9
9
9
9
9
9
9
9
9
9
9
9
9
9
9
9
9
9
9
9
9
9
9
9
9
9
9
9
9
9
9
9
9
9
9
9
9
9
9
9
9
9
9
9
9
9
9
9
9
9
9
9
9
9
9
9
9
9
9
9
9
9
9
9
9
9
9
9
9
9
9
9
9
9
9
9
9
9
9
9
9
9
9
9
9
9
9
9
9
9
9
9
9
9
9
9
9
9
9
9
9
9
9
9
9
9
9
9
9
9
9
9
9
9
9
9
9
9
9
9
9
9
9
9
9
9
9
9
9
9
9
9
9
9
9
9
9
9
9
9
9
9
9
9
9
9
9
9
9
9
9
9
9
9
9
9
9
9
9
9
9
9
9
9
9
9
9
9
9
9
9
9
9
9
9
9
9
9
9
9
9
9
9
9
9
9
9
9
9
9
9
9
9
9
9
9
9
9
9
9
9
9
9
9
9
9
9
9
9
9
9
9
9
9
9
9
9
9
9
9
9
9
9
9
9
9
9
9
9
9
9
9
9
9
9
9
9
9
9
9
9
9
9
9
9
9
9
9
9
9
9
9
9
9
9
9
9
9
9
9
9
9
9
9
9
9
9
9
9
9
9
9
9
9
9
9
9
9
9
9
9
9
9
9
9
9
9
9
9
9
9
9
9
9
9
9
9
9
9
9
9
9
9
9
9
9
9
9
9
9
9
9
9
9
9
9
9
9
9
9
9
9
9
9
9
9
9
9
9
9
9
9
9
9
9
9
9
9
9
9
9
9
9
9
9
9
9
9
9
9
9
9
9
9
9
9
9
9
9
9
9
9
9
9
9
9
9
9
9
9
9
9
9
9
9
9
9
9
9
9
9
9
9
9
9
9
9
9
9
9
9
9
9
9
9
9
9
9
9
9
9
9
9
9
9
9
9
9
9
9
9
9
9
9
9
9
9
9
9
9
9
9
9
9
9
9
9
9
9
9
9
9
9
9
9
9
9
9
9
9
9
9
9
9
9
9
9
9
9
9
9
9
9
9
9
9
9
9
9
9
9
9
9
9
9
9
9
9
9
9
9
9
9
9
9
9
9
9
9
9
9
9
9
9
9
9
9
9
9
9
9
9
9
9
9
9
9
9
9
9
9
9
9
9
9
9
9
9
9
9
9
9
9
9
9
9
9
9
9
9
9
9
9
9
9
9
9
9
9
9
9
9
9
9
9
9
9
9
9
9
9
9
9
9
9
9
9
9
9
9
9
9
9
9
9
9
9
9
9
9
9
9
9
9
9
9
9
9
9
9
9
9
9
9
9
9
9
9
9
9
9
9
9
9
9
9
9
9
9
9
9
9
9
9
9
9
9
9
9
9
9
9
9
9
9
9
9
9
9
9
9
9
9
9
9
9
9
9
9
9
9
9
9
9
9
9
9
9
9
9
9
9
9
9
9
9
9
9
9
9
9
9
9
9
9
9
9
9
9
9
9
9
9
9
9
9
9
9
9
9
9
9
9
9
9
9
9
9
9
9
9
9
9
9
9
9
9
9
9
9
9
9
9
9
9
9
9
9
9
9
9
9
9
9
9
9
9
9
9
9
9
9
9
9
9
9
9
9
9
9
9
9
9
9
9
9
9
9
9
9
9
9
9
9
9
9
9
9
9
9
9
9
9
9
9
9
9
9
9
9
9
9
9
9
9
9
9
9
9
9
9
9
9
9
9
9
9
9
9
9
9
9
9
9
9
9
9
9
9
9
9
9
9
9
9
9
9
9
9
9
9
9
9
9
9
9
9
9
9
9
9
9
9
9
9
9
9
9
9
9
9
9
9
9
9
9
9
9
9
9
9
9
9
9
9
9
9
9
9
9
9
9
9
9
9
9
9
9
9
9
9
9
9
9
9
9
9
9
9
9
9
9
9
9
9
9
9
9
9
9
9
9
9
9
9
9
9
9
9
9
9
9
9
9
9
9
9
9
9
9
9
9
9
9
9
9
9
9
9
9
9
9
9
9
9
9
9
9
9
9
9
9
9
9
9
9
9
9
9
9
9
9
9
9
9
9
9
9
9
9
9
9
9
9
9
9
9
9
9
9
9
9
9
9
9
9
9
9
9
9
9
9
9
9
9
9
9
9
9
9
9
9
9
9
9
9
9
9
9
9
9
9
9
9
9
9
9
9
9
9
9
9
9
9
9
9
9
9
9
9
9
9
9
9
9
9
9
9
9
9
9
9
9
9
9
9
9
9
9
9
9
9
9
9
9
9
9
9
9
9
9
9
9
9
9
9
9
9
9
9
9
9
9
9
9
9
9
9
9
9
9
9
9
9
9
9
9
9
9
9
9
9
9
9
9
9
9
9
9
9
9
9
9
9
9
9
9
9
9
9
9
9
9
9
9
9
9
9
9
9
9
9
9
9
9
9
9
9
9
9
9
9
9
9
9
9
9
9
9
9
9
9
9
9
9
9
9
9
9
9
9
9
9
9
9
9
9
9
9
9
9
9
9
9
9
9
9
9
9
9
9
9
9
9
9
9
9
9
9
9
9
9
9
9
9
9
9
9
9
9
9
9
9
9
9
9
9
9
9
9
9
9
9
9
9
9
9
9
9
9
9
9
9
9
9
9
9
9
9
9
9
9
9
9
9
9
9
9
9
9
9
9
9
9
9
9
9
9
9
9
9
9
9
9
9
9
9
9
9
9
9
9
9
9
9
9
9
9
9
9
9
9
9
9
9
9
9
9
9
9
9
9
9
9
9
9
9
9
9
9
9
9
9
9
9
9
9
9
9
9
9
9
9
9
9
9
9
9
9
9
9
9
9
9
9
9
9
9
9
9
9
9
9
9
9
9
9
9
9
9
9
9
9
9
9
9
9
9
9
9
9
9
9
9
9
9
9
9
9
9
9
9
9
9
9
9
9
9
9
9
9
9
9
9
9
9
9
9
9
9
9
9
9
9
9
9
9
9
9
9
9
9
9
9
9
9
9
9
9
9
9
9
9
9
9
9
9
9
9
9
9
9
9
9
9
9
9
9
9
9
9
9
9
9
9
9
9
9
9
9
9
9
9
9
9
9
9
9
9
9
9
9
9
9
9
9
9
9
9
9
9
9
9
9
9
9
9
9
9
9
9
9
9
9
9
9
9
9
9
9
9
9
9
9
9
9
9
9
9
9
9
9
9
9
9
9
9
9
9
9
9
9
9
9
9
9
9
9
9
9
9
9
9
9
9
9
9
9
9
9
9
9
9
9
9
9
9
9
9
9
9
9
9
9
9
9
9
9
9
9
9
9
9
9
9
9
9
9
9
9
9
9
9
9
9
9
9
9
9
9
9
9
9
9
9
9
9
9
9
9
9
9
9
9
9
9
9
9
9
9
9
9
9
9
9
9
9
9
9
9
9
9
9
9
9
9
9
9
9
9
9
9
9
9
9
9
9
9
9
9
9
9
9
9
9
9
9
9
9
9
9
9
9
9
9
9
9
9
9
9
9
9
9
9
9
9
9
9
9
9
9
9
9
9
9
9
9
9
9
9
9
9
9
9
9
9
9
9
9
9
9
9
9
9
9
9
9
9
9
9
9
9
9
9
9
9
9
9
9
9
9
9
9
9
9
9
9
9
9
9
9
9
9
9
9
9
9
9
9
9
9
9
9
9
9
9
9
9
9
9
9
9
9
9
9
9
9
9
9
9
9
9
9
9
9
9
9
9
9
9
9
9
9
9
9
9
9
9
9
9
9
9
9
9
9
9
9
9
9
9
9
9
9
9
9
9
9
9
9
9
9
9
9
9
9
9
9
9
9
9
9
9
9
9
9
9
9
9
9
9
9
9
9
9
9
9
9
9
9
9
9
9
9
9
9
9
9
9
9
9
9
9
9
9
9
9
9
9
9
9
9
9
9
9
9
9
9
9
9
9
9
9
9
9
9
9
9
9
9
9
9
9
9
9
9
9
9
9
9
9
9
9
9
9
9
9
9
9
9
9
9
9
9
9
9
9
9
9
9
9
9
9
9
9
9
9
9
9
9
9
9
9
9
9
9
9
9
9
9
9
9
9
9
9
9
9
9
9
9
9
9
9
9
9
9
9
9
9
9
9
9
9
9
9
9
9
9
9
9
9
9
9
9
9
9
9
9
9
9
9
9
9
9
9
9
9
9
9
9
9
9
9
9
9
9
9
9
9
9
9
9
9
9
9
9
9
9
9
9
9
9
9
9
9
9
9
9
9
9
9
9
9
9
9
9
9
9
9
9
9
9
9
9
9
9
9
9
9
9
9
9
9
9
9
9
9
9
9
9
9
9
9
9
9
9
9
9
9
9
9
9
9
9
9
9
9
9
9
9
9
9
9
9
9
9
9
9
9
9
9
9
9
9
9
9
9
9
9
9
9
9
9
9
9
9
9
9
9
9
9
9
9
9
9
9
9
9
9
9
9
9
9
9
9
9
9
9
9
9
9
9
9
9
9
9
9
9
9
9
9
9
9
9
9
9
9
9
9
9
9
9
9
9
9
9
9
9
9
9
9
9
9
9
9
9
9
9
9
9
9
9
9
9
9
9
9
9
9
9
9
9
9
9
9
9
9
9
9
9
9
9
9
9
9
9
9
9
9
9
9
9
9
9
9
9
9
9
9
9
9
9
9
9
9
9
9
9
9
9
9
9
9
9
9
9
9
9
9
9
9
9
9
9
9
9
9
9
9
9
9
9
9
9
9
9
9
9
9
9
9
9
9
9
9
9
9
9
9
9
9
9
9
9
9
9
9
9
9
9
9
9
9
9
9
9
9
9
9
9
9
9
9
9
9
9
9
9
9
9
9
9
9
9
9
9
9
9
9
9
9
9
9
9
9
9
9
9
9
9
9
9
9
9
9
9
9
9
9
9
9
9
9
9
9
9
9
9
9
9
9
9
9
9
9
9
9
9
9
9
9
9
9
9
9
9
9
9
9
9
9
9
9
9
9
9
9
9
9
9
9
9
9
9
9
9
9
9
9
9
9
9
9
9
9
9
9
9
9
9
9
9
9
9
9
9
9
9
9
9
9
9
9
9
9
9
9
9
9
9
9
9
9
9
9
9
9
9
9
9
9
9
9
9
9
9
9
9
9
9
9
9
9
9
9
9
9
9
9
9
9
9
9
9
9
9
9
9
9
9
9
9
9
9
9
9
9
9
9
9
9
9
9
9
9
9
9
9
9
9
9
9
9
9
9
9
9
9
9
9
9
9
9
9
9
9
9
9
9
9
9
9
9
9
9
9
9
9
9
9
9
9
9
9
9
9
9
9
9
9
9
9
9
9
9
9
9
9
9
9
9
9
9
9
9
9
9
9
9
9
9
9
9
9
9
9
9
9
9
9
9
9
9
9
9
9
9
9
9
9
9
9
9
9
9
9
9
9
9
9
9
9
9
9
9
9
9
9
9
9
9
9
9
9
9
9
9
9
9
9
9
9
9
9
9
9
9
9
9
9
9
9
9
9
9
9
9
9
9
9
9
9
9
9
9
9
9
9
9
9
9
9
9
9
9
9
9
9
9
9
9
9
9
9
9
9
9
9
9
9
9
9
9
9
9
9
9
9
9
9
9
9
9
9
9
9
9
9
9
9
9
9
9
9
9
9
9
9
9
9
9
9
9
9
9
9
9
9
9
9
9
9
9
9
9
9
9
9
9
9
9
9
9
9
9
9
9
9
9
9
9
9
9
9
9
9
9
9
9
9
9
9
9
9
9
9
9
9
9
9
9
9
9
9
9
9
9
9
9
9
9
9
9
9
9
9
9
9
9
9
9
9
9
9
9
9
9
9
9
9
9
9
9
9
9
9
9
9
9
9
9
9
9
9
9
9
9
9
9
9
9
9
9
9
9
9
9
9
9
9
9
9
9
9
9
9
9
9
9
9
9
9
9
9
9
9
9
9
9
9
9
9
9
9
9
9
9
9
9
9
9
9
9
9
9
9
9
9
9
9
9
9
9
9
9
9
9
9
9
9
9
9
9
9
9
9
9
9
9
9
9
9
9
9
9
9
9
9
9
9
9
9
9
9
9
9
9
9
9
9
9
9
9
9
9
9
9
9
9
9
9
9
9
9
9
9
9
9
9
9
9
9
9
9
9
9
9
9
9
9
9
9
9
9
9
9
9
9
9
9
9
9
9
9
9
9
9
9
9
9
9
9
9
9
9
9
9
9
9
9
9
9
9
9
9
9
9
9
9
9
9
9
9
9
9
9
9
9
9
9
9
9
9
9
9
9
9
9
9
9
9
9
9
9
9
9
9
9
9
9
9
9
9
9
9
9
9
9
9
9
9
9
9
9
9
9
9
9
9
9
9
9
9
9
9
9
9
9
9
9
9
9
9
9
9
9
9
9
9
9
9
9
9
9
9
9
9
9
9
9
9
9
9
9
9
9
9
9
9
9
9
9
9
9
9
9
9
9
9
9
9
9
9
9
9
9
9
9
9
9
9
9
9
9
9
9
9
9
9
9
9
9
9
9
9
9
9
9
9
9
9
9
9
9
9
9
9
9
9
9
9
9
9
9
9
9
9
9
9
9
9
9
9
9
9
9
9
9
9
9
9
9
9
9
9
9
9
9
9
9
9
9
9
9
9
9
9
9
9
9
9
9
9
9
9
9
9
9
9
9
9
9
9
9
9
9
9
9
9
9
9
9
9
9
9
9
9
9
9
9
9
9
9
9
9
9
9
9
9
9
9
9
9
9
9
9
9
9
9
9
9
9
9
9
9
9
9
9
9
9
9
9
9
9
9
9
9
9
9
9
9
9
9
9
9
9
9
9
9
9
9
9
9
9
9
9
9
9
9
9
9
9
9
9
9
9
9
9
9
9
9
9
9
9
9
9
9
9
9
9
9
9
9
9
9
9
9
9
9
9
9
9
9
9
9
9
9
9
9
9
9
9
9
9
9
9
9
9
9
9
9
9
9
9
9
9
9
9
9
9
9
9
9
9
9
9
9
9
9
9
9
9
9
9
9
9
9
9
9
9
9
9
9
9
9
9
9
9
9
9
9
9
9
9
9
9
9
9
9
9
9
9
9
9
9
9
9
9
9
9
9
9
9
9
9
9
9
9
9
9
9
9
9
9
9
9
9
9
9
9
9
9
9
9
9
9
9
9
9
9
9
9
9
9
9
9
9
9
9
9
9
9
9
9
9
9
9
9
9
9
9
9
9
9
9
9
9
9
9
9
9
9
9
9
9
9
9
9
9
9
9
9
9
9
9
9
9
9
9
9
9
9
9
9
9
9
9
9
9
9
9
9
9
9
9
9
9
9
9
9
9
9
9
9
9
9
9
9
9
9
9
9
9
9
9
9
9
9
9
9
9
9
9
9
9
9
9
9
9
9
9
9
9
9
9
9
9
9
9
9
9
9
9
9
9
9
9
9
9
9
9
9
9
9
9
9
9
9
9
9
9
9
9
9
9
9
9
9
9
9
9
9
9
9
9
9
9
9
9
9
9
9
9
9
9
9
9
9
9
9
9
9
9
9
9
9
9
9
9
9
9
9
9
9
9
9
9
9
9
9
9
9
9
9
9
9
9
9
9
9
9
9
9
9
9
9
9
9
9
9
9
9
9
9
9
9
9
9
9
9
9
9
9
9
9
9
9
9
9
9
9
9
9
9
9
9
9
9
9
9
9
9
9
9
9
9
9
9
9
9
9
9
9
9
9
9
9
9
9
9
9
9
9
9
9
9
9
9
9
9
9
9
9
9
9
9
9
9
9
9
9
9
9
9
9
9
9
9
9
9
9
9
9
9
9
9
9
9
9
9
9
9
9
9
9
9
9
9
9
9
9
9
9
9
9
9
9
9
9
9
9
9
9
9
9
9
9
9
9
9
9
9
9
9
9
9
9
9
9
9
9
9
9
9
9
9
9
9
9
9
9
9
9
9
9
9
9
9
9
9
9
9
9
9
9
9
9
9
9
9
9
9
9
9
9
9
9
9
9
9
9
9
9
9
9
9
9
9
9
9
9
9
9
9
9
9
9
9
9
9
9
9
9
9
9
9
9
9
9
9
9
9
9
9
9
9
9
9
9
9
9
9
9
9
9
9
9
9
9
9
9
9
9
9
9
9
9
9
9
9
9
9
9
9
9
9
9
9
9
9
9
9
9
9
9
9
9
9
9
9
9
9
9
9
9
9
9
9
9
9
9
9
9
9
9
9
9
9
9
9
9
9
9
9
9
9
9
9
9
9
9
9
9
9
9
9
9
9
9
9
9
9
9
9
9
9
9
9
9
9
9
9
9
9
9
9
9
9
9
9
9
9
9
9
9
9
9
9
9
9
9
9
9
9
9
9
9
9
9
9
9
9
9
9
9
9
9
9
9
9
9
9
9
9
9
9
9
9
9
9
9
9
9
9
9
9
9
9
9
9
9
9
9
9
9
9
9
9
9
9
9
9
9
9
9
9
9
9
9
9
9
9
9
9
9
9
9
9
9
9
9
9
9
9
9
9
9
9
9
9
9
9
9
9
9
9
9
9
9
9
9
9
9
9
9
9
9
9
9
9
9
9
9
9
9
9
9
9
9
9
9
9
9
9
9
9
9
9
9
9
9
9
9
9
9
9
9
9
9
9
9
9
9
9
9
9
9
9
9
9
9
9
9
9
9
9
9
9
9
9
9
9
9
9
9
9
9
9
9
9
9
9
9
9
9
9
9
9
9
9
9
9
9
9
9
9
9
9
9
9
9
9
9
9
9
9
9
9
9
9
9
9
9
9
9
9
9
9
9
9
9
9
9
9
9
9
9
9
9
9
9
9
9
9
9
9
9
9
9
9
9
9
9
9
9
9
9
9
9
9
9
9
9
9
9
9
9
9
9
9
9
9
9
9
9
9
9
9
9
9
9
9
9
9
9
9
9
9
9
9
9
9
9
9
9
9
9
9
9
9
9
9
9
9
9
9
9
9
9
9
9
9
9
9
9
9
9
9
9
9
9
9
9
9
9
9
9
9
9
9
9
9
9
9
9
9
9
9
9
9
9
9
9
9
9
9
9
9
9
9
9
9
9
9
9
9
9
9
9
9
9
9
9
9
9
9
9
9
9
9
9
9
9
9
9
9
9
9
9
9
9
9
9
9
9
9
9
9
9
9
9
9
9
9
9
9
9
9
9
9
9
9
9
9
9
9
9
9
9
9
9
9
9
9
9
9
9
9
9
9
9
9
9
9
9
9
9
9
9
9
9
9
9
9
9
9
9
9
9
9
9
9
9
9
9
9
9
9
9
9
9
9
9
9
9
9
9
9
9
9
9
9
9
9
9
9
9
9
9
9
9
9
9
9
9
9
9
9
9
9
9
9
9
9
9
9
9
9
9
9
9
9
9
9
9
9
9
9
9
9
9
9
9
9
9
9
9
9
9
9
9
9
9
9
9
9
9
9
9
9
9
9
9
9
9
9
9
9
9
9
9

POINT_DATA 5151
SCALARS STRESS_EQV float 1
LOOKUP_TABLE default
1641.6325969606507
42008.82806406721
309.5768452878335
2546.542185672767
1641.269624920882
1640.1807492044586
1638.3660913142605
1635.8258547360424
1632.5603264093866
1628.5698787856006
1623.854972471112
1618.416159454098
1612.2540869119093
1605.3695015945154
1597.7632547784845
1589.436307785255
1580.3897380531735
1570.624745752471
1560.1426609285452
1548.9449511558194
1537.0332296800293
1524.4092640209635
1511.0749850063562
1497.032496197628
1482.2840836624566
1466.8322260431394
1450.6796048596625
1433.8291149771449
1416.2838751569082
1398.0472385999174
1379.1228033769921
1359.514422628024
1339.2262143963148
1318.2625709484619
1296.6281674122783
1274.3279695459153
1251.367240432558
1227.751545871038
1203.4867582109719
1178.5790583563144
1153.0349356346085
1126.8611852028594
1100.064902631958
1072.6534752824543
1044.6345700551974
1016.0161170718395
986.8062888113645
957.0134742037176
926.6462471643597
895.7133290417662
864.2235444574608
832.1857700500268
799.6088757066564
766.5016580074368
732.8727658543391
698.7306186811577
664.0833183556883
628.9385570899924
593.3035257194426
557.1848302265541
520.5884305565069
483.5196268960533
445.98313929812593
407.9833666710482
369.5249928123536
330.61428342535675
291.26182716003643
251.48851322920933
211.33950246649334
170.92078600042308
130.51310054225922
91.0379338566693
56.79875246659411
44.41640906335688
64.42622178024946
103.24052595250896
147.33825156876762
193.8025672177203
242.0496557235697
292.0055931662408
343.7782105528041
397.5778689668749
453.6993590660941
512.5255360936902
574.5428202072547
640.3668540865723
710.7799859279278
786.7847225778235
869.68027867715
961.1738942727609
1063.5462063385644
1179.9034593437448
1314.57405792408
1473.7562940174403
1666.617811765073
1907.294495646735
2218.587060246694
2640.4154451477557
3244.8890114929054
4202.320816028387
5843.774676179162
9861.401793510338
27422.17414107323
30544.304964564602
15468.871007183643
10300.977507612246
7799.018849983695
6245.086866877733
5206.157852140846
4457.103262225632
3891.107968686507
3446.9418179687186
3087.9430786714784
2790.6688940528893
2539.4903202718197
2323.600331448164
2135.3054518556464
1968.993530245427
1820.4864605832995
1686.6199816469107
1564.9629111943223
1453.6247336593858
1351.1207864721841
1256.275935071898
1168.1545390556814
1086.008732942195
1009.2396909269917
937.3682423129312
870.0123159825464
806.869434065989
747.7029781396986
692.3312974423274
640.6189692849835
592.4696900249355
547.8203916802498
506.636257414732
468.90635566491926
434.6396296296283
403.8609637581177
376.6069954322871
352.9212395115751
332.84793748619427
316.42382668931475
303.6667440960173
294.5596116589551
289.0278151152906
286.9071004934169
287.8976243175871
291.4977671540451
296.9105112311015
302.92488257931086
307.73903741594825
310.60886610941327
313.4131600858089
316.9178750584746
319.9672452610266
321.92347177448823
322.354815803203
321.0095672213097
317.8079347368347
312.83715346188507
306.35036040333534
298.770262626643
290.69612180815614
282.90841717964474
276.35950486331785
272.1323492512913
271.34931189486844
275.0291020204079
283.92437387566815
298.4028946338908
318.4260904143375
343.626791343561
373.4377383927043
407.2140086918677
444.31832548875747
484.16658082419883
526.2447154281675
570.1094518505547
615.3817646319121
661.7381106882069
708.9018037515687
756.6354465659189
804.7346239885061
853.02276385434
901.3469774697519
949.5746843047833
997.5908506432097
1045.2957049362258
1092.602823516176
1139.4375060067423
1185.7353798885524
1231.4411889448727
1276.5077316757865
1320.8949241342268
1364.5689677522444
1407.5016071821271
1449.6694664210934
1491.0534538546358
1531.6382285849438
1571.411721687738
1610.3647069934423
1648.4904167055226
1685.7841977243027
1722.2432049814076
1757.8661284428827
1792.6529507334724
1826.6047325867257
1859.7234235481637
1892.0116955557037
1923.4727972045116
1954.1104266721327
1983.928621434317
2012.9316630516712
2041.1239954455755
2068.5101552109254
2095.0947126374544
2120.882222226571
2145.87718159886
2170.083997788023
2193.5069600126562
2216.150218103644
2238.0177658466114
2259.1134285746257
2279.4408544137027
2299.003508648539
2317.8046707332187
2335.84743352432
2353.1347043621245
2369.669207668674
2385.45348877208
2400.489918700544
2414.7806997217267
2428.327871432667
2441.133317229711
2453.1987710113135
2464.5258239868585
2475.115931481626
2484.9704196451175
2494.090491982828
2502.4772356431977
2510.131627403958
2517.0545393089656
2523.246743916091
2528.70891912317
2533.441652543983
2537.445445412871
2540.7207159997242
2543.267802520674
2545.086965533561
2546.178389809292
2497.1597638870016
2399.2543451359998
2303.0302766030613
2208.412616137659
2115.3265529240325
2023.6974449128445
1933.4508595889213
1844.512618762371
1756.8088485227504
1670.2660361264618
1584.8110964862603
1500.3714522377418
1416.8751333008613
1334.2509048123354
1252.4284369178376
1171.3385372976663
1090.9134794579627
1011.0874804683203
931.79741812629
852.9839438883519
774.5932747811919
696.5802030381029
618.91340938233
541.5854267431555
464.6327783645877
388.18076309166133
312.5564035881963
238.62618438278827
169.0615028803939
113.86349872903742
98.33015516242439
133.534413786139
198.08695469541635
272.255041253781
350.1863159297628
430.21538263227194
511.76073992953786
594.597758306983
678.645196622808
763.8883269953687
850.3467595265868
938.0593795585235
1027.0766639383532
1117.456487682583
1209.2617081267454
1302.5587102654397
1397.4164982353914
1493.9061101122093
1592.1002306958
1591.7452984246809
1493.567747151669
1397.0957316652818
1302.2566757482414
1208.9796817180509
1117.1959294540918
1026.8392792421005
937.8472073503165
850.162303510245
763.734757062136
678.5266708095794
594.5199623776797
511.73184527137744
430.24787157915404
350.3007773404813
272.4889139481105
198.51627784385644
134.30896581889394
99.46099835145858
114.96109684793782
169.85542173310455
239.20338757277446
312.99981851521443
388.5328787729108
464.9164868462736
541.8141880704593
619.0957421649672
696.7218260011371
774.6982169735712
853.0551629748497
931.8371657769575
1011.0975291697009
1090.895269196669
1171.293273748443
1252.3571591059153
1334.1545328929014
1416.7545029899807
1500.2273400346853
1584.6442383841177
1670.0771416112366
1756.598611089125
1844.2817238008265
1933.1999902498756
2023.4272863843935
2115.0377954425107
2208.1059569686286
2302.7064211722645
2398.9140074475476
2496.8036663361536
1590.6805420252358
1492.5526996859799
1396.1334765743486
1301.350622743117
1208.1336622959911
1116.4143278628817
1026.1272163702624
937.2108057692323
849.609080876414
763.2742300984415
678.1713199839368
594.2868470286411
511.6454664995059
430.34561419179505
350.64417698037965
273.1893905430057
199.79783006627196
136.60052490432324
102.77858476495118
118.18739071467863
172.21263135241185
240.9260853148289
314.3261393309236
389.5872687023949
465.7665746728653
542.49991739347
619.6424601713557
697.1465784255872
775.013027747533
853.2688666196418
931.9564927184167
1011.1277805389552
1090.8407537793942
1171.1576007558085
1252.14344008118
1333.8655243749206
1416.3927093709897
1499.7950889394358
1584.1437366062464
1669.510516974326
1755.9679438967219
1843.5890704266808
1932.4474006769963
2022.6168169964285
2114.1715180221413
2207.1859646130733
2301.7348316617586
2397.892964478264
2495.7353389386894
1588.9060830193187
1490.861092221871
1394.5298670746854
1299.840703158954
1206.7238295825728
1115.111902571021
1024.9407494533264
936.1505205555657
848.6875286298307
762.5072955123893
677.579824955335
593.8992304036562
511.50251947843515
430.5094369914349
351.2165618607754
274.3530879188785
201.9129211036211
140.31994543185547
108.08108676408533
123.36264126356332
176.0634574245965
243.76826323712532
316.5237754411557
391.33811855262155
467.179949272009
543.6409583041043
620.5527251349769
697.8541118037658
775.537659887437
853.6251939704208
932.155650909369
1011.1785504331756
1090.7502794552502
1170.931871513067
1251.7876233647057
1333.3842013047013
1415.7900447259904
1499.0749558314396
1583.3098090557476
1668.5663392251367
1754.916982508671
1842.434753355427
1931.1931463270648
2021.266055401426
2112.7277057309157
2205.652594456139
2300.115438285002
2396.1911263256284
2493.9546772159565
1586.4221248769752
1488.4931331332423
1392.2851275327278
1297.727171076168
1204.7504841494936
1113.2890209492803
1023.280336978988
934.6669299815185
847.3983776495344
761.4348719914633
676.7533236356771
593.3584788337741
511.3045314985577
430.7407148653303
352.0180129231046
275.9745018959514
204.83215614396698
145.33892181492868
115.09413665094311
130.24058602632883
181.3035307115574
247.6888303938363
319.5739937024491
393.7759239049867
469.1515230357985
545.2345751113455
621.8251490767315
698.8438482282396
776.2720353423632
854.1243769099156
932.4350602453399
1011.2503654833954
1090.6244238009963
1170.6166754335165
1251.2902824488692
1332.7111015093776
1414.9469973292555
1498.0673699695546
1582.1428199636837
1667.2449043246284
1753.4459536575773
1840.818931060636
1929.4373200427972
2019.375032889855
2110.7063336683073
2203.505771910163
2297.8481242929643
2393.808342518211
2491.4615062248713
1583.2289544158698
1485.4491159539587
1389.3995738387055
1295.010384097344
1202.214048976301
1110.946199988458
1021.1466242133915
932.7608479306284
845.74265652256
760.0582520417337
675.6934159042489
592.6665109750677
511.0536425270151
431.0413670959399
353.04864879105736
278.0461971598811
208.51770590139748
151.51085275922588
123.52717250887227
138.55707414447636
187.8072025272948
252.63458427253136
323.45172970180676
396.8877561972002
471.6743101596568
547.276989499326
623.4578077872844
700.1149847448711
777.2160461708627
854.7667399976848
932.7953084912339
1011.3439633842879
1090.4639964503579
1170.2128392758873
1250.652222224373
1331.846980215895
1413.864253150417
1496.7729346813794
1580.6432814797483
1665.5466286069131
1751.5551764415666
1838.7418267013982
1927.1800526815578
2016.9437937013577
2108.107366950559
2200.745392075946
2294.9327253220554
2390.74440106897
2488.2555793432966
1579.326943759016
1481.7294211867145
1385.8736151845715
1291.6908052428903
1199.1150716431462
1108.0841089957553
1018.5404466229933
930.433328253713
843.7216969661133
758.3791084001805
674.4021704616443
591.8258036043841
510.75260691293244
431.4138518051732
354.30863077060417
280.5590516975013
212.92588586867143
158.68807976493662
133.11193336437663
148.06383399159932
195.440372390413
258.54363583057506
328.12660542780145
400.6576102292422
474.73955612479756
549.7634302446202
625.4482592791683
701.6664993375091
778.3695558278534
855.5527003631692
933.2371511588543
1011.4602932694902
1090.2700400860963
1169.721428695328
1249.8744809593577
1330.7928123049282
1412.5426982319984
1495.1924297268663
1578.811855902532
1663.4720507763448
1749.2450640083453
1836.2037294326399
1924.421514008355
2013.9723954730848
2104.930760702571
2197.371319280067
2291.3690284914696
2386.9990271589077
2484.3365765767294
1574.7165528487826
1477.334518626099
1381.7077563510568
1287.7690053967106
1195.4542271699156
1104.7035730973657
1015.4628343297748
927.685670446502
841.3371408938789
756.3995023773621
672.882133713965
590.8393990740915
510.40479550127
431.86115881997654
355.7981688651061
283.5025379579766
218.00967814282635
166.73285880719948
143.62011721228586
158.54483433263087
204.07049609941717
265.3488323601406
333.5640613711646
405.0668119730211
478.3368943258941
552.6881944972785
627.7935668047982
703.497158437101
779.7324007580355
856.4827675245033
933.7615113009957
1011.600516142484
1090.0438316660466
1169.1437501947023
1248.9583328107792
1329.549795186705
1410.9834217349648
1493.326814335252
1576.6493585527792
1661.0218344874074
1746.516125737448
1833.2049961096416
1921.1619138654444
2010.4609098386245
2101.1764600696843
2193.3833865008037
2287.156771261162
2382.5718814602365
2479.704102393482
1569.3983325147233
1472.2649701936527
1376.90260050415
1283.2456663082066
1191.2323215174276
1100.805577575627
1011.9150176437499
924.5194267094013
838.5909491996875
754.1218942063972
671.1363407427052
589.7109144264308
510.0141980954571
432.3868009682961
357.51752853355316
286.865022226332
223.72093218170747
175.5226422428886
154.86648815849182
169.82034288741247
213.57313441379148
272.9808271467828
339.72651388918825
410.0944637085871
482.4545235375065
556.0447188465405
630.4903259480946
705.6055258221428
781.3043922499085
857.5575430998136
934.3694791859929
1011.7660053242203
1089.786883845859
1168.481353444431
1247.905290843411
1328.1193522811939
1409.1877196422279
1491.1772309127582
1574.156761293496
1658.1967715164133
1743.3689699334182
1829.746053402261
1917.4015036355893
2006.4094231944314
2096.844400265469
2188.7813946978076
2282.2956400640874
2377.4625581105956
2474.357683098025
1563.3729280922894
1466.521433282413
1371.4588525018592
1278.121584158353
1186.450295770107
1096.3912730766324
1007.89843372817
920.9364104650555
835.4854123506244
751.5491554918312
669.1683284267087
588.4445521682192
509.5854261976842
432.9948038203943
359.4670379003464
290.6340649629244
230.01210827879942
184.95149841943606
166.7046658481125
181.74453414248774
223.83546322808542
281.37059317435023
346.574462288955
415.7179039571334
487.07939954400115
559.8256581981427
633.5346952263421
707.9899727550539
783.0853184965542
858.7777203710292
935.0623118078781
1011.9583468690652
1089.500946551407
1167.736033929289
1246.7171105233201
1326.5031370797883
1407.1570991070362
1488.7450094169103
1571.3351967009016
1654.9977855350187
1739.8043070445087
1825.8274003371216
1913.1405780192315
2001.8180376548228
2091.934506676487
2183.5651120651764
2276.785268730784
2371.670582354734
2468.2967637556267
1556.641083587102
1460.1046646067098
1365.3773227122515
1272.3976737003743
1181.1092310247993
1091.4619817321081
1003.4147344649375
916.9387064263772
832.0231629020368
748.6845838722635
666.982150794487
587.0451127013936
509.1237159410565
433.689693897764
361.6470951193724
294.79670760230965
236.8375373746262
194.92939870552888
179.02044868882135
194.2006103266152
234.75757366658866
290.45131444210455
354.0674898823155
421.913161919123
492.1974343122272
564.0229703916402
636.9224295868225
710.6486891782279
785.0749467991834
860.1440836512535
935.8414321771211
1012.1793398898187
1089.1880086433607
1166.9098358715034
1245.3957936456454
1324.7030377603683
1404.8932834303077
1486.0316723922933
1568.1859628898658
1651.4259364973498
1735.822953425034
1821.449611289651
1908.3794771501011
1996.6868722214967
2086.4466950498195
2177.7342732324405
2270.625236728214
2365.195407872176
2461.5207046840314
1549.2036463791685
1453.015524552729
1358.658931343762
1266.07497298729
1175.2103540152384
1086.0192042483905
998.4657956022395
912.5286823277696
828.2071900690513
745.5319200308339
664.5823966985361
585.5180084033944
508.63493111591913
434.4764853818799
364.05817561289626
299.3397348938196
244.15424345700944
205.38055395825486
191.72512591560147
207.095523409864
246.2523739136603
300.1596864861395
362.1651246280632
428.65538960032814
497.7936965046189
568.6280044772341
640.6489161504521
713.5796957763034
787.2730258406264
861.6575074006649
936.7084283301973
1012.4309967237161
1088.8502996066948
1166.005055370821
1243.9435926490341
1322.7211823211724
1402.3982176461266
1483.0389406604804
1564.7105289982783
1647.4824256539573
1731.4258356614287
1816.6133394514964
1903.118589077892
1991.0160641972477
2080.3808717929555
2171.2885784421696
2263.815067239621
2358.036413814616
2454.0287775323422
1541.061572459936
1445.2549820239487
1351.3047132886413
1259.1546487004782
1168.755043507789
1080.0646280273675
993.0537272831033
907.7090024521806
824.040856512832
742.0953672096653
661.9742099133007
583.8692793458671
508.125566181681
435.3606653669872
366.7008389379349
304.2499056785748
251.9224099610422
216.24147314278162
204.7497304211323
220.35519704197523
258.24471726587683
310.4367127463678
370.8275443564064
435.9192589144235
503.85260782900514
573.631590643396
644.7092115425444
716.7808567006422
789.6792879493364
863.3189550279745
937.6650519862029
1012.7155428603098
1088.490291186555
1165.0242436906826
1242.3630152586202
1320.5599441909635
1399.67407468846
1479.7687396518882
1560.9105413318975
1643.1686012057526
1726.6139954842233
1811.3193208019181
1897.3583526505377
1984.8057708789038
2073.736934421735
2164.227692738375
2256.354225117411
2350.1929015821006
2445.8201609713615
1532.215932192124
1436.8241197742982
1343.3158234809123
1251.6380020971092
1161.7448375115735
1073.6001363964972
987.180886072439
902.4826431117713
819.5279175266111
738.3796134074945
659.163311769954
582.105610631635
507.602749142654
436.3481777156157
369.57573507856625
309.5141485434994
260.1055790374678
227.4590767177452
218.0404373182193
233.92053040912492
270.67017518082423
321.2281036583307
380.0161269456189
443.67931525701925
510.35813061204937
579.0241299296235
649.0980801567168
720.2498927414879
792.2934512648488
865.1294773049298
938.7132167673417
1013.0354165394346
1088.1106988789484
1163.9702106073678
1240.6568293889397
1318.2219482647306
1396.7232621073995
1476.2232063652812
1556.7878301702558
1638.4859646122977
1721.3885952909918
1805.5683786154377
1891.0992608338322
1978.056171569785
2066.514772196895
2156.551245205442
2248.2421147459063
2341.664091371093
2436.893936025106
1522.6679165805137
1427.7241402194693
1334.6935427702324
1243.5264755974874
1154.1814413531117
1066.6278190371415
980.8498886192298
896.8529102671407
814.6725428380021
734.3898564655403
656.1560264515559
580.2343513213493
507.07424415571626
437.4454055927117
372.6836100233527
315.11972176362843
268.670664023468
238.98900441975374
231.55500830016476
247.7441883390553
283.47370982455726
332.48438296831404
389.6938565209482
451.91028293269164
517.2939429671575
584.7956820523491
653.8100327196449
723.9843947281443
795.1152217090945
867.0902103150556
939.8549958930624
1013.3932679180868
1087.7144831731227
1162.846027727202
1238.8280682273207
1315.7100773044208
1393.5484292944323
1472.404696935117
1552.3444172328595
1633.4361775681123
1715.7509243059149
1799.3614285415738
1884.3418645104582
1970.767469957097
2058.714266996076
2148.2588283036366
2239.4780778579056
2332.449118535025
2427.2490810792497
1512.4188440392866
1417.9563717160268
1325.4392843134751
1234.8216600374433
1146.0667366765786
1059.1499837195636
974.0636271163769
890.8234594994217
809.4793412751947
730.1318322736638
652.9593090815335
578.2635349093905
506.5484537282375
438.6591527718699
376.02531054960616
321.05433917978246
277.5878402082526
250.79415857222713
245.260091533443
261.7880773465839
296.60838730381374
344.16079166465965
399.8256030692619
460.5873211126211
524.6435989229278
590.936049901482
658.839364560055
727.9818369363982
798.1442946625075
869.2023728502502
941.0926192458126
1013.7919576900223
1087.304850427262
1161.6550316620212
1236.8800354038071
1313.0274786320915
1390.1524751679256
1468.3157947805462
1547.5825238000812
1628.0210696598772
1709.7024054036815
1792.6994842948443
1877.0867768044586
1962.9398969061538
2050.3352944754356
2139.3499973548633
2230.0613913566376
2322.5470298045343
2416.884466608388
1501.470167638245
1407.5222752950272
1315.554600485688
1225.5253026155428
1137.40279144161
1051.169169472136
966.8252867500637
884.3983185873992
803.9533885821266
725.6118463558194
649.5807767460986
576.2019012946242
506.03442035770655
439.9966238312356
379.60178820924375
327.30626517028395
286.83036285072467
262.8434782579097
259.129186080447
276.02138231651736
310.0342011911674
356.21706173324924
410.3782956559527
469.6862315893476
532.3906718237943
597.4348595160799
664.1801930317052
732.2395902820892
801.3803562356615
871.467263158519
942.4284696949753
1014.2345550297347
1086.8852532444482
1160.4008269371136
1234.816310139747
1310.17757103119
1386.5385562601457
1463.9593193026255
1542.5045794787236
1622.2426467158816
1703.2446026268733
1785.5836639982067
1869.3346779841027
1954.573713728902
2041.377725580402
2129.8242702387283
2219.9912652011994
2311.9567794226186
2405.798849673496
1489.8234828058382
1396.4234518346007
1305.0411903144206
1215.639315571637
1128.1918710030327
1042.6881613329103
959.1383653603484
877.5819129808885
798.100258710564
720.8368091248001
646.0287425955958
574.05892017301
505.54182745831093
441.4654033813691
383.4141025852615
333.86438274108696
296.37434725386004
275.11092103512397
273.1411093717406
290.41904623988904
323.71703361335517
368.61711412770677
421.3210096750017
479.18362145399766
540.518880154757
604.28163460123
669.8264935948573
736.7549350843037
804.8230840218469
873.8862549397338
943.8650785572219
1014.7243347195229
1086.4593902001945
1159.087288489984
1232.6407522510283
1307.1640517560702
1382.7100951337386
1459.338335087517
1537.1132315984164
1616.1030998574552
1696.379229426011
1778.015197224491
1861.0863209985173
1945.6692159903205
2031.8414284746389
2119.681127369414
2209.2668404245337
2300.677225260378
2393.9908682492196
1477.4805354630266
1384.6616496545269
1293.9009074415976
1205.1657856404395
1118.4364503755883
1033.710006862122
951.006695575885
870.37909450829
791.9260589621123
715.8142751282842
642.3122531728187
571.8448157566178
505.0809994140307
443.0734344908902
387.46342395426853
340.7182390953688
306.19853447662604
287.574623345537
287.2788409531246
304.9605939199313
337.6277576414118
381.32871998102553
432.62498717585487
489.0570250131215
549.0121956559135
611.4658648970922
675.772134120579
741.5250731868608
808.4721472108233
876.4607924774645
945.4051200581971
1015.2647733024564
1086.0312047555499
1157.7185635990195
1230.357506862198
1303.990903533166
1378.670789043136
1454.456161562877
1531.4113552161712
1609.6048152575434
1689.10815765093
1769.9954327829996
1852.3425377102278
1936.2267379257887
2021.7262709653255
2108.9200120326122
2197.8871873620174
2288.7071249874602
2381.4590354508964
1464.4432305591151
1372.2387725118458
1282.1357686174565
1194.1069843316934
1108.139227804349
1024.2380346249995
942.4344697304999
862.7951737110883
785.437469404719
710.5524866397557
638.4411291154133
569.5705926995764
504.66290059793664
444.8289965036563
391.75103555453984
347.8580730092616
316.2840579455633
300.21621119332656
301.52864654912526
319.6292204070232
351.7414726500284
394.32315181224556
444.263607045896
499.2849899027204
557.854934165833
618.9770679391584
682.0109070414888
746.547139233647
812.327205938401
879.1923847860364
947.0514046497663
1015.8595440899007
1085.6048831710398
1156.2990730608271
1227.971008668896
1300.6624014191777
1374.4246187395456
1449.3163830417259
1525.4020636979808
1602.7503846071936
1681.433427322448
1761.5258473035676
1843.1042458925167
1926.2466575479352
2011.0321235092752
2097.540331170675
2185.8513041795095
2276.0451323842144
2368.2017337439493
1450.7136409721531
1359.1568879741162
1269.7479627374116
1182.4653791018684
1097.3031397839652
1014.2758748907422
933.4262679203956
854.8359562589615
778.6417870465881
705.0604219808004
634.4260093715632
567.2480630817569
504.29913320179077
446.740682474945
396.27833572249506
355.27482805995584
326.614220341041
313.02023553612094
315.8794111177356
334.4110825270881
366.03685895769445
407.5748421996127
456.2123192117413
509.84713255464055
567.0318300635298
626.8048439549996
688.536559035464
751.818210902199
816.3879097410959
882.0825986441946
948.8068710259424
1016.5125108364534
1085.1848512177771
1154.83351141386
1225.4859855629895
1297.1831193592234
1369.9758572990702
1443.9228590738194
1519.088719837473
1595.5426162859528
1673.3572572106082
1752.6080546692413
1833.3724570627992
1915.7294025295973
1999.758862897158
2085.5414567183648
2173.158115803493
2262.689793896075
2354.2172092317
1436.2940167318147
1345.418236143368
1256.7398604321904
1170.2436454954343
1085.9313777025366
1003.827482842999
923.9870896248733
846.5077839709754
771.5469753144532
699.347848995644
630.2783990566363
564.8898742655039
504.0019337242284
448.81737648259326
401.0468402081771
362.9601553270024
337.1742861126778
325.9737104255679
330.3221283172686
349.2947462711552
380.4956364324707
421.06106063080006
468.44855440473873
520.7241680507948
576.5280954815655
634.938923821742
695.3428179884346
757.3353179095913
820.6538949811597
885.1330503782028
950.6745766689814
1017.227719880064
1084.7757694624086
1153.3268459820697
1222.9074614097362
1293.5579362652536
1365.3290788337156
1438.279735007029
1512.4749474573835
1587.984547222888
1664.8820562431324
1743.2438163518618
1823.1482852298423
1904.6754569583902
1987.906376722728
2072.922727602275
2159.8064733693864
2248.6395455454717
2339.503566133406
1421.1867945173747
1331.025238701799
1243.114024227516
1157.4446803498006
1074.0274063165764
992.8971646497534
914.1223893870444
837.8175810508995
764.1617194525224
693.4253841284155
626.0107210556998
562.5095374006512
503.78416797552035
451.0682310987292
406.0581850183144
370.9064087008443
347.9512923216579
339.0657355084488
344.84950771848077
364.2707541222753
395.1021120952709
434.7616144934053
480.9516186330493
531.8979190741737
586.3294656528321
643.3692101534447
702.4234170340721
763.0954496122652
825.1247811013088
888.3453962476715
952.6576867440638
1018.0093905271524
1084.3825268803675
1151.784314487575
1220.2407577401357
1289.7920414076086
1360.48916691956
1432.3914526407493
1505.564643424983
1580.079455426748
1656.0104357644534
1733.4350527058032
1812.4329566384572
1893.085369067703
1975.4745687563045
2059.6834525321824
2145.795154320059
2233.892710332778
2324.0587615811596
1405.394607374456
1315.9805082471366
1228.8732192975092
1144.0716161805062
1061.5949843053004
981.4896068054384
903.838117137461
828.7729062410793
756.4954885384357
687.3045575845945
621.6363714480822
560.1214563111891
503.6593244764717
453.50264534429147
411.3141301693556
379.10663544192664
358.9338788005857
352.2871877217724
359.45567128979366
379.33128508103823
409.8428030553872
448.6585769458485
493.7025794009781
543.3513082068116
596.4222318463829
652.0858117054117
709.7721155199217
769.0955610314688
829.8001655645621
891.7213212805142
954.7594611516394
1018.8619034480939
1084.010232530531
1150.211420954585
1217.491494092438
1285.8909388842308
1355.4613225506107
1426.2627608318498
1498.361989996084
1571.8308731513032
1646.7452226584562
1723.1838552746449
1801.2278206002734
1880.9597600579534
1962.4633653542917
2045.8229137273577
2131.122863303044
2218.447496276733
2307.8806008846204
1388.9202945867273
1300.2868578826944
1214.020424842458
1130.1278368896437
1048.638187206764
969.6099092390783
893.1407638439136
819.382011704062
748.5586048936264
680.9978850793508
617.1697787843851
557.7409564444489
503.64150614720756
456.13024347875137
416.8165647518117
387.5545641740887
370.11213757244286
365.63046979504
374.1359181216227
394.4698867299271
424.7061227601327
462.7360422864963
506.6841489534138
555.0683373078737
606.7932633662172
661.0790713705218
717.3827167924878
775.3325771449906
834.6796173304645
895.262526394464
956.9832395332696
1019.7897868298539
1083.6642050008256
1148.613929598322
1214.6655867043269
1281.860450898688
1350.2510713952252
1419.8987258855614
1490.8714673798345
1563.2426006474266
1637.0894733416485
1712.492500164837
1789.5343615028253
1868.2993341301437
1948.8727230488894
2031.3403717369329
2115.7882340346077
2202.301995266184
2290.966733434986
1371.766911629812
1283.9473110252814
1198.5588461350117
1115.616994974683
1035.1614330990672
957.2636227773228
882.0374132972589
809.653909571909
740.362321757335
674.5189466914512
612.6264671881587
555.384313511498
503.7454202120212
458.9608550107111
422.5675137188038
396.24459208274135
381.4774808492575
379.089305499451
388.8865417781399
409.68126364511835
439.6821202544852
476.9799081117397
519.8805683855347
567.0340571734304
617.4300200477322
670.3395881025868
725.2490827281579
781.8033952909241
839.7626687117338
898.9707136322334
959.332424014661
1020.797700017233
1083.349959312969
1146.997856364251
1211.769245224616
1277.7067195436045
1344.864270098653
1413.3047415348215
1483.0978663940248
1554.3187204380588
1627.0464886238703
1701.3634625371378
1777.3542120938137
1855.1048898655663
1934.7026374785441
2016.2350715326452
2099.7898323195313
2185.4541829168547
2273.3146494431253
1353.9377401257482
1266.9651113922353
1182.4919272927573
1100.543030455317
1021.1695114659283
944.4567916641927
870.5358009828152
799.5984472459216
731.9189101931622
667.8824733493306
608.0231231808724
553.0687813889901
503.9863662800801
462.00449634553354
428.5691468109478
405.17177273233233
393.02252659891525
392.6585735068975
403.70468863118003
424.9611101999736
454.7622637462854
491.3776827715278
533.2774953193262
579.2345301682369
628.3205566047302
679.858233139134
733.3651449679251
788.5048855371787
845.0488054523844
902.8475693316833
961.8104594612453
1021.8904143585959
1083.0731909499052
1145.3694577521685
1208.8089670772324
1273.4362067475945
1339.3071113382443
1406.486538277812
1475.046301051619
1545.0636120298661
1616.6198294209285
1689.79943226347
1764.6891681410698
1841.377333094223
1919.9531538336314
2000.506250071192
2083.1261604386764
2167.9019196538015
2254.921677735827
1335.4362977060587
1249.3437331296834
1165.8233648552587
1084.9101917877244
1006.6676157814554
931.1960019803265
858.6443811560479
789.2263926882163
723.2417562908151
661.1044414601125
603.3776660289496
550.8126187908256
504.38022260388493
465.2713545162409
434.8237900260044
414.33180562216245
404.7410005173731
406.33417328337055
418.58824842830757
440.30597860781717
469.9392611959519
505.91831621609253
546.8618969579015
591.6567880441538
639.4535200738894
689.6261609155949
741.7249128358472
795.4338888742326
850.537454862284
906.894745043088
964.4208110092595
1023.0727909555978
1082.8397566474596
1143.7352165279847
1205.7915290713165
1269.0556920015852
1333.5861272943318
1399.4501918033793
1466.72222088681
1535.4819669518529
1605.8133332883265
1677.8033307903816
1751.5412045712183
1827.1176914045714
1904.6243790081994
1984.153145544913
2065.795663141431
2149.642953267419
2235.7849848642927
1316.2663476816488
1231.086891045508
1148.5571222702104
1068.7230591011073
991.6613804634683
917.4884369719366
846.372403447632
778.5495311395804
714.3454698286798
654.2021761592545
598.7093212899933
548.6351141543046
504.9434305681691
468.77177347073257
441.33394002426877
423.7210283522752
416.6276532049513
420.1129177157544
433.53577049925286
455.71317518133685
485.2069118902948
520.5920521603575
560.6219496519482
604.2887867347976
650.8181414761972
699.6348150595092
750.3224779352888
802.5872130905848
856.2279718363067
911.1138359964878
967.1669386258668
1024.3497550023737
1082.6556515686493
1142.1018238953702
1202.7239758138976
1264.5722674371505
1327.7081911557666
1392.202130193341
1458.1314227936596
1525.5788039838114
1594.6311317279033
1665.3783292424832
1737.9124931906413
1812.3271304567058
1888.716495665915
1967.1750085621193
2047.796735507263
2130.6749232224993
2215.9015758128344
1296.4319084056094
1212.1985509136716
1130.6974454277993
1051.9865701740243
976.1569229888183
903.3419405031436
833.7300005562897
767.5807749038504
705.2460056605732
647.1944635960349
594.0386970875186
546.5566081246039
505.6929775199551
472.5162434124057
448.102281841965
433.33641207783467
428.6781913789406
433.9924481943971
448.5464005874893
471.1806793796044
500.55998399411806
535.3902994711963
574.5469456019637
617.1193595394235
662.4042226802569
709.8759298395138
759.152015426997
809.9616261934536
862.1196225826208
915.5063569154249
970.0522684414046
1025.7262663843512
1082.5269824571187
1140.4761576677786
1199.613604439088
1259.9933297804484
1321.680516228422
1384.7491395417064
1449.2800621074418
1515.359484404064
1583.077668195959
1652.5278677869253
1723.8054220924228
1797.006972271525
1872.229778446007
1949.5711155230874
2029.1277329714403
2110.995367034519
2195.268296634232
1275.9372622042647
1192.682939823818
1112.24887942624
1034.706049669946
960.1608921412261
888.7650900962765
820.7282888728242
756.3342880735263
695.960799175092
640.1016725676279
589.3878624617587
544.5985129611247
506.64637811957516
476.5153937131768
455.131710261486
443.175560776261
440.88922202720704
447.9711687001486
463.61983447828703
486.7070814363128
515.9941139544862
550.3055207650241
588.6272069472627
630.1381697890125
674.2021193213088
720.3415274209071
768.2077819934927
817.5538472304097
868.2115658714365
920.0737149623329
973.080160590202
1027.2072861989218
1082.4599363494506
1138.8652559511715
1196.4679451272307
1255.3265686579584
1315.5106521628247
1377.0983675788477
1440.1746626118013
1504.8297270472403
1571.1577167140654
1639.2556762660643
1709.2226168508325
1781.1587156761398
1855.1646125530717
1931.3407844840494
2009.7869838414006
2090.601729063153
2173.881839378677
1254.7869637409217
1172.544556562178
1093.216286808843
1016.8872422805057
943.6805235795126
873.7672813222366
807.3794842083631
744.8256283300226
686.5089172422355
632.94588566169
584.7804269307703
542.7833281341545
507.8216544622713
480.7799899274104
462.4253551532326
453.23671472507823
453.2582084958332
462.04819611020315
478.7562854832655
502.2915352846377
531.5057243470608
565.3311363270454
602.8540072210777
643.3356638111878
686.2027204922815
731.0239112425481
777.4841104933541
825.3605343700831
874.5028316150315
924.8171795974306
976.253873289659
1028.7977388469922
1082.4607444047601
1137.2762858188937
1193.2947368474397
1250.5799506785515
1309.2064777592752
1369.2573248305334
1430.82212510163
1493.9956229195423
1558.876400953858
1625.565796088162
1694.166963599304
1764.784059093347
1837.5215149932499
1912.4833938283768
1989.7728046653444
2069.491372115718
2151.7387497304217
1232.9858476647378
1151.7881820265159
1073.6048675884485
998.5363505902312
926.7237041901418
858.3588256748912
793.6970351918279
733.0719082318735
676.9112260971165
625.7510398512077
580.2416201468309
541.1346513452362
509.2373153132973
485.32093545085513
469.9866110789316
463.51875849994894
465.7834376018233
476.22332446451867
493.956463505032
517.9337242005064
547.0919573457836
580.4614416132713
617.2194999550904
656.703024777138
698.3974257965639
741.9156557889121
786.9754012990229
833.378270092079
880.9922965788786
929.7378491221882
979.576522877863
1030.502469336361
1082.5356403969326
1135.7165064334142
1190.1018977152264
1245.7616986628354
1302.776189747648
1361.2338827796423
1421.229734074277
1482.863649069407
1546.2392136275646
1611.4626033411005
1678.6416340807234
1747.8849258700468
1819.301158737465
1892.9984040935615
1969.0835188526198
2047.6615922966678
2128.835437815532
1210.5390353869186
1130.4188897025917
1053.4201814727778
979.6600786838424
909.2990470255509
842.5510645099763
779.6957773599349
721.0919787038024
667.1905775988793
618.5430761946512
575.798370246635
539.677184173917
510.9123348853552
490.14927836606773
477.8191714100961
474.0212337288387
478.4639969643953
490.49700136838095
509.22156391534895
533.6338371329042
562.7506214860741
595.6915367602933
631.7166540895263
670.2321278249955
710.7781202348848
753.009592986101
796.6761102964176
841.6035433236582
887.6786570096074
934.8366136692973
983.0510395285971
1032.3261954360626
1082.69081340424
1134.193226046354
1186.8974893196566
1240.8802653400326
1296.2282868780358
1353.036268431056
1411.4051620544794
1471.4406813535368
1533.2520359735324
1596.950833067498
1662.6501127470908
1730.4634923435544
1800.5044001125912
1872.8853833345825
1947.7174789858434
2025.1096375869813
2105.1681926982164
1187.4519408165036
1108.4420562655528
1032.668172829906
960.2656827811987
891.4159790548453
826.3565021740925
765.39211149301
708.9066377416186
657.3720152125634
611.3500979045511
571.4793791786883
538.4367315568393
512.8661316898036
495.276224011187
485.92706718291277
484.7443567828841
491.2997618394329
504.87031504681465
524.5532648590496
549.3925540969263
578.4801497753472
611.0172666719603
646.3391957464096
683.915496685803
723.3371472809079
764.298795399665
806.5807335098975
850.0327283569461
894.5603979631221
940.1141143970947
986.6801183571749
1034.2734543154352
1082.9323542233233
1132.7137522911994
1183.6896743406003
1235.9443007809502
1289.571548593511
1344.6730546086144
1401.3564709880857
1459.7340056749451
1519.9211570747716
1582.035604605207
1646.196225969658
1712.5222188469168
1781.1323097383224
1852.144036433985
1925.673093307053
2001.8327306904653
2080.733201144757
1163.7302748810887
1085.8633724195959
1011.355199097454
940.3610305219029
873.0848444880446
809.788962119397
750.8042103696566
696.5388676491445
647.4830008747725
604.2025355448644
567.3151929438113
537.4401943382945
515.1185481031567
500.71315379666703
494.314710879136
495.68904153972284
504.29139082144786
519.3449908334492
539.9537318834015
565.211039325427
594.2795675233076
626.4351703947782
661.0815558644599
697.7462619047656
736.0672803967759
775.77655635784
816.683788290345
858.6620603614863
901.6357590990385
945.5706986371715
990.4661656311272
1036.348543306372
1083.2661950338104
1131.2853351692684
1180.486666747162
1230.962612788281
1282.8150074910857
1336.153145237828
1391.0921100629994
1447.751327198792
1506.2532926896852
1566.7224478557696
1629.2841734000735
1694.0638838528569
1761.1862073443845
1830.7742388025501
1902.948856905921
1977.8280967395128
2055.5265712978053
1139.380048652542
1062.6888541568185
989.4880635547979
919.9546709542182
854.317027102665
792.8637706091054
735.9522588159449
684.014104387345
637.5536635737396
597.1333174873471
563.3382643234706
536.7155542005509
517.6898313989221
506.4716507703222
502.98694529205784
506.8569273264254
517.4403298610041
533.9233961009716
555.4256290141154
581.0909411165467
610.1484685175583
641.9424386190135
675.9388231539514
711.7181206362609
748.9616931420856
787.4363670700977
826.9797909784909
867.4876072927053
908.9026966972328
951.2063707362659
994.4112397980095
1038.5554544310867
1083.698041843856
1129.915102124396
1177.2966738441019
1225.9441194192855
1275.9679147137663
1327.4857547918903
1380.620909232627
1435.5007769724557
1492.2556032087227
1551.0173302962066
1611.9185614963685
1675.0916214525164
1740.667700820236
1808.776074948909
1879.5433881867848
1953.092996512232
2029.5443619735402
1114.4075748970695
1038.9248547098678
967.0740536584632
899.0559178372368
835.1250958451521
775.5979736088311
720.858732719907
671.3605428124405
627.6170699543159
590.1780429748007
559.5830053076686
536.2918504081292
520.6006171132418
512.5635324035163
511.9490976078754
518.2504121194108
530.748824104873
548.6085528042425
570.9721355588227
597.0343974934754
626.0869983641674
657.536878243849
690.9067017972748
725.8252978894757
762.0139279344033
799.2718907514084
837.4632309260371
876.5052379801454
916.3588416402199
957.020738327609
998.5169870455386
1040.8978023490963
1084.2332992597849
1128.6099846062632
1174.1278294215733
1220.8977927826281
1269.0396973581937
1318.6803809993037
1369.9520676288817
1422.990915289258
1477.9357102732502
1534.926684491226
1594.1044391929427
1655.6089623540447
1719.5787298613307
1786.1498824292871
1855.455471241322
1927.6247658775717
2002.7826183708996
1088.8194678760196
1014.5780776012589
944.1209865093833
877.6749495809305
815.5229790433239
758.0105936572439
705.548723561541
658.609481655056
617.7095164902935
583.3751541987458
556.0858260915234
536.1991479811521
523.871915725976
519.0008910296577
521.2070388044809
529.8726910550786
544.2199371185905
563.4041569366323
586.5969680339122
613.0440469257649
642.0958439678966
673.2168830325436
705.9814732990394
740.0625090163167
775.2178634349511
811.276933705783
848.128540723303
885.7105861571972
924.0014530903666
963.0129537628036
1002.7845711177717
1043.3787453942878
1084.876987142682
1127.37663553599
1170.9881172602668
1215.8325932225307
1262.0399069266275
1309.7467698345515
1359.0951359614728
1410.2307310426913
1463.3017115098148
1518.4574357970428
1575.8473356521515
1635.6198785718539
1697.9216145877344
1762.8963017223086
1830.6841048060703
1901.4208622535402
1975.2374150630344
1062.6226412380126
989.6555913652118
920.6372635080143
855.8229300777166
795.5261739123325
740.1229349571782
690.050315947602
645.7957119639406
607.8708416777392
576.766102696968
552.8851572260452
536.4684971667741
527.5251037527552
525.7961423245941
530.7672484470369
541.7278002865672
557.8575770975151
578.3146043053231
602.3044066993589
629.1230434572637
658.1762282404234
688.9814094486978
721.1599618672047
754.4249231532064
788.5676804467457
823.4454132611334
858.9700624456957
895.0990101716825
931.827367575794
969.1816504266721
1007.2145971143574
1046.0008993928354
1085.6336487460972
1126.2213371163502
1167.885284254786
1210.7573929869031
1254.9781578067398
1300.6948717410537
1348.0599919082301
1397.2296362175746
1448.3621927382967
1501.6170298719976
1557.1532999846793
1615.1288319558012
1675.6991095176377
1739.0163326067704
1805.2285585390896
1874.4789189354356
1946.9049072285993
1035.8243038701798
964.1648467541409
896.6319368993661
833.5121558873359
775.1519997420794
721.9589466679699
674.3950266034726
632.9579523045687
598.1447552192458
570.3955041209626
550.0214513158406
537.1318844066882
531.5819204449155
532.9620821644542
540.63688493597
553.8206662002167
571.6665297000618
593.3450220952632
618.0993262335252
645.2750756459386
674.329909205858
704.8299568132138
736.4395026855166
768.9081272570869
802.0578261323153
835.7713223825817
869.9820096883938
904.6655480910104
939.8329431849169
975.5248736570956
1011.8070290158746
1048.7662439832243
1086.507249967584
1125.149898467297
1164.8267424468397
1205.6808884821726
1247.8640547341179
1291.5347879703536
1336.8568074083423
1383.9974545589973
1433.126236908839
1484.4134595210162
1538.0289427638693
1594.1408266789504
1652.9144632805908
1714.5113976525365
1779.0884374063685
1846.796808227079
1917.7813911733647
1008.4319536235942
938.1136975652844
872.1147917685234
810.7562368158071
754.419905314335
703.5456564438745
658.6183141811105
620.1393331115476
588.5791791982912
564.3112740500194
547.5371606138838
538.2221754107811
536.0644713882108
540.5119521452054
550.82386124622
566.1571599855334
585.6524971578096
608.5013057409885
633.9872301084358
661.5043887534897
690.5591827236793
720.7625509479004
751.8179124061437
783.5080903006334
815.6829762774662
848.2486907315997
881.1584251205944
914.4048678916527
948.0139985556027
982.0400059885956
1016.5611006906763
1051.6760211931987
1087.5010694000912
1124.1675426283894
1161.8194593084547
1200.6115002372653
1240.7071081748245
1282.276705866122
1325.4960066833803
1370.5444033534748
1417.603428912174
1466.8552903025732
1518.4814790864637
1572.6614657641016
1629.5714844523884
1689.3834134637032
1752.263755025624
1818.3727143886272
1887.8633752922447
980.4533688999115
911.5104266637353
847.0964482001023
787.5703190062618
733.3518438396221
684.9136886834409
642.7601699660229
607.3879310549137
579.2265937088921
558.5647360963084
545.4766870278892
539.7730514424726
540.9952403663823
548.4595139919727
561.3369261765987
578.7441575274875
599.8221433231199
623.7901606480166
649.9742882319053
677.8158096324618
706.8668880732979
736.7797304804566
767.2934611595149
798.2211271236283
829.4379952469222
860.8715418692364
892.4931332428756
924.311212392656
956.3657463296626
988.7236864405018
1021.4752201627898
1054.7306260763505
1088.6175789374386
1123.2787825469586
1158.869835685508
1195.5572597448697
1233.5166365725865
1272.9308218841104
1313.9882137312718
1356.881067146048
1401.8038552868734
1448.9516842162486
1498.518772846857
1550.6970116787952
1605.6746138816325
1663.6348703387134
1724.7550168726802
1789.2052174976986
1857.1476627267577
951.8965981939238
884.3637793846851
821.5884898697701
763.9713623985971
711.9727321734669
666.0978847316793
626.8657999100242
594.7573518505385
570.1443762510596
553.2106921597077
543.8863014867079
541.8189404889415
546.3971109043546
556.8191330265689
572.1857511121592
591.5896045668484
614.1831443149675
639.2191483122888
666.0673774085498
694.2147737471289
723.2564156480452
752.8825349778174
782.8648453338665
813.0438613632193
843.3178931976693
873.6338462325966
903.9796879819252
934.3783385652256
964.8827207319409
995.5717235742208
1026.5468669455888
1057.9294892633825
1089.8583147657578
1122.4872857653127
1155.9835709086854
1190.525682426014
1226.3016544435613
1263.5072511250141
1302.3441879722975
1343.018362113288
1385.7380977235193
1430.7124206669755
1478.1493817931673
1528.2544509663314
1581.2290038585802
1637.2689210345522
1696.5633143135956
1759.2933894071384
1825.6314470846535
922.7699478498077
856.683007339142
795.6036274471472
739.9784880458293
690.3110154530125
647.138045362256
610.9864080634222
582.3073563075985
561.3951203962719
548.3074435039828
542.8140303968407
544.3949456292628
552.2933989378192
565.6058708154715
583.3810222906744
604.7025870418163
628.7442444049136
654.7967363701044
682.2741241351317
710.7073537251314
739.7317159796997
769.0724940445093
798.5311603218149
827.9731868049367
857.317780030159
886.5294694462957
915.6113147131974
944.5994508245622
973.558698924694
1002.5790020554309
1031.7724822804614
1061.2709513466793
1091.2237386691772
1121.79572764336
1153.1655147080128
1185.5236260740367
1219.0707453701111
1254.0159221699214
1290.574746680626
1328.9674897159753
1369.4172191391303
1412.1479137707731
1457.3826028207448
1505.3415628045723
1556.2406044472727
1610.2894793386286
1667.69043048316
1728.6369030740777
1793.3124227062726
893.0819685268873
828.4779268154605
769.1559080775006
715.6134156069776
668.3993637933605
628.0798191199976
595.180089977089
570.1045192208439
553.0469148285151
543.9167505396738
542.3095080954894
547.5367735878066
558.7078980521061
574.8355870679334
594.9345385459147
618.0934064896132
643.5153167575147
670.5323520764741
698.6029491931264
727.3002887846139
756.297309270654
785.3516164743335
814.291872367189
843.0062264177452
871.432815474562
899.5521154562839
927.3808462475597
954.9671278807072
982.3866157805325
1009.7393824712635
1037.1473521629428
1064.7521290972022
1092.7130896970307
1121.2056331012113
1150.4195057283086
1180.5571342842982
1211.8319190575257
1244.466456060893
1278.6906728169665
1314.7398781722054
1352.8527409679627
1393.2692249235486
1436.2285168292397
1481.9669912925497
1530.716257259729
1582.7013291612104
1638.13895908603
1697.236156627761
1760.1889110857871
862.841441219661
799.7589976132384
742.260986193254
690.9010177895627
646.2755345215064
608.9757632265748
579.5128413271937
558.2229036056015
545.173559057423
540.1037190874382
542.4237958289093
551.2806671468195
565.6649387020119
584.5250508172153
606.8593144894428
631.773660345428
658.5074285982208
686.4364386599082
715.0631134288715
744.0010143047075
772.9582945445197
801.7223784787002
830.146788564084
858.1402882394847
885.6581546148831
912.6952638986446
939.2806522699968
965.4732427024552
991.3584717176184
1017.0455941774594
1042.6654830927264
1068.3687736030056
1094.3242263722545
1120.7172070385423
1147.748196639941
1175.6312645710143
1204.59245177796
1234.8680283654442
1266.7026068951322
1300.3471102329206
1336.056610196954
1374.088069407519
1414.6980323269972
1458.1403211553716
1504.6637968940406
1554.5102448620187
1607.9124372489948
1665.0924136390631
1726.2600051878644
832.0573641911703
770.5374304773306
714.9364764445063
665.8700271539338
623.9834418074934
589.8866061954706
564.0596809760439
546.7447233917916
537.8546872236752
536.9366017766763
543.2091698666641
555.6633457526705
573.1894627642271
594.6920608861859
619.1696890742686
645.7563269248163
673.7329103221595
702.5205139252553
731.6647640148472
760.8176907065147
789.7203574341388
818.1877099276235
846.0960239704223
873.3728171857347
899.9888880633059
925.9521010414103
951.3025616700806
976.1088751294553
1000.4652332510475
1024.4891209896641
1048.319470555944
1072.1151205297538
1096.0534597772637
1120.3291537919831
1145.152866078165
1170.7499011178074
1197.3587097429047
1225.2292134192949
1254.6209215838317
1285.800835715152
1319.0411545694906
1354.6168156607816
1392.80292681221
1433.872156433284
1478.0921601859345
1525.7231235155784
1577.0154936046517
1632.2079611550726
1691.525733538229
800.7389429338053
740.8253346350326
687.2024173001421
640.5539422695979
601.5744855740625
570.8827420837789
548.9058777188548
535.7609558527657
531.1757670650563
534.4865054428171
544.7188838605275
560.7219592337653
581.3071146885488
605.3555756187629
631.8814394653486
660.0558548170759
689.2054279848755
718.7972303855047
748.4189803727656
777.7592306919803
806.5897755099404
834.7509774267262
862.1399646849087
888.7013417434061
914.4199758972983
939.3154435601282
963.4377771565489
986.8642166529182
1009.6967259295495
1032.0600795774303
1054.100360328029
1075.9837328316319
1097.8953780386005
1120.0384862308065
1142.6332179274823
1165.915552412736
1190.1359552301997
1215.557810062486
1242.4555778700787
1271.1126672659384
1301.8190242996716
1334.868475685468
1370.555884787541
1409.1742015727839
1451.0115033334687
1496.3481297995763
1545.454012832382
1598.5862871634422
1655.9872461140376
768.8955863949313
710.6359217749477
659.081884844993
614.9921957165345
579.1092031004198
552.0459838344689
534.1482545787043
525.371850851755
525.2279381714153
532.8269992518086
547.006913375401
566.4940600037388
590.0443504031534
616.5358518477638
645.0119001178294
674.6882563444731
704.9400585209676
735.2804360830518
765.3378187945304
794.8353237380591
823.573419912471
851.4159629251529
878.2792256120968
904.1234143909996
928.9461743670481
952.7776543316834
975.6767815085777
997.7284668831173
1019.0415193621382
1039.7470904919337
1059.997502795182
1079.9653363935436
1099.8426629401938
1119.840325366802
1140.1871688002016
1161.1291343797047
1182.928135643484
1205.8606484811762
1230.2159618088244
1256.294057902971
1284.403118591399
1314.8566849332374
1347.9705310883512
1384.0593441723681
1423.4333268421492
1466.3948541538282
1513.235317923568
1564.2322792587843
1619.6470242199618
736.5369143903965
679.9837898976064
630.6018119430896
589.2316670926082
556.6593191268744
533.4715949104668
519.8965220227133
515.6872681114638
520.1076533111727
532.0336240438618
550.1276935105976
573.0175994186468
599.428565007373
628.2545930694471
658.5800869313885
689.6712046551061
720.9533669204852
751.9852351156851
782.4343546289728
812.0564565695365
840.6787518865023
868.1868363955841
894.5146014990804
919.636544461105
943.5619542764614
966.330549355343
988.0092347794152
1008.6897212286351
1028.4868040869317
1047.5371418451925
1065.9984006232387
1084.0486492693312
1101.885899639366
1119.7276916639319
1137.8106249346777
1156.3897400450346
1175.7376561179676
1196.1433781571102
1217.910701172126
1241.3561590278682
1266.8064952607417
1294.5956698923449
1325.0614580241854
1358.5417384515881
1395.3706081049108
1435.8744848090673
1480.3683714786835
1529.152446396449
1582.5091167061003
703.672783684219
648.885321006598
601.794090419057
563.3286514934712
534.3102818580456
515.2706005735989
506.2745602760368
506.8267577309103
515.9160903355956
532.1833110944406
554.1358634393475
580.3309540434968
609.488240158632
640.5351068054237
672.6068263095485
705.0241339102683
737.2634844477099
768.9280467054787
799.7227207001171
829.4339281234219
857.9138126101129
885.068120938333
910.847009657995
935.2381220156096
958.261409827573
979.9652948391736
1000.4238617441963
1019.7348493357597
1038.0182601050226
1055.4154457746356
1072.0885502635526
1088.2202053928056
1104.0133807364568
1119.6912895873952
1135.4972501726675
1151.694397275156
1168.5651368075
1186.41023741276
1205.547461698754
1226.309657847048
1249.0422618277994
1274.100201514631
1301.8442446506979
1332.6368883100017
1366.8379412770482
1404.799994216828
1446.8639973733289
1493.3551657385353
1544.579405075805
670.3133441491009
617.3592425018967
572.6970664416622
537.3514293865608
512.1643796006397
497.5723473437255
493.421530080422
498.91928586563756
512.7583114920253
533.353727901429
559.0860342344735
588.472987431755
620.2531119283442
653.4024711426366
687.1148888938309
720.7683418978875
753.8901868133323
786.1266614358447
817.2181403824816
846.9798572731112
875.287204483292
902.0646484553979
927.2774226072858
950.9253311522066
973.0381566025576
993.672293420821
1012.9083288708612
1030.8493638837829
1047.6199170059149
1063.3652879803633
1078.2512779868546
1092.464173891583
1106.2109062683871
1119.7192873358076
1133.2382271687816
1147.0378166914404
1161.4091566004915
1176.6638056371594
1193.1327231518899
1211.164593482482
1231.1234465953553
1253.3855325852646
1278.3354663211035
1306.3617286231793
1337.851683920997
1373.1863403223745
1412.7351241582207
1456.8509567299357
1505.8659002470276
636.4691425841647
585.4274264723007
543.3575866374249
511.38362844628415
490.3445292295215
480.5272242571775
481.49264158058776
492.1025012464862
510.74216327778305
535.6225791409436
565.0325982371504
597.4831526567978
631.7543597876006
666.8837104561941
702.1291276639868
736.9270942383359
770.8549709916867
803.6002930203861
834.9369534716008
864.7071812905206
892.8080617664656
919.1815037953725
943.8067886549023
966.6950509939472
987.8852172442339
1007.4410584367401
1025.4491100997864
1042.0172794001057
1057.2740057383398
1071.3678708057719
1084.4675713744045
1096.7621754335787
1108.4615815654186
1119.7970941468695
1131.0220145255441
1142.4121325070473
1154.2659857209712
1166.9047399948215
1180.6715360351984
1195.9301515367379
1213.062848494381
1232.467317173587
1254.552692523966
1279.734703196735
1308.4301096900858
1341.050683017433
1377.997051586869
1419.652784693688
1466.3790739809492
602.1513015958249
553.1160389490616
513.8338215428136
485.52862105380893
468.99880153833976
464.3093742638452
470.6593566504788
486.5214449454423
509.9769338742669
539.0669015528229
572.0295991377391
607.4016402499742
644.0248172811205
681.0079803218723
717.6766199876172
753.5257291473098
788.18112910956
821.3696236580865
852.8966326551454
882.629642688711
910.4860081410275
936.4239549870982
960.4359382139271
982.5437424363629
1002.7948932772284
1021.2600751030352
1038.0313407403758
1053.220960857513
1066.9608022524203
1079.4021505717276
1090.7159074938909
1101.0930973879626
1110.745615327316
1119.907138073426
1128.8341031606956
1137.806639750059
1147.1293104766169
1157.1314992580083
1168.167260600464
1180.6144375050842
1194.8728648679244
1211.3615104265282
1230.5144709098167
1252.7758375695357
1278.5935660893733
1308.4126159795462
1342.667741687118
1381.7763964103337
1426.132228291598
567.3718169700219
520.4572111060206
484.19919363376374
459.91525765472136
448.30568036529587
449.11910097033285
461.1087505072337
482.32663236446365
510.5718159969903
543.7624008413723
580.1306816691751
618.2695754423889
657.0992048660216
695.8067616155348
733.7868130547914
770.5917614653039
805.8938175079772
839.4568406518325
871.115787984351
900.7617616884897
928.3310984008576
953.7973668660214
977.1654733818627
998.4673185331487
1017.7586213956797
1035.1166474387005
1050.6386588496853
1064.4409619604392
1076.6584634617404
1087.4446701637723
1096.9720793380448
1105.4329099953836
1113.0401207572722
1120.0286476913766
1126.6567758822314
1133.2075321297216
1139.9899543222225
1147.340058373189
1155.621290724609
1165.2242302299774
1176.5652969167538
1190.0842472096945
1206.2402953674718
1225.5068046331967
1248.3646360952532
1275.2944139527674
1306.768135820867
1343.240690360184
1385.1419065186456
532.1440437150954
487.4915008490267
454.5478823679133
434.70528096781607
428.47991235319756
435.18451272914217
453.04173117620286
479.67148913422227
512.634258115509
549.7828851530417
589.3891382866382
630.1292677516858
671.014385326039
711.3140637506112
750.4916719322764
788.154984340531
824.0201186724513
857.8856615101988
889.6141562697529
919.1187910877761
946.3537410551278
971.3070950285259
993.995638024477
1014.4609961990061
1032.7668124351171
1048.9967297518547
1063.2530335457188
1075.655853209432
1086.3428562466725
1095.4693882262854
1103.2090225276745
1109.7544862272039
1115.3189231404326
1120.1374418288774
1124.4688748800165
1128.5976456637848
1132.8356004011864
1137.5236184670107
1143.0327663423302
1149.7647175849525
1158.1511332694463
1168.651698496454
1181.7505560587729
1197.9509808366906
1217.7683021414996
1241.7212953497485
1270.3224992126145
1304.0681245762482
1343.428350213363
496.48348684581333
454.2715710976422
425.00258336067003
410.1027640726585
409.7785513006771
422.761754369707
446.669836062865
478.7092042851126
516.26832163187
557.1998518532254
599.8580674766123
643.0245150560164
685.8096421187552
727.5666369109701
767.825829193293
806.2475665426251
842.5890932315847
876.6813442032767
908.4125717588344
937.7166497662536
964.5645981304592
988.9583566358551
1010.9261652862058
1030.519126693776
1047.8086711418123
1062.8847415190535
1075.8545798318798
1086.8420400686182
1095.9873805585398
1103.4475067446556
1109.3966447806465
1114.0274285737264
1117.5523778756408
1120.2057321061675
1122.2455826478113
1123.9562141248675
1125.6505218187208
1127.6723182169885
1130.3982793928697
1134.2392177684549
1139.6403130914707
1147.0799049811199
1157.066469481812
1170.1334905829635
1186.8321106907074
1207.7216998595727
1233.3587944786884
1264.2851653990595
1301.0160065894943
460.4090941292226
420.8677732871638
395.7254734752942
386.3657944529925
392.50638871781655
412.1329951525504
442.21042509010385
479.58917044631295
521.5731891625644
566.0822811762398
611.590654651847
657.0009634303926
701.5269809519211
744.6041929703001
785.8267347033818
824.9041428573394
861.6318185993861
895.8706785664181
927.5329137687961
956.5718304117078
982.9744578897423
1006.7560741181456
1027.9560990930077
1046.6350021228532
1062.8719947575191
1076.7633645285161
1088.421359684005
1097.9735718606873
1105.5627880947159
1111.3472992999705
1115.501661229924
1118.2179066507879
1119.7072036787274
1120.2019438500988
1119.9582227160688
1119.2586433640495
1118.415327068668
1117.7729538484818
1117.7115796810588
1118.6488909975837
1121.0414713390721
1125.3845881904751
1132.20998695247
1142.0812363311943
1155.5863353164207
1173.327580527495
1195.9090857638741
1223.9227808745368
1257.9340920866048
423.94539644131993
387.3767649426257
366.9336646554019
363.82025218235265
377.01935952096653
403.60125072013545
439.8802969975648
482.45329725150754
528.6419824099503
576.4966816837707
624.6405823261306
672.1065232490747
718.211454798855
762.4696345245304
804.5348036447905
844.1618943502331
881.1814100691732
915.4819540293634
946.9980261384354
975.7012762999365
1001.5940755233064
1024.7046872927156
1045.083585824591
1062.800634956171
1077.9429483633894
1090.6133212394934
1100.9291693818457
1109.0219423831809
1115.0369985077991
1119.1339428809883
1121.4874393581197
1122.2885102575024
1121.7463364674163
1120.0905617979624
1117.5740875126794
1114.4763126337325
1111.1067292718972
1107.808716450095
1104.9632886403683
1102.9924480133498
1102.361670216571
1103.5809404255751
1107.2036804100524
1113.822911921136
1124.0641359354495
1138.5747095363668
1158.0099752022913
1183.0169831298324
1214.2172186547666
387.1261232292675
353.9350313031022
338.9207287664095
342.8746829800455
363.7237546564347
397.481248227973
439.88807416208766
487.43258488083893
537.5610415354618
588.5074191502499
639.0625719040207
688.3918414219198
735.9115124102573
781.2092910480892
823.9935601784393
864.0606144272866
901.2730192065071
935.5448978505124
966.8316023882512
995.1222210660176
1020.4339761032463
1042.8079288050887
1062.3056319028256
1079.006507323044
1093.0058148685198
1104.4131334319718
1113.3513133557462
1119.9558836813544
1124.3749156885738
1126.769356823883
1127.31385808416
1126.1981233496779
1123.6288103225572
1119.832007939636
1115.0563016715419
1109.5764121500313
1103.697349178295
1097.7589568142457
1092.140630712033
1087.2658636419937
1083.6061226215993
1081.6833962152803
1082.0706052107905
1085.3889967717755
1092.3017115670805
1103.5029966647987
1119.7030735770256
1141.609424852898
1169.9060908003835
350.00047812715053
320.7404100206609
312.08586939037656
324.03364150864206
353.06835904644964
394.08605691964897
442.42608995340265
494.6443977712036
548.4097894431281
602.1773442369449
654.913055442548
705.9108291507043
754.6793701209217
800.8731605800386
844.2497732427572
884.6427555267085
921.943803188032
956.0905768128889
987.0580293092469
1014.8519843544939
1039.504213207174
1061.06855711554
1079.617822574866
1095.241286592379
1108.0427174940673
1118.1388603897842
1125.6583651786536
1130.7411549410053
1133.5382473324173
1134.2120532358358
1132.9371864149798
1129.9018253344677
1125.3096728965952
1119.3825598527799
1112.3637301662206
1104.521827290528
1096.1555632090638
1087.5989895750265
1079.2271938838894
1071.4621056752003
1064.7779153658337
1059.7053896418413
1056.834140627516
1056.811728922935
1060.338443776013
1068.156819124218
1081.0355072687444
1099.7480560471745
1125.04828337015
312.64441162601224
288.08665415555595
286.9713360564597
307.90419432118233
345.5264539006757
393.7102048532551
447.66286869559957
504.1908564152791
561.2612570858713
617.5687174861462
672.2509725440557
724.7212442299935
774.571406318488
821.5151544821028
865.3535797943583
905.9534498801393
943.2328572439109
977.1512538519308
1007.7021803055941
1034.9077150041198
1058.814075601298
1079.4880404851076
1097.013996661567
1111.4915035015079
1123.0333126096539
1131.763816095847
1137.817916771597
1141.3403290771503
1142.485331758757
1141.4170041386901
1138.3099880406612
1133.350827109876
1126.7399436914782
1118.6943189601757
1109.4509417533543
1099.2710810092035
1088.445409157321
1077.2999500028254
1066.2027328299591
1055.5708915112145
1045.8777422344945
1037.659103928409
1031.5178101728702
1028.1250554387918
1028.2170278091126
1032.5853611867522
1042.0604638692382
1057.487848616683
1079.6991126803184
275.1817108885207
256.4187220305804
264.3053619754772
295.1866382717409
341.56581688042763
396.6113808679261
455.7374657457382
516.1586580944486
576.183287966713
634.7444152500792
691.1386854111257
744.8853266287962
795.6485772500408
843.1933415906055
887.3585892128723
928.04049598898
965.1811004951292
998.7601892665127
1028.7891481444692
1055.3060719752882
1078.3717332034971
1098.0661845536106
1114.4858714969178
1127.7411888573272
1137.9544508199276
1145.2582652109315
1149.7943174020381
1151.7125802922374
1151.170976803434
1148.335531532088
1143.3810592929783
1136.4924503641869
1127.8666247436258
1117.7152392609787
1106.268239346355
1093.7783472388971
1080.526563486566
1066.8287183826533
1053.0430300101377
1039.578487287803
1026.9036594615754
1015.5552220699742
1006.145085660041
999.3645595360935
995.9835883910907
996.8429616979113
1002.8377791875151
1014.8915981448948
1033.9226171664634
237.82525847536127
226.41879614663898
245.03994007716014
286.63735982368064
341.6082958779413
402.9941236434977
466.7568058341725
530.6204624844622
593.2403826093667
653.7693892210164
711.6430041148597
766.4704857650411
817.9768517936179
865.9701864102874
910.3219605228376
950.954300191926
987.8311031674933
1020.9513739543295
1050.3439047730294
1076.062831539973
1098.1838122186125
1116.8006951549478
1132.0226117110071
1143.9714646100142
1152.7798042910447
1158.5890979738465
1161.5484046517063
1161.8134766585522
1159.5463165247552
1154.9152276022148
1148.0954089894435
1139.2701597926578
1128.6327744021569
1116.3892282256993
1102.7617700710189
1087.9935492098123
1072.3544054340023
1056.1479284061338
1039.7198319675872
1023.4675665759144
1007.8508789134135
993.4026900439162
980.7391811550065
970.5673650064944
963.6877772390308
960.9894672057056
963.4345687761063
972.0308145579188
987.7926685501591
200.9610932118067
199.13104829842692
230.35693923231972
282.9934960548212
345.9860875065134
412.9993890734837
480.79669489435037
547.6377771556688
612.4960979400786
674.7123464752552
733.8363141981566
789.5500373704873
841.6276612574432
889.9127737100672
934.3044413757184
974.7477598071707
1011.2268402936174
1043.7591794345199
1072.3908735069049
1097.1924073066775
1118.254887841566
1135.68666697855
1149.610334915394
1160.1600849096262
1167.4794584653232
1171.7194846043017
1173.03723019873
1171.5947826198903
1167.5586924320382
1161.0999133573355
1152.394289788201
1141.623659012371
1128.9776560111254
1114.6563326495907
1098.8737288340374
1081.8625576978202
1063.8801842938358
1045.2160773925052
1026.200879839226
1007.217148018791
988.7116171218948
971.2085072234185
955.3228456869872
941.7720201388485
931.38284963327
925.0905879976402
923.9259074958593
928.9867162938591
941.3942409923673
165.32185480513658
176.11907098773833
221.59119542673474
284.8628949377294
354.9070330732234
426.7029668784335
497.90650607855457
567.2651029942771
634.0158899935071
697.6476166160605
757.7977996008049
814.2039869520283
866.6783580185976
915.0930088046198
959.3703542202223
999.476070678083
1035.4133534679304
1067.2179061827346
1094.95339610958
1118.7072674089281
1138.586881256728
1154.7159875833183
1167.231546765563
1176.280922620068
1182.019466545432
1184.6085103136813
1184.2137839986399
1181.0042771979931
1175.1515669319997
1166.8296450104665
1156.2152917408512
1143.4890620148221
1128.8369743381338
1112.4530232535963
1094.5426701969245
1075.3275051666742
1055.0513072634512
1033.9877573541619
1012.4500546868571
990.8026334966224
969.4750211964267
948.9775619832733
929.9181667879059
913.0183654847931
899.1257178852288
889.218253754555
884.3955608907152
885.8513461683935
894.8248742989908
132.3163288075117
159.60965462799854
220.00466086828675
292.61066010170714
368.441634687587
444.1234991779339
518.1168842292866
589.5549925251812
657.8702837917596
722.6571769926087
783.6147551276531
840.5198553064904
893.2126736120235
941.5877786824095
985.5875105355784
1025.196437349126
1060.4362978697013
1091.3612079328846
1118.0530740415686
1140.6172306529352
1159.1783458496723
1173.8766451368144
1184.86449733679
1192.3033967178221
1196.3613654633973
1197.2107926362862
1195.0267212339768
1189.985594573753
1182.2644776147279
1172.0407783607077
1159.4925096419763
1144.7991528738035
1128.1432134305564
1109.7125926145286
1089.7039440912836
1068.327232485014
1045.8117659900404
1022.4140268482331
998.4276595694455
974.1959703633102
950.1271954601019
926.7125340491189
904.5464006121358
884.3473925118373
866.9769803151264
853.4509646943704
844.936772010998
842.7288312401294
848.1963784621184
104.48537692385976
152.4136616313611
226.41658766445167
306.2962297813211
386.53757991620654
465.23829723862343
541.4493964065822
614.5636524012866
684.1382692939393
749.832814737697
811.3839837744125
868.5935390095024
921.3211624120886
969.4790536701478
1013.0270281454947
1051.967658325878
1086.3413464511652
1116.2213649985822
1141.708959427916
1162.928620613962
1180.0236256311127
1193.1519271348873
1202.4824503050384
1208.1918360844259
1210.4616525055446
1209.4760834833692
1205.4200972104245
1198.478094550951
1188.8330418054543
1176.6661021579891
1162.1567964219835
1145.4837469909785
1126.8260900706557
1106.3656814341273
1084.290271294347
1060.7978852643141
1036.102720359941
1010.442944119616
984.090861217756
957.3659629273905
930.6513552630743
904.4138887740316
879.2278484934989
855.8011034877959
835.0009254214983
817.8741328097823
805.6531063537171
799.7368132772284
801.636841057674
86.25468203641944
156.99411046291144
240.8923296790911
325.69985681554954
409.0567164499379
490.00347123989155
567.9269817602287
642.3567754056393
712.91085117496
779.2784138159059
841.2132745556623
898.5301948222066
951.1016108827118
998.8539021033982
1041.7630191354199
1079.8495516961652
1113.1734167617772
1141.828374274227
1165.9365670711584
1185.6432536353668
1201.1118669401872
1212.5194963684353
1220.0528561783856
1223.9047754850376
1224.2712223783772
1221.3488590945408
1215.333116167144
1206.4167711155028
1194.7890213682915
1180.6350518262914
1164.1361150528187
1145.4701672381564
1124.813136964995
1102.3409480480132
1078.23247443838
1052.6736767145564
1025.8632579737064
998.0202821014568
969.3943146003849
940.2787594797162
911.0281366560201
882.0799920653105
853.9818042292111
827.4223868572899
803.265512307923
782.5804058105039
766.6593549831749
757.0080800033004
755.293016249263
86.68001404288549
173.70228374548333
262.77159230699783
350.425064687465
435.8218854084734
518.3747024357376
597.584275677292
673.0153898736964
744.294715835415
811.1123646689612
873.2229553075803
930.4451309314037
982.6593839215687
1029.804380983828
1071.8721063469004
1108.902177509939
1140.9756781776935
1168.2088173483507
1190.746674184587
1208.7572335441962
1222.4258626861235
1231.9503296761914
1237.5364208925935
1239.3941801050235
1237.734765329353
1232.7679019179473
1224.699900686973
1213.7322077732724
1200.0604579138615
1183.8740147714823
1165.3560010015865
1144.6838476932162
1122.0304289848907
1097.565895166806
1071.460379389483
1043.8878330053733
1015.0313469290754
985.0904452034855
954.2909934141836
922.8985416342308
891.2360922611118
859.707377916194
828.8266009721356
799.254926852106
771.8423300991012
747.6699632172944
728.0824903106113
714.6924282093221
709.3331931979914
109.62809544693596
200.4262756250255
291.02756350110747
380.02300435544925
466.66100790125836
550.3260189802293
630.4772620201304
706.6416339298681
778.4160150629729
845.4701017624283
907.5475113852821
964.4646790620491
1016.1076683465333
1062.4272532170767
1103.432714352416
1139.1848024501855
1169.7882882206704
1195.3844611316927
1216.1438695679906
1232.2595228503756
1243.9407069366346
1251.4075047849788
1254.8860616581514
1254.6045960188662
1250.7901280365961
1243.6658793868135
1233.4492889765888
1220.3505884669848
1204.5718881667626
1186.3067376052422
1165.7401459348212
1143.0490759884183
1118.4034638615778
1091.9678658134335
1063.9038997969078
1034.3737351671696
1003.5449977396177
971.5976062759597
938.7332484046702
905.1884423540395
871.2524045307975
837.2912031553019
803.7797911206551
771.3431709996179
740.8065409349551
713.2507690521634
690.0626582387846
672.9587841966104
663.9506587213893
146.22751500387093
234.37395332597725
324.65432823158966
414.09050744660914
501.4412384027654
585.8654149036381
666.6920990154664
743.3644733595494
815.4242974255949
882.5067788322085
944.337254091054
1000.7270086735768
1051.5675580634274
1096.8234659240538
1136.5240656610727
1170.7545391826698
1199.6467961229005
1223.3705377049075
1242.1248089669512
1256.1302575797517
1265.6222369163725
1270.8448211112695
1272.0457432849626
1269.4722255765191
1263.3676404548353
1253.9689255848255
1241.5046676559055
1226.1937724762633
1208.24464806242
1187.854843685628
1165.2111108043416
1140.4898822239325
1113.8582053491623
1085.4752168784207
1055.4943140799123
1024.0662681752096
991.3436470728959
957.4870793367122
922.6741131100166
887.1117174983381
851.0538473433446
814.8259257706447
778.8584966600987
743.7323843058514
710.2368129928167
679.4387577742905
652.7541708995911
631.9975875849385
619.3678745366276
188.23192894339667
273.5064718284927
362.8727210771054
452.32615333339845
540.0920309651727
625.0474093661305
706.3532768644895
783.3454714362159
855.4966428593546
922.4000913160573
983.7600105089159
1039.3828261603858
1089.1679046055017
1133.0973035257857
1171.2247940616362
1203.6645771016122
1230.5801398989934
1252.1736420367265
1268.6761288014752
1280.3387712242018
1287.4252399490356
1290.205242225261
1288.9491906693356
1283.9239291582019
1275.3894137841746
1263.5962329317642
1248.7838477742716
1231.1794406240213
1210.997271910344
1188.4384660862522
1163.6911722611467
1136.931077523119
1108.3222915320644
1078.018673157227
1046.1657385695198
1012.9033825186842
978.3697710147744
942.7069391526974
906.0688727336947
868.6331926814357
830.618025170399
792.306243558213
754.079970540656
716.4688237635712
680.2152515017436
646.3579182255628
616.3264306805534
592.0233981613302
575.8414621282559
233.3817975706093
316.65969323916335
405.1731125233875
494.55312559029346
582.6196336482925
667.9834030366063
749.631469607553
826.7847828871261
898.8420713557753
965.353248391583
1026.0027870330402
1080.5958761756208
1129.0448288509024
1171.35510262628
1207.611063850328
1237.961902891279
1262.6081502336688
1281.7891784042592
1295.7719670645297
1304.8412933556313
1309.2914052969115
1309.4191513933492
1305.5184771948188
1297.8761583998419
1286.768617391321
1272.4596623116367
1255.1989914781461
1235.2213181718394
1212.7459894272645
1187.9769961268507
1161.1033001377955
1132.2994381458905
1101.7264031446803
1069.5328565946425
1035.8567923606906
1000.8278656455223
964.5707281314952
927.2098919758832
888.8769058328509
849.7210021760004
809.9249153622819
769.7283283090862
729.4624111819684
689.6000707939792
650.8273363326847
614.1402227487621
580.9646609549377
553.2775896694639
533.6679844176001
281.0062182680431
363.25327457542465
451.28734493778745
540.7241380014874
629.1166499573116
714.8509962811917
796.7515552663002
873.9275850803407
945.7063018173952
1011.5980804865674
1071.273329182185
1124.5431260767593
1171.3407526382937
1211.7033818045752
1245.7540556726515
1273.6843885550165
1295.7384611610228
1312.1982797624903
1323.3710391095788
1329.5782913637463
1331.1470062205829
1328.4024180328006
1321.6624950893606
1311.2338312495842
1297.40874610216
1280.4633815966
1260.6565960467308
1238.2294768251165
1213.4053183428032
1186.3899405710372
1157.3722550758594
1126.5250211181237
1094.005775895763
1059.957974067331
1024.512437915073
987.789309407817
949.9008218975479
910.9553918264152
871.0637995619265
830.3486287571591
788.9587326830979
747.0913864674574
705.0260711003248
663.1755612211377
622.1618736184472
582.925323559813
546.8702318898435
516.0308131722836
493.19024868406996
330.922317159355
413.06603093301
501.14893460466794
590.9203922654431
679.7699849847451
765.9034678054945
848.0013297168715
925.0711822497685
996.3769299032513
1061.3982379456015
1119.8014558814468
1171.4144642497092
1216.2027599925245
1254.2461967993795
1285.716646517637
1310.8571019450458
1329.9627150619813
1343.3641205649637
1351.4132189613058
1354.4714311314299
1352.9003072705411
1347.0542831329994
1337.2753231132524
1323.8891666364214
1307.2028941329786
1287.5035444402984
1265.0575408888603
1240.1107141663795
1212.888743396866
1183.5978712261826
1152.4257838720223
1119.5425841024348
1085.101826269543
1049.2416316938297
1012.0859657718031
973.7462440805293
934.3235570620453
893.911982619478
852.6037262422861
810.497241686914
767.7101250078344
724.3995690038888
680.7946955814081
637.2473508425091
594.3109647405805
552.8599045089007
514.2602401793135
480.5845940307817
454.8032810757717
383.1749446985245
466.1134542889052
554.8633453801506
645.3516172406244
734.8697554186862
821.4805427310934
903.7414633305699
980.573026606992
1051.1890697980034
1115.0523863357255
1171.8399809422635
1221.4116736240223
1263.7800334469537
1299.0814788099005
1327.5490732701394
1349.4876718035675
1365.2519401070094
1375.227545084405
1379.8155860977813
1379.4201463914014
1374.4387075891018
1365.2550870729665
1352.2345203027662
1335.7205067751108
1316.0330584479157
1293.4680237548714
1268.297201657919
1240.769003602531
1211.109463809734
1179.5234387939709
1146.1958754913185
1111.2930653221536
1074.9638415573659
1037.3407236583532
998.5410709851599
958.6683886114881
917.814043979234
876.0598267266407
833.4820505106163
790.1583129003532
746.1786934476849
701.664239420462
656.7973162649373
611.8711473119558
567.3699872284723
524.0965337554753
483.3658235267075
447.27091134337536
418.9580142996658
437.9529367642825
522.5888047629567
612.6928677920472
704.3608813233991
794.8211292730559
882.0215175248244
964.4172678711818
1040.859892942463
1110.5314563243683
1172.8972237778655
1227.6649389575332
1274.7463463499548
1314.2200277247075
1346.296049758244
1371.2833273912856
1389.5605186253674
1401.550975405541
1407.7019437438616
1408.467916698556
1404.2978298232233
1395.6256550575974
1382.8638854382007
1366.3993930257059
1346.591168995217
1323.7695030601847
1298.2362178134497
1270.26563415258
1240.1060017328048
1207.9811808341597
1174.092408483909
1138.6200229308388
1101.7250586026335
1063.5506616192504
1024.2233182925827
983.8539422516881
942.5389393203277
900.361477355378
857.3933534746722
813.6981101964703
769.3364666278834
724.3758066935011
678.9065867619732
633.070404561485
587.1076226174822
541.437566428915
496.7918154605578
454.4284755753555
416.44786864943336
386.15884663740724
495.5625907373791
582.8407300256981
675.0556147018907
768.4362635570305
860.1607494723428
948.0818125622898
1030.5728652270514
1106.4384136322642
1174.8529166607962
1235.3100206064128
1287.5746945406559
1331.6362758352916
1367.6629368815293
1395.9589334666002
1416.925985816511
1431.0297490304904
1438.7718281355865
1440.6673344787075
1437.2276315816694
1428.9476952139737
1416.2974011391184
1399.7160293113166
1379.609307626949
1356.348387364697
1330.2702273873183
1301.678951963501
1270.8478296085311
1238.0215933931718
1203.4188852703394
1167.2346585599214
1129.6424155761788
1090.7961942391835
1050.83225209397
1009.8704333876626
968.0152514430474
925.3567841587286
881.9715796121485
837.9239244368224
793.2680777158845
748.0524820681796
702.3276446060131
656.1605364699577
609.6603567893103
563.0239903529857
516.6154915678403
471.1035970541554
427.69342694225406
388.4887048733221
356.9486101128772
556.4267541571438
647.3739651345056
742.5378374704451
838.231062673407
931.5793963847883
1020.3541131329767
1102.8683773191872
1177.907111462218
1244.6689715149937
1302.7101887358451
1351.8873151633097
1392.2996877407681
1424.2338786524776
1448.112498223933
1464.4491461247953
1473.8105125687644
1476.7858757253782
1473.9636517404504
1465.9142661295248
1453.1784134400573
1436.2597151955729
1415.6208280548929
1391.6821537636895
1364.8224282058125
1335.3805969801967
1303.6585062297418
1269.924043157374
1234.4144484194437
1197.3395928327427
1158.8850656745735
1119.214964373422
1078.474309303991
1036.791037093151
994.2775566627402
951.0318911783618
907.1384860061761
862.6688525263824
817.682363724461
772.2277588442159
726.3463181941449
680.0783551956711
633.4758604503942
586.626230865847
539.6957821363874
493.0084921837811
447.18697394081215
403.3990974835941
363.76084231713287
331.87218711159676
621.0996977465037
716.8676672427368
815.9199363948608
914.5945638263388
1009.9528309497307
1099.695439113319
1182.1007705781797
1255.9699247319732
1320.56807523688
1375.559093213628
1420.9353050210013
1456.9464404805476
1484.0320603293956
1502.7608809606138
1513.7791134032393
1517.7686480796283
1515.4148859354266
1507.3833215940385
1494.303607268589
1476.7597003359517
1455.2847429174888
1430.3594666808272
1402.4131053289284
1371.8259937507212
1338.9332146250204
1304.0288096209615
1267.3701998437723
1229.1825598458809
1189.6629646744973
1148.9841843899524
1107.298039939801
1064.738263000565
1021.4228254472763
977.4557272211061
932.9282617785025
887.9198261160773
842.4984227691767
796.7211384388742
750.6351185291317
704.2799592518968
657.6931357860045
610.921311476391
564.0425753375807
517.2086802496297
470.7237384009877
425.1888782203392
381.76191856125683
342.5923644532184
311.41115291255846
690.2956027453569
792.210678251233
896.2182272096293
998.6162619760494
1096.3833209124664
1187.1617416301465
1269.228947661762
1341.4509420369238
1403.216590573875
1454.3568714579833
1495.0563997395798
1525.7650274739722
1547.1160089108319
1559.8550707535278
1564.7825004346669
1562.7085199076278
1554.4209335384453
1540.6633187129073
1522.1217565876655
1499.4181362858383
1473.10827880541
1443.6834177799997
1411.5738773529258
1377.1540652946992
1340.7481348307133
1302.6358569921078
1263.0583893691778
1222.2237329887662
1180.3117437648198
1137.4786155587174
1093.8607847219678
1049.5782268886467
1004.7371313271876
959.4319523521787
913.7468585232685
867.7566389205525
821.5271973592197
775.1158953232093
728.5722353644846
681.9397833949765
635.2609457407352
588.587496815434
542.0020756301449
495.66015036408896
449.8698601819825
405.24118046539934
362.95672659372684
325.2265391741824
295.8912069002446
764.9323795659229
874.5565010940019
984.7466645541947
1091.6878525289424
1192.2552064777024
1284.0519303203494
1365.4035006289826
1435.309546488385
1493.3609172024476
1539.6343550258757
1574.5785728738829
1598.9038428516544
1613.4837612348776
1619.2739971165636
1617.2494811213146
1608.3590878333807
1593.4954633232285
1573.4770725691674
1549.0395342118545
1520.8336290507646
1489.4278285241762
1455.3136697330456
1418.9127383066366
1380.584381458924
1340.6335558661106
1299.3184253914542
1256.8574739597204
1213.4360016451258
1169.2119387859786
1124.320953375026
1078.8808490270033
1032.9952610571613
986.756662471482
940.2486959895102
893.5478599480855
846.7246054968589
799.8439661173713
752.9659648794677
706.1462755249595
659.4380304859828
612.8964171444206
566.5890520166953
520.6175794191194
475.16046193236633
430.5551988529471
387.45249889454203
347.0945476042667
311.7712399484257
285.3832284111527
846.1956804503777
965.4043170857221
1083.2056222830593
1195.5893978038741
1299.3090509447711
1391.9635087595288
1472.0010621537097
1538.654226396037
1591.8240982904626
1631.937196547412
1659.7966684976336
1676.4447408396832
1683.0467562165713
1680.8010242854339
1670.8741233003957
1654.3585021375852
1632.2480073937888
1605.4268278302616
1574.6678399985512
1540.6370934738939
1503.9019618933526
1464.9411865363638
1424.1556062929535
1381.878798033412
1338.3871614277296
1293.9091957400883
1248.6338563171046
1202.7179653196183
1156.292700496606
1109.469209411511
1062.3434033984097
1014.9999824218551
967.5157346021542
919.9621481233536
872.4073756240429
824.9176123743033
777.5580063067117
730.3933384933886
683.4889456452198
636.9127875771433
590.740347117888
545.065471479032
500.02284657976134
455.8324836530242
412.8849167471489
371.8992769907556
334.201578551808
302.1571272879299
279.63708530734505
935.6317892913037
1066.717046335003
1193.8090813949595
1312.60917223535
1419.7404874068204
1512.8620518360183
1590.662104155034
1652.7516249505231
1699.4924790425257
1731.7978673965545
1750.9371296941085
1758.366474779571
1755.596128792119
1744.0954740936525
1725.2320827446147
1700.2379071585442
1670.1954316594824
1636.0373755465505
1598.5548362061636
1558.41010946978
1516.1515954237789
1472.2291149459502
1427.0086312114313
1380.7858317584341
1333.7983289917318
1286.236424416857
1238.2524899334271
1189.9690746660774
1141.48586690118
1092.885640678501
1044.2393042562912
995.6101491792605
947.0573788796888
898.6389795056641
850.4139894222269
802.4442376683364
754.7956726282068
707.5395197848629
660.7537432256237
614.5257305355934
568.9579369136326
524.1797020078892
480.3711056133669
437.8094117458688
396.95651386310817
358.6170579284559
324.20454889930454
296.1208592903349
278.0844953277228
1035.2838446928085
1181.094615013004
1319.4681723415333
1445.7112761803776
1556.3317846886391
1649.166170408846
1723.3287440517452
1779.0244398507639
1817.2852401905088
1839.6891801860656
1848.1061757834045
1844.4952667677733
1830.7603140635315
1808.6593041146932
1779.7565433514321
1745.4057140939763
1706.7530754781758
1664.752453785212
1620.1860976183036
1573.687519634383
1525.7639825249519
1476.8173525256257
1427.1627371916823
1377.044748509215
1326.6514738031376
1276.1263599226859
1225.57826597835
1175.0899465212588
1124.7252097105434
1074.5349655834793
1024.5623452171312
974.8470368239699
925.4289529670199
876.35131766616
827.6632485875184
779.4219171877941
731.6944155283378
684.5595725819652
638.110198353868
592.4566842584856
547.7337156928121
504.1133379501331
461.8302220931381
421.22937231358424
382.853260013773
347.5930738272564
316.9271962812486
293.22291136897627
279.91602044012825
1147.8954796701048
1312.0324479541653
1464.0596530555501
1598.7719145299327
1712.626130917095
1803.847423552185
1872.2745054998818
1919.0266625425138
1946.0954182017042
1955.9503346002016
1951.2156649926683
1934.4397900982024
1907.9535627179494
1873.8000143403258
1833.714223767787
1789.1343937468064
1741.2297519071456
1690.9355448548026
1638.9891629602969
1585.9641142601836
1532.3003095958738
1478.3301714420609
1424.300661773981
1370.3916125714632
1316.7308556998944
1263.4066643522806
1210.4779835898817
1157.982870692523
1105.9455025332577
1054.3820450646663
1003.3056230366544
952.730577923989
902.6761597798915
853.1697660891651
804.2498215970927
755.9683957758051
708.3936950227733
661.6126742183654
615.7342390615275
570.8939471016106
527.261914445596
485.057044422542
444.5730782111719
406.22572046493667
370.6350819370415
338.7610944746646
312.0998345556894
292.896119161527
284.2003414635136
1277.2229578685822
1464.3158015368945
1632.8255537534108
1776.9151994747422
1893.1556635046522
1980.5387651995325
2040.1089450251393
2074.3759826690707
2086.6848558053744
2080.673353578887
2059.880230429717
2027.508723967882
1986.3164904699188
1938.5924310899434
1886.1845991761386
1830.5528282999455
1772.8292452376536
1713.8772141912405
1654.3441637986782
1594.7066838154817
1535.307868013122
1476.3876384126631
1418.1070694023492
1360.5677629128318
1303.8272396878745
1247.9111800052847
1192.8232078962776
1138.5527837497696
1085.0816579754376
1032.3892443427233
980.4571943833223
929.2733917364177
878.8355357753795
829.1544468229854
780.2572027811177
732.1902154517627
685.0223880418796
638.8485897891208
593.7938866603772
550.019359333489
507.7310513064204
467.19481310188513
428.76177341872176
392.91196819096115
360.3265842417477
331.99887547688223
309.3799401160173
294.50959489597153
290.001333853009
1428.5282256513788
1644.6378543875521
1832.9801606744275
1986.9933344383735
2103.7313698177736
2183.6310199193485
2229.7227810722916
2246.6090101373175
2239.507217357529
2213.5349655689615
2173.2801248564556
2122.611551566949
2064.6525746815805
2001.844371056228
1936.0471873877782
1868.6483505852023
1800.6615633777355
1732.8114416953795
1665.6023248231331
1599.3727406844048
1534.337758266851
1470.6215582843809
1408.282324307423
1347.3312191469
1287.7468696412936
1229.4864804460408
1172.4944467701735
1116.709136079263
1062.0683529155092
1008.5138811019935
955.9954060836872
904.4740506411306
853.9257049166135
804.3442937864287
755.7451008870273
708.1682627799804
661.6825689317096
616.389774060316
572.4297865761682
529.9874034175461
489.30181378460327
450.68101649326644
414.5246866618355
381.3607600283146
351.90215541063316
327.12765043156
308.3783265237559
297.43021960498993
296.46367523982167
1609.3863512380437
1862.5996467894042
2074.6524417613477
2238.273247949008
2351.7881030805024
2418.304853101004
2444.107017593035
2436.903247168832
2404.4238064565466
2353.558777513603
2289.9884503950084
2218.1485327767323
2141.3689588538664
2062.074298523161
1981.9836219706874
1902.2835581609834
1823.7675742930442
1746.9434381154513
1672.114017394394
1599.4370549589567
1528.968941451056
1460.696573534141
1394.5604697445078
1330.4715396817012
1268.3232878504302
1208.000765766708
1149.3872380653909
1092.369273328469
1036.8407851418438
982.7064151730536
929.8845538626912
878.3102252361814
827.9380128442476
778.7451688304627
730.7350248897094
683.9408126280325
638.4300061112806
594.3093327699369
551.7306830518658
510.898323324857
472.0781385599744
435.61016825297514
401.92647805562933
371.57727766562147
345.26850781861725
323.9122387796218
308.6843034482705
301.06962130339673
302.86094461069166
1831.0636214064803
2132.3891400007997
2372.3814757919736
2543.4054604579555
2646.729266010596
2690.375415974576
2685.922845833621
2645.5801282088614
2580.2716089887363
2498.79973918791
2407.7721607530466
2311.9048350570097
2214.4360325870703
2117.512527088953
2022.5027950587512
1930.2334129970789
1841.1604871421505
1755.4910251696456
1673.2675876380952
1594.426743252459
1518.839145700629
1446.336853995228
1376.73186755078
1309.8286549402749
1245.432613291794
1183.3558084763013
1123.4209405398803
1065.4641998547258
1009.3374884506543
954.9103507650991
902.0718696556349
850.7327236606311
800.827560702735
752.3178147522788
705.1950701105251
659.4850588803142
615.252358160004
572.60583413274
531.7048646800769
492.76637319798317
456.07275112558864
421.98088247783403
390.93277645893454
363.4688286544663
340.245475032001
322.05982175521194
309.88421888158285
304.9125068363277
308.61474083680133
2111.0009658152844
2475.717961552825
2747.5416075866706
2919.7241039143037
3000.0784821887887
3005.679839238218
2956.6055541300443
2871.277731281597
2764.2538710202225
2645.967005131613
2523.3962480051205
2400.976767053939
2281.387007606787
2166.140200170907
2055.9977531217683
1951.2474606658614
1851.8865851853411
1757.740591666297
1668.5392644809137
1583.9649395083156
1503.6826334578948
1427.358497557358
1354.6707994051326
1285.316179864385
1219.0129825548574
1155.5028366902923
1094.5512740649745
1035.9479024142984
979.5064910744289
925.0652188704782
872.4872674425255
821.6619015800096
772.5061514268427
724.9671915159273
679.0254907705678
634.6987771624164
592.0468097796416
551.1768661476772
512.2497193587636
475.4856897375289
441.17012654764426
409.6574898702532
381.373281193972
356.813859254155
336.54638234602976
321.21549286345197
311.5698754558483
308.52769666432926
313.29679154815557
2477.520504468204
2927.2454913457404
3232.2886277868292
3390.7568425931204
3424.878882783912
3368.4359692468474
3254.6811268562224
3109.6876498785114
2951.1859801597925
2790.049696743756
2632.490392409515
2481.7721652313376
2339.3835102585253
2205.780352136309
2080.8411487407957
1964.1396147244468
1855.105375639016
1753.116781650631
1657.553026060824
1567.8220424092303
1483.3741327590299
1403.707330696695
1328.3681178789543
1256.9496731830386
1189.088964027773
1124.4634649791606
1062.787973892886
1003.811808871335
947.3165606441855
893.1145142133402
841.047821684215
790.9884925665133
742.8392591447142
696.535364320581
652.0472978606606
609.3844610886981
568.5996512361846
529.7941002597021
493.12255182433586
458.79749997490075
427.0912821938075
398.33439027919883
372.9085629896349
351.2347402673313
333.7598464510638
320.9534701624815
313.3354540575889
311.5651286680827
316.623307416321
2979.7817178328723
3544.929841178346
3876.0120402398393
3987.009413789452
3932.8073831353754
3777.588323503702
3572.883192490042
3351.9496483242488
3132.756842943362
2924.0850628381945
2729.568111837074
2550.135466619673
2385.3717026153795
2234.250520443435
2095.520834033903
1967.903445776274
1850.1857841442736
1741.2624334141299
1640.1474031091843
1545.972207746585
1457.9773490216369
1375.5012504026627
1297.96875608121
1224.8802494491674
1155.8018763283128
1090.3570582033508
1028.2193306063416
969.1064745841497
912.775887219551
859.0211390179006
807.6696789057546
758.5816632061692
711.6498962042688
666.8008687934492
623.9968570043085
583.2389772973308
544.5709663950529
508.08322968685684
473.91635561438903
442.26282531984265
413.3651501006867
387.5084335154021
365.0059777018781
346.17891071258504
331.3356748860149
320.7647062708053
314.763648314969
313.7417409171127
318.44660472062634
3708.665205504217
4432.365985459094
4753.944968678889
4742.292767052393
4525.822667522218
4219.231622790078
3894.4899923664034
3583.1549990551844
3297.1718419695376
3039.275724685209
2808.3012074762282
2601.6400024024456
2416.340918286001
2249.5749409570208
2098.808279292115
1961.8444414398564
1836.810456931645
1722.1221074461528
1616.4439887215563
1518.651225977085
1427.79543487006
1343.07557863102
1263.813529930775
1189.4338280246725
1119.4470476310787
1053.436229465644
991.0458976719809
931.9732756635497
875.9613952150098
822.7938680402345
772.2911518065741
724.3081912748203
678.7333463006902
635.488524913531
594.5304097029299
555.8525806178155
519.4881711008816
485.51241830924494
454.044066271711
425.24409108069676
399.30980781000693
376.462490133949
356.92785594806315
340.9118376756064
328.57891764574595
320.0454264000085
315.40505858149294
314.8187299891983
318.74551188239826
4861.657203324936
5778.726463933795
5974.520212238618
5674.948642881275
5171.74428226303
4657.72207453903
4190.294115549375
3782.0274689661455
3429.675460692709
3125.6676278768905
2862.118665233236
2632.0562143626235
2429.6710904426936
2250.2368058358225
2089.941028182517
1945.7132992117226
1815.0754123132813
1696.0193210923514
1586.9101948619277
1486.410326446393
1393.419625241388
1307.0290554390772
1226.4841039161693
1151.1560125104957
1080.5190422634432
1014.1324566512891
951.6262351468476
892.6897776005783
837.063051144482
784.5297778474219
734.9123722413453
688.0684178731174
643.8885213536732
602.2953957046798
563.2439903689092
526.7223841257869
492.7529650010896
461.3931168534456
432.7342210277392
406.897344327975
384.0237567598005
364.2588697665185
347.72996220235535
334.52161529353515
324.6573529808942
318.09820171400435
314.7633915408064
314.57620163415294
317.6146468415651
6845.617791951684
7984.503619865156
7648.59420502612
6686.564331737567
5782.5412552561365
5030.2088182194875
4419.619539702343
3922.987630710967
3514.359093444652
3173.4681554965446
2885.1040986623993
2637.9452106277527
2423.5206957483842
2235.431494954729
2068.7893721691908
1919.8179772464002
1785.568449442389
1663.715074051587
1552.4069233751525
1450.1589186343347
1355.7709165720937
1268.266935826367
1186.8490216657406
1110.8618743484915
1039.7654862312515
973.1138120271248
910.538045460931
851.7334671364723
796.4491113396803
744.4797058288434
695.6594888622375
649.857613415853
606.9749138601868
566.9418321560707
529.7172683185047
495.2880160395099
463.6682484327522
434.89821891210363
409.0409615480549
386.1754205505813
366.3843644983634
349.73609290730235
336.26088333409103
325.926705628692
318.6233161866141
314.1661446820104
312.32121154774285
312.8103717063038
315.25905569237375
11422.845712642717
11714.608327693712
9361.881609491818
7519.465011766394
6211.273566880403
5255.9454751488065
4538.03101303097
3981.1210158177037
3537.1641386356223
3174.8133184002545
2873.0295492699183
2617.2611020055483
2397.1761188034216
2205.2677305239977
2035.9713006551804
1885.0895313413412
1749.4083484759572
1626.4342180051044
1514.2107065518273
1411.1879375902379
1316.1280888228373
1228.035910599926
1146.1069144782264
1069.6882386258728
998.2487420790833
931.3559117920673
868.6578678504397
809.8692371315258
754.7600062724093
703.1467071113609
654.8854608703685
609.866528485602
568.01009175895
529.2630234711137
493.5963867961429
461.0033214403161
431.49680989001814
405.1065649872098
381.8739644513135
361.8436710069356
345.05051627727715
331.5007059112307
321.1477899301619
313.866420925851
309.430741384705
307.5085589042798
307.6814889917731
309.4579145164852
312.0469257094095
22638.73425210869
14763.11944045262
10206.911066326273
7825.411282961844
6301.589612325736
5263.8795723618205
4510.583789419585
3938.858991796023
3489.2529128416054
3125.5061034900764
2824.2528977835095
2569.8076137613607
2351.273254150019
2160.8636921057114
1992.8828323492971
1843.0799764985609
1708.22925092901
1585.8474312021824
1473.9999239061667
1371.1644545367142
1276.1334461850793
1187.9429003626415
1105.8197818464264
1029.142547606874
957.4111588213711
890.2240317854321
827.2601315479814
768.2649217147659
713.0392363758931
661.4303869550465
613.3249906277924
568.6431281291202
527.3335187736577
489.3694438471237
454.7451545639254
423.47246059578026
395.57709974179596
371.0943311092548
350.062978908255
332.5169153557126
318.4727811776915
307.91269887302906
300.760915656876
296.85373859316996
295.90286214166537
297.4537611667039
300.84383108844867
305.1589811144641
309.0126303705995

SCALARS STRESS_XX float 1
LOOKUP_TABLE default
1641.5558019463613
-23488.195627211106
0.8567317810914403
-2687.2879588920537
1641.1927111166553
1640.103478790009
1638.288225746688
1635.7471542641113
1632.4805495823323
1628.4887819536468
1623.7723092752408
1618.3316803026212
1612.1675384406963
1605.2806261078474
1597.6717896677005
1589.341984920894
1580.292283146694
1570.5238776833253
1560.038091031291
1548.836382461769
1536.9203561067034
1524.2917695027245
1510.952542557433
1496.904766897951
1482.150715555962
1466.6928529357072
1450.5338450019858
1433.676569616504
1416.124126938049
1397.879849792008
1378.9473139010372
1359.3303478528276
1339.033042666897
1318.0597608038065
1296.415144440973
1274.1041228192726
1251.131918441946
1227.504051883077
1203.2263449354882
1178.304921799921
1152.7462079860675
1126.5569265615227
1099.7440913477622
1072.3149966214517
1044.2772028342504
1015.6385178162002
986.4069728724608
956.5907931214276
926.198361355259
895.2381746258434
863.718792670659
831.6487771914243
799.0366208808687
765.8906649549792
732.2190037855964
698.029375034668
663.3290334603378
628.1246062850435
592.4219276769521
556.2258494815736
519.5400248301537
482.36666062324673
444.706234106185
406.55716777862517
367.91545566064804
328.7742324013386
289.1232747755312
248.9484226489125
208.23090334619178
166.946539326302
125.06481386991206
82.54776274682445
39.34865104367556
-4.589617207466146
-49.336424215928886
-94.97578638458293
-141.60924030725477
-189.35941915645168
-238.37452258192104
-288.8339535534884
-340.95549409448364
-395.00453164902774
-451.30604898394097
-510.2603843992848
-572.3642055080506
-638.2388000497676
-708.6688059519486
-784.6561099618559
-867.4962425820657
-958.8889143053875
-1061.1017399889042
-1177.219319934819
-1311.534172220037
-1470.1826384105327
-1662.2266395632869
-1901.5819530131412
-2210.7390994219672
-2628.22276945339
-3226.9608941408187
-4154.2732078146455
-5792.384541844313
-9027.502478900433
-17341.615698870603
-12227.224727614264
-997.9744629511836
-634.4129988507382
-190.196828167886
-106.71682268264942
-58.61204983943924
-37.15287347929541
-24.710050512534167
-17.30016030445995
-12.551088575814902
-9.383010517253808
-7.189909807747199
-5.627314308371297
-4.486588776048279
-3.636842153736154
-2.993010789814093
-2.498209302986936
-2.1134210856827167
-1.811289157241049
-1.5722543403159364
-1.382088482228312
-1.2302800591045866
-1.1089544839266239
-1.0121376294430888
-0.9352442566469676
-0.8747165458023858
-0.8277644162275521
-0.7921757837061705
-0.7661753166786696
-0.7483169226841113
-0.7373994918678903
-0.7323981579791479
-0.7324049874429477
-0.736573833464405
-0.7440641919948803
-0.7539782181627857
-0.7652833652524009
-0.7767098715967506
-0.7866065184524018
-0.7927277252654932
-0.7919061702691579
-0.7795297760840683
-0.7486727385470573
-0.6885947739127474
-0.5820549184513553
-0.4005600016421056
-0.09817949317278618
0.37772051752205726
0.760955859356578
2.665543337687062
7.314052747110601
13.066128134315484
18.21566454976451
21.508051101605005
22.11226390948896
19.507692434367307
13.391284498937353
3.61304064730097
-9.867770747906455
-27.01272585224695
-47.72546928438649
-71.86709396045438
-99.26760045981379
-129.7346618272206
-163.06048570307757
-199.02729281523816
-237.41175718655217
-277.9886416163923
-320.53378942008453
-364.82658604204676
-410.6519731668119
-457.80207767495517
-506.07750453339713
-555.2883340296983
-605.2548580250723
-655.8080860259591
-706.790049132282
-758.0539278268203
-809.4640278219716
-860.8956265837257
-912.2347115959915
-963.377629860321
-1014.2306665225942
-1064.7095688845307
-1114.7390304115186
-1164.2521477078667
-1213.1898618261616
-1261.5003937273775
-1309.1386822364254
-1356.065831460061
-1402.2485733600133
-1447.658750015866
-1492.272819070516
-1536.0713849283438
-1579.0387574674642
-1621.1625393319623
-1662.433242278499
-1702.8439325556485
-1742.3899048903895
-1781.0683843271736
-1818.8782549113707
-1855.8198140161176
-1891.894550970902
-1927.1049485579756
-1961.4543058885895
-1994.9465811502057
-2027.5862527190134
-2059.3781971592884
-2090.327582674476
-2120.4397766288694
-2149.7202658253354
-2178.174588295419
-2205.8082754337574
-2232.626803386529
-2258.6355526814004
-2283.839775164649
-2308.2445673851676
-2331.854849639998
-2354.6753499638316
-2376.710592411945
-2397.964889049226
-2418.442335113476
-2438.1468068780964
-2457.0819617892867
-2475.251240497665
-2492.657870446943
-2509.3048707214148
-2525.1950578903597
-2540.331052617175
-2554.7152868310714
-2568.350011285305
-2581.237303347805
-2593.3790748930605
-2604.777080179889
-2615.4329236169115
-2625.348067334291
-2634.5238384892373
-2642.961436245025
-2650.6619383749403
-2657.626307448312
-2663.8553965642013
-2669.3499546044422
-2674.1106309819334
-2678.1379798660646
-2681.432463870528
-2683.9944571904925
-2685.8242481808556
-2686.9220413684147
-2637.4701947428302
-2538.5371917613547
-2440.979831781977
-2344.7391914070004
-2249.7561389523426
-2155.971351083931
-2063.325330652695
-1971.758425435975
-1881.2108475059497
-1791.6226929641323
-1702.933961793637
-1615.084577598158
-1528.0144070139354
-1441.6632785952156
-1355.9710009919759
-1270.8773802521575
-1186.322236097314
-1102.2454170364706
-1018.5868141949093
-935.2863737514633
-852.2841078886613
-769.5201041751561
-686.9345333139022
-604.4676551988871
-522.0598232371946
-439.651486906479
-357.1831925291941
-274.59558225574136
-191.82939126471118
-108.82544319717069
-25.524643855037937
58.13202678922585
142.20352421469187
226.74875053597304
311.8265671623942
397.49580883192925
483.8152989049888
570.8438657880401
658.6403603414035
747.2636741096856
836.7727581992654
927.2266426094214
1018.6844558098273
1111.2054443425616
1204.8489922104561
1299.6746398016842
1395.7421020873749
1493.1112858158733
1591.8423054181203
1591.486760645655
1492.7707950202428
1395.4165913379177
1299.3640401816317
1204.5532404104679
1110.9244831439687
1018.4182344611017
926.9751171000353
836.5358914356319
747.0414359981564
658.4327277838349
570.6508225955384
483.6368356354704
397.3319225578254
311.6772611739892
226.61403398672812
142.08341171416015
58.02653794952389
-25.615484913562035
-108.90160837573929
-191.8908490456683
-274.6422982872385
-357.2151302298139
-439.6686080846531
-522.0620887211733
-604.4550254728734
-686.906969155588
-769.4775672905946
-852.2265615402736
-935.2137833746043
-1018.4991479991406
-1102.1426465872398
-1186.2043368731902
-1270.7443321735113
-1355.822788916143
-1441.4998927733945
-1527.8358435048024
-1614.8908386326027
-1702.725056085268
-1791.3986359598953
-1880.9716615706946
-1971.5041399650365
-2063.0559821061743
-2155.6869829363386
-2249.4568015515338
-2344.4249417359338
-2440.6507331174807
-2538.1933132241893
-2637.111610733797
1590.420165430641
1491.7493593611266
1394.4400929717297
1298.4322719623276
1203.6660120874405
1110.0816228090819
1017.6195896750412
926.2205557105306
835.8253021015465
746.3747284346441
657.8098327449408
570.071691611156
483.1014405200931
396.84025470921017
311.2293306793764
226.2098685545856
141.7230554491913
57.71004998829332
-25.888031889269584
-109.13012973158713
-192.07524987683237
-274.7824751753527
-357.31097305964187
-439.7200019052328
-522.0689156384614
-604.4171665603956
-686.8243063695356
-769.3499853768823
-852.053949920724
-934.9960379992634
-1018.2361731525409
-1101.8343566357207
-1185.8506579395103
-1270.34520372539
-1355.3781652550438
-1441.009744408401
-1527.3001583964906
-1614.3096232910957
-1702.0983365056038
-1790.72645837775
-1880.2540930203475
-1970.7412686214384
-2062.2479173921856
-2154.8338553762355
-2248.5587623521815
-2343.4821620764633
-2439.663403129814
-2537.1616406470707
-2636.035819224565
1588.6426373539261
1490.0470892573423
1392.8127088336862
1296.8794272288628
1202.1873886005333
1108.6769332167228
1016.2885792982261
924.9630038955331
834.6410230809954
745.2635717231042
656.771683096312
569.1064685663807
482.20909757467706
396.02077813022584
310.48273800217976
225.53620678901717
141.12239902494457
57.18249846858644
-26.34235629745762
-109.51108484307825
-192.38267634277815
-275.01619942151535
-357.47081032341873
-439.8057593469555
-522.0803955045268
-604.3541693758311
-686.686634137908
-769.1374447666119
-851.7663554163358
-934.6332149969005
-1017.7979609784859
-1101.320611466572
-1185.2612556021859
-1269.6800423541388
-1354.637167782574
-1440.1928608662124
-1526.4073679993253
-1613.340936278939
-1701.0537957154188
-1789.6061405162227
-1879.0581096079598
-1969.469766576981
-2060.9010792262575
-2153.4118989623203
-2247.0619402432953
-2341.9107603360408
-2438.0177396466415
-2535.442062904991
-2634.2427015003486
1586.154373296141
1487.6641695251228
1390.5346093257408
1294.7056599973266
1200.1175059754787
1106.7105311515097
1014.4252999615443
923.202537540385
832.9831092240545
743.7079996708513
655.3182918568128
567.755146186921
480.95977994689787
394.87344730465884
309.4374200546383
224.5929692812366
140.28134810077842
56.443775627009344
-26.97857771305211
-110.04460340043194
-192.81326648381992
-275.34361559718104
-357.69479126519957
-439.92603244198114
-522.0966812421399
-604.2661858343743
-686.4941014814915
-768.8400897222137
-851.3639157019716
-934.1254436719372
-1017.1846306864047
-1100.6015185407043
-1184.436224004046
-1268.7489274130085
-1353.599859703504
-1439.0492879725934
-1525.157499674977
-1611.9847855718722
-1699.5914215649723
-1788.0376495631242
-1877.3836575453354
-1967.6895589991866
-2059.0153719311493
-2151.4209976623447
-2244.9661996404366
-2339.7105825161266
-2435.7135717497267
-2533.0343940307084
-2631.732058809837
1582.9556508056507
1484.6008605536013
1387.6060343954623
1291.91118702343
1197.4565555421027
1104.1825807803466
1012.0298874066783
920.9392631493117
830.8516374087932
741.7080595366648
653.4496770393753
566.0177139503671
479.35344959674507
393.3981979702787
308.0932878965278
223.3800441775253
139.19976986708667
55.493729822274034
-27.796864343193384
-110.73086779293547
-193.36721439233708
-275.76492694439753
-357.9831256690603
-440.0810348733447
-522.1179877726454
-604.153429434584
-686.2469178310373
-768.4581229939404
-850.8468242831265
-933.4729057852251
-1016.3963498737755
-1099.6772289720677
-1183.3756955721515
-1267.5519705745016
-1352.2663300246104
-1437.5790903360803
-1523.550592102978
-1610.2411826167936
-1697.7111972187572
-1786.0209396328476
-1875.230661440698
-1965.4005408764137
-2056.5906611356513
-2148.8609884119383
-2242.2713498907233
-2336.881411949569
-2432.7506588319006
-2529.938372079796
-2628.503611028278
1579.046830011275
1480.857499946775
1384.0272949150785
1288.4962889290268
1194.204784820829
1101.0932943131415
1009.1025169366873
918.1733181025537
828.2467066222566
739.2638119531485
651.1658614322052
563.894157743329
477.3900568461556
391.59494657721723
306.450226117177
221.89728649889972
137.877492315074
54.33216476656534
-28.79743382408173
-111.57011392508406
-194.0447710403581
-276.2803962083895
-358.33608469119326
-440.27104280200655
-522.1445928339818
-604.0161760640024
-685.9453538174004
-767.9918065913574
-850.2153312453474
-932.6758362780332
-1015.4333352207211
-1098.547938187908
-1182.0798416374012
-1266.089316402441
-1350.6366940707858
-1435.7823517977627
-1521.586695652914
-1608.1101426135356
-1695.4131013323558
-1783.555951822248
-1872.5990242162966
-1962.6025767788271
-2053.6267733598656
-2145.731660504535
-2238.977144447494
-2333.422968240806
-2429.1286892845787
-2526.153657548565
-2624.5569947909503
1574.4283560776025
1476.4345046284327
1379.798774446359
1284.4613116408486
1190.3624986518369
1097.442932841173
1005.6434039840549
914.9048709759386
825.1684380541953
736.3753308174652
648.4668723093134
561.3844594141742
475.0695397957407
389.46358958914743
304.50809204041377
220.14451726773757
136.31430330163795
52.9588385432526
-29.98055423724574
-112.56263225564075
-194.84624533185726
-276.8903466950371
-358.75400191556935
-440.49639591464825
-522.1768380161067
-603.8547650179789
-685.589742270241
-767.4414627583395
-849.4697442019003
-931.7345241879937
-1014.2958533690662
-1097.213886764996
-1180.548873220573
-1264.3611430787764
-1348.7110941420115
-1433.659176006003
-1519.2658728622139
-1605.5916848787945
-1692.6971082836035
-1780.6426142886962
-1869.4886270109823
-1959.295500561651
-2050.1234954941556
-2142.032754820254
-2235.083279823416
-2329.3349059178126
-2424.8472788240065
-2521.679831352065
-2619.891761103324
1569.100762199592
1471.332373404764
1374.9209313848085
1279.8066681338405
1185.9300605584033
1093.2318073442075
1001.6528047875241
911.1341219145921
821.6169751957505
733.042703143485
645.3527410643693
558.4885962165253
472.3918236047364
387.00400262506196
302.26671475213004
218.1215224430008
134.5099494122142
51.37346241540568
-31.346545339754044
-113.70876905267738
-195.77200537104474
-277.5951635427178
-359.23727462145956
-440.75749868040856
-522.2151300012184
-603.6696002190024
-685.1804794123032
-766.80747513864
-848.610429426752
-930.6493137448815
-1012.9842219751729
-1095.6753614323807
-1178.7830419767145
-1262.3676632790734
-1346.4897003069625
-1431.2096871130063
-1516.5881990178132
-1602.68583329263
-1689.5631884611928
-1777.2808423552578
-1865.8993290744393
-1955.4791150189048
-2046.0805741811853
-2137.7639629042005
-2230.5893943325873
-2324.61681280598
-2419.905968466139
-2516.516392371524
-2614.5073724359822
1563.0646731321194
1465.5516899780646
1369.3943014746576
1274.5328404693137
1180.9078943341806
1088.460279855964
997.1310171669489
906.8613030501366
817.5924839330896
729.2660288663349
641.8235027605133
555.2065401375818
469.35681962981135
384.21603943918
299.72589394975466
215.82805166546942
132.46413462543495
49.57569943100305
-32.8957800001499
-115.00892785471957
-196.82247993520016
-278.3952951956103
-359.78636524823736
-441.054821800353
-522.2599419922631
-603.461151619602
-684.7180262328328
-766.090290115969
-847.637813157212
-929.4206056312444
-1011.4988109226983
-1093.9326962287116
-1176.7826412873833
-1260.1091251877297
-1343.9727113265592
-1428.434030589019
-1513.5537628403524
-1599.3926168289192
-1686.0113086141623
-1773.470538648929
-1861.830967660976
-1951.1531914971983
-2041.4977151124815
-2132.92492590684
-2225.4950666352493
-2319.2682081379503
-2414.30422216389
-2510.662754583759
-2608.403199314178
1556.320809248495
1459.0931264033075
1363.219500684572
1268.6403821164474
1175.2964858417072
1083.1287647741974
992.0783813825003
902.0866789485005
813.0951526241115
725.0454205886745
637.8791955865684
551.538257103598
465.9644244175757
381.09953073605226
296.8853986130407
213.26381681483895
130.17651878395378
47.56516283164086
-34.628685830382736
-116.46357112571313
-197.998160137905
-279.29125506294895
-360.40180304100835
-441.38890383196383
-522.3118153107985
-603.2299567691963
-684.2029100199134
-765.2904183085614
-846.5523830470994
-928.0488583894421
-1009.8400436780478
-1091.986273798771
-1174.5480074877148
-1257.5858136424977
-1341.1603556997657
-1425.3323741495901
-1510.1626672693492
-1595.7120701706176
-1682.041432265947
-1769.2115932785446
-1857.283357932678
-1946.3174694822603
-2036.374582253784
-2127.5152334023282
-2219.7998141020526
-2313.2885404168137
-2408.041424123619
-2504.1182437876796
-2601.5785164156764
1548.8699911207657
1451.9574469769598
1356.3972284311617
1262.129920542478
1169.0963850062271
1077.2377302993632
986.4952810623824
896.8105470729067
808.1251921439441
720.3810032560682
633.5198602090195
547.4837060541113
462.2145185446649
377.65428281763525
293.74496549631175
210.42849038163902
127.64671587723485
45.3414142736941
-36.54574700283131
-118.07322209023613
-199.29960126616356
-280.28362334531926
-361.08418585610633
-441.7603529663373
-522.3713611407262
-602.9766225208067
-683.6357260273695
-764.4084361939686
-845.3546897469379
-926.5345899539342
-1008.0083987692126
-1089.836526811001
-1172.0795212125781
-1254.798051395629
-1338.0528928221124
-1421.9049087896706
-1506.4150303464464
-1591.644234411288
-1677.653520198418
-1764.5038840608895
-1852.256292883194
-1940.971656172271
-2030.7107970163393
-2121.5344221036503
-2213.5030910177834
-2306.67718505305
-2401.116875820805
-2496.8820939470597
-2594.0324981936055
1540.7131446125195
1444.14551254565
1348.9282711349495
1255.0021600542686
1162.308207986708
1070.787699983342
980.3821441806042
891.0332382441419
802.6828358824037
715.272913746496
628.7455390073476
543.0428378750511
458.1069652984862
373.8800760583874
290.3042974411062
207.3217036567795
124.87429214294845
42.90396187193593
-38.647506238586345
-119.83846673191057
-200.72742477141566
-281.3730490050891
-361.83418210120817
-442.1698489311999
-522.4392623899213
-602.7018268489089
-683.0171392477762
-763.4449878363099
-844.045348584222
-924.8783792823766
-1006.004411363404
-1087.4839394748526
-1169.377608843709
-1251.7462004766635
-1334.650614245532
-1418.1518499168417
-1502.3109861932153
-1587.1891578433185
-1672.8475310104786
-1759.3472768042402
-1846.7495432954765
-1935.115426054569
-2024.5059373936838
-2114.9819744970073
-2206.6042866489797
-2299.4334418002727
-2393.5297927397214
-2488.9534431729344
-2585.764214044357
1531.8513064722276
1435.6582852194967
1340.813506090968
1247.2578848713615
1154.932639502757
1063.7792543661121
973.739444062762
884.7551170770878
796.7683396740088
709.7213003562695
623.556275177434
538.2155941790282
453.6416091905959
369.7766632044368
286.56306150941816
203.94304474270646
121.85876399464328
40.25225807737083
-40.93456695094902
-121.75995593537351
-202.2823203919902
-282.56025185558536
-362.65253278198475
-442.61814498961894
-522.5162756380143
-602.4063207456688
-682.3478862580024
-762.400786682631
-842.625041311445
-923.080868054661
-1003.8286749149166
-1084.929049132276
-1166.4427440354268
-1248.430663638429
-1330.9538450254456
-1414.073438574686
-1497.8506860796329
-1582.3468968335274
-1667.6234217567799
-1753.741625659712
-1840.7628577488963
-1928.7484205057262
-2017.7595370869876
-2107.85731742115
-2199.10272320292
-2291.556532018458
-2385.279300866111
-2480.3313293728816
-2576.772623045624
1522.2856304129514
1426.4968334710497
1332.0539056320317
1238.8979624063993
1146.9704352915887
1056.2130326740767
966.5677003942826
877.9765823693948
790.3819816383823
703.7263221631206
617.9521116866865
533.0019059195259
448.81827429337
365.3437674916505
282.52088693726535
200.29205639069113
118.59959578550658
37.3856974040053
-43.407595525480545
-123.83840774880677
-203.96504837965338
-283.84602473853494
-363.54005362213536
-443.1060699983809
-522.6032331327319
-602.0909301570669
-681.6287770984485
-761.2766173894711
-841.0945178840363
-921.1427624049004
-1001.481842851165
-1082.172447894211
-1163.2754492934328
-1244.8518858650527
-1326.962945138914
-1409.669942745152
-1493.0342995773926
-1577.1175167867996
-1661.9811486732256
-1747.686773552301
-1834.2959626924844
-1921.870247436747
-2010.4710846454645
-2100.1598206216677
-2190.9976537109537
-2283.04559579919
-2376.3644329672024
-2471.014685600715
-2567.0565682952183
1512.017393660924
1416.6623375983265
1322.6505415592487
1229.9233467251036
1138.4224246663698
1048.0897345510684
958.867480202224
870.6980674143775
783.5240619051563
697.2881482435839
611.933090062028
527.4016918244164
443.63676238986153
360.58108057749394
278.1773629084878
196.3682336699876
115.09619741923186
34.303614020653455
-46.06732371504093
-126.07460974063645
-205.77644179942376
-285.2312357547036
-364.49763721821284
-443.63453048508984
-522.7010447913414
-601.7565579142072
-680.8606971414204
-760.073337636056
-839.4545982258594
-919.064834645328
-998.9646302581673
-1079.214784286977
-1159.8762975765403
-1241.010355917213
-1322.67831095462
-1404.941658716585
-1487.862015791405
-1571.5010931974887
-1655.9206679954227
-1741.1825527047963
-1827.3485626036388
-1914.4804810080625
-2002.6400226522492
-2091.888795315498
-2182.2882598746082
-2273.8996889933032
-2366.784124699834
-2461.002335146104
-2556.614770887084
1501.048003951825
1406.15609552564
1312.604589810011
1220.335082153345
1129.2895131420537
1039.4101217879559
950.6393987771797
862.920040206415
776.1949021943867
690.406956718575
605.4992489887851
521.414856631921
438.0968509254857
355.48826028144896
273.53203614949825
192.17102147518747
111.34792182039386
31.005279226438454
-48.91455112531118
-128.46942142012605
-207.71740886716165
-286.71683050773794
-365.5262551850779
-444.20451269676624
-522.8107001582337
-601.4041856090415
-680.044608896774
-758.7918798726275
-837.7061739325623
-916.8479249348948
-996.2778155217432
-1076.0567648690358
-1156.245913886418
-1236.9066078852866
-1318.1003767316631
-1399.888912501859
-1482.3340446609493
-1565.4977127872662
-1649.4419368765095
-1734.22878526842
-1819.9203402543142
-1906.5786614438716
-1994.2657469904857
-2083.04349280473
-2172.9736499171067
-2264.117780186213
-2356.537210593654
-2450.292986410277
-2545.4458235685274
1489.379006948815
1394.9795289114484
1301.9173353289054
1210.1343069943132
1119.572685089735
1030.1750200112256
941.8841204972684
854.64300350291
768.3948452195763
683.0829335989267
598.6506226965323
515.0412891102962
432.1982907491382
350.0649281274775
268.5844083453492
187.69981187952436
107.35406227923238
27.48989883195734
-51.95014776180082
-131.02377668657184
-209.78893528382775
-288.3038343147666
-366.6269602418262
-444.8170845659641
-522.9332702618105
-601.0348753564174
-679.181553696303
-757.4332529456714
-835.8502098556222
-914.4929428383623
-993.4222418742011
-1072.6991557728843
-1152.3849768056764
-1232.5412227169782
-1313.2296161210852
-1394.5120612878652
-1476.4506183201484
-1559.107474727994
-1642.544914411935
-1726.82528407634
-1812.0109571083262
-1898.1642949767415
-1985.3476062278503
-2073.6231031848215
-2163.0528564909346
-2253.698747675054
-2345.6224199651597
-2438.885227623279
-2533.548184130228
1477.0120940515858
1383.134189527225
1290.5901771013896
1199.3222573126957
1109.273006375456
1020.3853202866422
932.6023595107613
845.8674947019019
760.1242538758243
675.3162713974741
591.3872391043725
508.2808598400211
425.94080362896466
344.31066668178687
263.33393337862105
182.95394134368829
103.1138496885388
23.756610471616057
-55.175056605611445
-133.73868626768157
-211.99208652093216
-289.99335433257534
-367.80088818118423
-445.47339753343005
-523.0699093065007
-600.6497713765771
-678.2726531905214
-755.9985435340418
-833.8877455027007
-912.0008687139339
-990.3988187883906
-1069.1427841189907
-1148.2942199378729
-1227.9148296804706
-1308.0665436392087
-1388.8114948943685
-1470.2119925053855
-1552.3304919470793
-1635.2295627780811
-1718.971853537082
-1803.6200538763546
-1889.2368539580668
-1975.884901164116
-2063.6267541988213
-2152.524834699132
-2242.6413765095367
-2334.038372825678
-2426.7775214661365
-2520.920168590876
1463.9491105609745
1370.621765865093
1278.6246333036158
1187.9002707367067
1098.3916269330393
1010.0419805876958
922.7948802287418
836.594085489383
751.3835101711026
667.1071674707898
583.7091176951216
501.133418735298
419.3240795276314
338.22501667894977
257.78001439247646
177.93268779033332
98.62644969203146
19.804480875483062
-58.59029618107599
-136.6152401014758
-214.32801000342587
-291.78658153924084
-369.04925965699454
-446.17468815761623
-523.2218561272706
-600.2501013227375
-677.3191105812589
-754.4889173202475
-831.8198961810742
-909.3727548598065
-987.2085231542246
-1065.3885392426084
-1143.9744331967768
-1223.0281077185705
-1302.6117160773083
-1382.787637216833
-1463.6184479943572
-1545.1668925107513
-1627.495848491605
-1710.6682906856213
-1794.7472512585505
-1879.7957771755641
-1965.8768845915363
-2053.0535102954445
-2141.388460294349
-2230.9443556657525
-2321.7835758570436
-2413.968199672359
-2507.559944249598
1450.192064156216
1357.4440899261542
1266.0223465153936
1175.8697902213169
1086.9297832125671
999.1460270707514
912.4624975720985
826.8233812039032
742.1730138533381
658.4558220496837
575.6162670841743
493.59879227856845
412.3477736199817
331.80747392881926
251.92200068052279
172.6352675571732
93.89095976690997
15.632503133351097
-62.19696307245899
-139.65460961013903
-216.79793713044995
-293.68479250398025
-370.3733817167006
-446.9222794324696
-523.3904353236967
-599.8371772687688
-676.3222115044505
-752.90561981198
-829.6478538010484
-906.6097263399995
-983.8524001627437
-1061.4373736650973
-1139.4264638848426
-1217.8817866429508
-1296.8657338068458
-1376.4409476232636
-1456.670292058949
-1537.616821079818
-1619.3437437969785
-1701.9143864124821
-1785.3921509062084
-1869.8404704203188
-1955.3227613225122
-2041.90237195657
-2129.642528130178
-2218.606275433815
-2308.8564185397818
-2400.4554576950113
-2493.465522689912
1435.7431336349973
1343.6031441324212
1252.785088934857
1163.2323677091274
1074.888800440213
987.6985550930206
901.606076910366
816.5560198598771
732.4931806798894
649.362435911869
567.1086822450408
485.67678043925247
405.0115030340489
325.05748599603606
245.75918440653533
167.06083224316635
88.90640626681942
11.239593988470038
-65.9962343418162
-142.85804980799804
-219.40318506689212
-295.689350869745
-371.77464899547283
-447.7175817246921
-523.5770579810163
-599.4123962618844
-675.2833244668961
-751.2499767176712
-827.3728872451811
-903.7129813994447
-980.3315638137923
-1057.2903037331882
-1134.6512174927657
-1212.4766481099903
-1290.8292419332017
-1369.7719222706537
-1449.3678599106236
-1529.680440430574
-1610.7732281886545
-1692.7099268916393
-1775.554336638284
-1859.3703073532156
-1944.221688546891
-2030.17227536681
-2117.2857509473565
-2205.625625110648
-2295.2551695304783
-2386.2373495393113
-2478.634752834868
1420.6046778587188
1329.1010682978585
1238.9147675255067
1149.9896676162448
1062.2700946153057
975.7007298999615
890.2265336221693
805.7926707642845
722.344440270286
639.8272076450364
558.1863413486624
477.3671532442308
397.31484329458243
317.97444864311694
239.29079715757752
161.20846546456113
83.67174145509175
6.62459120351874
-69.98936979335886
-146.22690117717082
-222.1451582287478
-297.8017084627735
-373.2545444786176
-448.56209323054867
-523.7832218733906
-598.9772403322607
-674.2039007277335
-749.5233937680395
-824.9963421980042
-900.6837913672169
-976.6471969522717
-1052.9484098391335
-1129.6496581428116
-1206.8135263125487
-1284.502931244625
-1362.781095301004
-1441.7115161130425
-1521.357933031228
-1601.784290074775
-1683.0546952303964
-1765.2333759516873
-1848.3846307253398
-1932.5727765879144
-2017.8620925079802
-2104.3167585896176
-2192.000791101633
-2280.977973398876
-2371.3117828749505
-2463.0653141686907
1404.7792448361438
1313.9401665849537
1224.4134290160737
1136.143470059741
1049.0751741604997
963.1537868997011
878.3248321984406
794.5340326527519
711.7272334755469
629.850330442745
548.8492021694129
468.6696469646735
389.2573244462466
310.55770202849453
232.51600633618904
155.07717954043312
78.18584056202852
1.7862510466249635
-74.17771402273384
-149.76259123672446
-225.02534937653706
-300.02340593275613
-374.8146397273284
-449.4573998403182
-524.0105110319649
-598.5332758388897
-673.0854735025048
-747.7273558621505
-822.5196403178275
-897.5234999344839
-972.8005507264085
-1048.4128361237167
-1124.4228085884902
-1200.8933083125014
-1277.8875388952347
-1355.4690398717134
-1433.7016559332046
-1512.6495026619866
-1592.3769285878284
-1672.9484733647714
-1754.4288218668742
-1836.882754011101
-1920.3750901329292
-2004.9706317707535
-2090.7340977548124
-2177.730055547894
-2266.022847850437
-2355.6765145589607
-2446.7547102565477
1388.2695808688309
1298.1229143614444
1209.2832646629017
1121.6956737343644
1035.3056411318466
950.0590314322712
865.9019847994995
782.7808312619773
700.6420091891979
619.4319883687419
539.097198005309
459.5839598800262
380.8384268317902
302.8065266497456
225.4339113977293
148.66591213018685
72.44749890494748
-3.2767540478360466
-78.5626981814059
-153.46663572157357
-228.0453402199908
-302.35607281532447
-376.4565944496955
-450.405174284498
-524.2605945462739
-598.0821520165571
-671.9296563534872
-745.8634254023706
-819.9442776177341
-894.2335216798372
-968.7929433484451
-1043.684789552564
-1118.971749672733
-1194.7169339297852
-1270.9838487535685
-1347.8363689681057
-1425.3387065967718
-1503.5553760638977
-1582.5511555474955
-1662.3910442257466
-1743.140215154798
-1824.863963520506
-1907.6276500235604
-1991.4966391849575
-2076.536232398552
-2162.811595611012
-2250.387681577212
-2339.3291467195686
-2429.7002627162924
1371.0786396697893
1281.6519648615106
1193.5266146734552
1106.6482983332319
1020.9631918826633
936.4178379297292
852.9590491668698
770.5338162469677
689.0892205174915
608.5723520177042
528.9302330533969
450.1097475750536
372.0575764976692
294.72013902183534
218.043539940708
141.97352284940249
66.45542911549241
-8.565837581765173
-83.14584137748116
-157.34063927667788
-231.20680142545046
-304.8014268958335
-378.1821552849559
-451.40717442080626
-524.5352244516353
-597.625598572919
-670.7381406134505
-743.9332396663237
-817.2718219077275
-890.8153396995381
-964.6257580234235
-1038.765538242469
-1113.2976191347825
-1188.2853950934934
-1263.79269133837
-1339.8837359387317
-1416.6231284087849
-1494.0758045989708
-1572.306997580754
-1651.3821942040245
-1731.3670869946786
-1812.3275210620359
-1894.329435698963
-1977.4388003827255
-2061.7215449235655
-2147.243483563635
-2234.070232897487
-2322.267123570704
-2411.899105816863
1353.2095913556927
1264.530155542485
1177.1459721755245
1091.003486394088
1006.0496170628423
922.2316483512917
839.4971257790287
757.7937573397355
677.0693202160788
597.271573493111
518.3481771763057
440.24661772283844
362.91414019787106
286.29768708029263
210.3438436598564
134.99878989339666
60.208258523688414
-14.082500789965426
-87.92875162497543
-161.38629556057842
-234.5114919040301
-307.3612727384886
-379.9931536533106
-452.46524050506105
-524.8362325383878
-597.1654221666452
-669.512691672506
-741.9385070470241
-814.5039091331042
-887.2705021850468
-960.3004398982301
-1033.6564089012359
-1107.4016096431524
-1181.599734548648
-1256.314943254433
-1331.6118346872256
-1407.555415695383
-1484.2110659004657
-1561.644498401737
-1639.9217159408504
-1719.1089621163414
-1799.2726672349547
-1880.479388395097
-1962.795743420792
-2046.2883383019023
-2131.023687851969
-2217.0681293662433
-2304.4877291506427
-2393.348181903453
1334.665831198542
1246.7605140136782
1160.143986602934
1074.7635044385124
990.5668008203098
907.5019697626178
825.5173541264198
744.5614396341916
664.5827552898759
585.5297806138135
507.35085998836394
429.9941243005242
353.40741996332895
277.538245298666
202.33369417388303
127.74040670352099
53.704526756308056
-19.82833405135746
-92.91312624121159
-165.60538663926002
-237.96125724405994
-310.0374992287777
-381.89150250648
-453.58129127081423
-525.1655259005104
-596.7035015797967
-668.2551439394686
-739.8810019736333
-811.6422384254978
-883.6006177714161
-955.8184918645945
-1028.3587832282738
-1101.2849659177994
-1174.6610438003286
-1248.5515260314621
-1323.021399445371
-1398.1360975153032
-1473.9614654880904
-1550.5637212534957
-1628.0094114750368
-1706.3653624850522
-1785.6986254372496
-1866.0764152135262
-1947.5660426014013
-2030.234839293491
-2114.150075315306
-2199.3788685602735
-2285.9880862029695
-2374.044237877516
1315.4509880078344
1228.3462633990455
1142.5234663523795
1057.9307432548835
974.5167190554178
892.2303709142659
811.0209079677174
730.8376578692014
651.6299606416252
573.3470702506888
495.9380641816581
419.3517611801383
343.5366472024025
268.4408095098679
194.0118787423158
120.19697871607161
46.94268361452858
-25.80501782584977
-98.10075158045309
-169.99978153680593
-241.55802713475998
-312.83207595946965
-383.87919179479655
-454.75731862209693
-525.5250810199991
-596.2417813761651
-666.9673942674859
-737.7625583044123
-808.6885656640143
-879.8073494619741
-951.1814690328885
-1022.8740931073996
-1094.9489807904965
-1167.4704601640574
-1240.5034042560023
-1314.1132040430225
-1388.3657380842083
-1463.3273383194564
-1539.0647515128142
-1615.6450957778686
-1693.135811591374
-1771.6046066824033
-1851.1193941835288
-1931.7482234446607
-2013.5592029421182
-2096.620414769024
-2180.999820265751
-2266.765156445571
-2353.9838229894617
1295.5689319986914
1209.2908269778034
1124.28738054806
1040.507717158752
957.9014365624548
876.4184776573878
796.0089894131273
716.6232095674613
638.211351642181
560.7235006851492
484.10951800531376
408.31895503114924
333.30097629471913
259.0042914209024
185.37709588925802
112.36702023944918
39.92108730425923
-32.01432301601973
-103.4935019773419
-174.57143379292336
-245.30381161034654
-315.74704827079415
-385.95828244622373
-455.99538072273725
-525.9169361613135
-595.7822638142425
-665.6513936120296
-735.5850609624292
-805.6446953221043
-875.8924069146229
-946.3909716747476
-1017.2038144052885
-1088.3949900356738
-1160.0291627771544
-1232.171582876627
-1304.8880605814359
-1378.244936847062
-1452.3090502443938
-1527.1476994572017
-1602.8286007085137
-1679.4198394132409
-1756.9898153269924
-1835.607180453725
-1915.340768982268
-1996.2595185497316
-2078.432382180734
-2161.9282303237314
-2246.8157425040404
-2333.1632882360227
1275.023781982428
1189.597831928214
1105.4388597319805
1022.497062044512
940.7231028724005
860.0679670149847
780.4828216623123
701.9188868712956
624.3273154806753
547.6590828688089
471.86488680150035
396.89505746541636
322.6994776383659
249.22751281170434
176.42795095599956
104.24895151320894
32.63800310376595
-38.45811063965993
-109.09333775818817
-179.32237785939088
-249.20069592335977
-318.7845307336995
-388.13089862951676
-457.2975932411353
-526.3431818260625
-595.3269987603742
-664.3091366647116
-733.3504355597255
-802.5124703524209
-871.8575368524334
-941.4486364115919
-1011.3494591709167
-1081.6243657882917
-1152.3383674107633
-1223.5571035488533
-1295.346817406708
-1367.7743281273574
-1440.906999324146
-1514.8127031914623
-1589.559779424294
-1665.2169881223429
-1741.8534558194024
-1819.538613761584
-1898.3421275578933
-1978.333817349893
-2059.58356769346
-2142.161226416756
-2226.1364918176987
-2311.578787690606
1253.8199116967967
1169.2711119793487
1085.981195275884
1003.9015320198855
922.9839465888521
843.1805597065114
764.443640205327
686.7254668987641
609.9782011378627
534.1537704512531
459.203763492467
385.0793363493319
311.73113010756424
239.10919940907422
167.162951608482
95.84109601021197
25.09160256423294
-45.13833068429103
-114.90230215999583
-184.25472414706084
-253.25083383345532
-321.94669884053513
-390.39921804787434
-458.6661184833157
-526.805948991252
-594.8780713197907
-662.9426491798349
-731.0606357308316
-799.2937598393615
-867.704511339906
-936.3561254055492
-1005.3125660114044
-1074.6385083469497
-1144.399319907523
-1214.6610398738235
-1285.4903562690492
-1356.9545802732653
-1429.1216169727568
-1502.059931729929
-1575.838511282196
-1650.526818612572
-1726.1947405891492
-1802.9125273417387
-1880.750722336108
-1959.7800821224876
-2040.071484775462
-2121.695826110922
-2204.7239028633376
-2289.226282136308
1231.9619550720663
1148.3147087527686
1065.9178372873143
984.7239943916022
904.6862679867113
825.7580109021436
747.8926822742442
671.0437004246814
595.164307809224
520.2074484292593
446.12565790270975
372.87096620095656
300.3948128755178
228.64797442896622
157.58050333208465
87.14167805341322
17.279963353221078
-52.05701999688745
-120.92251697652199
-189.37065251173254
-257.456439072776
-325.23577864077794
-392.765459981726
-460.10315211882124
-527.30739482541
-594.4375868748594
-661.5539726837294
-728.7176278698265
-795.9904441212067
-863.4351136401382
-931.1151132861103
-999.0946883992042
-1067.4388361418742
-1136.2132880532695
-1205.4844913713594
-1275.3195885428245
-1345.7863942132915
-1416.9533688735478
-1488.8895882292818
-1561.6647072699277
-1635.3489179335745
-1710.0128992057244
-1785.7277584487551
-1862.5649627415228
-1940.5962590151937
-2019.893581804956
-2100.5289475013874
-2182.5743340791373
-2266.1015454132094
1209.4548102055307
1126.7328715514197
1045.2523907566572
964.9674227440782
885.832429616105
807.8020989556087
730.8311743079106
654.8742986686896
579.8858715851791
505.81992025526836
432.629984789158
360.26901758392
288.68929655537266
217.84235178332665
147.67890495371933
78.1488208306835
9.201069866563895
-59.216299043485876
-127.15617672861096
-194.67240394179828
-261.8197747207307
-328.6540340299713
-395.231870768835
-461.61090717164933
-527.8496855453968
-594.0076531893756
-660.1451462254968
-726.3233729354354
-792.6043970573296
-859.0511213435714
-925.7272715225129
-992.697380644447
-1060.026773629933
-1127.7815516755788
-1196.0285760140198
-1264.8354503723137
-1334.270501326754
-1404.4027556177862
-1475.3019133641458
-1547.038316006694
-1619.6829077188947
-1693.307188946338
-1767.9831606838004
-1843.7832580682702
-1920.7802718627065
-1999.0472564287695
-2078.6574228444324
-2159.684015912992
-2242.2001739394304
1186.3036417914147
1104.5300553252014
1023.9886096627738
944.6348878229486
866.4248446244274
789.3146118367433
713.2603171663338
638.2179179490831
564.1430501760528
490.990893227136
418.7160504405209
347.27244540245
276.6132336102102
206.69072895051661
137.4563442393307
68.86054490453424
0.8528147527446066
-66.6183673497568
-133.60554112893925
-200.16227018176772
-266.3431401904642
-332.2037513666927
-397.8007063751056
-463.19159491510254
-528.4349760434865
-593.590359204214
-658.7181847962217
-723.8798049584201
-789.1374650877201
-854.5542864329595
-920.1942499281511
-986.122181244665
-1052.4037368584268
-1119.1053907449837
-1186.2944211357687
-1254.0388965968918
-1322.4076605260911
-1391.4703130094895
-1461.2971888381205
-1531.9593303561987
-1603.5284537033597
-1676.0769069218338
-1749.6776183301718
-1824.4040335203954
-1900.330039318806
-1977.5298730632753
-2056.0780155969355
-2136.049066464074
-2217.5175999173093
1162.513881725184
1081.710916512673
1002.1303887230962
923.7295459027789
846.465962477454
770.297330954434
695.1812688024635
621.0751419351207
547.9359054465167
475.71996196281765
404.3830376942655
333.88007599562206
264.16514798278405
195.19137951418395
126.91089362659574
59.27476733066351
-7.766998484330854
-74.26549740780248
-140.27292558147462
-205.8425809915264
-271.02885549275254
-335.88722105568456
-400.47421167245074
-464.84740227125866
-529.0653858760877
-593.1877501134219
-657.2750540101513
-721.3888058540267
-785.5914427014478
-849.946311920988
-914.5176549585418
-979.3705933025836
-1044.5711164213662
-1110.1860712391228
-1176.2831525154916
-1242.9308932991244
-1310.1986544408312
-1378.156611975549
-1446.8757410216353
-1516.427794698221
-1586.8852764328813
-1658.3214039218535
-1730.8100629185165
-1804.4257489642196
-1879.2434951429366
-1955.3387839404622
-2032.7874413239206
-2111.6655112326557
-2192.0491087892706
1138.0912275712285
1058.280306425318
979.6817524391695
902.2546242826378
825.9582517240294
750.7520120244653
676.5951240658409
603.4464612009258
531.2643834998612
460.0065897451719
389.6299892075863
320.0905929228808
251.34342389566342
183.3424453827766
116.04050616651593
49.38930151904088
-16.660651612849893
-82.16002680425446
-147.16068942168008
-211.71568870445037
-275.8792424039688
-339.70671569427793
-403.2545959988179
-466.5804652751086
-529.7429711664956
-592.8017982719815
-655.8176406041122
-718.8521761080781
-781.9680439010915
-845.2288246704769
-908.6990244399051
-972.4440616807094
-1036.5302575133253
-1101.0248285149376
-1165.995881423373
-1231.5124088100388
-1297.6442845872045
-1364.4622580171222
-1432.0379447071819
-1500.4438129073362
-1569.7531632761534
-1640.0401001519442
-1711.3794922588754
-1783.846920696726
-1857.5186120128285
-1932.4713541364486
-2008.7823929763094
-2086.5293075428576
-2165.789861566172
1113.0416385495082
1034.243261803986
956.6468410492982
880.2134035125702
804.9041794086868
730.6803625984086
657.502891276511
585.3322497522233
514.1282920260643
443.85008750162933
374.45578880453087
305.9025213259291
238.14629377470138
171.14192871132346
104.84301176413445
39.20185799509947
-25.830506309290556
-90.30434828880558
-154.2712215642772
-217.783949705392
-280.89660212051155
-343.66446433382134
-406.14400452948286
-468.39283811866596
-530.469691931011
-592.4343694462261
-654.3477182748439
-716.2716008710477
-778.2688692181836
-840.4033439786261
-902.7397983413683
-965.343946541793
-1028.2824367689218
-1091.6228479193041
-1155.4336894072644
-1219.784402998627
-1284.7453654024805
-1350.3878901367614
-1416.7842269751163
-1484.0075570926426
-1552.131981855432
-1621.2325030466138
-1691.384992193287
-1762.6661465545808
-1835.1534292606598
-1908.9249910539072
-1984.0595710842085
-2060.6363742552016
-2138.7349227126183
1087.3713286603595
1009.6049921367261
933.0298929562287
857.6091959078975
783.3061866907454
710.0840158258042
637.9054651672701
566.7327381620423
496.527274597749
427.2495901608692
358.8591407080447
291.3142107482295
224.57182525287405
158.58768356022995
93.31611383056888
28.71004624802095
-35.278997046226564
-98.70089746175408
-161.60692317927914
-224.0497023998883
-286.0831889307211
-347.76262235635375
-409.1444849387992
-470.28645724147543
-531.2473742909224
-592.0871838744716
-652.8669083343386
-713.6486109594837
-774.4953678043055
-835.4712454806153
-896.6412851812574
-958.0714929044993
-1019.8288355605582
-1081.9812423574895
-1144.5976105872828
-1207.747814665524
-1271.5027170192122
-1335.9341791747047
-1401.11507116447
-1467.1192771578494
-1534.021695023675
-1601.8982273558247
-1670.8257613401183
-1740.8821347120684
-1812.146084960276
-1884.6971788670055
-1958.6157194557977
-2033.9826274397055
-2110.8792943374
1061.0867565264195
984.3708632816102
908.8352231491823
834.4453198586821
761.1666601780067
688.9644999732776
617.8035957477194
547.647982911688
478.4607815667944
410.2040301061701
342.83854645211466
276.32381628975963
210.61790721800224
145.6774073424681
81.45738648458807
17.911377887571504
-45.00862193211999
-107.35213771042751
-169.17018696446277
-230.51524119090874
-291.44117937945225
-352.00323641066086
-412.25794877588055
-472.2630998814163
-532.0776669846041
-591.7617715602998
-651.3766346221003
-710.984538227838
-770.6487940909747
-830.4337199011181
-890.4046236363498
-950.6277958272177
-1011.170509414455
-1072.1010265294728
-1133.488611221081
-1195.4035468582742
-1257.9171566545972
-1321.101825489864
-1385.0310209475913
-1449.7793112467623
-1515.4223775236
-1582.03701771544
-1649.7011391189003
-1718.4937365388687
-1788.4948528216835
-1859.7855184734083
-1932.4476670165798
-2006.5640227350132
-2082.217957504711
1034.1946114865816
958.5463768884881
884.0671970850394
810.7250693844423
738.4878984263669
667.3232031694083
597.1978525933549
528.0778314906132
459.92803717986703
392.71210742089704
326.39227925619673
260.9292779730146
196.2822348790009
132.4086321328704
69.26427247493216
6.803271373578112
-55.0219311534204
-116.26054196775007
-176.96337252147194
-237.1827859156883
-296.97263633519776
-356.3882037878318
-415.48612691653125
-474.32433644188717
-532.9619915402044
-591.4594211735064
-649.8780720725856
-708.2804647389419
-766.730158483008
-825.29172615976
-884.0307389051234
-943.0137608197258
-1002.3083531955708
-1061.9830875378318
-1122.1075662996757
-1182.7524499261467
-1243.9894884923929
-1305.8915559252212
-1368.5326845139264
-1431.9880971486323
-1496.3342344756154
-1561.648773925444
-1628.0106373615072
-1695.4999839101388
-1764.1981843774474
-1834.1877735342762
-1905.552376469486
-1978.3766051758198
-2052.7459215499766
1006.7017954282763
932.1371450573686
858.7301994316581
786.4516783195219
715.2720729920131
645.1613327825407
576.0885840066576
508.02188276085724
440.9280024931863
374.772256595807
309.5183556323868
245.1282981987154
181.5622938411769
118.77871594262699
56.73408203545256
-4.616941366572545
-65.32151260907818
-125.42857079993954
-184.9887772715302
-244.05444612176265
-302.67946729646127
-360.91922554507937
-418.8305183865298
-476.47147596936816
-533.9014854133733
-591.1811218846108
-648.3720882938139
-705.5371651269741
-762.7401715230739
-820.0459383163192
-877.5202933622628
-935.2300590739499
-993.2430617088878
-1051.6281515719713
-1110.4552329367903
-1169.7953021370215
-1229.7204919416954
-1290.3041200057305
-1351.6207388772393
-1413.7461847476504
-1476.7576218533468
-1540.7335791741868
-1605.7539758335408
-1671.9001313844574
-1739.2547569740389
-1807.9019232188134
-1877.9270005017163
-1949.4165673277444
-2022.458282354661
978.6153997899833
905.1488596074734
832.8285970067743
761.6282784415064
691.5211833495537
622.4798687693551
554.4758704347223
487.4794420384076
421.45933362681956
356.3826093415403
292.2145039846124
228.9183171748022
166.45534320201833
104.78483409858062
43.86399293626421
-16.352006054185267
-75.90997425508277
-134.8586462507168
-193.24860226401273
-251.13217947739457
-308.5633761915624
-365.5977526073975
-422.29233177695056
-478.7055039680331
-534.8969373361376
-590.9274974088928
-646.8591774722628
-702.7550415145745
-758.6791809406875
-814.6966858252906
-870.8736310332644
-927.2770771028247
-983.9750853669873
-1041.036746380065
-1098.5322203238582
-1156.5327876897377
-1215.1109081682446
-1274.3402853284122
-1334.295934333054
-1395.054249613507
-1456.6930691189434
-1519.2917314619053
-1582.9311220060108
-1647.6937036845193
-1713.6635281061244
-1780.9262223026565
-1849.5689463062456
-1919.6803166230993
-1991.3502906042727
949.9426771048122
877.5872552594687
806.3666951668674
736.2578507724527
667.2370049069923
599.2795102530185
532.3594714578221
466.4494702862527
401.52033485535867
337.5409531242151
274.47812995189923
212.2964862140792
150.95839770978353
90.42397091411118
30.65105205678794
-28.40473445489676
-86.78992259124132
-144.55312077723937
-201.744912134542
-258.4177435146004
-314.62580783152043
-370.4249239874851
-425.87241839077683
-481.02701170579996
-535.9487140603
-590.698731484583
-645.3393858794075
-699.934050317019
-754.5471009815951
-809.2438865612573
-864.0907154171523
-919.154860381983
-974.5045805841916
-1030.2091592533664
-1086.3389560393857
-1142.9654719739895
-1200.161424813259
-1258.0008321231353
-1316.5590991098345
-1375.9131078460512
-1436.1413042053514
-1497.3237784910261
-1559.5423354339105
-1622.880548935522
-1687.4237966564845
-1753.2592693007914
-1820.4759492272901
-1889.1645528445622
-1959.417431122663
920.6910063880971
849.4580659525418
779.348686809559
710.343169187176
642.4210292536322
575.5606145008303
509.7387655837345
444.93052674887235
381.1089059852108
318.2446850157577
256.3062782441863
195.25963881459654
135.0682090675153
75.69291189983998
17.092178884776903
-40.777989507517546
-97.96393661908097
-154.51424050285857
-210.47958835674737
-265.9126397917954
-320.8678840688952
-375.40149616495927
-429.5711961705406
-483.43611608845856
-537.0566776146202
-590.4944839594813
-643.8122282187237
-697.0736202435094
-750.3433334022442
-803.6869720757229
-857.1710601936793
-910.8630506047452
-964.8313545794616
-1019.1453902737833
-1073.8756485291672
-1129.0937739569506
-1184.8726588401644
-1241.2865469862384
-1298.4111442798862
-1356.323732306642
-1415.1032810502422
-1474.8305563078138
-1535.5882171149353
-1597.4608981328604
-1660.535271624606
-1724.9000833429102
-1790.6461563755727
-1857.8663567540937
-1926.6555144424508
890.867851594546
820.7669734246476
751.7785930493835
683.8867353535547
617.0743956685136
551.3231273700906
486.61268199465144
422.9207042871964
360.22248341991235
298.49076042618753
237.69559072100537
177.80425946533614
118.78124651904963
60.58823683948807
3.184171442902951
-53.474666526299444
-109.43453647533278
-164.74410188105014
-219.45427479959818
-273.6180494330881
-327.2903305927499
-380.5277625542506
-433.3885633589302
-485.93236909646316
-538.2200921294954
-590.3137966115971
-642.2765940197103
-694.1725607888343
-746.0666795117133
-798.0248045566844
-850.1136523725731
-902.4008161906286
-954.9548043054638
-1007.8451006134528
-1061.1422456122682
-1114.917935613794
-1169.2451374860893
-1224.1982158219016
-1279.8530690236582
-1336.287270391357
-1393.5802099041846
-1451.8132319935967
-1511.0697642129144
-1571.4354313242031
-1632.9981489433926
-1695.8481905207068
-1760.078221090084
-1825.7832909076053
-1893.0607818321769
860.480712281921
791.5195470767253
723.6601945068048
656.8907039043847
591.1978127923603
526.5665041745957
462.97962329314964
400.4175565947164
338.85797426293794
278.27563626368885
218.64226047324195
159.92645016119693
102.09367692471054
45.10631415283821
-11.076284736536088
-66.49766968026064
-121.20414579741151
-175.24460071121536
-228.67031444838062
-281.5347588534436
-333.8933931524704
-385.80346186719527
-437.3238007379921
-488.5146556920972
-539.4375192164589
-590.1549877839996
-640.7306432605317
-691.228960502225
-741.7152426539162
-792.2555849871405
-842.9168674789757
-893.7667757316813
-944.8738492707922
-996.307555728102
-1048.1383889213528
-1100.437988370958
-1153.279277342186
-1206.7366160675112
-1260.8859663757194
-1315.8050635305817
-1371.5735906590194
-1428.2733507213763
-1485.9884305438995
-1544.8053510006018
-1604.813196993538
-1666.1037204512718
-1728.7714091458697
-1792.9135137323547
-1858.6300250564757
829.537065517561
761.7211740186932
694.9969520111447
629.3567965936992
564.7914692224222
501.28961979186465
438.8373781807901
377.4180163898748
317.01168275459787
257.5952080507755
199.14198168793308
141.6218946683864
85.00134462631729
29.24329709161863
-25.692603819191927
-79.84988278610261
-133.27504669829577
-186.01737226355087
-238.1286759667979
-289.66307430772224
-340.6767418463687
-391.22767403833154
-441.3754611770772
-491.1810790136318
-540.706700824801
-590.0155348745025
-639.1716903853982
-688.2400743274716
-737.2863205493879
-786.3767520411193
-835.5783764244605
-884.9589141259305
-934.5868580925323
-984.5315633580187
-1034.8633642568516
-1085.6537165974107
-1136.9753616465118
-1188.9025083316947
-1241.5110296250837
-1294.8786686329431
-1349.0852494664855
-1404.2128875104925
-1460.3461932333607
-1517.5724631973687
-1575.9818514290305
-1635.6675138070118
-1696.7257176218582
-1759.2559079711596
-1823.360722189552
798.0442979460393
731.3769780497402
665.7919153549826
601.2862040204044
537.8549316229424
475.49066667924313
414.1830228759559
353.91830358575487
294.67922828498183
236.44474051469155
179.1898951122852
122.88582066097975
67.49975152166219
12.995122469586645
-40.66828210551542
-93.53413324750342
-145.64932601367246
-197.06372105327688
-247.82986856664928
-298.0027237034723
-347.6393619329966
-396.79870222849553
-445.5412450960595
-493.92883158037944
-542.0244284356393
-589.8919436896391
-637.5960758806975
-685.2021993322494
-732.7762869628125
-780.3848713211494
-828.0950437918938
-875.9744912361815
-924.0915687111843
-972.51540634551
-1021.3160479263654
-1070.5646182658002
-1120.3335159519115
-1170.696627640727
-1221.7295595959108
-1273.5098817314379
-1326.1173789429008
-1379.6343040242862
-1434.1456259548836
-1489.7392668020834
-1546.5063199219921
-1604.5412415581472
-1663.9420073427666
-1724.8102246083838
-1787.2511908332935
766.0096267997347
700.4917261555777
636.0476185467345
572.6794733025104
510.3870287497667
449.167039292455
389.01280993346853
329.9138223352285
271.8554541712198
214.81879116942082
158.7805289860784
103.71295995560334
49.58403792238214
-3.642487178060155
-56.00687451848915
-107.55314772705381
-158.3288112269698
-208.38453854781068
-257.7738434053741
-306.5527438907207
-354.77942942318293
-402.513939254735
-449.8178603188044
-496.7540511392761
-543.3863973992866
-589.7796036544528
-635.9990245899747
-682.1105381907189
-728.1804622338118
-774.275514633093
-820.4628173696362
-866.8099430281181
-913.3850023194615
-960.2567703973723
-1007.4948492553657
-1055.1698630101473
-1103.3536824230143
-1152.1196745663358
-1201.5429730965775
-1251.7007641368698
-1302.672582288267
-1354.5406107732824
-1407.3899791644976
-1461.309051557956
-1516.3896974181894
-1572.7275366550953
-1630.4221497946514
-1689.5772433910447
-1750.3007601083302
733.4400084736095
669.0697209060208
605.7659597835217
543.5363798518715
482.3857195621346
422.3152031983817
363.3220429668204
305.3990457396554
248.53432633699325
192.7111264207761
137.90773539097012
84.09750721349933
31.248964967116436
-20.674016866380075
-71.7119636845288
-121.90949783660268
-171.31499416944877
-219.98020678641274
-267.95987944416106
-315.3113513816958
-362.0941694857637
-408.3697166106435
-454.2008646534467
-499.65165969215354
-544.7870451766951
-589.672627868793
-634.3744899872246
-678.9590498581331
-723.492972312453
-768.0431291206893
-812.6766089132032
-857.4607752944034
-902.4633712117618
-947.7526670731888
-993.3976495995923
-1039.4682479387156
-1086.035593132879
-1133.1723066059658
-1180.9528129028183
-1229.4536714581072
-1278.7539216803539
-1328.9354350999038
-1380.083267741279
-1432.2860052331998
-1485.63609246558
-1540.2301388439284
-1596.1691893826887
-1653.5589510341308
-1712.5099627778359
700.3420330944737
637.1146768978758
574.9480640984639
513.855781122121
453.84794332932563
394.93054694022874
337.10493558963043
280.36738688857906
224.70882098582373
170.11462976007124
116.56462207931327
64.03307766629005
12.488899614583955
-38.10414641825897
-87.78711980704283
-136.60553376659362
-184.6089402219163
-231.85048553230513
-278.3864513648939
-324.27579415580203
-369.57969544881064
-414.3611340432216
-458.6844893944753
-502.6151841582739
-546.2193722167806
-589.5636770243193
-632.7149836982212
-675.7402869863417
-718.7065960836637
-761.6808962496432
-804.7301662962773
-847.9214502631036
-891.32198095433
-934.9993524672813
-979.0217383645262
-1023.4581517196377
-1068.3787428681849
-1113.8551303007143
-1159.9607597287045
-1206.7712859112617
-1254.3649713404632
-1302.823095330195
-1352.2303664312394
-1402.6753303956539
-1454.250765134269
-1507.054053254985
-1561.1875218423866
-1616.7587381493033
-1673.8807488321847
666.7218032893172
604.6295791054424
543.5941263185002
483.6354498747144
424.76944932870794
367.0072144432912
310.35445268557265
254.81105477187563
200.3708003252915
147.02120167297613
94.74348000115546
43.51266466706934
-6.702196437652916
-55.93772988177625
-104.23584910984896
-151.64330333264502
-198.21118030223957
-243.99438015346897
-289.0510767556489
-333.44218186560244
-377.2308258986321
-420.48186743975424
-463.2614417990832
-505.63655705443443
-547.6747441961385
-589.443766252255
-631.011389669636
-672.4452197845937
-713.812600955622
-755.1805808472855
-796.6159374448191
-838.1852666276702
-879.9551275135491
-921.9922422804359
-964.3637467496387
-1007.1374876468069
-1050.3823621150304
-1094.1686947099947
-1138.5686467415576
-1183.656652410063
-1229.5098757068051
-1276.2086814871027
-1323.8371134723177
-1372.4833711870515
-1422.2402769809528
-1473.2057233269677
-1525.4830895333325
-1579.1816158586494
-1634.4167217991444
632.5847950841556
571.6165206590474
511.7032315880501
452.8718841183171
395.1446033646598
338.5379154371792
283.062131884056
228.72089347294633
175.51087537974362
123.4216509892005
72.43570696271937
22.52859818822929
-26.33077215504803
-74.17976480615629
-121.06152810934431
-167.02445338183094
-212.1215823941252
-256.409986929085
-299.9501393254761
-342.8052913769999
-385.04087707263943
-426.72395255476897
-467.92268445265825
-508.7058955223576
-549.1426743748015
-589.3020540705007
-629.2527625457656
-669.063046240716
-708.8005669372809
-748.53237068094
-788.324926740593
-828.2442338328008
-868.3559902696334
-908.7258242522889
-949.4195801877479
-990.5036566179878
-1032.0453910896704
-1074.113487018855
-1116.778477296648
-1160.1132190095154
-1204.193413191123
-1249.0981429634626
-1294.9104227483092
-1341.7177504311653
-1389.6126534261725
-1438.6932185264932
-1489.0635942334975
-1540.8344529424223
-1594.1233989420898
597.935698535559
538.0765171603794
479.27315025422183
421.560090409507
364.96616790341216
309.5137110050109
255.21788285577827
202.08620291471317
150.11825493331176
99.30557754888767
49.63172813930655
1.0725058016174511
-46.40368461720446
-92.83534848259302
-138.26732033851297
-182.75010985211404
-226.33919874155254
-269.09431189399925
-311.0786843924843
-352.35834414506047
-393.00142740871183
-433.07754187921597
-472.65718931585786
-511.8112570107468
-550.6105848928387
-589.1256127532391
-627.4261100371673
-665.5809888974484
-703.6581997501314
-741.724707405185
-779.8465449402088
-818.0889418089338
-856.5165221912899
-895.193569253069
-934.1843507483163
-973.5535012201108
-1013.3664559002668
-1053.689931230423
-1094.592446696671
-1136.144882358808
-1178.4210660341803
-1221.4983835487753
-1265.4584047751423
-1310.387517331075
-1356.3775588036967
-1403.5264371889325
-1451.9387279011594
-1501.7262342148756
-1553.0084963618965
562.7782352990969
504.0092941461294
446.3001033557739
389.69333664338757
334.22505210419934
279.9237709461702
226.80976174854916
174.8945392963544
124.18057968615
74.66124628043649
26.32091455351303
-20.864721787414013
-66.9281855934974
-111.9096175205182
-155.85607136610622
-198.8207319954601
-240.8620840837197
-282.0430586489563
-322.43018229703847
-362.09275144715394
-401.1020507581766
-439.53063172695
-477.4516641462355
-514.938369941694
-552.063545963571
-588.8991796714366
-625.5161593692077
-661.9840787431335
-698.3711339262384
-734.7441101384711
-771.16845409401
-807.7084277819549
-844.4273388624397
-881.3878427190292
-918.6523111212686
-956.2832624202044
-994.3438481805125
-1032.898391098879
-1072.0129689304108
-1111.7560389136816
-1152.1990968153737
-1193.4173641916095
-1235.4904967622012
-1278.5033059056366
-1322.5464841985474
-1367.7173246355708
-1414.1204216810095
-1461.8683406216583
-1511.0822398203475
527.1149498499628
469.4130437011677
412.77849428552304
357.26286978885355
302.91002741424944
249.7550991469371
197.82371775802957
147.1314932322955
97.6837407987305
49.4754530953591
2.491501144188616
-43.29295789096638
-87.91189349324908
-131.40766621537745
-173.8301770010661
-215.23593533175952
-255.68707941645437
-295.25037976852957
-333.9962547197113
-371.99782296777784
-409.33001439814694
-446.0687564010526
-482.2902489290491
-518.0703377757828
-553.4839921317467
-588.6048894721182
-623.5051083025144
-658.2549272428557
-692.922727352906
-727.574993459667
-762.276409482095
-797.0900423027293
-832.0776085404023
-867.2998185649575
-902.816792198814
-938.6885407055402
-974.9755098208532
-1011.739178680975
-1049.0427095046432
-1086.9516427548908
-1125.5346322063642
-1164.8642138557323
-1205.0176019130831
-1246.0775041870213
-1288.1329480179973
-1331.2801065127496
-1375.6231131941167
-1421.2748512992025
-1468.357701847015
490.9469704717904
434.28414547745257
378.70060137579435
324.2575932085922
271.0074036651705
218.99222257804473
168.2433084668267
118.78044349851518
70.61168216479341
23.73338344104065
-21.86949326678188
-66.2228560255476
-109.36274589889231
-151.33443802981722
-192.19141840778167
-231.9942767658576
-270.80955471593336
-308.70858551914193
-345.7663581271842
-382.06043365734865
-417.6699376025051
-452.67464612180254
-487.1541799564925
-521.1873150617848
-554.8514150809965
-588.2219873999411
-621.3723617452072
-654.373488127861
-687.2938493533786
-720.1994822581656
-753.1541012207334
-786.2193172511704
-819.4549459958164
-852.9193982265532
-886.6701467308071
-920.7642639071657
-955.2590247419223
-990.2125701286388
-1025.6846256525969
-1061.7372709557726
-1098.4357545850714
-1135.8493487873666
-1174.0522380263324
-1213.1244340399683
-1253.152709027934
-1294.231537042671
-1336.4640318601892
-1379.9628675206764
-1424.8511653642813
454.273735390802
398.6168464584779
344.0562251545779
290.6636972166373
238.500659735946
187.61683887075208
138.0493801932933
89.82228421963902
42.94618602204446
-2.5815350478141914
-46.77634090581966
-89.66585034686383
-131.28892657958724
-171.69458310517064
-210.94075643773195
-249.09299394022986
-286.2231028260686
-322.40780254165514
-357.72741772658094
-392.2646431818157
-426.1034061686477
-459.3278452723332
-492.02141928831486
-524.2661543460885
-556.1420329277432
-587.7265246469696
-619.094255654466
-650.3168113009772
-681.4626651647486
-712.5972266456558
-743.7829989450537
-775.0798392831126
-806.5453135430266
-838.2351380746691
-870.203702041848
-902.5046643730757
-935.1916200034284
-968.3188306088362
-1001.9420153818144
-1036.1191975386168
-1070.9116021425014
-1106.384600450801
-1142.6086953252686
-1179.660541266005
-1217.6239913299462
-1256.5911615675163
-1296.6635016508844
-1337.9528580724793
-1380.5825136667463
417.0926785154979
362.40289267502976
308.8322827874666
256.46423532491724
205.3700218033518
155.60741664703363
107.21970916977521
60.23512331723322
14.666641923091307
-29.487783537007132
-72.24467049421932
-113.6341340837723
-153.69875923287765
-192.49227298117597
-230.07807575618045
-266.5276892728293
-301.9191752687751
-336.33557395149717
-369.86340438674245
-402.59126165715463
-434.60853797528
-466.00428748274805
-496.8662475508452
-527.2800232635665
-557.328436567685
-587.0910373838813
-616.6437707879429
-646.058792134284
-675.4044206108222
-704.7452210620497
-734.1422038610848
-763.6531330152302
-793.3329334200414
-823.2341891090349
-853.4077253714493
-883.9032686313494
-914.770178914828
-946.0582505111473
-977.8185770020186
-1010.1044771441843
-1042.9724781114223
-1076.4833523023767
-1110.7032032807494
-1145.7045954188038
-1181.5677204511455
-1218.381592405955
-1256.245260259009
-1295.2690251498793
-1335.575646106716
379.39886809992663
325.6311046717254
273.0123407022187
221.6386371644272
171.5919809481465
122.93874188034236
75.72859892957712
29.993950120235535
-14.250200296438027
-57.00590324167551
-98.29151728128674
-138.14060785096115
-176.6005581269289
-213.73096155399088
-249.6018672469745
-284.2919471980737
-317.8866490612329
-350.4763909574027
-382.15484599595925
-413.017354751443
-443.1594944042874
-472.6758241734605
-501.658818433582
-530.1979917861746
-558.3792144931317
-586.2842121213049
-613.9902399506748
-641.5699205616585
-669.0912318947593
-696.6176328003319
-724.2083134896106
-751.9185591889119
-779.8002165243549
-807.9022535768011
-836.2714060208671
-864.9529031909011
-893.9912692081131
-923.4311953854858
-953.3184809479455
-983.7010396104142
-1014.6299697192921
-1046.1606854544873
-1078.3541059857337
-1111.2778984709164
-1145.0077693598273
-1179.6287966154441
-1215.2367931838098
-1251.939689325851
-1289.8589182629191
341.1845902199593
288.28688677062223
236.57607451269212
186.16214727228754
137.1387403824693
89.58140252706909
43.54642884029578
-0.9297297401752846
-43.83049202396995
-85.15864204897606
-124.93534971332454
-163.1987873251078
-200.00242321100666
-235.41307865458248
-269.50883464505733
-302.3768708461696
-334.1113116977307
-364.811144601755
-394.57826369479704
-423.5156806785732
-451.7259323514404
-479.3097034770876
-506.364673888299
-532.9845905313524
-559.2585586341152
-585.2705413240167
-611.0990537335779
-636.8170357393348
-662.4918867788665
-688.1856464519537
-713.9553056060009
-739.8532341213431
-765.9277134516356
-792.2235639677982
-818.7828591611808
-845.6457206628284
-872.8511897364731
-900.438172330073
-928.4464558694053
-956.9177967004587
-985.8970774069556
-1015.4335331211355
-1045.5820453883305
-1076.4045011342848
-1107.9712128012288
-1140.3623937603895
-1173.6696806706977
-1207.997691524494
-1243.4656046965988
302.43886715647517
250.3516579828896
199.49864302055738
150.00517673210183
101.97758075701194
55.50120247948781
10.63914830472023
-32.568293595771905
-74.10355904551533
-113.971089592631
-152.19606214233707
-188.82265670574643
-223.9119639937713
-257.5396393715248
-289.79340829442265
-320.7705217140402
-350.57524926331155
-379.3164846019532
-407.1055223955468
-434.05405116753326
-460.27239165453915
-485.8679970380241
-510.9442200084909
-535.5993423075282
-559.9258552637292
-584.0099748146574
-607.931371403555
-631.7630936973677
-655.5716650022042
-679.4173322517984
-703.3544492244695
-727.4319779446689
-751.6940948142403
-776.1808907036441
-800.9291568606274
-825.9732509328239
-851.3460395611319
-877.079915808487
-903.2078910899786
-929.7647622286709
-956.7883547501856
-984.3208435276979
-1012.4101513835586
-1041.1114252387463
-1070.4885878636783
-1100.6159612218817
-1131.579954804399
-1163.4808092195701
-1196.4343816217715
263.1468985130626
211.80218965902702
161.7499601565432
113.13255194141776
66.07012983441533
20.65849453937624
-23.032289191961457
-64.95843586344743
-105.1021817790112
-143.47079112118033
-180.0949195213608
-215.02645046496704
-248.33593239409356
-280.10974824455343
-310.4471452720961
-339.45724275779804
-367.25612019197007
-393.96407056032854
-419.70308404578964
-444.5946082603908
-468.7576131863979
-492.30697315805907
-515.3521649722404
-537.996270795806
-560.3352669315976
-582.457574525351
-604.4438456353746
-626.3669573705861
-648.2921876331238
-670.2775479893021
-692.374251978546
-714.6273004396605
-737.0761689224955
-759.7555857475514
-782.696392608626
-805.9264826567107
-829.4718136661504
-853.3574961008741
-877.6089576234613
-902.253186793045
-927.3200593633369
-952.8437507012
-978.864237395569
-1005.4288901085213
-1032.5941581310933
-1060.4273439428716
-1089.008463328112
-1118.4321832719738
-1148.8098259321387
223.2894100196373
172.6098314799843
123.29384506759601
75.50264142794995
29.37152020543936
-14.992579404499322
-57.5125582062152
-98.14163651785093
-136.86287541642946
-173.68782682761153
-208.6544355179036
-241.82434088708112
-273.27973964961365
-303.1199725686999
-331.457990763575
-358.41684173980684
-384.12629448793615
-408.7196990814001
-432.33115131986494
-455.09300890151076
-477.13378373726687
-498.576416257283
-519.5369224001684
-540.1233925502512
-560.4353138445076
-580.5631826583433
-600.5883722246263
-620.5832207141104
-640.6113071805368
-660.7278860529873
-680.9804549047609
-701.409434675487
-722.0489460711125
-742.9276702873738
-764.0697863245414
-785.4959808635905
-807.2245298735993
-829.272453764803
-851.6567499607875
-874.3957082149523
-897.5103148374551
-921.0257522193534
-944.9729996421347
-969.3905403408057
-994.3261781479059
-1019.8389647817689
-1046.0012359495145
-1072.9007509165363
-1100.6429260316925
182.84189130862285
132.73960296385445
84.08702595558812
37.066337484197874
-8.170584410049038
-51.504954483252064
-92.85266558632557
-132.16466154118666
-169.42615928145335
-204.65483837942287
-237.89815957951652
-269.2300025126967
-298.74682597880746
-326.5635531010253
-352.8093704309362
-377.62360758143404
-401.1518353553791
-423.54228870859424
-444.9426889872068
-465.49750991161216
-485.34570533264423
-504.6188948307305
-523.4399861758179
-541.922201482962
-560.1684662116711
-578.2711163841923
-596.3118788426127
-614.3620813020979
-632.4830527008118
-650.7266792796006
-669.1360874231095
-687.746430142968
-706.5857598540113
-725.6759755544103
-745.033837504586
-764.6720468999401
-784.6003917897408
-804.8269635720781
-825.3594507837341
-846.2065185986739
-867.3792834583
-888.892892582079
-910.7682177564038
-933.0336717752831
-955.7271542126887
-978.8981308437621
-1002.6098479959462
-1026.9416794105557
-1051.9915988121338
141.7736992555946
92.14912201214699
44.07796745719955
-2.234135767607709
-46.61711749118633
-88.93963051645098
-129.1107323077972
-167.08009015195793
-202.8367997748693
-236.40697778043548
-267.85034078615513
-297.25601645952196
-324.7378437440001
-350.4294132651872
-374.47907750507386
-397.04512793374
-418.2912972451544
-438.38270325139194
-457.48231033790375
-475.74794733924125
-493.3298890443622
-510.36898323149865
-526.9952863947647
-543.3271588430175
-559.4707629307613
-575.519905914966
-591.5561703327501
-607.6492788965659
-623.8576468286865
-640.2290815594415
-656.8015971857635
-673.6043185669912
-690.6584570847652
-707.9783466881979
-725.5725347400829
-743.4449272966497
-761.595992763758
-780.0240313704455
-798.7265205994411
-817.7015486345326
-836.9493490471729
-856.4739503627567
-876.2849538378211
-896.3994517466247
-916.8440967270117
-937.6573302740649
-958.8917752953951
-980.6167937633816
-1002.9212059087857
100.0469974266515
50.78733477056737
3.2054839686207615
-42.466622691672164
-86.03892037175285
-127.36679834980107
-166.35285716085187
-202.94685941092484
-237.14400442780197
-268.9817448371985
-298.535426275003
-325.913067227632
-351.249605011319
-374.700919307243
-396.4379114087743
-416.6408712699364
-435.4943115280627
-453.18239329646445
-469.8850170668311
-485.7746066847853
-501.0135769742136
-515.7524469821076
-530.1285408846035
-544.2652065796487
-558.2714767349805
-572.2420972165364
-586.257852033927
-600.3861209480355
-614.6816145999435
-629.187241559782
-643.9350713759488
-658.9473670418969
-674.2376689603756
-689.8119202766704
-705.6696302735677
-721.8050783385413
-738.2085658441157
-754.8677271613108
-771.7689139971915
-788.8986693615059
-806.2453087580086
-823.8006266921099
-841.5617463086504
-859.5331289289993
-877.7287584529622
-896.1745130296945
-914.910733090973
-933.9949907848363
-953.5050610573842
57.61549433901294
8.593001728237725
-38.60290810450047
-83.71068766399945
-126.51826824683648
-166.86712369541604
-204.65406427059136
-239.8308106166101
-272.4015350826995
-302.4186676271063
-329.97733891425435
-355.2088714336369
-378.2737322571035
-399.3543335835124
-418.64801689761293
-436.3604917203626
-452.6999286681603
-467.8718358941478
-482.07478337400573
-495.49698453753564
-508.31370132149357
-520.6854072493643
-532.7566229405899
-544.6553280943389
-556.492851674614
-568.3641458261997
-580.3483571553686
-592.5096198180062
-604.8980070537475
-617.5505903808995
-630.4925678899048
-643.7384344601368
-657.2931769881411
-671.1534867187876
-685.3089884835
-699.7434931074831
-714.4362845276763
-729.3634573529334
-744.4993237828533
-759.8179110623313
-775.2945720357068
-790.9077319206316
-806.640794167808
-822.4842272138565
-838.4378520788448
-854.5133481010215
-870.7369906501905
-887.1526304286452
-903.8249189761176
14.42293302380613
-34.507117159290694
-81.43295827554657
-126.05957066428206
-168.150650824479
-207.53320867312073
-244.0993324515259
-277.8052128701416
-308.6676950592646
-336.75876444741164
-362.19846182112406
-385.14676125477285
-405.79493610046495
-424.3568911187693
-441.0608641200844
-456.1418099627557
-469.8346844031655
-482.3687541754597
-493.96297934110305
-504.82244833161906
-515.1357967925853
-525.0735080200345
-534.7869738496095
-544.4081879272342
-554.049945666849
-563.8064342409907
-573.7541092809086
-583.9527706133929
-594.4467657969852
-605.2662663350727
-616.4285765008161
-627.9394482763563
-639.7943877879306
-651.9799487735248
-664.4750171210812
-677.25209749339
-690.2786186667361
-703.5182786068763
-716.9324536213426
-730.4816982733436
-744.1273641894686
-757.8333664919719
-771.5681263542829
-785.3067171124417
-799.0332394643183
-812.7434485377381
-826.4476520141733
-840.1738940748555
-853.9714347248325
-29.598729032346775
-78.60045139533491
-125.38604476437226
-169.62251235751972
-211.04685420468863
-249.4712518212403
-284.7846978243448
-316.95122606532726
-346.005126931391
-372.043704386733
-395.21823509418994
-415.723824361971
-433.78882590771053
-449.66441572437515
-463.61480096402056
-475.908419336655
-486.8103578029147
-496.5761028171937
-505.44663571200135
-513.6448099485685
-521.3728926825154
-528.8111198505324
-536.1170987457181
-543.4258910701558
-550.8506188778581
-558.4834521071228
-566.3968565480832
-574.6450027484975
-583.2652578134046
-592.2797021637097
-601.6966314151566
-611.5120193115613
-621.7109310477323
-632.2688874611204
-643.153189670701
-654.3242210483304
-665.7367491774278
-677.3412549135386
-689.0853189988492
-700.9150990439374
-712.7769311590444
-724.619091147274
-736.3937499712247
-748.059157152953
-759.5820838416789
-770.9405544542842
-782.1268920541088
-793.1510980040827
-804.0445809652539
-74.53152821956444
-123.79127684330035
-170.58202700704578
-214.5275298469952
-255.33539887387866
-292.8029263984431
-326.81841059743806
-357.35824655516944
-384.48033228806116
-408.31455506810676
-429.05124128187447
-446.92847581655553
-462.2191375307439
-475.21837647640893
-486.2321001987118
-495.56686391867714
-503.5213922911528
-510.3798129889858
-516.4065631143883
-521.8428416939017
-526.9044244777616
-531.7806273413672
-536.6341966582748
-541.6019134806415
-546.795717888368
-552.304185852727
-558.1942197405896
-564.5128424748768
-571.2890125625264
-578.5354016396136
-586.2500973684372
-594.4182123618041
-603.0133944868347
-611.9992457385509
-621.3306662704034
-630.9551475291115
-640.8140441344376
-650.8438584840244
-660.9775752940321
-671.1460855829432
-681.2797410650837
-691.3100805868607
-701.1717700990139
-710.8047966654613
-720.156955102197
-729.1866629595797
-737.8661356789216
-746.1849488832803
-754.1540089790199
-120.47419368777533
-170.203962164468
-217.16270904916848
-260.9247440433015
-301.16539786922465
-337.6674931556355
-370.32211039375755
-399.12405127643603
-424.16278986591476
-445.60996783492993
-463.704618803958
-478.7373047470761
-491.0342370862073
-500.9422687490843
-508.81541634299697
-515.0033360393405
-519.841958392541
-523.6463032572606
-526.7053548998476
-529.2787808738757
-531.5952226134085
-533.8518642235119
-536.2149905274919
-538.821268016201
-541.7795157992547
-545.172772215764
-549.0605021384249
-553.4808273041755
-558.4526955027543
-563.9779333293612
-570.0431512906596
-576.6214895967573
-583.6742084774528
-591.1521389337812
-598.9970191034753
-607.1427484621654
-615.5165974001266
-624.0404137132541
-632.6318705235993
-641.2058022980162
-649.6756770656448
-657.9552536681587
-665.9604728622096
-673.6116302394653
-680.8358771190717
-687.5700926910317
-693.7641666765816
-699.3847266194548
-704.4193377193922
-167.54547080305815
-217.98696325247005
-265.2960694416827
-308.9903843459562
-348.70990874966526
-384.224155506188
-415.43195889931434
-442.3546164469182
-465.12349996761145
-483.963599484955
-499.17459455746825
-511.1109985764555
-520.1627306971975
-526.7371874139658
-531.2435627238207
-534.0798468482562
-535.6226513749227
-536.2197829742089
-536.1853258941934
-535.7968931097873
-535.2946589350672
-534.8817806012704
-534.7258405929898
-534.9609842759459
-535.6904793404769
-536.9894779022211
-538.907814015735
-541.4727160180144
-544.6913531452375
-548.5531689225361
-553.0319802698759
-558.0878418447849
-563.6686907812116
-569.7117986395483
-576.1450659521162
-582.8882010065918
-589.8538290947336
-596.9485818580673
-604.0742189284099
-611.1288360059027
-618.0082149298778
-624.6073721670301
-630.8223623654203
-636.552393040572
-641.7023048768588
-646.1854693517176
-649.9271512870775
-652.8683784532932
-654.9703535892414
-215.88824624275756
-267.31777380571305
-315.18145866261705
-358.9316272260729
-398.1698620243185
-432.6546490769416
-462.2996292539609
-487.16342968344486
-507.4327159307195
-523.4005014528906
-535.4418656975995
-543.9890993304072
-549.507978346119
-552.4764453770254
-553.3665207685991
-552.6298382844499
-550.6868412255142
-547.9194046561901
-544.6664715532642
-541.2221961122852
-537.8360603043141
-534.7144517757454
-532.0232447952744
-529.8909963251381
-528.4124450716363
-527.6520746992177
-527.6475684856111
-528.4130391776099
-529.9419640332246
-532.2097914853047
-535.1762136616438
-538.7871195582966
-542.9762584480372
-547.6666534815165
-552.7718125939475
-558.1967887453477
-563.8391449655632
-569.5898822103225
-575.3343900411448
-580.9534818341878
-586.3245776652373
-591.3230991470923
-595.824141137473
-599.7044851350199
-602.8450180307747
-605.133617375211
-606.4685602096513
-606.7625066697062
-605.9471020668959
-265.67471073616053
-318.40910766647823
-367.0560252563958
-410.9924635966404
-449.77865519074686
-483.16602900655175
-511.09299141390096
-533.6700316995172
-551.156530458544
-563.9321168202125
-572.4654833176627
-577.2832899711202
-578.9412775298631
-577.9990820391068
-574.9996057375913
-570.4532328385579
-564.8267307412987
-558.536365165354
-551.9445757598365
-545.3594863849823
-539.0365342893884
-533.1815671491306
-527.9548521623005
-523.4755481809673
-519.8262969570201
-517.0576847898504
-515.1924070421112
-514.2290338916804
-514.145326950547
-514.9010947054616
-516.4406022987491
-518.6945702165941
-521.5818090796781
-525.0105457487471
-528.8795008521416
-533.078780783674
-537.490649080697
-541.9902434849737
-546.4463063065316
-550.7219971450587
-554.6758585977977
-558.1630071680444
-561.0366229138922
-563.1498120683782
-564.3579164614036
-564.5213416044363
-563.5089713442459
-561.2022307875818
-557.499850740405
-317.1128770302254
-371.51668109792905
-421.2027120512403
-465.4608367859146
-503.80750187716956
-535.9935690470186
-561.9962409147768
-581.9974043156761
-596.3518561679559
-605.5494061912509
-610.1747948925074
-610.8688450060713
-608.2934535274113
-603.1021096732609
-595.9167426844871
-587.3109653233546
-577.7992354287419
-567.8311162590087
-557.7896534095098
-547.9928625257148
-538.6973941980965
-530.1035703865284
-522.3611384852071
-515.5752419043743
-509.81224554729226
-505.10517342148853
-501.4586114406554
-498.8530020623349
-497.24831138025854
-496.5870870412365
-496.79695039502303
-497.7925818411847
-499.47726718507363
-501.74407720849615
-504.47675435168105
-507.5503807021652
-510.8319013273034
-514.1805769913666
-517.4484408355399
-520.4808348257064
-523.1171036489176
-525.1915260608049
-526.5345660709977
-526.9745282782394
-526.3397024822847
-524.4610816926712
-521.1757341564263
-516.3309035369464
-509.78890173340307
-370.4548848528102
-426.94909134311297
-477.96027117581946
-522.6773492886173
-560.5716131118112
-591.403603558111
-615.2090786253372
-632.2676490229636
-643.059162750413
-648.213467752374
-648.4588864209028
-644.5738127709675
-637.3445756185816
-627.531370935478
-615.8428634646428
-602.9191173786153
-589.3218833125868
-575.5309279213627
-561.944988519695
-548.8860011438078
-536.6054191960434
-525.2916567797058
-515.0779159553317
-506.0498650743069
-498.25281269249615
-491.6981636806345
-486.369051993616
-482.2251222153425
-479.2064848570664
-477.2369040152107
-476.22629546761453
-476.0726228962469
-476.6632831040415
-477.87607047173697
-479.57980841133747
-481.6347325809394
-483.8927080535133
-486.1973610570797
-488.3842056334939
-490.28084669327075
-491.7073433671425
-492.4768199856617
-492.3964159624172
-491.26866961979056
-488.8934336941982
-485.07042086541526
-479.60247512857774
-472.2996582901377
-462.98422985611865
-426.00768649830627
-485.08046722704535
-537.7358910038126
-583.0459018092105
-620.4372505244121
-649.6960058599502
-670.9443361088038
-684.5951513420033
-691.2920906664513
-691.8428167760106
-687.1528305430278
-678.165435662798
-665.8115261091742
-650.9709429821271
-634.4455343872197
-616.9428922925757
-599.0690518836803
-581.3281576008576
-564.1271216044315
-547.7835143733241
-532.5352378612595
-518.5508677504156
-505.9398666994217
-494.76214028503153
-485.0366224541487
-476.7487386838378
-469.85670917185496
-464.2967300121916
-459.98711645201206
-456.8315170943599
-454.72131805974243
-453.53735694715186
-453.1510619043542
-453.425124077171
-454.21380412194435
-455.36296662975406
-456.7099310353052
-458.08322432965014
-459.3023198691032
-460.17744778647864
-460.50956579854164
-460.09058420646113
-458.70394501864166
-456.1256615267321
-452.1259301754393
-446.47142976020376
-438.92842229124057
-429.2667638058398
-417.26492098677215
-484.14693916500727
-546.3668215475354
-601.0212230148691
-647.0466990129954
-683.8296080615542
-711.2057699656705
-729.4231167467146
-739.0760674101294
-741.0227319300961
-736.2962389638185
-726.0199009266335
-711.3332766797149
-693.3332040590631
-673.0311458286486
-651.3260843322807
-628.9908395224377
-606.6690222625058
-584.8797189629737
-564.0272514421821
-544.4137988054813
-526.2531760282119
-509.6845508727583
-494.7852996529582
-481.58253496842303
-470.06308525691617
-460.1818773402808
-451.86878363750486
-445.0340602888924
-439.57253433880464
-435.3667081843188
-432.2889460181069
-430.20289602641446
-428.96428786051615
-428.4212301890947
-428.4141197343538
-428.77526215273514
-429.3282970161213
-429.88751424663104
-430.2571477138141
-430.2307332443362
-429.59062280915975
-428.10775375732
-425.54178103305134
-421.6416903550616
-416.1470199158865
-408.7898253551897
-399.2975252770756
-387.39676003898944
-372.81838299945764
-545.3352690670545
-611.3673988258727
-668.4128598151676
-715.2521229741305
-751.2413118143409
-776.3027916796449
-790.8660282841115
-795.7724540656556
-792.1609273503361
-781.3498294716883
-764.728775248783
-743.6685378421103
-719.453284262536
-693.2354278908449
-666.0107508057565
-638.6099820226136
-611.702545572247
-585.8084163986359
-561.3146426368962
-538.4938681143624
-517.5229547935062
-498.5004693963072
-481.4623244745466
-466.39524997597675
-453.2480342272478
-441.94063802702635
-432.37137750889246
-424.4224127597547
-417.963787582049
-412.85625451014204
-408.95309760101793
-406.10113990430693
-404.14109688118253
-402.90741377344114
-402.2277053277055
-401.92190096634533
-401.801187665967
-401.66683643908874
-401.3089962860289
-400.50554163028175
-399.02106535576445
-396.6061193068962
-392.99681692539946
-387.9149275729369
-381.06860737131524
-372.1539246087696
-360.85734565461394
-346.8593461704718
-329.83929872452273
-610.1465741683378
-680.7728396816935
-740.6386704811816
-788.3460141391429
-823.241009687087
-845.3883380169075
-855.4783289909528
-854.6886290326819
-844.525351719089
-826.6664884726968
-802.8246606260436
-774.639183845154
-743.6007300413439
-711.0067564462884
-677.9427286096408
-645.2828325045526
-613.703888374722
-583.7070122370703
-555.6427621866301
-529.7367341332955
-506.1136504711267
-484.81883766956787
-465.8366067836698
-449.10546355450316
-434.53032558306523
-421.99205709446636
-411.3546850571633
-402.47066354427795
-395.184527752741
-389.3352397401693
-384.7574841712199
-381.2821298892779
-378.7360350963058
-376.9413418329861
-375.7143798074534
-374.8642803729212
-374.19138829005357
-373.48555144751174
-372.524366612323
-371.0714622988186
-368.874907829905
-365.6658504794094
-361.15749990466384
-355.0446000931286
-347.00355205409994
-336.6933725089824
-323.75769041598846
-307.8279886437629
-288.5282865266811
-679.2987883677431
-755.4427584540389
-818.5918742228018
-867.1468595414383
-900.4809340940404
-918.8857006992297
-923.4256634590005
-915.7363123538482
-897.8034291471982
-871.7558086774441
-839.6933171773005
-803.5608148007267
-765.0687585000805
-725.6546960892333
-686.4765283306663
-648.4277201761621
-612.1656491564096
-578.146108503891
-546.6589871735521
-517.8619447387575
-491.8103182073154
-468.4825144037351
-447.80080565807083
-429.6478365365816
-413.87934440206425
-400.3336636228358
-388.8385731147361
-379.21599532482173
-371.28498519271955
-364.8633744126097
-359.7683675533408
-355.8163262789285
-352.82192755792994
-350.5968414490235
-348.9480431756212
-347.6758518434987
-346.5717733737119
-345.4162172146959
-343.9761545835744
-342.00279006828924
-339.2293283881203
-335.3689341667157
-330.1130049109091
-323.1299057641404
-314.0643476626828
-302.53762503311475
-288.14895935853707
-270.478212474272
-249.09022847806554
-753.698690375297
-836.4564852813387
-903.3753574099203
-952.6351613116536
-983.701246795069
-997.2209031977095
-994.7953278858936
-978.6836697631187
-951.4962591138493
-915.9220661040282
-874.5172754546422
-829.563912108545
-782.9937955688692
-736.3651877257032
-690.8767617427977
-647.4043872072555
-606.5489958573987
-568.6871242384398
-534.0188002005799
-502.6098733941067
-474.4276121831363
-449.36948765830766
-427.2856857735702
-407.99617788169746
-391.3032595520584
-377.00042701873446
-364.87836044235934
-354.72866126757964
-346.3458691634253
-339.52817360228966
-334.07714079813286
-329.7966994704494
-326.4915677707765
-323.9652568992264
-322.01775242545335
-320.4429502086806
-319.0259084606114
-317.5399696612229
-315.7438048924247
-313.3784383502922
-310.1643215239251
-305.79854550654653
-299.9523071926821
-292.2687816104473
-282.36159808153326
-269.8141694812672
-254.18017471892847
-234.9855329188234
-211.73221786772325
-834.5041586373101
-925.1824665866118
-996.3595289478221
-1045.984622341095
-1073.7270276553422
-1080.7866667358808
-1069.5353979046872
-1043.081469874797
-1004.8438437802165
-958.1981357918999
-906.2243990409993
-851.5593342315958
-796.3372874249277
-742.1962194237665
-690.324380656795
-641.5274251270282
-596.3013160915434
-554.9017792142683
-517.4053709574753
-483.76024597121517
-453.82657989036204
-427.40761540788344
-404.27273209687365
-384.17402201422135
-366.8577456249162
-352.07185077124757
-339.5705232800899
-329.1165344748184
-320.48197341820935
-313.4478048102443
-307.8025762605761
-303.34050781096374
-299.859127967159
-297.1565700774696
-295.0286071197418
-293.2654789209146
-291.6485512518528
-289.94683943700886
-287.91342901405255
-285.28183214894284
-281.7623313388276
-277.03838275522054
-270.76318269802005
-262.55654487633177
-252.00229569786396
-238.64646851672853
-221.99665892408746
-201.52297610330663
-176.66106557617596
-923.2121870361829
-1023.374483471626
-1099.2579298357757
-1148.5952811540037
-1171.4502448795733
-1169.8784819980708
-1147.3602029288747
-1108.1571764666394
-1056.7252820862693
-997.264034849363
-933.4307598230112
-868.2060802133278
-803.8752284269515
-742.084156455434
-683.9344666680229
-630.0907233882756
-580.8835032667603
-536.3994701474519
-496.55524378598284
-461.1551375740552
-429.9345353250094
-402.59132659794153
-378.80786728720534
-358.26567954240113
-340.6547377998555
-325.6788081692138
-313.05796606713545
-302.52913032930337
-293.8452230853212
-286.773387775435
-281.09256439341084
-276.5906227237087
-273.06118332932033
-270.30020601917175
-268.10239151962276
-266.2574203253356
-264.5460404181403
-262.7360107090125
-260.57790835105226
-257.8008149041549
-254.1079091157921
-249.17201468028478
-242.63118352634442
-234.08444463255438
-223.0879214303968
-209.15162129025046
-191.73732415454356
-170.25812563909616
-144.08028672019984
-1021.7857619119901
-1133.3069743286646
-1214.22567439667
-1262.123406704615
-1277.7826607210445
-1264.5845373035456
-1227.60512145802
-1172.6651740686916
-1105.5289216980436
-1031.3512459400356
-954.383229557106
-877.8887690064248
-804.2030689681953
-734.8674316601616
-670.7907628294022
-612.4065268786889
-559.8090683025691
-512.863624498554
-471.29042787189985
-434.72622359234776
-402.7674988828228
-374.9996293837824
-351.01558099466735
-330.427096613146
-312.8706158202609
-298.0095926470817
-285.5344098921347
-275.1607305747509
-266.62686081572224
-259.69050475722275
-254.1251538694474
-249.716255972168
-246.25724250142142
-243.54544772673685
-241.37792478234417
-239.54714624139817
-237.8365685126257
-236.01603741331854
-233.8370153361467
-231.02761756697214
-227.2874565854278
-222.28231047579703
-215.63865987322626
-206.93818635530812
-195.7124069246761
-181.43774739415755
-163.5315366262871
-141.34961677973038
-114.18646213374967
-1132.8407784876422
-1257.968197917784
-1343.9859913105483
-1388.4958541186934
-1393.5540473792757
-1364.5998401353022
-1309.0062443547622
-1234.679367948891
-1148.990186079306
-1058.1393712574682
-966.9131778981375
-878.7174079041303
-795.7672757407754
-719.3363532330715
-650.0029419824313
-587.8626545025446
-532.6967414272052
-484.0973863839583
-441.5564282314548
-404.52538098923765
-372.454116508895
-344.8143196956051
-321.1124387596105
-300.89561117820756
-283.75304139661887
-269.31454063181894
-257.24737822659597
-247.25219453676436
-239.0584469417791
-232.4196699833588
-227.10870225731313
-222.9129476514943
-219.62968338602064
-217.0613927214812
-215.01107980997307
-213.27751373544288
-211.65034548549846
-209.9050433967712
-207.79759789053935
-205.05895364082363
-201.38913577432731
-196.45104706419465
-189.86393020839262
-181.19652542126315
-169.9600307784234
-155.60112064895054
-137.49552132161574
-114.94297959934016
-87.16482963413416
-1259.9282377950126
-1401.340090594618
-1491.9879306077137
-1529.8815470505508
-1519.3090868773957
-1468.9169830590226
-1389.3716530452045
-1291.3155137493238
-1184.002757533794
-1074.6621882622621
-968.4223056953917
-868.5690103102754
-776.938836018605
-694.3193659015137
-620.7925492037311
-556.0004785467502
-499.33692359969064
-450.07766728182605
-407.4645900979864
-370.7567918961599
-339.259251586694
-312.33676204121645
-289.4185770889509
-269.99745559993494
-253.62552375833755
-239.9084977932076
-228.49921477754967
-219.09102548112668
-211.41134771077827
-205.21551576563067
-200.28096002247787
-196.40168883406517
-193.38300866183664
-191.03639846700312
-189.17444505181993
-187.60574374352976
-186.12967140780057
-184.5309448012194
-182.57388526882707
-179.9963187869604
-176.50304573256886
-171.75881535338073
-165.38073738100147
-156.93006963650458
-145.90336676971765
-131.72311566632743
-113.72828383140248
-91.16570804495734
-63.18390175268122
-1407.9722244594539
-1568.8094000070612
-1662.5891032845973
-1688.5610049058655
-1654.9184802504546
-1575.3194516976273
-1465.1040004706929
-1338.3804281868033
-1206.4271216792679
-1077.25880596566
-955.9357282178952
-845.1988369648158
-746.1472348985858
-658.8160336909081
-582.6117518557613
-516.6138432551043
-459.7699662525061
-411.01456469562254
-369.33554545449414
-333.80754284046054
-303.6046400641638
-278.00108637318294
-256.36546383146407
-238.15166732783436
-222.88869360503296
-210.17036449293926
-199.64556886261482
-191.0092803454284
-183.9944151514402
-178.36448505609997
-173.9069419101857
-170.4270811709339
-167.74236021682282
-165.67698500291036
-164.05662166665763
-162.70309584415307
-161.42895079021545
-160.03174550452442
-158.28798518755116
-155.94658633375622
-152.7217830057452
-148.28537212858416
-142.25816729506693
-134.2004861261394
-123.60146801368384
-109.86708982900205
-92.30705364823969
-70.12140450145532
-42.38882121042073
-1583.971566126369
-1767.778197274457
-1861.2288563401787
-1866.5677336299268
-1798.8527319818606
-1679.5686911673781
-1530.5386699388737
-1369.9756788551488
-1210.957296004664
-1061.6353135416239
-926.2750859376358
-806.4560131504277
-702.0933661704645
-612.1834201761621
-535.294341196781
-469.8646543045536
-414.370617938809
-367.41043365142775
-327.73865561218634
-294.2724697612833
-266.08323373956387
-242.38120976666548
-222.4979855270115
-205.86898824560757
-192.017264984218
-180.53899896939558
-171.09084642510325
-163.3789794605715
-157.14962795749227
-152.18087920580064
-148.27549013767728
-145.25447728498295
-142.9512651314961
-141.20618977794715
-139.86116985672493
-138.75437013305128
-137.7146959176368
-136.55596942208277
-135.07065320579613
-133.02299965185915
-130.1415133249002
-126.11060209857756
-120.56124208582014
-113.06037058624155
-103.09856103440606
-90.07542006371568
-73.28231378711183
-51.882826530839196
-24.893040926165128
-1798.163983021337
-2008.5728563773632
-2094.47723235115
-2064.8327806376637
-1946.8542421824056
-1774.1452537075916
-1577.1049597005135
-1378.1567500165258
-1191.1722607004453
-1023.1425766758881
-876.4204279541464
-750.6382160639232
-644.0522559643896
-554.3730066139009
-479.2297857049746
-416.40413420708524
-363.92820710863657
-320.1097621693068
-283.520424668607
-252.96791663163515
-227.46331735940976
-206.1888856341055
-188.46890923396353
-173.74442006145998
-161.55179641924434
-151.50490084292605
-143.28026307428843
-136.60479639841736
-131.24556795487786
-127.00119601352972
-123.69450245990264
-121.16609881233349
-119.26862581320644
-117.86139941186659
-116.80524062498722
-115.95728505148162
-115.16558214002677
-114.26330757870892
-113.06242733502465
-111.34667037155779
-108.86368525196691
-105.31625810791098
-100.35241856679909
-93.55409435014973
-84.42363606908121
-72.36706433091274
-56.67260392082498
-36.48366177047832
-10.767735714506124
-2066.042911441823
-2305.7740913856733
-2369.623631309922
-2281.266621801951
-2089.572272902664
-1846.4312853447097
-1592.4598607799087
-1352.901587182778
-1139.996685760184
-957.4151715195538
-804.1294369520147
-677.0030026374477
-572.2559828463039
-486.1977337904344
-415.5382574265203
-357.48020184596027
-309.70692380221595
-270.32809206387367
-237.81341742979603
-210.92851381808833
-188.67841450582057
-170.26016148490248
-155.02405043121686
-142.44241306120867
-132.0846570533358
-123.59735768101898
-116.68835519535071
-111.11398759439464
-106.66874951005644
-103.17680381798311
-100.48488153266291
-98.4561896731493
-96.96500945154673
-95.8917119366415
-95.1179487474875
-94.52179476962354
-93.97263208532195
-93.3255737274398
-92.41523799024365
-91.04870477609677
-88.99751797778436
-85.9886331951354
-81.69420628661925
-75.71996687174365
-67.59143337418931
-56.73623508598453
-42.45951699535064
-23.908921977691005
-0.028099512246928526
-2411.9856520021035
-2680.020423354486
-2692.874549159352
-2506.5978694642145
-2208.5678554644674
-1876.4585416572822
-1560.1175790354416
-1282.8994152529544
-1050.902250548063
-861.5147079224566
-708.8407153393422
-586.406410467766
-488.30980293293806
-409.5833285998054
-346.20904860067867
-295.00286266579644
-253.46636623453344
-219.6465782064558
-192.0169379352281
-169.381468067051
-150.79964670972984
-135.5283286297617
-122.97713280781976
-112.6742310192179
-104.24007118653503
-97.36711289646938
-91.80410033658981
-87.3437491904644
-83.81299180218588
-81.06512516221746
-78.97335362168653
-77.4253247307906
-76.31833155084296
-75.55490527405328
-75.03855337989636
-74.66941524049653
-74.33961325795286
-73.92807833196157
-73.29463095882141
-72.27311425859737
-70.6634166666824
-68.22230074094048
-64.65305355520202
-59.59398322768347
-52.60537093420346
-43.15303710139257
-30.58372336348282
-14.084076350387438
7.384656077276777
-2876.2538919419926
-3159.822780552432
-3063.544806145369
-2715.751521376071
-2270.2444005793213
-1835.2904478979158
-1460.8230884267869
-1158.0010697624125
-920.16579050816
-735.6089461041836
-592.7722979371221
-481.9558967835535
-395.54284471301986
-327.7298618877378
-274.1512266431552
-231.53420326376516
-197.4214813951401
-169.95968616279458
-147.74234049342974
-129.69457326852256
-114.98876386870313
-102.98274789191413
-93.17436749955135
-85.16784670469674
-78.6487354191234
-73.36508189300287
-69.11314799984558
-65.72644689813697
-63.06721180943615
-61.019637039157686
-59.48439558768759
-58.37405104771456
-57.60905825400504
-57.114096415069376
-56.81450637323008
-56.63261454677689
-56.48372358267321
-56.27153798101004
-55.88277884726897
-55.18073845855824
-53.9975562401004
-52.12510127768588
-49.30456660252638
-45.21520440398184
-39.46277334080108
-31.567098915385554
-20.943511412179205
-6.86364800773244
11.627174308465364
-3528.215632981808
-3780.23361834354
-3457.5351215186456
-2850.9969537659927
-2219.6053157835195
-1687.2803142794235
-1278.1409325436668
-974.0530973357022
-750.1714940781917
-584.90950331735
-461.93086024662466
-369.45789327343914
-299.1447775785867
-245.09040645895618
-203.10136868830938
-170.17197542400436
-144.1255074319426
-123.36815061543535
-106.71986383355943
-93.29737654009931
-82.43254084224495
-73.61478755082099
-66.45014159121429
-60.63171375387719
-55.918218950319726
-52.11815830347855
-49.078030224032965
-46.67342610467464
-44.80219887894443
-43.3791192453172
-42.33158869429063
-41.596082715129214
-41.115066092926284
-40.834164273196734
-40.69939611191051
-40.65427735431714
-40.63659296039541
-40.57461184841554
-40.38248367970705
-39.954524147352586
-39.15808795183043
-37.82480344779651
-35.740211361496875
-32.63248976339122
-28.162069065977043
-21.91485115849341
-13.39808624472058
-2.021370778046009
12.985496017008522
-4495.962494333573
-4564.754200097535
-3781.480217012305
-2797.760030740934
-1982.346793900214
-1405.0491506663375
-1009.8057530412178
-739.7770500810739
-552.8436438621969
-421.11733932421964
-326.52831501651394
-257.3607601323813
-205.92288446868628
-167.08106997330583
-137.3474278465924
-114.30975671408503
-96.27105671429096
-82.0180778496109
-70.6702542778065
-61.57945966160315
-54.26240052458202
-48.35430470202665
-43.57672024277821
-39.71480302709506
-36.60107404623555
-34.103644169026765
-32.11755852737022
-30.558339175859487
-29.35708588052328
-28.45668183628056
-27.80877576068002
-27.3712942834129
-27.106291470925605
-26.977973435903515
-26.95074970272887
-26.98716137370006
-27.045519473562685
-27.07705434811503
-27.02232803698341
-26.806598903982582
-26.333766040744518
-25.478507630405097
-24.076394069342143
-21.91242866075192
-18.71034237825157
-14.129035661377952
-7.777608713930817
0.7534027578014353
11.915364018371822
-5998.812765691842
-5425.55279135765
-3776.0043445443125
-2371.648514913022
-1515.1834087156308
-998.7497717958322
-682.7187400789321
-482.4786556748372
-351.1580845618322
-262.2125217606271
-200.2219195305296
-155.92222277977444
-123.56752662754911
-99.48571253555986
-81.26528891396859
-67.28318344732722
-56.42247838522448
-47.89903372761246
-41.15229394101375
-35.774916982388405
-31.46645464339302
-28.00226552241061
-25.21227300958796
-22.96620554142001
-21.163177863450358
-19.724223971916217
-18.58686396530385
-17.701087742245676
-17.02633299663718
-16.52916213779804
-16.181426284239073
-15.958758897911153
-15.839275843445513
-15.802377934010153
-15.827559103835192
-15.893119034517063
-15.974662461726176
-16.043235914477833
-16.06290211125848
-15.987477766319188
-15.756060532385238
-15.286860986238132
-14.468814808482026
-13.150761674953216
-11.129549151377631
-8.143869680714044
-3.8963058370484056
1.845847305187224
9.088418273632719
-8422.429002644207
-5783.357223386141
-2861.635322816013
-1539.020250414405
-885.924932728218
-548.4325748156347
-359.5571042257956
-246.97390092401417
-176.14489203638757
-129.58432917963998
-97.84253459327147
-75.53654363603704
-59.45594106329429
-47.60979682336941
-38.7210585957595
-31.946185906543832
-26.71346627758774
-22.626517660530453
-19.404917315820384
-16.846670029707795
-14.803898652756615
-13.166749534113876
-11.852521973952108
-10.79819022498127
-9.955170717956307
-9.285600491914948
-8.759647851971579
-8.35353665452864
-8.048068101677806
-7.827490207202061
-7.678608184516619
-7.59005677185074
-7.551672680111714
-7.553914629817399
-7.587281112608281
-7.641672172034411
-7.705630052249731
-7.765371936499733
-7.803491562396555
-7.797147764646059
-7.7154660892194755
-7.515742756383972
-7.137862322705093
-6.496218580610183
-5.46887465531502
-3.8870252941287298
-1.5432508147195563
1.6968315365027529
5.430525733615312
-11077.118497235926
-3356.421597195918
-1356.754594424213
-615.1334960226712
-327.5324345368854
-193.10941184294114
-123.05028965620562
-82.94536534171942
-58.402048758399644
-42.57029132189035
-31.924670580553112
-24.519969244823614
-19.223677501111666
-15.346031416858182
-12.450775267652517
-10.252937856984431
-8.561105556358967
-7.243537334037228
-6.207597434499036
-5.3868979767853915
-4.733048395137033
-4.210235732255882
-3.79158849434468
-3.4566896709933843
-3.18984517145401
-2.978857778619485
-2.8141446830349963
-2.68809153550626
-2.5945707798652435
-2.528574408099118
-2.4859257401617754
-2.46304407923882
-2.456741737799767
-2.4640358648321126
-2.481958110796647
-2.507343372639525
-2.5365740827612058
-2.5652474425804073
-2.587717184677647
-2.5964343897714137
-2.5809655487269154
-2.5264864136611465
-2.4114150259802827
-2.203634807324537
-1.854539408242509
-1.2906387029475361
-0.409030416189502
0.8738361793804934
2.1436643908019946

SCALARS STRESS_YY float 1
LOOKUP_TABLE default
-0.1535177681470259
-29620.194225100462
-309.1431917594181
-309.8453673001693
-0.15350927184681495
-0.15348371909988145
-0.15344091887857303
-0.15338055324019706
-0.15330217689074743
-0.1532052176638672
-0.15308897698815827
-0.15295263008607662
-0.15279522698659775
-0.15261569371807582
-0.1524128328183565
-0.15218532551642738
-0.15193173413268823
-0.15165050452407058
-0.1513399697771547
-0.1509983543928115
-0.1506237800780923
-0.1502142713400758
-0.14976776338266973
-0.14928211164180993
-0.14875510188835506
-0.14818446280088438
-0.1475678810806471
-0.146903017412626
-0.1461875256098324
-0.14541907525381248
-0.14459537560065883
-0.1437142044107702
-0.1427734394935385
-0.14177109405258648
-0.140705356781325
-0.1395746357625569
-0.13837760863293624
-0.1371132765799814
-0.13578102468298425
-0.13438068911020196
-0.1329126303959356
-0.13137781459806774
-0.12977790234410236
-0.12811534620303178
-0.12639349791666632
-0.12461672661584089
-0.12279054828380254
-0.12092176791338716
-0.11901863749355357
-0.11709102941429705
-0.11515062893391814
-0.11321114960190926
-0.1112885729848756
-0.10940141901460265
-0.10757105163136771
-0.10582202731455936
-0.10418249417433856
-0.1026846524881222
-0.10136529191611032
-0.10026642185970047
-0.0994360158444465
-0.09892889842588204
-0.09880781055535692
-0.09914469743968368
-0.10002227619119708
-0.10153595813575578
-0.10379622111532427
-0.10693155398133314
-0.11109213652498084
-0.11645446515936442
-0.12322720188643999
-0.13165861863706319
-0.1420461298759932
-0.15474858117922263
-0.17020220138875164
-0.18894146391348698
-0.21162658501732068
-0.2390800816802816
-0.272335825943145
-0.312705534671764
-0.36186988900894335
-0.422004919040603
-0.49595963439389834
-0.5875093369167672
-0.701722699415626
-0.8455032253415595
-1.0284038518550886
-1.263879625603181
-1.571262775638644
-1.978961553096866
-2.5298257820046217
-3.290385188800599
-4.367973828165248
-5.941167338653287
-8.333447115707088
-12.106936361573673
-18.67434357919808
-29.76530375305566
-59.24664381522308
-97.87017672126728
-483.9456775650656
-530.3936334221961
-14913.47286976306
-23417.31253451211
-14450.443425207037
-10153.552323430107
-7713.729975399565
-6206.531182910404
-5182.012186488886
-4441.559317873278
-3880.1833387377137
-3438.859772105894
-3081.673273625039
-2785.6155290521165
-2535.2837664349545
-2320.003048899748
-2132.159075720512
-1966.1893642378277
-1817.9479956751761
-1684.2922325175168
-1562.8056991438102
-1451.6083475134092
-1349.2231178284896
-1254.4805536226581
-1166.4493824761817
-1084.3852079578612
-1007.6920552268267
-935.8931814762104
-868.6086568377817
-805.5379522765597
-746.4462668936278
-691.1536678865702
-639.5263528197281
-591.4695083089814
-546.9213526742851
-505.84802594140484
-468.23903693963894
-434.1029983986739
-403.46337779549486
-376.353961696641
-352.8136677017328
-332.8802279750181
-316.5820894677375
-303.92759054404576
-294.89001843852736
-289.38642174901565
-287.2468837095158
-288.16915499323454
-291.65119218480044
-296.8934750957958
-302.67863454883326
-307.33394943075086
-309.24012232211476
-309.62798052550056
-310.1121307984661
-310.4239907553166
-310.6137583841171
-310.7256492138273
-310.7870694054958
-310.81462949620675
-310.8187576923225
-310.80628466537996
-310.7818697757249
-310.74881362868337
-310.70953665854677
-310.66586993357294
-310.61923651127495
-310.5707670992484
-310.521375313641
-310.4718076261306
-310.42267724090664
-310.3744876876085
-310.32764980698136
-310.28249448764905
-310.2392826780928
-310.19821364810366
-310.1594321168738
-310.1230346300524
-310.0890754104535
-310.0575718084549
-310.0285094121582
-310.00184683948805
-309.97752021297185
-309.95544730805705
-309.93553136331116
-309.91766454154134
-309.9017310379193
-309.88760983553107
-309.87517711353337
-309.86430832138007
-309.85487993555466
-309.8467709179661
-309.8398639008354
-309.8340461230029
-309.82921014238286
-309.8252543504209
-309.82208331555563
-309.8196079784936
-309.8177457213603
-309.8164203340705
-309.8155618953121
-309.81510658597807
-309.81499644994324
-309.8151791155899
-309.815607490661
-309.8162394383926
-309.8170374440763
-309.8179682793768
-309.8190026691244
-309.8201149656762
-309.82128283382286
-309.82248694826774
-309.82371070709155
-309.8249399617313
-309.8261627626506
-309.8273691235288
-309.828550803123
-309.82970110351323
-309.8308146855294
-309.8318873997115
-309.83291613301446
-309.8338986696104
-309.8348335653794
-309.8357200358897
-309.8365578548274
-309.837347262886
-309.8380888881448
-309.8387836756095
-309.8394328239531
-309.8400377298679
-309.84059993991303
-309.8411211079368
-309.84160295864524
-309.84204725585903
-309.8424557741376
-309.842830276421
-309.8431724935208
-309.8434841058617
-309.84376673025287
-309.8440219078203
-309.8442510933813
-309.8444556468478
-309.8446368265644
-309.84479578367797
-309.84493355767376
-309.8450510726928
-309.84514913420867
-309.8452284272519
-309.8452895141993
-309.8453328334442
-309.84535869917806
-309.4806845422901
-308.40007820115704
-306.6317334758059
-304.2052087277319
-301.15020040188176
-297.496531370488
-293.2741383756272
-288.5130587884656
-283.2434168875649
-277.4954098560926
-271.2992936757248
-264.6853690863776
-257.6839677707708
-250.32543890488745
-242.6401362096183
-234.6584056205768
-226.410573685646
-217.92693679026468
-209.2377512922148
-200.3732246479965
-191.36350759432352
-182.238687441713
-173.0287825325388
-163.7637378990685
-154.4734221530797
-145.1876256316183
-135.9360598116964
-126.74835799568154
-117.65407727184542
-108.68270173372846
-99.8636469324917
-91.22626554025908
-82.79985418303346
-74.61366138903662
-66.6968965955434
-59.07874014314639
-51.788354175350435
-44.85489435064038
-38.30752226261151
-32.17541845232196
-26.487795881518394
-21.273913730497384
-16.563091367419872
-12.38472232305773
-8.768288099312173
-5.743371624494301
-3.3396701582089747
-1.5870074433062769
-0.5153448906478388
-0.5153164143643494
-1.5869200179398035
-3.3394871152452623
-5.743059131685513
-8.767815556583429
-12.38406268545269
-16.562221397619354
-21.272814184048855
-26.486451628053473
-32.17381853647194
-38.30565990833809
-44.852766913297366
-51.78596304608671
-59.07609060830544
-66.69399765683727
-74.61052554756202
-82.79649719175025
-91.22270612851146
-99.85990650607317
-108.67880405466411
-117.65004812057342
-126.74422481967156
-135.9318513632431
-145.1833715968778
-154.46915277584515
-163.75948360274455
-173.02457354115674
-182.23455340294623
-191.35947720787252
-200.3693253002591
-209.23400870049286
-217.9233746591682
-226.40721337682214
-234.65526584022413
-242.63723271576185
-250.32278423709204
-257.6815710058934
-264.6832356235718
-271.2974250544336
-277.49380361088595
-283.24206644333833
-288.51195340080056
-293.2732631204443
-297.4958671868474
-301.14972419364295
-304.2048935275347
-306.63154867560934
-308.39998985416423
-309.48065574015874
-0.5152307767128264
-1.5866571156969655
-3.338936707306104
-5.742119522755118
-8.766394783652558
-12.382079484971086
-16.559605961204852
-21.269508711901977
-26.482410690263762
-32.16900925322922
-38.30006196080321
-44.846372397597726
-51.77877618304168
-59.06812732042434
-66.68528502584982
-74.60110116481965
-82.786408413444
-91.21200924737339
-99.84866585024446
-108.66709102530913
-117.6379401771135
-126.7318044248446
-135.9192048951117
-145.17058823477115
-154.45632337219206
-163.7466995474075
-173.01192562394593
-182.2221306829346
-191.34736589702788
-200.35760766752523
-209.22276200393418
-217.91267011367404
-226.3971151639613
-234.64583016891945
-242.6285069431397
-250.3148060564917
-257.67436771243166
-264.6768234680468
-271.29180869515847
-277.48897567581935
-283.238007213879
-288.508630630381
-293.2706320003247
-297.493870472831
-301.1482925079164
-304.2039458471559
-306.63099302247576
-308.3997241982908
-309.4805691283082
-0.5150873517444268
-1.5862168591570764
-3.338015098888093
-5.740546409152017
-8.764016351492813
-12.378759867138214
-16.55522848973993
-21.263976833109552
-26.47564855912357
-32.16096202568964
-38.29069580388759
-44.83567423810325
-51.76675321500612
-59.05480629275361
-66.67071133067267
-74.58533774784634
-82.76953452606207
-91.1941190596007
-99.82986694396034
-108.64750278525727
-117.61769209599007
-126.71103434031019
-135.89805717259978
-145.14921190954922
-154.43487026678247
-163.7253223756749
-172.99077609363297
-182.20135761045168
-191.3271133443613
-200.33801311425916
-209.20395456564003
-217.89476881872594
-226.3802273017197
-234.63004972123053
-242.6139131147497
-250.3014619176961
-257.6623189707328
-264.6660973854556
-271.28241316860704
-277.48089850005897
-283.2312155473777
-288.50307068461524
-293.2662289741795
-297.4905287556426
-301.1458961721981
-304.2023594539257
-306.63006276281953
-308.3992793904111
-309.4804240903851
-0.514885096955453
-1.585596121426562
-3.3367159025662687
-5.738329153436808
-8.760664562948534
-12.37408243631694
-16.549061411418876
-21.256184471873112
-26.46612446505449
-32.14962932703422
-38.277507204088344
-44.820611646382766
-51.749827039613315
-59.03605442730776
-66.6501978625991
-74.56315141740475
-82.7457869656201
-91.16894283916311
-99.80341345014095
-108.61993995833826
-117.58920204869338
-126.68181088117063
-135.86830325469106
-145.11913702509537
-154.4046878060255
-163.69524696774766
-172.96102094718196
-182.17213187057095
-191.2986194813961
-200.31044436095334
-209.1774924187407
-217.8695806224002
-226.35646392946495
-234.60784337471694
-242.59337525819402
-250.2826813689695
-257.64536017229386
-264.65099887620244
-271.26918628368264
-277.4695263248125
-283.2216521532236
-288.4952406771481
-293.2600273838607
-297.48582130231074
-301.1425199355788
-304.2001239827289
-306.62875165307776
-308.3986523637818
-309.4802196004289
-0.5146225536205407
-1.5847905285396564
-3.335030186199944
-5.73545288492717
-8.756317480711033
-12.368017300289438
-16.541066216530552
-21.24608404845064
-26.453781499203927
-32.13494483638871
-38.260420504357356
-44.80109984623639
-51.72790410273878
-59.01176984083284
-66.62363494896333
-74.53442532825322
-82.71504239360178
-91.13635148371935
-99.76917127086358
-108.58426424748058
-117.55232835442332
-126.6439898104147
-135.8297971817451
-145.0802167316618
-154.36562907731104
-163.65632716686974
-172.92251559012016
-182.13431122170442
-191.2617451911349
-200.27476616501664
-209.14324491973915
-217.83698017528448
-226.32570565249688
-234.5790983086252
-242.56678769821377
-250.2583663963203
-257.6234014131814
-264.63144651782
-271.2520553800197
-277.4547954270236
-283.2092622999164
-288.4850947840497
-293.25199007168544
-297.47971920408804
-301.1381425261877
-304.1972249710649
-306.6270509782606
-308.3978388365791
-309.47995422596387
-0.5142978480986926
-1.5837944641297952
-3.3329464843750998
-5.731898522839785
-8.750946967962065
-12.360526134853131
-16.531193552486556
-21.23361461107109
-26.438546788509527
-32.11682366331871
-38.23933890350082
-44.77703041258447
-51.70086480068009
-58.98182233225863
-66.59088248838827
-74.49901027211108
-82.6771433669816
-91.09618024953939
-99.72696934298068
-108.54029928606533
-117.50689038307316
-126.59738728689342
-135.78235295869226
-145.03226393643823
-154.31750693845586
-163.60837681780723
-172.87507587369737
-182.08771452132785
-191.21631331300097
-200.23080629583947
-209.10104568445382
-217.79680781927715
-226.2878003753258
-234.54367077615655
-242.53401576343072
-250.22839206028945
-257.59632805937946
-264.6073364579419
-271.23092774919155
-277.4366244713056
-283.19397610109746
-288.47257446806117
-293.24206954993247
-297.4721854991084
-301.1327367338327
-304.1936439100822
-306.6249495797749
-308.39683332390706
-309.4796261310836
-0.5139086933272097
-1.5826010755270659
-3.3304508144930196
-5.727642808286447
-8.74451874369359
-12.351562270786616
-16.519383351404983
-21.218702012921725
-26.420331730544163
-32.095162647845015
-38.214144828612575
-44.748271722982615
-51.66856401490804
-58.94605400440179
-66.55177066159973
-74.45672547808391
-82.63189922641669
-91.04822972492688
-99.67660069288628
-108.4878317683278
-117.4526697510604
-126.5417811180119
-135.72574585648283
-144.97505264153878
-154.26009538021486
-163.55117114076205
-172.81847946776708
-182.03212308426518
-191.16210997366267
-200.1783568260414
-209.05069382786598
-217.74887076502895
-226.24256440709803
-234.50138712952835
-242.49489672427023
-250.19260734190445
-257.5640014981097
-264.57854306999616
-271.20569119518274
-277.41491497868975
-283.17570889710726
-288.4576087795597
-293.2302082292455
-297.46317533676586
-301.12626952107354
-304.1893583137511
-306.6224338930867
-308.39562915393645
-309.47923308108716
-0.513452390777644
-1.5812022819266076
-3.327526697723073
-5.7226583464980365
-8.736992455659063
-12.3410708074761
-16.50556499531757
-21.20125914026856
-26.39903229473434
-32.069840744837094
-38.1847004116143
-44.71466953295436
-51.630831793151785
-58.90428005560233
-66.50610083470731
-74.40735962855523
-82.5790872236513
-90.9922670649058
-99.61782377295162
-108.42661287945822
-117.38941183667849
-126.47691234813203
-135.65971405993935
-144.9083196380135
-154.19313125074794
-163.48444847102343
-172.7524675989888
-181.9672824032461
-191.0988862734647
-200.11717576775084
-208.9919555353668
-217.69294458433032
-226.18978386383546
-234.45204512125585
-242.44924098449
-250.1508362189291
-257.5262600940478
-264.5449197881002
-271.17621474984594
-277.3895519251533
-283.15436174280876
-288.4401147424251
-293.21633871202994
-297.4526361901132
-301.11870216742426
-304.18434180825454
-306.6194879964629
-308.3942184899634
-309.47877244963615
-0.5129258338644718
-1.579588785848017
-3.3241551864540213
-5.716913660813063
-8.728321772895782
-12.328988756832501
-16.4896575247803
-21.18118619878203
-26.37452939894284
-32.04071950304743
-38.15084808168254
-44.676047691356345
-51.587474194345155
-58.85628975903513
-66.45364667678825
-74.3506721149309
-82.51845391315044
-90.92802751447647
-99.55036410903298
-108.35636005759262
-117.31682764589478
-126.40248721442747
-135.58396069692782
-144.83176659138235
-154.116316379117
-163.4079124007923
-172.67674719131725
-181.8929042678659
-191.02636036350486
-200.04698908847763
-208.92456599956793
-217.6287750515736
-226.12921639910218
-234.39541551101232
-242.3968335541803
-250.10287899715016
-257.48292037429803
-264.5063001437162
-271.14234956162693
-277.36040448708593
-283.1298220164544
-288.4199978353863
-293.20038415944805
-297.4405081226157
-301.1099904512905
-304.1785642455259
-306.61609367297046
-308.3925923576437
-309.4782412265082
-0.5123255118515146
-1.5777500872321468
-3.3203148992006533
-5.710373260827538
-8.718454501542396
-12.315245222776355
-16.471569897180615
-21.158371065836405
-26.34668937212082
-32.00764365228604
-38.11241128887526
-44.63220901184201
-51.53827431680911
-58.801847653267465
-66.39415551635666
-74.28639456047478
-82.44971683861903
-90.85521625331766
-99.4739162946498
-108.27675912674908
-117.23459606847003
-126.31817950982352
-135.49815629071344
-144.7450625620532
-154.02932014143852
-163.3212343673898
-172.59099345215844
-181.80866932497742
-190.94421995712435
-199.96749314986374
-208.84823176454213
-217.55608037370595
-226.0605933010001
-234.33124401470843
-242.33743583805662
-250.04851392775544
-257.43377846932157
-264.4624990274185
-271.1039299792442
-277.32732695138134
-283.1019641647712
-288.39715258359956
-293.1822587426978
-297.4267241166051
-301.1000848747489
-304.17199184456706
-306.6122304888976
-308.39074067976435
-309.4776360281151
-0.5116475146571702
-1.5756745019526193
-3.3159820650745644
-5.702997728135799
-8.707332728635464
-12.299761620918062
-16.451201301682417
-21.1326897199379
-26.315364515574203
-31.9704418130571
-38.069195377516
-44.58293632174301
-51.48299353303567
-58.740694970564114
-66.32734996607066
-74.2142326423662
-82.37256654951658
-90.77351059999143
-99.38814637276496
-108.18746684182133
-117.1423665698232
-126.22363340228331
-135.40194168394362
-144.64784700965777
-153.9317825197489
-163.22405673937777
-172.49485295699898
-181.71423013300978
-190.85212532591038
-199.87835761892373
-208.7626335257121
-217.47455385398794
-225.98362199910883
-234.25925363620405
-242.27078777678315
-249.987499147017
-257.378611842586
-264.413314205364
-271.06077485657
-277.2901598134879
-283.0706506034016
-288.3714632750361
-293.1618681918135
-297.41121047410377
-301.08893093871126
-304.16458736469605
-306.6078758898403
-308.3886523198414
-309.4769531110985
-0.5108875396418
-1.5733491851638348
-3.3111305792665604
-5.6947438218509205
-8.694892997751381
-12.282451945652454
-16.42844154011702
-21.104006757582454
-26.280393776687205
-31.92892734599794
-38.02098862855177
-44.527993712527994
-51.421372958942925
-58.67255133303637
-66.25292985075457
-74.13386825142001
-82.28666898856645
-90.68256261915305
-99.29269465060136
-108.08811389555188
-117.03976237037642
-126.11846676372076
-135.29493149121947
-144.5397333401853
-153.82331771279155
-163.11599645919097
-172.38794729163678
-181.60921476970137
-190.74971283900055
-199.77922890757424
-208.6674294395351
-217.38386704364487
-225.89798903293314
-234.17914743015967
-242.1966103864419
-249.91957497869612
-257.3171813471656
-264.35852812558744
-271.0126891084635
-277.24873108967006
-283.0357327953919
-288.3428048196545
-293.13911045641237
-297.3938873012889
-301.0764694766915
-304.15631031682733
-306.6030053178677
-308.3863151350945
-309.4761883887927
-0.5100409001951789
-1.5707601604254933
-3.3057320709945657
-5.685564607045677
-8.681066522008038
-12.263223093143665
-16.40317148501144
-21.072176010786436
-26.24160355015684
-31.882899360295568
-37.96756349462653
-44.46712801804675
-51.35313518869551
-58.59711675249095
-66.17057447705838
-74.04496203119416
-82.19166829601285
-90.58200218198807
-99.18717900214224
-107.97830844461726
-116.92638417297998
-126.0022750714344
-135.17671814341577
-144.4203130608708
-153.70351836600588
-162.99664931053172
-172.26987731820037
-181.49323105885287
-190.6365991124987
-199.66973420648202
-208.5622590069171
-217.28367344235556
-225.803363539495
-234.0906117511464
-242.11460874777507
-249.84446664713352
-257.24923365151466
-264.29791005131665
-270.9594655524923
-277.2028578719934
-282.99705253184874
-288.3110437734027
-293.1138764940803
-297.3746690881566
-301.06263705550776
-304.14711721774813
-306.5975923543052
-308.3837160412196
-309.4753374509328
-0.5091025362595474
-1.5678923558234317
-3.29975598688587
-5.675409610735528
-8.66577944038984
-12.241975247080376
-16.37526362428116
-21.037041280254982
-26.198808626830314
-31.832143903224086
-37.90867805379442
-44.40007055091382
-51.27798632845674
-58.514073972207285
-66.07994528770718
-73.94715634543297
-82.08719008435746
-90.47144053697681
-99.07119871922035
-107.85764021934763
-116.80181450427986
-125.87463595003805
-135.04687659617082
-144.28916061671313
-153.57196049533277
-162.86559488626835
-172.14022814262296
-181.3658714927693
-190.5123858430572
-199.5494861867573
-208.44674760148166
-217.1736128153541
-225.69940132504627
-233.99332004993224
-242.02447550191363
-249.76188745384886
-257.1745040838049
-264.2312185656924
-270.9008870739426
-277.1523481601842
-282.9544434438422
-288.27603954924245
-293.0860512051206
-297.3534653979768
-301.0473664538918
-304.13696189533607
-306.591608891709
-308.380841090686
-309.4743955875899
-0.5080670273326291
-1.564729648109406
-3.2931696922152867
-5.664225009431064
-8.648953123852664
-12.218602336810022
-16.34458270535498
-20.99843719919643
-26.151813309562783
-31.77643535589681
-37.84407771006946
-44.326539130006594
-51.195618367730866
-58.423091193585606
-65.98068894952033
-73.8400787271516
-81.97284524179292
-90.35047445439389
-98.94433897770887
-107.72568528733932
-116.66562274508158
-125.73511443288159
-134.90496978351132
-144.14583899237795
-153.42820918924693
-162.72240234171966
-171.9985748685731
-181.22671893542156
-190.37666540925693
-199.418088450177
-208.32051172178927
-217.0533162039839
-225.58574959402455
-233.88693728626998
-241.92589491866968
-249.67154247761218
-257.0927199486923
-264.1582044970081
-270.83672915794506
-277.0970030084345
-282.90773277745404
-288.23764584186347
-293.0555145361493
-297.3301816829061
-301.03058723031864
-304.1257958524724
-306.58502533879505
-308.3776755672219
-309.47335781927126
-0.506928608509611
-1.5612549159192213
-3.285938591441706
-5.651953852513927
-8.630504538670806
-12.192992578960144
-16.31098649427075
-20.956190246548786
-26.100412716494034
-31.715538061250463
-37.773497174313164
-44.24624043819779
-51.10571193312313
-58.323825238025925
-65.87244092978611
-73.72334586822893
-81.84823432734119
-90.21869101316679
-98.80617599421655
-107.58201155005429
-116.51737093318009
-125.58326903204562
-134.75055490665343
-143.98990616965887
-153.27182518213283
-162.56663702750336
-171.84448923218187
-181.07535320002387
-190.2290273337149
-199.2751418196643
-208.1831650565882
-216.92241171465028
-225.46205241649864
-233.77112503527928
-241.81854760785612
-249.57313286450898
-257.00360437668166
-264.07861431810335
-270.76676283759656
-277.036619028086
-282.856743467239
-288.1957122959213
-293.0221427744238
-297.30472024388894
-301.0122263937107
-304.1135686980206
-306.57781086487216
-308.37420409847897
-309.4722189326099
-0.5056811894930036
-1.5574501028380041
-3.2780262727660414
-5.638536327384074
-8.610346674280521
-12.165029112762667
-16.27432666256891
-20.910119929477574
-26.04439429901413
-31.649208214014116
-37.696662760288234
-44.1588727516475
-51.0079394708313
-58.21592519702592
-65.7548296202429
-73.59656821618363
-81.71295263161753
-90.07567310818735
-98.65628295516974
-107.42618506184145
-116.35662043172034
-125.41865870886615
-134.58319065589075
-143.82092254314995
-153.10237240304764
-162.3978681071154
-171.6775472219602
-180.9113586049436
-190.06906570918014
-199.1202515708891
-208.03432545967254
-216.78053118020338
-225.32795702400247
-233.64554737134645
-241.70211595219828
-249.46636078021854
-256.9068807742208
-263.99219408065204
-270.6907581101987
-276.9709912928696
-282.80129654747657
-288.1500864496872
-292.9858100596346
-297.2769813557063
-300.99220919106307
-304.1002286540247
-306.56993368921394
-308.3704107893618
-309.47097352175194
-0.5043183770536075
-1.5532962935432408
-3.2693946794587134
-5.623910071528769
-8.588389045207464
-12.134590742243432
-16.234449820131985
-20.860040155929568
-25.983539600543125
-31.577196046793972
-37.613295034676
-44.06412908457564
-50.9019689095741
-58.099036629015544
-65.62748107493165
-73.45935525129933
-81.56659598259654
-89.9210057645614
-98.49423681041495
-107.25777726666821
-116.18293956368689
-125.24085085271423
-134.40244547542008
-143.6384594067959
-152.91942661362677
-162.21567727351942
-171.49733779924114
-180.73433262270646
-189.89638770074305
-198.95303571441968
-207.873622942229
-216.6273177970383
-225.1831210317743
-233.50987762289333
-241.57629035101584
-249.35093510611603
-256.8022779470399
-263.89869395078307
-270.6084878803841
-276.89991669792175
-282.7412139448175
-288.10061599120866
-292.94639014377174
-297.2468645773281
-300.97046002731224
-304.0857231506
-306.56136142006335
-308.3662793798835
-309.469616037973
-0.5028335033849771
-1.5487738044388806
-3.2600043095159776
-5.608010536545223
-8.564538276631254
-12.101552799467655
-16.191198713018977
-20.80576082146412
-25.91762628475462
-31.499248347962556
-37.523111864728804
-43.96170080040607
-50.78746786223028
-57.97280636829929
-65.49002443413639
-73.31132152348204
-81.4087673822623
-89.75428335149022
-98.31962603225938
-107.0763732587305
-115.99591232335422
-125.04943038510926
-134.20790699108565
-143.44210863199925
-152.7225852585238
-162.01966868966093
-171.30347284500243
-180.54389574692408
-189.7106232476767
-198.77313444995428
-207.7007088006103
-216.46243485147863
-225.02722069575546
-233.36380610070077
-241.44077636866137
-249.22657796709166
-256.6895359774942
-263.797873418831
-270.51973249639406
-276.8231978288522
-282.6763217004194
-288.04715136571537
-292.903758427264
-297.2142702725292
-300.9469035365341
-304.06999952085323
-306.5520614525333
-308.36179343090896
-309.4681408496775
-0.5012196585694539
-1.5438622889985538
-3.2498144511454967
-5.590771413239153
-8.538698782301807
-12.065788141809392
-16.144413604522626
-20.747089636540892
-25.846430466671208
-31.415111349663924
-37.42583190993955
-43.851281745078126
-50.66410842909683
-57.83688801711092
-65.3420981135096
-73.15209353532369
-81.23908456946091
-89.57511779894615
-98.13205944853729
-106.8815811842965
-115.79514828811702
-124.84401011304132
-133.99919273083282
-143.23149367228444
-152.51147866597864
-161.80948029235248
-171.09559847063858
-180.3397027138853
-189.51143610033233
-198.58022092436772
-207.51526600600323
-216.285575657736
-224.85996032189286
-233.20704891003194
-241.29530289125574
-249.09303218714726
-256.5684129443856
-263.6895072612973
-270.4242849479587
-276.740647402151
-282.6064536736401
-287.9895487775155
-292.857794307901
-297.1791013693856
-300.92146582378473
-304.05300580744694
-306.5420014326425
-308.35693654082513
-309.466542311146
-0.49946972769024
-1.5385408606188236
-3.238783456077968
-5.572125123911718
-8.510773548214999
-12.027168300560547
-16.09393386156235
-20.683834221455825
-25.769729381779285
-31.32453402962637
-37.32117860849661
-43.7325729608373
-50.53157267116872
-57.69094819894546
-65.18335684579671
-72.98131756816827
-81.05718861352699
-89.38314792925752
-97.9311762695512
-106.67304290981073
-115.58029386217113
-124.62424247200333
-133.77596228166905
-143.0062820410514
-152.28578274661237
-161.58479660752502
-170.87340784230702
-180.12145522745902
-189.29853633779365
-198.37401343693017
-207.31702099585954
-216.0964748412668
-224.68108295509538
-233.03935796744037
-241.13963140577215
-248.95006977734465
-256.43869257997846
-263.5733923418883
-270.3219568015742
-276.6520933421538
-282.53145578353315
-287.92767363378573
-292.8083838816592
-297.14126538618046
-300.8940758977934
-304.0346916967799
-306.53114979559825
-308.3516925977759
-309.4648148423961
-0.4975764351001146
-1.532788235320936
-3.226869053858181
-5.552003388762188
-8.480665033799696
-11.985564798884397
-16.039599771319047
-20.61580449986056
-25.687304430685934
-31.22727187369653
-37.20888471504089
-43.605288046350275
-50.38955882783701
-57.534673656974036
-65.0134796689648
-72.79866855491085
-80.8627536521627
-89.17805002598053
-97.7166574402173
-106.45044609538549
-115.35104499732086
-124.38983280883951
-133.53793103802388
-142.7661994204388
-152.04523335049262
-161.34536323847686
-170.63665568067577
-179.88891634820874
-189.0716945251092
-198.15428924695834
-207.10575701834887
-215.89492111278423
-224.49038248524184
-232.8605323529702
-240.9735665234818
-248.79750156873772
-256.3001929676804
-263.4493553458352
-270.21258495899576
-276.55738456823883
-282.4511908494296
-287.86140448203224
-292.7554230356461
-297.1006767550076
-300.86466731829665
-304.01500959533064
-306.5194763868586
-308.34604607216727
-309.46295302389865
-0.49553239567835305
-1.5265828958284544
-3.2140287143433
-5.530337876134325
-8.448276201511305
-11.940850655689559
-15.98125461239998
-20.542815424836746
-25.598944641935354
-31.12309115010803
-37.08869745020457
-43.469159233963374
-50.23778836122006
-57.36777929016297
-64.83217896403687
-72.60386011306295
-80.65549789699938
-88.9595497736006
-97.48823845930302
-106.21353782403158
-115.1071615487368
-124.14055436723514
-133.28488570912202
-142.51104557294033
-151.78964245794015
-161.09100320463108
-170.3851746119825
-179.64192672084823
-188.83075768157863
-197.92090015002827
-206.881329190083
-215.68077168810572
-224.28771731962036
-232.67043113727033
-240.79696787763083
-248.6351881124833
-256.152776392002
-263.3172615458413
-270.09603932492104
-276.4563975699789
-282.36554409825874
-287.79063749497266
-292.6988209768645
-297.0572594790495
-300.8331800836496
-303.99391586483114
-306.50695317729253
-308.33998235367807
-309.46095170451446
-0.49333017337366414
-1.5199032807943524
-3.2002200623413444
-5.507060944192077
-8.413511691412225
-11.892902097994423
-15.918747007368097
-20.46469007235399
-25.50445059853714
-31.011773750530054
-36.9603843278377
-43.323944261292084
-50.076013915878356
-57.19001722811167
-64.63921065461935
-72.39665586131206
-80.43519604131885
-88.72743571226034
-97.24572381979272
-105.96213994927919
-114.84848343559473
-123.8762651532548
-133.01670176811197
-142.2407122424013
-151.5189163920126
-160.82163531845322
-170.1188935591342
-179.3804228269961
-188.57566724373356
-197.67379000340804
-206.64368144191786
-215.45396852177052
-224.07302578150592
-232.46898783456658
-240.60976353719218
-248.46305197645225
-255.99636045938217
-263.17702470798883
-269.9722314800049
-276.34904385275456
-282.2744294094471
-287.7152915631274
-292.638504244702
-297.0109501596824
-300.7995627848046
-303.97137223543257
-306.4935550837116
-308.3334881387558
-309.45880612594084
-0.49096234860685684
-1.5127280008074422
-3.185401350314663
-5.482106485380342
-8.376279155809172
-11.84160050360721
-15.851933589440563
-20.381263141769992
-25.403638874922216
-30.893122657013365
-36.823739731393935
-43.16943412158
-49.90402829033011
-57.001187053069515
-64.43438569022618
-72.17688215422066
-80.2016932165291
-88.48157436580611
-96.98900323848349
-105.69616633853809
-114.57494879176033
-123.59692687178207
-132.73336303954932
-141.95520324482757
-151.23307625544044
-160.53729480534457
-169.83785837614437
-179.1044574640761
-188.30647922047825
-197.4130143929285
-206.39286553983393
-215.21455653268723
-223.84634340372213
-232.25622664282548
-240.41196508639752
-248.28109157725422
-255.83093061708496
-263.0286182522487
-269.84112446237793
-276.23527834288586
-282.1777963721809
-287.6353140590899
-292.5744212601436
-296.9617014324027
-300.7637750548897
-303.94734741605225
-306.4792609050451
-308.32655187435245
-309.45651206632283
-0.4884215945606627
-1.5050360830699958
-3.1695319955891676
-5.455410884302339
-8.336490769013068
-11.786834596048877
-15.78068201377856
-20.29238490639814
-25.296347040439954
-30.766968101660567
-36.67859231819831
-43.00546178366616
-49.721674525576645
-56.80114728939421
-64.2175829469325
-71.94444238215206
-79.95492065628657
-88.22192721334474
-96.71806985665376
-105.41564220306776
-114.28661430695362
-123.30262614235676
-132.43498363762674
-141.65465696503998
-150.93228081142234
-160.23815638530826
-169.54225494330748
-178.81422266597593
-188.0233867518345
-197.13876264677137
-206.12906237844058
-214.96270401206198
-223.60782229905644
-232.0322806399309
-240.20368452909116
-248.08939669642893
-255.65655420449912
-262.87208778875004
-269.7027437645437
-276.11510884700033
-282.075638237396
-287.5506873399212
-292.5065474646326
-296.9094858548235
-300.7257903459283
-303.92181892329637
-306.46405438778265
-308.319164263385
-309.4540660036809
-0.4857007636064594
-1.4968072492127504
-3.1525731872501837
-5.426914098680868
-8.294064931204616
-11.728502920042004
-15.704874347759386
-20.19792565773882
-25.18243928717115
-30.633174490357426
-36.524813336835095
-42.83191198244695
-49.528857226233214
-56.58982829022682
-63.98876368917314
-71.69933299403655
-79.69491324084535
-87.94856969035114
-96.4330406092122
-105.12072572303722
-113.9836779744436
-122.99359821670558
-132.12183248450847
-141.33937149231545
-150.6168520413652
-159.92456005011786
-169.23243495655515
-178.51007529484116
-187.72674529541237
-196.85138241462235
-205.85260575746378
-214.69872541476929
-223.35775279849383
-231.7974121172086
-239.9851531876256
-247.88816583433308
-255.47339617873266
-262.7075651589616
-269.5571896604243
-275.988606665682
-281.9680008501533
-287.4614360602552
-292.4348911064835
-296.85430029189484
-300.68559906570266
-303.8947751505245
-306.4479254341102
-308.3113188394285
-309.45146530223894
-0.4827929862022273
-1.4880222289450842
-3.1344885695464484
-5.396560876242319
-8.24892818532355
-11.666516623957222
-15.624410880808767
-20.097780696223168
-25.06181274354043
-30.491648167265254
-36.36232595079689
-42.64873218826167
-49.3255552387694
-56.36724666148386
-63.74798775062399
-71.44166141722349
-79.42182911033635
-87.66171242169148
-96.13417897600075
-104.81173219154022
-113.6665044782028
-122.67025343892125
-131.7943606544197
-141.0098326435342
-150.28730363071253
-159.597039787452
-168.90894465910264
-178.1925655480374
-187.41710067923694
-196.5514070419049
-205.56400886385075
-214.42310674728532
-223.09658755886562
-231.55203524068426
-239.756742771257
-247.6777255655212
-255.28173666464855
-262.53528411552844
-269.4046509818788
-275.85591846643047
-281.85499265096973
-287.36763536933216
-292.35949973655016
-296.79617084505895
-300.6432121089928
-303.86621770140187
-306.43087146689686
-308.30301261737986
-309.4487084239224
-0.4796917810461423
-1.47866311248967
-3.1152450108103977
-5.364302121779573
-8.201017367744257
-11.60080257870139
-15.53921439368031
-19.99187592249374
-24.934404544376207
-30.342346105297906
-36.19111566970817
-42.45594487420266
-49.111835823546016
-56.13352137935585
-63.49543160710562
-71.17166606387428
-79.13597155107107
-87.3617249041494
-95.8219203472666
-104.4891609207728
-113.33565347246297
-122.33320670779375
-131.4532318075622
-140.66674514160354
-149.94437265140053
-159.2563555169702
-168.5725567771973
-177.86246863832588
-187.09522027261187
-196.23958598421547
-205.26399369398356
-214.13653377560385
-222.82496835107807
-231.29674123588543
-239.51898879855796
-247.45855206668668
-255.08199048394061
-262.3555977805672
-269.2454204687881
-275.7172795237095
-281.7367958400785
-287.26942007163854
-292.2804674757354
-296.73515837456654
-300.5986648200537
-303.8361640131056
-306.4128989665846
-308.2942468268617
-309.4457951666975
-0.47639117842267353
-1.4687137453198744
-3.0948134648159282
-5.33009642748155
-8.15028201490776
-11.531306868332521
-15.449234933503774
-19.88017408757075
-24.800199733136544
-30.185285615561156
-36.0112419982114
-42.25366121109565
-48.88787047145549
-55.888891770722154
-63.23140852891221
-70.88973862931715
-78.8378133782162
-87.04916187741176
-95.4969002548984
-104.15372517393007
-112.99191102589552
-121.98331021974002
-131.09935599765174
-140.3110672345468
-149.58905472574006
-158.90352852321203
-168.22430594018914
-177.52081991904743
-186.76212753843444
-195.91691851695057
-204.95352365970294
-213.8399232836536
-222.54375574777055
-231.03232630304888
-239.2726165651213
-247.23129499111266
-254.87472882287057
-262.16899802689653
-269.0799118214293
-275.5730284382591
-281.6136788009188
-287.1669948322325
-292.1979431203219
-296.6713646667333
-300.55202142433666
-303.80465029456496
-306.39402519563635
-308.28502773728235
-309.4427269333552
-0.47288585891634227
-1.4581601695289947
-3.073169932487872
-5.293911782016977
-8.096687050811113
-11.457998686993108
-15.354455143987536
-19.76268176860045
-24.65924007839137
-30.020555178086994
-35.82285142723787
-42.04209633455875
-48.65395252908426
-55.63373754124217
-62.95639101848063
-70.59644890724752
-78.52802405782074
-86.72479264332273
-95.15998574227166
-103.806385406441
-112.63632452349262
-121.62168979304622
-130.73392715662962
-139.94404905982367
-149.2226429757672
-158.53988068511734
-167.86552787987713
-177.16895374271496
-186.41914024518078
-195.5846910034593
-204.6338396300339
-213.53445762301453
-222.25406193637374
-230.75982247381734
-239.01856985238663
-246.99680387010025
-254.66070320159145
-261.9761369293495
-268.90867858656856
-275.42362345163275
-281.48600988092574
-287.06064550761744
-292.1121391526026
-296.60493929880846
-300.50337996821236
-303.7717348067004
-306.3742801272409
-308.2753675821439
-309.43950703390993
-0.469171307883812
-1.4469911164849805
-3.0502965338983756
-5.255727475590717
-8.040215783164442
-11.3808746815304
-15.254896204681813
-19.639457141358974
-24.511633895817326
-29.848326505628897
-35.62619190184961
-41.821586342667715
-48.41051681363176
-55.36860105574243
-62.67103576032074
-70.29257236915416
-78.20749983325072
-86.38963361465807
-94.8123101700188
-103.44838612526914
-112.27024134299053
-121.2497850951462
-130.35846458099897
-139.5672750790369
-148.8467710792995
-158.16707781677246
-167.49790271601054
-176.80854635094443
-186.0679126262699
-195.2445179991443
-204.30649967166204
-213.22162280068108
-221.957286887497
-230.48053162245935
-238.75804257522702
-246.7561572233047
-254.440871911799
-261.7778504349715
-268.73243500754825
-275.26966047010677
-281.3542726298849
-286.9507516869512
-292.02334172434706
-296.53608725441353
-300.4528778065494
-303.73750151219974
-306.353708594897
-308.2652855901619
-309.43614102261813
-0.46524398709952663
-1.4351985538045113
-3.026182700799964
-5.215536219016073
-7.980873236334801
-11.299963784279115
-15.15062444088943
-19.510618629811056
-24.357566978577005
-29.66886796624904
-35.421628913413606
-41.59260719711223
-48.15816141826756
-55.094212095742535
-62.376211331858194
-69.97912078018346
-77.87739714857429
-86.04498440237217
-94.45531177952796
-103.08129669983313
-111.8953516473
-120.86939411892371
-129.97485876789557
-139.18271092799603
-148.46346077332072
-157.7871774539103
-167.12350265140387
-176.44166310604572
-185.7104817831285
-194.8983874741235
-203.97342275518895
-212.903250354558
-221.6551581130144
-230.19606284911254
-238.49251356616927
-246.5106945585414
-254.2164290866412
-261.57518439874434
-268.5520789695422
-275.11189291260945
-281.2190825933337
-286.8378005261787
-291.9319216808867
-296.46507734313724
-300.400697678282
-303.70206412206994
-306.33237267892827
-308.2548091330126
-309.4326370740702
-0.4611015245068586
-1.4227782920867043
-3.0008265006631945
-5.173346497438246
-7.918689853794874
-11.215332583223159
-15.041758670345963
-19.37635452124512
-24.19731474777611
-29.482559503362147
-35.209663384088785
-41.355795723306294
-47.89767192980676
-54.81151534388232
-62.073028950004996
-69.65737614866691
-77.53916968767186
-85.69246777878581
-94.09077636595319
-102.70705648627306
-111.51373566145655
-120.48272227980917
-129.58542197158602
-138.79275504916959
-148.07517416419765
-157.40268143487606
-166.74484441341747
-176.07081038666286
-185.34931863814796
-194.54871044102072
-203.6369366952912
-212.58156326822458
-221.34977424616204
-229.9083734486045
-238.22378469321657
-246.26205143903843
-253.98883656104968
-261.36942312849305
-268.36871716876465
-274.9512534942727
-281.08120575611247
-286.7224019550398
-291.83834669251524
-296.39225147654895
-300.34707440873325
-303.66557056583565
-306.31035434751647
-308.24397499782197
-309.4290064009547
-0.456742925087795
-1.409730657861644
-2.974236103870794
-5.129185180491689
-7.8537256067480286
-11.127091283428385
-14.92847836197324
-19.236933646084267
-24.031255748774306
-29.289909207617242
-34.99095152919332
-41.11197292638158
-47.63004830592273
-54.521700872523716
-61.76287655866302
-69.32892833935607
-77.19460938074029
-85.33407388638271
-93.72088444496697
-102.32802465880674
-111.12791583288332
-120.09243653268044
-129.19294387491934
-138.40029549384897
-147.68487122124156
-157.01659363861955
-166.36494678854882
-175.6989924765714
-184.98738374751758
-194.19837527859545
-203.2998305945654
-212.25922617263763
-221.04365267045728
-229.61981367229632
-237.95402249996033
-246.01219778943886
-253.75985867793332
-261.1621205756517
-268.18369262395674
-274.7888780500784
-280.9415787277233
-286.6053053335882
-291.74319455536204
-296.31803485021345
-300.2923022756842
-303.62820791271326
-306.2877583691354
-308.2328307915923
-309.4252637155336
-0.4521688039321816
-1.3960612374975199
-2.9464314075800218
-5.083100414105772
-7.786074549830303
-11.035400320794508
-14.811032690511375
-19.092717234022416
-23.85988663615204
-29.091571715979278
-34.76632690530744
-40.86216986499916
-47.356534689700595
-54.226237945503286
-61.4474565963988
-68.99571671726451
-76.84589176673319
-84.97220909849088
-93.34826333188408
-101.94703517544662
-110.74091430516768
-119.70172493639724
-128.800752797528
-138.00877230432377
-147.29607284933286
-156.6324832576692
-165.98739360755647
-175.32977378202034
-184.62818828496825
-193.85080703793338
-202.96541205516203
-211.93940007616493
-220.7397814165601
-229.33317547987275
-237.68580354335464
-245.76347959755188
-253.53160018065617
-260.9551342958374
-267.99861463948884
-274.62613149409447
-280.80133075139565
-286.4874176284747
-291.64716771904665
-296.2429470777919
-300.2367430752496
-303.590207767872
-306.2647155106295
-308.22143648634153
-309.4214277386425
-0.44738164256354196
-1.381781698500717
-2.9174458323087578
-5.035164822111938
-7.71586986900212
-10.940477695698675
-14.689750581903027
-18.944172072168733
-23.683838806972602
-28.888368634945337
-34.536824880116995
-40.60765635873052
-47.07865247300094
-53.92691248043339
-61.12882782370929
-68.66007622857947
-76.4956261418771
-84.60974997962103
-92.97604459390308
-101.56745734384138
-110.35631617042398
-119.31436212570802
-128.4127828888952
-137.62224590889426
-146.91292995346785
-156.25455399589475
-165.6164025452564
-174.96734671409462
-184.2758605061996
-193.51003201339643
-202.63756941147676
-211.62580184993112
-220.44167552973101
-229.05174546141373
-237.42216358958922
-245.51866415161925
-253.30654731214935
-260.75066228652554
-267.815391315337
-274.4646359959842
-280.66180760641606
-286.3698231683299
-291.5511090922753
-296.1676143176231
-300.1808349182131
-303.5518521652624
-306.24138603531173
-308.20986611292733
-309.417521758659
-0.44238607184348666
-1.3669106962596231
-2.887328307427026
-4.985479049079387
-7.643289473189853
-10.842607104493908
-14.565051858750586
-18.7918851087437
-23.503896866160062
-28.68131121327287
-34.30370979168063
-40.34997283870615
-46.798236959939125
-53.62586856212434
-60.809451635325416
-68.32478837377712
-76.14691097376146
-84.25010284198419
-92.60792738025026
-101.19326249474103
-109.97833900387576
-118.93478118325692
-128.03364778298922
-137.24547198410664
-146.54029892340336
-155.88771959039855
-165.25690010212887
-174.61660557018456
-183.93521799506667
-193.1807478473789
-202.32083922173928
-211.32276867562348
-220.15343808767224
-228.7793620849241
-237.16665080074156
-245.2809889282451
-253.08761222146669
-260.55128278755984
-267.6362646766823
-274.3063014382617
-280.52459745877354
-286.25380502430016
-291.45601916456076
-296.09278242420754
-300.12510178188927
-303.5134799764493
-306.21796351421807
-308.19820960930826
-309.4135742420166
-0.43718918400711004
-1.3514748746727463
-2.8561454644561195
-4.93417568123202
-7.568562190692788
-10.742146957514564
-14.43745960974583
-18.636579668968466
-23.3210191335549
-28.471625521226898
-34.06850510333726
-40.090965695247256
-46.51747803196968
-53.325654450380284
-60.49224333759115
-67.99313758451163
-75.80339511456151
-83.8972694471225
-92.24824818673119
-100.82909731851927
-109.61190922725734
-118.56815244160458
-127.66872122085474
-136.88398326079
-146.1838239808813
-155.53768606250205
-164.9146031349146
-174.28322674246044
-183.61184597801392
-192.86839941599874
-202.0204792310901
-211.035327635888
-219.87982601782846
-228.52047739182382
-236.92338301249174
-245.05421421275696
-252.87818074431482
-260.3599970982378
-267.4638484674474
-274.15335819228744
-280.3915586939171
-286.140868045863
-291.3630744692204
-296.01933114551036
-300.0701638351814
-303.4754938490381
-306.1946789585977
-308.18657482754986
-309.4096194977661
-0.43180087542395995
-1.3355099693872177
-2.823984062009515
-4.881423587531231
-7.491974638136227
-10.63954038675584
-14.307613927027049
-18.47913347346494
-23.136360434666777
-28.260780432034096
-33.833026905920306
-39.83282653001495
-46.238965271704224
-53.02927358585248
-60.18062893429739
-67.66897357907865
-75.46934541216348
-83.55591946404414
-91.90205767041294
-100.4803644746715
-109.26274589388153
-118.22046978280255
-127.32422517585104
-136.5441787719314
-145.85002684527308
-155.21104110646002
-164.5961072961525
-173.97375556492307
-183.31218197214793
-192.5792607155849
-201.74254698263096
-210.76927058698556
-219.62632082187184
-228.28022322041875
-236.69710916048865
-244.84267949048876
-252.68216358121794
-260.18027542639754
-267.30116861844226
-274.008392219872
-280.26484973606887
-286.0327635571788
-291.27364739534397
-295.94828937457055
-300.0167485453344
-303.43836768133866
-306.17180527915855
-308.17508970387075
-309.40569839726834
-0.42623422378296993
-1.3190620253869838
-2.7909536673635102
-4.827432728373964
-7.413878841676869
-10.53532636407224
-14.17628718006825
-18.320598680513584
-22.951297457694473
-28.05051875095981
-33.59942117427091
-39.578135779817366
-45.96573806991871
-52.74024116917494
-59.87860803944454
-67.35678034774958
-75.14972139239899
-83.23147036851621
-91.57520519605828
-100.15331114154034
-108.93745253905723
-117.89864504588972
-127.0073260494307
-136.23342106008067
-145.5464041809531
-154.9153510229554
-164.30898272980363
-173.69570008724395
-183.04360699988132
-192.32052293110507
-201.4939842092935
-210.5312344035048
-219.3992042613403
-228.06448198028946
-236.49327485413852
-244.6513635915672
-252.50405084657413
-260.0161057379841
-267.15170635670734
-273.87438246854146
-280.1469608268854
-285.93151569196476
-291.1893273327236
-295.8808514455046
-299.9657025613518
-303.40265463242264
-306.14966207370713
-308.16390459328966
-309.4018591497932
-0.4205059045124955
-1.3021887420060665
-2.7571896245239174
-4.772459490318624
-7.334700705932228
-10.430152069856838
-14.044401022151007
-18.162224213011143
-22.76745700449485
-27.84289189217692
-33.37020525050369
-39.32991125420665
-45.70134132248061
-52.462646975837686
-59.59082362528628
-67.06175250948871
-74.85025777248639
-82.9301755490903
-91.27443187232585
-99.85512624173066
-108.64361779654685
-117.61061119681948
-126.72623953719388
-135.96014188034212
-145.2815332933664
-154.65926559359545
-164.0618773495092
-173.45763203235185
-182.81454355895278
-192.10038881446906
-201.28270708043488
-210.32878662005703
-219.20563898845853
-227.87996193196474
-236.3180920298045
-244.48594850585917
-252.34896989660797
-259.8720455117198
-267.01944386461344
-273.7547404785941
-280.04074769385386
-285.8394493107854
-291.1119431063891
-295.8183944423235
-299.91800435324234
-303.3689956561336
-306.12862073719947
-308.15319476604503
-309.39815813405954
-0.41463664941538525
-1.2849609597517713
-2.7228563455351633
-4.716812614873611
-7.2549494413872395
-10.324786678802305
-13.913045361577979
-18.00548067705745
-22.58674752252793
-27.64029857219371
-33.14831410665266
-39.09166221826318
-45.44988741981107
-52.20122517153367
-59.32263941720237
-66.78987988476509
-74.57755566866041
-82.65922148129074
-91.00747292142954
-99.59404715482833
-108.38992554404756
-117.36543496213353
-126.49034479481452
-135.73395695050934
-145.0651865414807
-154.45263127651182
-163.86462799270507
-173.26929514752663
-182.63456047957672
-191.92817343185027
-201.11770229900964
-210.1705164129905
-219.0537540225415
-227.73427684001734
-236.17861252890518
-244.35288670084157
-252.2227462651353
-259.75327623206897
-266.9089123327095
-273.6533520615907
-279.9494669858799
-285.759219398777
-291.0435866210048
-295.76249646367154
-299.8747775691475
-303.3381285349999
-306.10910988219547
-308.1431630613204
-309.39466078352024
-0.4086517532009992
-1.2674643086655095
-2.6881509679646456
-4.660859800840889
-7.175228082227363
-10.220136761331545
-13.783499573403809
-17.852088234092463
-22.41139437598092
-27.445528075466413
-32.937152036434
-38.86744976000458
-45.21612534873141
-51.96143201363447
-59.080225872042476
-66.54804125366596
-74.33918347856788
-82.42683494306091
-90.78317032644371
-99.37947681329017
-108.18627540936174
-117.17343967993651
-126.31030856628666
-135.56579031074196
-144.90845492519463
-154.3066130761336
-163.7283796988512
-173.1417210978393
-182.51448472577115
-191.81441125408912
-201.00912895142466
-210.066130765555
-218.95273486848075
-227.63602975986333
-236.08280533999903
-244.25947167219678
-252.13196743837824
-259.6656603646962
-266.8252421690646
-273.57462083718747
-279.87681329396014
-285.6938417932331
-290.9866375957604
-295.7149557526033
-299.8373050469809
-303.31089737442585
-306.09162104743916
-308.1340426889185
-309.39144252316754
-0.4025816344150286
-1.2498010382558533
-2.653307428951294
-4.605035077327933
-7.096245253812484
-10.117263537536111
-13.65725628156298
-17.704047859545675
-22.24397939752224
-27.26180874758804
-32.74065054224819
-38.66195431168246
-45.005517865183165
-51.74953247004193
-58.870655824996916
-66.34410841360055
-74.1437885578438
-82.24240137155334
-90.61159681406247
-99.22211217387351
-108.04391454404248
-117.04633917258437
-126.19821996481679
-135.4680088606194
-144.8238812881784
-154.2338253999798
-163.6657133001227
-173.0873529721889
-182.4665201030248
-191.77096945715198
-200.96842589503802
-210.0265555352621
-218.9129179450157
-227.59490059106344
-236.039637118017
-244.21391133578692
-252.0840490864948
-259.61580045029405
-266.77421503099276
-273.52351333033255
-279.82695749864934
-285.64672502752035
-290.943789220613
-295.67781056418823
-299.80704339050754
-303.2882624992345
-306.0767146613681
-308.1261001627725
-309.3885897532895
-0.39646245757811016
-1.2320920561662092
-2.618601018317449
-4.549847064648851
-7.018828381531804
-10.01740226765122
-13.536048106050167
-17.563676507406555
-22.087485370061067
-27.09286249606609
-32.563333325643036
-38.480551349810895
-44.82432786409703
-51.57269696263606
-58.70201106507682
-66.18706182260415
-74.00122097381256
-82.11659561088334
-90.50419236021656
-99.134085164651
-107.97558165465772
-116.99738350193775
-126.16773662382056
-135.45456763974457
-144.82560354675633
-154.24847215868428
-163.69078143306848
-173.12017637155043
-182.504372715478
-191.81116716547962
-201.00842432346226
-210.06404098765148
-218.94588883407604
-227.6217368766127
-236.05915544392622
-244.22540372527956
-252.0873032332673
-259.61109982831107
-266.7623172308161
-273.50560523133436
-279.80458610164646
-285.62170300490504
-290.91807450534463
-295.65335959774166
-299.78563798681535
-303.2713106730239
-306.0650262161457
-308.1196383462369
-309.38620087325523
-0.39033682701877126
-1.2144792089315644
-2.58435348577283
-4.4958882637116915
-6.9439385722708735
-9.921984124554136
-13.421877850690464
-17.433646801843786
-21.9453462165972
-26.942966232417454
-32.410389463110086
-38.32939648972747
-44.67971527594304
-51.43910965004045
-58.583501308547476
-66.0871193181257
-73.92267080986248
-82.06152647308633
-90.47391455510463
-99.12911732743143
-107.99566436935267
-117.04151752355864
-126.23424295850603
-135.54116640603598
-144.92950831013857
-154.36649628930402
-163.81945297481292
-173.2558579202362
-182.64338286729472
-191.9499002069274
-201.14346497562215
-210.19227118279537
-219.0645836787704
-227.72864714140326
-236.1525741084714
-244.30421428813136
-252.15100768257452
-259.6598243531828
-266.7967939346304
-273.5271283023142
-279.8149410977736
-285.6230681328415
-290.91289302494533
-295.64418276837443
-299.77493830454955
-303.26126553382494
-306.05727259096534
-308.1149995817757
-309.3843873370479
-0.3842545629650971
-1.1971278417849973
-2.5509387945413096
-4.443845547174632
-6.872687449892723
-9.8326609665461
-13.317052710249428
-17.317032008107677
-21.821503831843003
-26.817021373520774
-32.287756058767
-38.21552142181683
-44.57984606253751
-51.358089914652794
-58.52559728942195
-66.05587964032212
-73.92082071706719
-82.09089673251577
-90.53540433243712
-99.22268951039166
-108.12037111421503
-117.19555321125512
-126.41502129090443
-135.74541803808086
-145.15339519231122
-154.60573878259316
-164.06946577513287
-173.51189088093275
-182.9006629220081
-192.203770749547
-201.38951924166048
-210.42647638230838
-219.28339284126616
-227.92909584829914
-236.3323594915277
-244.4617538712689
-252.28547583432928
-259.77116429367686
-266.88570341848845
-273.5950172773225
-279.8638598240461
-285.6556044500145
-290.9320376871762
-295.65316203149956
-299.7770132672722
-303.2594981115166
-306.0542584459908
-308.11256886615735
-309.38327472785056
-0.3782735728627955
-1.1802296869927673
-2.5187896348503074
-4.394512064729476
-6.8063562903551045
-9.751333518340822
-13.22422319647334
-17.21735719520441
-21.72047268802583
-26.720632749235847
-32.20221192188878
-38.14694241335119
-44.53401517864778
-51.34022901995043
-58.54017998249601
-66.10648277331018
-74.01001567021498
-82.22018040464211
-90.7051687613359
-99.43222811570075
-108.36791877730721
-117.47835677623793
-126.72943659368897
-136.0870292438193
-145.51715202578356
-154.98610716202234
-164.46058738918276
-173.90774735729127
-183.29524040926609
-192.5912209488879
-201.7643131673518
-210.78354738317626
-219.6182656676423
-228.23799879377103
-236.61231686338718
-244.71065625474873
-252.50212580565073
-259.95529540863157
-267.03797046646486
-273.7169559472834
-279.9578140913068
-285.7246201662679
-290.9797210579805
-295.6835019046905
-299.7941664455983
-303.26753725858373
-306.0568825890904
-308.11277702550933
-309.3830038369909
-0.3724608366813058
-1.164006141023762
-2.4884048346240846
-4.348800819752277
-6.74641787826809
-9.680183585673937
-13.146427640611535
-17.138657699090025
-21.64741358375968
-26.660198541904435
-32.161484131525015
-38.13278343945436
-44.55278572138275
-51.39754426366181
-58.64070832648413
-66.25378945113195
-74.2064521907213
-82.46681942635828
-91.00178281668765
-99.77730956849459
-108.75873754119033
-117.91105165203726
-127.19913559764059
-136.58799398862695
-146.04294106517284
-155.5297531930314
-165.01478330411317
-174.4650363227752
-183.84820539895284
-193.1326694454847
-202.2874530578273
-211.2821503818126
-220.0868149021275
-228.67181746664016
-237.00767515092343
-245.06485382457788
-252.81354752332908
-260.22343796442374
-267.26343779559346
-273.9014214450049
-280.1039477513655
-285.8359789091359
-291.06060067642125
-295.73874925342136
-299.8289507564336
-303.2870797847114
-306.06614419201964
-308.1161038328852
-309.3837317297544
-0.3668935272787408
-1.1487120029866205
-2.4603578397883794
-4.307760239790724
-6.694561605769863
-9.621711069488363
-13.087143319210139
-17.08554623864058
-21.608218200682007
-26.643013224644832
-32.17436973194399
-38.183416421960054
-44.64814691965216
-51.54365338443964
-58.84240823663755
-66.51458256976369
-74.52838965342427
-82.8504421576348
-91.4461122863152
-100.2798848523951
-109.31569437334167
-118.51723845102399
-127.84826097250584
-137.2727999540647
-146.75539610628854
-156.26125938642812
-165.75639189174217
-175.20766641600574
-184.58286083626152
-193.8506492062868
-202.98055102285355
-211.94284060930937
-220.70841894210358
-229.24865055302948
-237.53516838114894
-245.53964966624193
-253.2335661695965
-260.58791220146077
-267.57291416092545
-274.1577255437446
-280.31011168077066
-285.99612883023417
-291.1798026801971
-295.82281181734254
-299.884182290658
-303.32000004497587
-306.0831487094648
-308.1230809963762
-309.3856327731796
-0.3616602914898053
-1.13463976624206
-2.4353064790074797
-4.272592138984521
-6.652722455804124
-9.578776720227708
-13.050345486586803
-17.063290338720343
-21.609606500988672
-26.67738589099711
-32.25087527147846
-38.31062155310902
-44.833694133162815
-51.79397249764045
-59.16248619509663
-66.90779371142698
-74.99638670679315
-83.39310647208073
-92.06156024714954
-100.96452614739421
-110.06433676937611
-119.32323301617396
-128.70368122341853
-138.16864819614403
-147.68183023373567
-157.2078335845139
-166.71230499495564
-176.16201207875014
-185.52487413658432
-194.76994479122936
-203.86734838785776
-212.78817256198857
-221.5043197126302
-229.988320371945
-238.21311164051374
-246.15178401199825
-253.77730004371995
-261.06218846998473
-267.97821753732677
-274.49605155847445
-280.58489497315475
-286.2121285654144
-291.3429429343362
-295.93997485839463
-299.9629528202182
-303.3683586827841
-306.10911332560795
-308.13429493439656
-309.38889959871443
-0.35686272530816154
-1.1221245790620955
-2.4140042773830857
-4.2446725623894395
-6.623114663338363
-9.554651797683388
-13.040575902487788
-17.077902093687715
-21.65923944606093
-26.77277688520121
-32.40237747174133
-38.52777129111031
-45.12483465612139
-52.16594145767452
-59.6203713016004
-67.45475853121243
-75.63356631399327
-84.11957060031779
-92.87433984303813
-101.85869780238778
-111.03315843538923
-120.35832368458368
-129.79523684105885
-139.305685974425
-148.8524536325541
-158.39951057304347
-167.91215265413297
-177.35708117047366
-186.70242787090146
-195.9177266419157
-204.97383440331566
-213.84280416524524
-222.49771346525466
-230.91245157478423
-239.06146896480763
-246.91949258154
-254.46121054254195
-261.6609299319276
-268.49221149269675
-274.9274851953779
-280.93765092295627
-286.49166887047363
-291.5561447163991
-296.09491520434483
-300.0686404602189
-303.4344101762768
-306.1453717192766
-308.1503892380523
-309.39374396838105
-0.3526170854747903
-1.111550016934821
-2.3973136498762315
-4.22557612777193
-6.608271045716805
-9.553076080007525
-13.063022808368764
-17.136242771659237
-21.765850079951015
-26.939956281451966
-32.641809016111026
-38.850042361864155
-45.539023882479675
-52.67928128932044
-60.23799037145579
-68.17950539544456
-76.46591347226098
-85.05759533291398
-93.91377642240509
-102.99305407844241
-112.25388867271433
-121.65504882965327
-131.15600307913516
-140.7172524554284
-150.30060054187356
-159.8693592318219
-169.38848999160246
-178.82468166099835
-188.1463668107633
-197.32367941522253
-206.32835711179686
-215.13359164490276
-223.71383126744996
-232.04453893188418
-240.1019100959249
-247.86255391658938
-255.30314156433238
-262.4000253692515
-269.12883255257196
-275.4640374249585
-281.37851615629415
-286.8430885675325
-291.8260518644414
-296.29271184667493
-300.2049178760412
-303.5206087803847
-306.19337790668874
-308.1720667037454
-309.4003975046197
-0.3490562894417977
-1.1033548445583392
-2.386221389663845
-4.2171046322710595
-6.611089233361188
-9.578326014155355
-13.123614773420421
-17.246145342460544
-21.93939671719516
-27.19118855571164
-32.98387431140678
-39.29466100659432
-46.09603730643508
-53.35628922436032
-61.04008150172478
-69.10908240625926
-77.52261029887853
-86.23828168583562
-95.21264244308578
-104.40176629395268
-113.76180727140873
-123.24949564562414
-132.82256949408523
-142.44013663840332
-152.06296397159886
-161.65369319740978
-171.1769836714753
-180.59958436103125
-189.89033793705835
-199.02012071217626
-207.96172256930168
-216.68967123996546
-225.18000533562505
-233.41000045108245
-241.35785250878942
-249.0023223248102
-256.3223452054949
-263.29660925485973
-269.9031060203645
-276.1186571643027
-281.9184210223474
-287.2753832374791
-292.1598361328399
-296.53885213001837
-300.37575733517815
-303.6296123951005
-306.2547088839524
-308.2000908022251
-309.4091122402501
-0.3463322693934714
-1.0980409947502068
-2.3818569724257728
-4.22132088333575
-6.634886338662955
-9.63529524159867
-13.22913142168686
-17.416558747448207
-22.191242839504582
-27.54044877280346
-33.445301140937985
-39.881187822029545
-46.81828493903019
-54.2221779471713
-62.05455251442049
-70.27392881447716
-78.83641389021456
-87.69644867982305
-96.8075289149506
-106.12288217631786
-115.5960867079765
-125.18162095707774
-134.83533604632987
-144.51484637889249
-154.17983622012198
-163.79228234111315
-173.316594620279
-182.719677882554
-191.97091923455596
-201.04210577329934
-209.90727785365482
-218.54252315739944
-226.92571667319717
-235.03621143400588
-242.85448452496087
-250.36174251551842
-257.5394901449147
-264.3690658245347
-270.83114735698206
-276.9052312477408
-282.5690891004046
-287.7982048833936
-292.5651973346957
-296.83923244177925
-300.5854318135287
-303.7642838314529
-306.3310657546956
-308.2352864313907
-309.42016093852277
-0.3446187636318001
-1.0961830503625407
-2.385514332973237
-4.240588962335561
-6.683463994062315
-9.729590291300251
-13.387334786297005
-17.657718645910855
-22.53436939031682
-28.003676827097667
-34.045135434258285
-40.631849893297954
-47.73117606539866
-55.305466930458344
-63.31289184651048
-71.70829782655993
-80.44408317039384
-89.47105647702604
-98.73925751472441
-108.19872036067542
-117.80016335838008
-127.49559454655264
-137.23882509322368
-146.9858867663625
-156.6953524921527
-166.3285615400839
-175.84975281095916
-185.2261111057939
-194.42773217157216
-203.4275128049115
-212.2009724209538
-220.72601234322184
-228.9826187051163
-236.95251436634638
-244.61876468737248
-251.9653414372246
-258.97664860346765
-265.6370134462302
-271.9301458425366
-277.8385688430075
-283.3430234114398
-288.421850573752
-293.0503546798661
-297.2001521820307
-300.8385112711682
-303.92768888147396
-306.42427299003805
-308.27853978118605
-309.43383712550224
-0.3441146507424193
-1.098439587902412
-2.398677942475789
-4.277622443972415
-6.761186186267938
-9.867644941693207
-13.60712597249837
-17.981350528070664
-22.98362650829334
-28.599077786933623
-34.80508799465711
-41.5719295733476
-48.8635438916158
-56.63843526863653
-64.8506408212982
-73.45073896274772
-82.38686184793005
-91.6056807467366
-101.05333785228902
-110.67630304014612
-120.42213923791991
-130.24016505838273
-140.082007965323
-149.90204530904964
-159.65773398624572
-169.30983220219554
-178.8225188441057
-188.16341734222155
-197.3035316874755
-206.21710255772115
-214.88139137885827
-223.27639971715882
-231.38453074725834
-239.19019876400918
-246.6793918769288
-253.8391922141125
-260.65725723245953
-267.12126512291
-273.21832685273813
-278.9343671431802
-284.25347665411704
-289.15723785700794
-293.62402754574873
-297.6282996633595
-301.1398531179592
-304.12309053401646
-306.53627542863
-308.33079712026847
-309.4504547726591
-0.34504796027270146
-1.1055668413439825
-2.4230542378694224
-4.335542497486021
-6.873072950046437
-10.056857657337348
-13.898732998680611
-18.400912545665125
-23.55603343984736
-29.34747827542057
-35.74994401941572
-42.73022128403162
-50.24814159038377
-58.257647231926896
-66.70793783298129
-75.54464944112101
-84.71102559155405
-94.14904477647752
-103.80047465969983
-113.60782972549161
-123.51521542168038
-133.46904790510195
-143.41864395869186
-153.31668034111095
-163.1195256558776
-172.78745075756055
-182.28472577554396
-191.57961310174142
-200.6442662621611
-209.45454458650315
-217.9897531276435
-226.23231649007522
-234.16739421808126
-241.78244426522113
-249.0667399162366
-256.01084443574234
-262.60604673061596
-268.8437604938745
-274.71488868702613
-280.20915483789906
-285.31440251808954
-290.01586452577817
-294.29540375233313
-298.13072846537216
-301.49458580000356
-304.35393862006697
-306.66913259046197
-308.39306229719045
-309.4703475600373
-0.3476807308669194
-1.118435270461024
-2.460609740630275
-4.417948317140144
-7.024913802553746
-10.30575766095448
-14.273937192891331
-18.931887256638365
-24.27113750907906
-30.272751172500357
-36.908048714549416
-44.13957018627045
-51.9222236213431
-60.204563921215666
-68.93014683160946
-78.03890554568868
-87.4685026035516
-97.15561647410487
-107.03712986922108
-117.0511948597835
-127.13815771973682
-137.24133371006192
-147.30762843213517
-157.28800773622478
-167.13782239223747
-176.81699681030324
-186.29009310671762
-195.5262628668024
-204.4990991991795
-213.18640126737094
-221.56986257804618
-229.63469305695565
-237.36918349120631
-244.7642193713512
-251.8127496361766
-258.50921439494965
-264.8489344313298
-270.82746423287693
-276.43990949816896
-281.6802095502596
-286.54038487458985
-291.00975011053885
-295.07409325944195
-298.7148226540364
-301.908084356279
-304.6238541161263
-306.82500984528804
-308.4663927320224
-309.49386764551144
-0.3523149347891099
-1.1380497795986493
-2.5136175733878936
-4.529003003375125
-7.223405852742136
-10.624206687743216
-14.74634745431869
-19.592133831168837
-25.151445720275273
-31.40232386377966
-38.3118853628851
-45.83750959647262
-53.928229059973944
-62.526256956987496
-71.56858463757902
-80.98858658808919
-90.71757788259231
-100.68627797159084
-110.82614458018554
-121.07055157422144
-131.35579429456888
-141.62191458253272
-151.81334519073653
-161.879379318261
-171.77447557367043
-181.45841180062803
-190.89630303051305
-200.05849952062562
-208.92038060503552
-217.4620591318516
-225.66800977983277
-233.52663273528964
-241.02976221912428
-248.17212731605747
-254.95077059597247
-261.3644282093958
-267.41287355333947
-273.09622529075716
-278.4142195090966
-283.36544513577695
-287.94654141467834
-292.1513563032886
-295.9700650697142
-299.3882491769872
-302.3859367249722
-304.9366072879578
-307.00616594665865
-308.5518936597175
-309.5213838613847
-0.35929974943232423
-1.1655745455400854
-2.5847145676825196
-4.673538890003609
-7.476322886593205
-11.023645388466216
-15.33173417160531
-20.402315264556318
-26.222945984068367
-32.76778895108245
-39.99876599399137
-47.86701773012997
-56.31458710524343
-65.2762431437387
-74.6813640635745
-84.4558058767969
-94.52369258482786
-104.80907596769217
-115.23742568903062
-125.73692306494435
-136.23954361038602
-146.68192383497302
-157.00601636988972
-167.15954421499748
-177.0962697026224
-186.77609680449268
-196.1650268728345
-205.23498804945388
-213.9635576787735
-222.33359538854984
-230.33280229950807
-237.95321931957227
-245.19067484757517
-252.04418960557922
-258.5153438673761
-264.6076101225641
-270.32565229057957
-275.6745910177077
-280.6592333788474
-285.2832644886571
-289.5483981126317
-293.45348336813623
-296.99356501537375
-300.15889567122326
-302.93389952700426
-305.29608882271305
-307.21493642487303
-308.6507103778962
-309.5532792549001
-0.36904053858853914
-1.2023636927775847
-2.676971789537797
-4.857187458167819
-7.79272351086307
-11.51739583666307
-16.048437789425016
-21.386418980945876
-27.515739297176488
-34.405640980802204
-42.011659511875834
-50.27741888450874
-59.13666906029114
-68.51546257115696
-78.33437258930229
-88.51066502633626
-98.96035092917337
-109.60006112503584
-120.34870134483755
-131.12886177537894
-141.86796925178854
-152.49918248239027
-162.96204048643318
-173.2028817054768
-183.17505612448667
-192.83895543957107
-202.16188715279242
-211.11781781417977
-219.68700883002492
-227.8555656555403
-235.61491809194942
-242.96124606789803
-249.8948619085612
-256.4195568491984
-262.54191654934147
-268.27060769101274
-273.6156354604028
-278.5875698521482
-283.19673731734997
-287.4523733064452
-291.3617307541217
-294.9291394992539
-298.1550120382635
-301.0347918722955
-303.55784202450053
-305.70627307941766
-307.4537123214282
-308.7640182470735
-309.58994788848327
-0.3820100140666334
-1.2499994219370567
-2.7939821456034712
-5.086540485388494
-8.183208774162416
-12.12103484391058
-16.91787116457638
-22.572394153670572
-29.06480973359843
-36.35816859054463
-44.400187988570494
-53.12545971300294
-62.45791601584624
-72.31342670117472
-82.6024094049715
-93.2323499020715
-104.11014793270496
-115.1442246126914
-126.24634821944937
-137.3331545972662
-148.32735556118746
-159.15864284466468
-169.76430605228822
-180.08959075267603
-190.08782750914568
-199.72036468725142
-208.9563377620005
-217.77230605383386
-226.15178483078176
-234.0846969403292
-241.56676393828553
-248.5988523631946
-255.186286576567
-261.33813562717967
-267.06647801167753
-272.38564506467503
-277.31144106433135
-281.8603360049333
-286.0486253724607
-289.89155015060084
-293.40236969818824
-296.5913800443367
-299.46487055324866
-302.0240128081383
-304.2636769505921
-306.1711725891639
-307.72491374778764
-308.8930101904317
-309.63179081573116
-0.39876219207121544
-1.310339685139617
-2.9399698426166587
-5.369351071912116
-8.660242762765211
-12.852857046793178
-17.965140259453936
-23.99293545159806
-30.91096617756241
-38.67453885859279
-47.22182911114939
-56.47659800249494
-66.35117733611469
-76.74956768439868
-87.57050696550087
-98.710388375722
-110.06593172141106
-121.5365390343924
-133.02629159957115
-144.44556941657368
-155.7122944947874
-166.75281560444415
-177.50246398521494
-187.90581725377734
-197.91671278026428
-207.4980527268355
-216.62144141393264
-225.26669234615449
-233.4212376952932
-241.07946781122257
-248.24202282397653
-254.91505295067958
-261.1094589436607
-266.8401193830613
-272.1251073239012
-276.98489519831514
-281.4415438806289
-285.5178694321922
-289.2365792506056
-292.6193681267306
-295.6859640579015
-298.45311354593963
-300.9334965244775
-303.1345619988282
-305.05727694080286
-306.69478296112965
-308.0309577682932
-309.0388814498438
-309.6792111520369
-0.4199499492976031
-1.3855781572539234
-3.119927956345943
-5.714785844961101
-9.238553756834538
-13.734452351792541
-19.219814803092213
-25.68645120340554
-33.10199880168371
-41.41211998794835
-50.54337182539294
-60.40654959301831
-70.9003019853131
-81.91482545530351
-93.33546667913865
-105.04609166988948
-116.93211396972634
-128.8831091932596
-140.79497619242588
-152.57163420856406
-164.12626929750053
-175.3821615094425
-186.27313680234715
-196.743694939414
-206.748867405989
-216.25385856219933
-225.23351972821513
-233.67170052653614
-241.5605153171681
-248.89955556928496
-255.69507197971654
-261.9591434200971
-267.7088435922798
-272.96541074017244
-277.75342096557597
-282.09996164644645
-286.0337981484865
-289.5845244184521
-292.78168611349133
-295.65386361854587
-298.22770160738213
-300.5268716732275
-302.5709549928853
-304.37423297385385
-305.94437536631517
-307.2810174019875
-308.3742201395788
-309.2028113717405
-309.73260816396487
-0.4463472424598276
-1.4783201322792996
-3.339792362895734
-6.13374321147751
-9.93563899585817
-14.791429791356187
-20.71688987716128
-27.698264772543837
-35.69410497643251
-44.63810030493764
-54.44268348218759
-65.00314905546792
-76.20203285289472
-87.91351502804586
-100.00764178812402
-112.35420208008983
-124.82614079227103
-137.30243498793465
-149.67040085950296
-161.827434124528
-173.68221418918324
-185.15542225533255
-196.18003602652044
-206.7012696652092
-216.67622833497745
-226.07334327458392
-234.87164711161873
-243.059941111491
-250.63589715403026
-257.6051281443861
-263.98025179216063
-269.7799645718439
-275.02813540865986
-279.7529223117002
-283.9859098153047
-287.76126065801736
-291.11487157418867
-294.0835203221642
-296.70398905059585
-299.01214776727676
-301.0419809634253
-302.82454033045366
-304.38680697443743
-305.7504475675959
-306.93045048341224
-307.9336301355294
-308.75699048787374
-309.38594201931727
-309.7923703099845
-0.4788774066470254
-1.591679173524219
-3.6066629954268645
-6.639257356361787
-10.7724034535521
-16.054329821233846
-22.4979917384751
-30.082112083391724
-38.7536543921284
-48.43147659931767
-59.01086078355855
-70.36859177413105
-82.36826361072384
-94.86552270565439
-107.71300355651924
-120.7647698065643
-133.88013357936165
-146.92678362194178
-159.78320367934916
-172.34040409973863
-184.50302081112267
-196.18985661157325
-207.33395113731285
-217.88226941633883
-227.7950963148856
-237.04521716810356
-245.61695503682796
-253.50512368456373
-260.71394355540406
-267.25595653066404
-273.1509645495271
-278.4250076043327
-283.10938829825386
-287.2397431074043
-290.8551546641316
-293.9972946691995
-296.7095833424165
-299.0363485092603
-301.02196538694113
-302.7099568124587
-304.14203296449057
-305.35704954751
-306.38986391145403
-307.2700696590402
-308.02059196799456
-308.65612811735315
-309.18142057251964
-309.58935344400294
-309.85886717798763
-0.5186494273864504
-1.7294009887136224
-3.9290870991338083
-7.2470142684395515
-11.773972992402607
-17.559780516404956
-24.61289765189442
-32.90201685664117
-42.35938273287651
-52.8855039566302
-64.35485416096823
-76.62213947544808
-89.52872825573209
-102.9088863162101
-116.5955290193022
-130.4252798020538
-144.24270405062455
-157.90366044665592
-171.27777405027348
-184.2500838065161
-196.7219511916429
-208.6113371850559
-219.85256351868654
-230.39567357364632
-240.2055008486932
-249.26054094767198
-257.5517085200504
-265.08104513638625
-271.8604288544575
-277.9103220281474
-283.25858119333964
-287.93934185026575
-291.9919816853518
-295.4601581502476
-298.3909101874409
-300.8338090681293
-302.84013960598793
-304.4620902590583
-305.7519286789376
-306.7611380196271
-307.5394886886547
-308.1340201839585
-308.5879081980685
-308.9391932833152
-309.2193490956911
-309.4516705718178
-309.64946536728064
-309.8140354911726
-309.9324402787599
-0.567004747287311
-1.8960232727275783
-4.317424281169673
-7.976015133694112
-12.970735894851686
-19.35197132033754
-27.12146157506929
-36.23464972925053
-46.605128661402304
-58.11072354179417
-70.60067661314531
-83.90338826558963
-97.83420517780442
-112.20282054192147
-126.81994890685601
-141.50304491344468
-156.0809391039168
-170.39735608606975
-184.3133550380689
-197.7087875003255
-210.48290286014526
-222.55424995727898
-233.8600269781358
-244.35502480517815
-254.0102946865522
-262.81165253208394
-270.7581117697582
-277.86031634347927
-284.1390263355428
-289.62369160735307
-294.3511341182247
-298.36434726393566
-301.71141056135247
-304.44451004470795
-306.6190485513116
-308.2928253584705
-309.5252611203649
-310.37664150900315
-310.90735119700395
-311.17706871854296
-311.24389220500336
-311.1633659990994
-310.98737870502043
-310.7629043473016
-310.53056004945165
-310.3229560301866
-310.1628167834456
-310.0608560609684
-310.0133926721936
-0.6255780976276966
-2.097083437053514
-4.784320291717318
-8.84943500040624
-14.399685549185655
-21.48454284857439
-30.096067305030765
-40.172310135301515
-51.60326198848528
-64.23871566824762
-77.89733427452212
-92.37621803194838
-107.46032987807861
-122.93125294381831
-138.5748916373583
-154.1878726771227
-169.5825373492964
-184.59053061833035
-199.06508066388784
-212.88212253732587
-225.94045382830944
-238.1611224993187
-249.48624238541876
-259.87741538371
-269.3139156914304
-277.7907644245367
-285.31679543774146
-291.91278716201464
-297.60971198081404
-302.4471346716399
-306.4717748766594
-309.7362352566677
-312.29788658871473
-314.21789313974017
-315.56035573931916
-316.391545661014
-316.7791993332662
-316.7918417384354
-316.4981048992715
-315.96600695865504
-315.26215693089773
-314.45085023945717
-313.5930206795624
-312.74501550939567
-311.95716206750126
-311.27209670420655
-310.7228299562926
-310.3305257976998
-310.1019774210046
-0.6963771572132309
-2.3393906276351633
-5.345326530544513
-9.895742228611631
-16.106163178784573
-24.02302543291915
-33.62477110194217
-44.826713452821124
-57.48899411354532
-71.42676461030227
-86.42164786995104
-102.2335645031522
-118.6121224041404
-135.30693782452832
-152.07645148915785
-168.69499780195332
-184.9580585040994
-200.68577172018453
-215.72486786644774
-229.94926602507047
-243.25959280119332
-255.58188725302168
-266.86573777998353
-277.08206698596
-286.22074450060893
-294.2881701681772
-301.30493411417956
-307.30362796508086
-312.32685392305814
-316.4254557461362
-319.65697773573095
-322.084344069073
-323.7747405870223
-324.79867376074236
-325.2291763777497
-325.14112593930537
-324.61063937320966
-323.7145060878379
-322.52962036287425
-321.13237343714036
-319.5979653403573
-317.9995965352562
-316.4074998494908
-314.8877740988375
-313.50098236035154
-312.3004801711843
-311.3304421030999
-310.6235592264198
-310.1983848827989
-0.7818877142686098
-2.6313848317135715
-6.019716588198868
-11.150169156378936
-18.146136141472148
-27.048006500860975
-37.815351000868965
-50.33382437412925
-64.42581827018307
-79.86367097906385
-96.38417239759606
-113.70317970358929
-131.5293454194898
-149.57621109815858
-167.57219330480882
-185.26824767834634
-202.44321636849614
-218.90703054554223
-234.5020497512532
-249.10287807067976
-262.61501257915324
-274.97266331732726
-286.136047123043
-296.08840954098173
-304.83297721659926
-312.38999295696
-318.7939403293862
-324.09102598255225
-328.3369563392042
-331.59502064153236
-333.93447378358076
-335.42919895872626
-336.1566208505292
-336.19683391837134
-335.6319064225264
-334.5453184753798
-333.02149103493656
-331.1453619687328
-329.00196482650836
-326.6759656207338
-324.251112675173
-321.80955451695627
-319.43098096606815
-317.1915432035041
-315.1625098788528
-313.4086184412904
-311.98608401756064
-310.94023238550517
-310.3027288649945
-0.8852137142523215
-2.983615115189039
-6.831571734966413
-12.65666005638004
-20.58919922644342
-30.65927317671194
-42.800555900849986
-56.86005605548505
-72.61240081526023
-89.77700931646406
-108.03646713187479
-127.05457140743474
-146.49281356452818
-166.02443592596475
-185.34557808673122
-204.1833700962736
-222.30110235167942
-239.5007939303817
-255.623593525
-270.54849130158084
-284.1898117642877
-296.49391395280213
-307.43546127657623
-317.0135512624479
-325.24792431448964
-332.1754058867601
-337.8466812392544
-342.32345720055844
-345.67603078246975
-347.9812589752312
-349.3209061259644
-349.7803333947537
-349.44748740827765
-348.4121410876422
-346.7653376377137
-344.59898799717206
-342.0055720253878
-339.0778939014044
-335.90884235372937
-332.5911062923458
-329.21679617202886
-325.8769210796671
-322.66067129252184
-319.65445617358773
-316.9406480514492
-314.59598448077446
-312.6895842669595
-311.28053700976307
-310.4150316699464
-1.0102655377298078
-3.4093825502447928
-7.811237294204961
-14.470474009036433
-23.522560642610692
-34.981269969232336
-48.74495247307894
-64.61026059944088
-82.29134083384761
-101.44220512737965
-121.68001868961241
-142.60733429186405
-163.83176937467522
-184.982160044134
-205.72074751520108
-225.75139520776457
-244.8241649724822
-262.73679102958624
-279.3336911997044
-294.50316886539326
-308.1734116067487
-320.30780818518633
-330.9000048621179
-339.9690199148549
-347.5546413895562
-353.7132528929685
-358.51416751612874
-362.0365005091122
-364.3665754591427
-365.5958342008877
-365.8192051096588
-365.1338755147393
-363.63840975049345
-361.4321532094371
-358.6148633975978
-355.2865104708996
-351.54719137318784
-347.4971030524172
-343.2365210559496
-338.8657299995184
-334.48485201966207
-330.19351851859335
-326.09032957106723
-322.27204466868864
-318.8324484448585
-315.8608361218632
-313.4400660628849
-311.64413127306983
-310.5352080455193
-1.1620157325659797
-3.9256134335771797
-8.997296145170594
-16.661695781141233
-27.056381786831658
-40.17034436055021
-55.85391396332122
-73.83807965407752
-93.76033987228016
-115.19389865601708
-137.67717396897615
-160.74109886392057
-183.93241734698893
-206.8319524857527
-229.06753217185295
-250.3218203228057
-270.3356858862648
-288.9079530905604
-305.8924419213497
-321.1931666341437
-334.75845188164135
-346.574584926423
-356.6594742354529
-365.0566465860012
-371.8297961692952
-377.0580038081179
-380.8316721672072
-383.24917130585817
-384.41415459623727
-384.4334841464428
-383.4156939121832
-381.46991460730635
-378.7051848776763
-375.23007607899495
-371.1525619852474
-366.58006886441433
-361.619644931968
-356.3781908198632
-350.9626941866809
-345.48041192031883
-340.0389426425957
-334.7461306753893
-329.70974063547544
-325.0368398897119
-320.83282482336466
-317.20002690743837
-314.2358365310989
-312.0302869806974
-310.6630480191851
-1.3468502778260216
-4.5540585340190205
-10.439271898739783
-19.320019659562448
-31.330996887599497
-46.424443854924576
-64.38549926749275
-84.85941753536872
-107.38648374277155
-131.4401725987968
-156.46449134137208
-181.90731842396914
-207.24765290075698
-232.01579657660764
-255.8064362669122
-278.28528703343665
-299.1903783679592
-318.3292431897944
-335.5732605165
-350.85027059257357
-364.1363840629252
-375.44768960096576
-384.8323578022721
-392.3634605663218
-398.1326818834929
-402.24498830596417
-404.8142517548638
-405.9597681580385
-405.8035867494757
-404.46855112798386
-402.076949640861
-398.74967554729983
-394.60580386454467
-389.76249973709474
-384.3351811661148
-378.4378660522042
-372.183639176352
-365.6851786656854
-359.0552835521768
-352.40734429654896
-345.85569677765864
-339.5157975781106
-333.50415488593114
-327.93794560667914
-322.93424614631533
-318.6088026928312
-315.07426763797696
-312.4378328692794
-310.7981985187203
-1.5730570021677792
-5.322960148290413
-12.201374953814202
-22.561339226675706
-36.52677080270441
-53.9962041011642
-74.66625783354547
-98.07006055276224
-123.62454126885238
-150.68034434869554
-178.56895547077056
-206.64307153657478
-234.30791697891675
-261.0427686403296
-286.41318512801877
-310.0752539850222
-331.77358296418026
-351.3348456503031
-368.6585480044906
-383.70641000297957
-396.49143561534083
-407.0674306953866
-415.51945453698283
-421.9554711817894
-426.49930282784067
-429.28487431328153
-430.45166570000816
-430.14124974512345
-428.4947735637498
-425.65124153088277
-421.7464635639365
-416.9125450164197
-411.27780842504615
-404.9670512474202
-398.1020562175654
-390.802281273158
-383.18566379449175
-375.36947900815704
-367.4711948587048
-359.6092655881005
-351.9038039288648
-344.47706758370657
-337.4536900690637
-330.96057979601096
-325.12640545536374
-320.08058160781377
-315.9516672404732
-312.8650932726751
-310.9401435511741
-1.85151386614141
-6.269400254844676
-14.367759908664603
-26.536932090095526
-42.87770070144832
-63.210770668757434
-87.11240104611258
-113.96881698394105
-143.04043582793898
-173.52714957568443
-204.62750070193968
-235.58694828193325
-265.73291956045796
-294.4965010791514
-321.4221802715041
-346.1679423335652
-368.4983410680115
-388.2730519359302
-405.4330497132915
-419.98607652601453
-431.9925825235686
-441.552893477827
-448.79601574644266
-453.870234524782
-456.93548764992875
-458.1573896389939
-457.7027230062064
-455.7361914303684
-452.41822984482144
-447.9036806512552
-442.34116630167546
-435.873011868553
-428.63559399611114
-420.76001305814714
-412.37300250754373
-403.59800288277177
-394.5563376484282
-385.3684340950306
-376.15503507110833
-367.03834661512485
-358.14306287820693
-349.5972034543521
-341.5326899204708
-334.0855788604539
-327.39585911321694
-321.6067130628678
-316.8631374759389
-313.30982077378707
-311.0881824957413
-2.1966732582066086
-7.442656152477888
-17.050006365056802
-31.44642457170201
-50.690393724479186
-74.49029012834923
-102.25835321946253
-133.18801821425447
-166.3413432866393
-200.73424771982613
-235.4102088739284
-269.4968655106824
-302.2436615236228
-333.041578189825
-361.427865875183
-387.07953149557227
-409.79938722410805
-429.4980049385366
-446.1742134311114
-459.8960191291068
-470.78314847205434
-478.99185964911044
-484.7022665917773
-488.10814600882077
-489.40903392353084
-488.8043340727628
-486.48913169251324
-482.6514124235714
-477.4704122067837
-471.11585954194766
-463.7479094536445
-455.51760473028236
-446.56773216500443
-437.0339685462863
-427.04623271
-416.7301761865745
-406.20875616936576
-395.6038410845239
-385.03780130849475
-374.6350358836579
-364.5233806936897
-354.8353347910176
-345.7090298819994
-337.2888541668725
-329.7256271396165
-323.17620860335626
-317.8024158075462
-313.76912048182106
-311.2414057353822
-2.627992572781096
-8.909072378257726
-20.397924238531182
-37.55634365724597
-60.3708602081066
-88.38788552902247
-120.79550349287265
-156.53382928774303
-194.41419679096268
-233.23000877595695
-271.84731784136636
-309.2692447943712
-344.6736797259357
-377.4274965361616
-407.0825428348104
-433.35920061295536
-456.1228185784568
-475.3572785300624
-491.13875943209894
-503.6116506953347
-512.9676633106349
-519.428527312964
-523.232227221195
-524.6224704052452
-523.8409585072105
-521.1219957475071
-516.688985805036
-510.7524159939968
-503.5089868097592
-495.1416060385235
-485.8200234973232
-475.70193208630945
-464.93440210159235
-453.6555486657706
-441.99635725468204
-430.0826104261397
-418.036870793262
-405.9804817474007
-394.0355489715085
-382.3268627637691
-370.9837138133278
-360.14154346682943
-349.943353904219
-340.54078457652867
-332.0947400278906
-324.7754332073494
-318.76169123115676
-314.23936210276133
-311.39866634364716
-3.1720508919267303
-10.75925822486289
-24.615418508169682
-45.22705807595367
-72.46281672715116
-105.63524366105054
-143.62511467226346
-185.03958325318337
-228.37468133368594
-272.15839240326306
-315.0596754084995
-355.95827277032464
-393.97765639622344
-428.48808335233974
-459.08854818094966
-485.57614680016314
-507.9098917197587
-526.1740987810401
-540.5446128602871
-551.2596192801075
-558.5956809429712
-562.8489209175398
-564.3208595175254
-563.3082265550877
-560.0960260238636
-554.9531719634502
-548.1300984296633
-539.8578459857893
-530.3482257045349
-519.7947507509167
-508.3741015410482
-496.24795245891255
-483.5650369495917
-470.4633649684168
-457.0725339214566
-443.5160929691308
-429.9139322193862
-416.38467396447703
-403.04804343978134
-390.02719198556537
-377.4509360311887
-365.45586080785245
-354.18821785573743
-343.8055202480135
-334.47770987730416
-326.38773959295435
-319.73138405001134
-314.71607378941803
-311.5585457825696
-3.86574343205249
-13.118926967283656
-29.98420295805515
-54.95252851732022
-87.70316754752561
-127.20990788234286
-171.93091826011448
-220.03626016632018
-269.6289514505201
-318.9272148770007
-366.39130032598507
-410.7927796126644
-451.2343572416513
-487.133249446037
-518.1819388644307
-544.2981871709673
-565.5731025538687
-582.2229015512125
-594.5473680575525
-602.8960990986501
-607.64240333201
-609.1640435440531
-607.8297255788132
-603.9901903415935
-597.9728549925446
-590.0791010151704
-580.5834753345586
-569.7342309592657
-557.7547737980077
-544.8456983825292
-531.1871876413467
-516.9416231277593
-502.25630546900396
-487.2662235304755
-472.09683776520393
-456.8668608351316
-441.6910286973039
-426.6828592970714
-411.95739466327666
-397.6339159235694
-383.8386094125059
-370.70714498570237
-358.38710384934063
-347.0401616686832
-336.843893250133
-327.99301957654217
-320.69987170000104
-315.1938085478698
-311.7193104321576
-4.761209885732896
-16.165569632330147
-36.89994796439453
-67.4199695668412
-107.10347796276518
-154.43131875577018
-207.2790511006117
-263.2451681115609
-319.95002975351287
-375.26287605299615
-427.44095146104405
-475.18638461677386
-517.6391628699473
-554.32861899323
-585.1039066461116
-610.0590307867251
-629.4624987804252
-643.6969392900692
-653.2106127679314
-658.4805874025304
-659.9862125966445
-658.191072065839
-653.5315673344369
-646.4104699368457
-637.1940570830185
-626.2117351190502
-613.757319033147
-600.091358707592
-585.4440807352021
-570.0186520087667
-553.9945741603749
-537.5310929414302
-520.7705598870566
-503.8417202132795
-486.86292488740924
-469.9452792690781
-453.1957478745571
-436.7202362216635
-420.6266673111012
-405.0280624372231
-390.04562336652634
-375.81179430894736
-362.4732554995049
-350.1937629736169
-339.1566989938608
-329.5671345748277
-321.6531345794219
-315.66596924582205
-311.87885406049656
-5.933627423839852
-20.154716086673233
-45.92858132094234
-83.60106126980648
-132.0713179371219
-189.0990421215634
-251.75572178303187
-316.8985225924045
-381.5695889981494
-443.2680983603518
-500.08658134667735
-550.7336733648224
-594.4791206620732
-631.0569490010535
-660.5552056269844
-683.3109190810934
-699.8201829158088
-710.6669019594464
-716.4698143541966
-717.8454040419635
-715.3836066901462
-709.6332433745716
-701.0945070072145
-690.2163394999009
-677.3970441377949
-662.9869185474497
-647.2920503621101
-630.5786924587138
-613.0778387280876
-594.9897685493592
-576.4884316030933
-557.7256155198966
-538.8348859685284
-519.9353188361558
-501.1350620309442
-482.53477360491024
-464.23098573247665
-446.3194421659615
-428.8984510728404
-412.0722859988806
-395.95465468414613
-380.6722370357595
-366.36826660387413
-353.2060895288813
-341.3725753122708
-331.081170706928
-322.57428354044725
-316.12457125474907
-312.03461876195297
-7.49387970170973
-25.462399620110375
-57.89608089073987
-104.8941732726004
-164.59358222771306
-233.69307824558277
-308.1561485354464
-383.89315612921354
-457.28251911696947
-525.4744388007953
-586.4915936458667
-639.1809781322082
-683.0804491130406
-718.2534843186779
-745.1281267776825
-764.3593090759897
-776.7213769202635
-783.0301409539045
-784.0901489103918
-780.6617301673635
-773.4425875549156
-763.0595309614814
-750.0669192707819
-734.9492804313028
-718.1263276147758
-699.959167616383
-680.7569236229608
-660.7832970547188
-640.262801619622
-619.3865422813191
-598.3175025757283
-577.1953606840752
-556.1408887695217
-535.2600089166259
-514.647587737159
-494.3910537003342
-474.57391868121897
-455.2792794530812
-436.5933667184163
-418.609199209129
-401.4303881754266
-385.17512174593287
-369.9803353377521
-356.00603612863125
-343.4396854798932
-332.500440946729
-323.44291293997725
-316.5599112698792
-312.18348292143065
-9.609810364341158
-32.65588226157779
-74.03547686506008
-133.35084276334845
-207.51731643054075
-291.665273174702
-380.24101121424735
-467.97920769885184
-550.5543684892123
-624.8727604050307
-689.074123480664
-742.3546538281295
-784.715010851443
-816.7059098608779
-839.2104397007366
-853.2769731242815
-860.0014941369288
-860.4512406554076
-855.619721978428
-846.4039241650139
-833.5962655237946
-817.8857506390286
-799.8644160409876
-780.0364500028361
-758.82831490327
-736.5988624340393
-713.6488776432926
-690.2297777844099
-666.5513740410964
-642.7887139361687
-619.0880848122715
-595.5722914915823
-572.3453356045788
-549.4966275547694
-527.1048592715923
-505.24165951018654
-483.97514499130864
-463.3734709564888
-443.50847428300676
-424.45949168725747
-406.31742513610783
-389.18911586411076
-373.20207406348123
-358.50958433095735
-345.2961498014944
-333.7831252824893
-324.23419743109037
-316.96009498798276
-312.3215985608289
-12.543178146177766
-42.61544858822238
-96.23456247580762
-172.04450397277193
-264.98536935965404
-367.8627380536925
-473.0762538508342
-573.9755131928953
-665.6069983683522
-744.890389854749
-810.4094183861446
-862.0228821238672
-900.4492151608606
-926.9092149677335
-942.8569508345581
-949.7968081585904
-949.1706979129341
-942.2965171261162
-930.341135342758
-914.3150089349105
-895.0792852359646
-873.3593181309982
-849.7607707875412
-824.7860381271591
-798.849746069241
-772.2927307405942
-745.3942912572144
-718.3827337277851
-691.4443436263791
-664.7309798114276
-638.3665028392792
-612.452249534972
-587.0717551995479
-562.294910235154
-538.1817225117761
-514.785841908175
-492.15798951910193
-470.3494209527029
-449.41554088022133
-429.41977502514806
-410.43779740593965
-392.56220654792645
-375.9077443043258
-360.6171474255808
-346.86769265102726
-334.8783975323559
-324.9176134480352
-317.31035204266755
-312.44415055126206
-16.716651552676453
-56.75224754460267
-127.46687460716966
-225.68466699353056
-343.11887443833194
-469.1364972947777
-593.4617128225403
-707.9788543697304
-807.4301650528942
-889.2610211858967
-953.0210155685313
-999.6604753052848
-1030.9178707468113
-1048.868039954646
-1055.627899058972
-1053.186359079921
-1043.3206801391982
-1027.5676047735255
-1007.2262621407647
-983.3775551758672
-956.9105570058422
-928.5504276660524
-898.8849232359726
-868.3881316182734
-837.4409740669132
-806.3485039967177
-775.354278536107
-744.6521786846138
-714.3960757094601
-684.7077234523746
-655.6832210707694
-627.3983509434329
-599.9130585530577
-573.2753080706075
-547.5245199848094
-522.6947750815386
-498.81795131507016
-475.9269453056612
-454.0591172465722
-433.260086855054
-413.58800066368906
-395.11839223595865
-377.94977312073854
-362.2101246952424
-348.0644903021612
-335.72383278884496
-325.45511289088654
-317.5920290555571
-312.54499409971737
-22.841187957007563
-77.41533914981989
-172.56822061233174
-301.6635912778203
-451.0901810403376
-605.1917215153285
-750.4170388355845
-877.4812002679079
-981.6188353054374
-1061.7017694667775
-1119.001594716757
-1156.0836808341305
-1176.0098667206266
-1181.846043998229
-1176.4004675085578
-1162.1130335872072
-1141.0329417353023
-1114.8425035162543
-1084.9012192117666
-1052.2955055708633
-1017.8865350655777
-982.3528056704777
-946.2263560353665
-909.9227171843386
-873.7652276625347
-838.0045265304988
-802.8340486196661
-768.4022752109206
-734.8223927505078
-702.1799089506488
-670.538682075129
-639.9457402156156
-610.4352038396967
-582.0315758311065
-554.7526267546061
-528.6120768345114
-503.62225755219663
-479.7969221284609
-457.15436289323407
-435.72098315175157
-415.5354630032672
-396.65365986014456
-379.15441072619444
-363.1464748888646
-348.7769770754336
-336.2418246284601
-325.79850173012176
-317.7810933477752
-312.6161001926888
-32.173291303951146
-108.69093212990555
-239.6916995617027
-411.87560741013465
-602.796453562877
-789.6966203226957
-955.5943313309294
-1091.2038860500757
-1193.8624981295661
-1265.27620961711
-1309.3978587153872
-1330.9309502922579
-1334.4669250631378
-1324.0758892004146
-1303.1710739970626
-1274.5172337731378
-1240.3033639487337
-1202.2358766829063
-1161.630482370812
-1119.4934841871425
-1076.589691807704
-1033.4972581336747
-990.651016625164
-948.3762520623534
-906.9147679381604
-866.4448760293989
-827.0966542639774
-788.9635548812146
-752.111217920655
-716.5841601595763
-682.4108641920549
-649.6076811335314
-618.1818777249401
-588.1340991302449
-559.4604778911353
-532.1545933184598
-506.2094703118347
-481.61979835878185
-458.3845461193954
-436.5101405489701
-416.01437011067594
-396.93116474470145
-379.3164228202168
-363.2551449620855
-348.87035835021817
-336.3346803006998
-325.885678419198
-317.84589001985154
-312.6466933738501
-47.067919140878104
-158.07014485513335
-343.14169445777463
-575.9314051019106
-819.3735003485587
-1041.5031561797987
-1223.2479110807449
-1358.2767981602883
-1448.8205067832785
-1501.3045692550381
-1523.3137072754491
-1521.9972137588206
-1503.426155826828
-1472.466032763483
-1432.8814912210694
-1387.5202088358133
-1338.5033242765703
-1287.3931808506993
-1235.3302604403418
-1183.1403899252475
-1131.4166191118586
-1080.5808030482965
-1030.929469057406
-982.6677584025164
-935.934427604245
-890.8201955574788
-847.3811589670797
-805.6485621587343
-765.63587762714
-727.343908840392
-690.7644475401514
-655.8828885172996
-622.6801136912356
-591.133895423667
-561.2200298396774
-532.9133896084124
-506.1890780877137
-481.0238688445995
-457.39812126703106
-435.29836756714656
-414.7207612540092
-395.67555834252227
-378.19278487800705
-362.329291262336
-348.1776542459649
-335.8780518606203
-325.6352816437335
-317.74376211288495
-312.62188849528366
-72.30298775399896
-240.1466732847799
-509.16878074069086
-826.7794867998441
-1132.641542323303
-1385.2770440229376
-1568.9231931971904
-1686.1257922368936
-1748.068258270864
-1767.7309018562842
-1756.7608445186745
-1724.4947700318298
-1677.9839707159076
-1622.36999576212
-1561.3186040461442
-1497.4019402018741
-1432.401220665321
-1367.5341376415881
-1303.6208422941115
-1241.2031112532936
-1180.6290768298916
-1122.1131191070547
-1065.7780346268548
-1011.684628522868
-959.8524036652615
-910.273950314221
-862.9248756233584
-817.7705718652269
-774.7707421754889
-733.8823364813838
-695.061364963241
-658.2639287065663
-623.4467211657606
-590.5671988965564
-559.5835885891514
-530.4548850940567
-503.14099867536925
-477.6032262250817
-453.8052464566683
-431.71486560424665
-411.30675456995806
-392.566401610094
-375.49544190145525
-360.11844877833204
-346.49136658750183
-334.712531113166
-324.93926179861677
-317.41597116092623
-312.5205009087889
-118.42847513182417
-385.67215853226185
-787.9782692220846
-1220.355987870756
-1588.2858555523721
-1849.5941569900115
-2005.1522262954338
-2076.2932666192596
-2086.93249421014
-2057.051179252194
-2001.441326011339
-1930.4152029310756
-1850.9164652389122
-1767.5126809661756
-1683.1498445617822
-1599.6878097540239
-1518.2675482658265
-1439.5586950589493
-1363.9248852904689
-1291.5336364988723
-1222.429135755879
-1156.5802940325793
-1093.912318130679
-1034.3272882209978
-977.7173908816144
-923.9732385736996
-872.9888981853146
-824.6647143265432
-778.9086555672443
-735.6366734609762
-694.7724055731677
-656.2464491662154
-619.9953651406036
-585.9605318901262
-554.0869497087742
-524.322095050959
-496.6149390735998
-470.9152762984928
-447.1735562360651
-425.34146934065046
-405.37359586700825
-387.2304518866452
-370.8832056532327
-356.3201249425737
-343.55449768343783
-332.6339067681457
-323.65320494372975
-316.7802392867187
-312.31149602181006
-212.77747743337983
-664.2760520784647
-1280.5773147000227
-1848.0748819175774
-2244.562764409141
-2457.0924437740055
-2532.0871528162147
-2517.8358832686367
-2450.5920198344666
-2354.2994919703756
-2243.8742830551755
-2128.2792382596635
-2012.7382480741862
-1900.1819816253696
-1792.1552377578882
-1689.376307374533
-1592.0791425878997
-1500.2218217301916
-1413.6130698278216
-1331.9885564753986
-1255.0563650923232
-1182.5235122417157
-1114.1108195987165
-1049.5606461142772
-988.6402719011056
-931.1426654715144
-876.8857073636202
-825.7105317245105
-777.4793892869111
-732.0732729601675
-689.3894456685941
-649.3389474221647
-611.8441217195426
-576.8361826092867
-544.2528391730835
-514.0360027645216
-486.12962530264383
-460.4777575802095
-437.0229796526836
-415.7054452831452
-396.462897688094
-379.2321338022191
-363.9524501437959
-350.57143061045383
-339.0527559826213
-329.3844383774265
-321.5857990897389
-315.7206798884308
-311.94832826425915
-431.59862212738574
-1256.0205139313043
-2184.2520337529295
-2847.5122252605643
-3145.3820304649716
-3200.7942310940507
-3122.5290339229887
-2979.741936797314
-2810.8784194128216
-2636.113300679987
-2465.4892164631665
-2303.62272546035
-2152.281245070452
-2011.7732856448085
-1881.6934912036904
-1761.319783648259
-1649.8225568137382
-1546.3720375015473
-1450.1904350219047
-1360.574310533535
-1276.9011259149904
-1198.6276596768516
-1125.2845150854969
-1056.4690195293485
-991.8377372379695
-931.0992146239257
-874.0072414115302
-820.354725439055
-769.9681791728874
-722.7027643762729
-678.4378168504492
-637.07276372669
-598.5233448594927
-562.7180542489259
-529.5947262087705
-499.09720524583145
-471.17206148518
-445.7653507810806
-422.81947983625497
-402.2703356722976
-384.0449933850746
-368.0605404627873
-354.22483225558835
-342.440185751022
-332.61066022194154
-324.6515124081788
-318.4942286885591
-314.0781822540716
-311.360921618118
-1080.3025844008234
-2605.920863052519
-3899.5499660524483
-4306.618642597348
-4251.194370585202
-4007.1971069961146
-3707.3157927072016
-3406.777664666929
-3126.391845830378
-2872.221378449333
-2644.3188130653107
-2440.4874971604304
-2257.888789170729
-2093.7051407188237
-1945.3897084670834
-1810.7362850083
-1687.874047273769
-1575.2339181480536
-1471.5072276259682
-1375.6054206758954
-1286.6241067666474
-1203.8123015490087
-1126.5466696090753
-1054.3101862142569
-986.674539484312
-923.2856235624333
-863.8515487950804
-808.1326803922527
-755.933296967293
-707.0945289860454
-661.4882932316923
-619.011983600617
-579.5837123273842
-543.1379208226897
-509.62119763010617
-478.9881549422265
-451.19722807924654
-426.2062798442721
-403.967923364174
-384.4245400421728
-367.503093712785
-353.1100782621776
-341.12735675923693
-331.4103175898176
-323.79054547643705
-318.08496803165326
-314.1077825708305
-311.6596125620138
-310.4515581039369
-3120.92652867448
-6230.579506306264
-6562.33517262457
-6028.209162704683
-5343.271634883629
-4712.682561033713
-4175.208720787083
-3725.4472047200834
-3348.627261242077
-3030.3087133478775
-2758.534962736293
-2523.903534035066
-2319.136358233026
-2138.61031432638
-1977.9632659774281
-1833.7891775349524
-1703.409015223237
-1584.7001623959197
-1475.9693847864205
-1375.8577810182978
-1283.2691664909391
-1197.3156750506078
-1117.27608275144
-1042.5635968445038
-972.7007383515258
-907.2995784062873
-846.046040565638
-788.6873058714917
-735.0215913343457
-684.8897413344848
-638.168193012272
-594.7629633817721
-554.6043661390039
-517.6422057016509
-483.8412187207575
-453.1765416247825
-425.6289784195915
-401.17982774835053
-379.8050053984701
-361.4681758500443
-346.1126030435863
-333.65149071520386
-323.9568064487041
-316.8471843620579
-312.0768789987652
-309.33035544509767
-308.22963674075817
-308.34985491900534
-309.1438100683829
-14042.373150091778
-11681.403202468415
-9125.164757041788
-7308.710550953283
-6025.340241238728
-5097.985480857244
-4402.656569776102
-3863.973696921484
-3434.5404048357996
-3083.7810981718753
-2791.262057878916
-2542.9075333721066
-2328.7537755800577
-2141.5802752563827
-1976.0470947833237
-1828.1353661867972
-1694.7746328808896
-1573.5886870486397
-1462.7184861464161
-1360.6963850812958
-1266.355255763045
-1178.761780618875
-1097.1667878904661
-1020.9677897675471
-949.680382078059
-882.9161600179514
-820.3654771980955
-761.7838363017961
-706.981019212781
-655.8122877585035
-608.1711425595142
-563.9832360414396
-523.2011088717478
-485.79946469129766
-451.7707203636439
-421.12056961463037
-393.86327582287123
-370.01636099811265
-349.5942754435983
-332.60050490679157
-319.01738319852063
-308.79260929007353
-301.82110688329925
-297.9204451757745
-296.7977741530443
-298.00689486527955
-300.8980244424317
-304.5737402319537
-307.85954850521915

SCALARS STRESS_XY float 1
LOOKUP_TABLE default
0.1834387275587595
18541.98220288844
-0.9527749880897545
0.1847806514816185
0.36686731520229576
0.7336939944626117
1.1004390988620265
1.467061083825742
1.8335174962688514
2.1997646729954883
2.5657574388175015
2.931448806662763
3.296789678647619
3.6617285491039184
4.026211210813999
4.390180464602641
4.7535758342931445
5.116333286852249
5.478384960703946
5.839658903421763
6.2000788209206155
6.559563841601612
6.918028296352597
7.275381518892071
7.631527670462051
7.986365591928837
8.339788688392854
8.691684851259765
9.041936423846927
9.390420215836745
9.737007574018325
10.081564517582766
10.423951943905912
10.764025915573145
11.101638039225456
11.436635944088957
11.768863872914443
12.098163399096745
12.424374281420828
12.747335471799548
13.066886291578314
13.382867793813794
13.695124330266083
14.003505341677133
14.307867396709966
14.608076500750926
14.904010702614027
15.195563030832492
15.482644789627532
15.765189255867742
16.043155818748925
16.31653461103248
16.585351691890768
16.849674846517914
17.109620083669153
17.365358924755594
17.617126599555874
17.865231286443162
18.11006456245142
18.352113271325784
18.59197306092186
18.83036390255467
19.068147983182
19.306350456542077
19.546183664896557
19.78907560238505
20.036703595859528
20.29103444704586
20.55437262234245
20.829418530781652
21.119339523328307
21.427857033165957
21.759354325242974
22.119010729756532
22.512970143479556
22.948554189386606
23.434534025834324
23.981479817951858
24.602213971946185
25.312404357901983
26.131348400451174
27.083020435925725
28.19748682551146
29.512841981644307
31.07789364037877
32.95594419146157
35.230205761327696
38.01170189472079
41.45104326413141
45.756399689895076
51.22168211025247
58.27213215375387
67.5407766555254
80.00222579787095
97.2189559306838
121.82420161498922
158.54846994640667
216.63795676398286
316.68629266092347
512.349088026872
999.2444982271959
2541.2892122665503
11134.98318333374
11907.297070947112
3754.7565114656627
1706.253167115453
951.4435558359432
611.1821910690888
427.32296099290994
316.5816951812349
244.6865131388558
195.43772467761622
160.2883412580748
134.3681040947206
114.73273523306345
99.51653989336518
87.49080815526858
77.81971792832661
69.91878916121658
63.36941376526353
57.865433138672365
53.17873098410679
49.1364837498122
45.60576584207004
42.48291455676888
39.686046287121094
37.14970251347158
34.820962571048916
32.65658443819234
30.620878180280165
28.684110296979462
26.821299594172537
25.011307666609515
23.23615673274186
21.48052898765912
19.731417915724858
17.977915354624862
16.211130323153476
14.42424845087217
12.612756323695487
10.77487605039226
8.912286404580415
7.031255767254046
5.144392778063053
3.273359411322615
1.4531392616394447
-0.2610875261843378
-1.7825551176425227
-2.973623405202142
-3.6143597311766014
-3.3689385836581005
-1.963672963002138
-1.9631768592300398
-3.3618390797895383
-3.584912900665339
-2.900271179665105
-1.6440199393639632
-0.041222971680924425
1.762106284048995
3.6688414226418877
5.6123509391854745
7.545730836379602
9.435348694480343
11.25684236043183
12.992555965228213
14.629843136218657
16.159907474101217
17.57698359176519
18.877738431135427
20.060817804121314
21.12649061229491
22.076360322980044
22.913124125258452
23.640367143402145
24.262383578892372
24.78401954933721
25.210534244333637
25.547477182651612
25.800580063853474
25.975662116200766
26.078548058541088
26.114997890119547
26.090647749066914
26.010961068523294
25.88118923479695
25.706340926916422
25.491159297563733
25.24010615233493
24.957352293249556
24.64677321113936
24.31194935086601
23.956170215871055
23.58244162838597
23.193495524000785
22.791801716152605
22.37958112856267
21.958820055745814
21.53128507041033
21.098538251062237
20.661952457273173
20.22272642776546
19.781899518009205
19.340365934673642
18.898888356937366
18.458110867188672
18.01857113251385
17.58071180709814
17.14489114178719
16.711392796356506
16.28043486986244
15.85217816880468
15.426733740854296
15.004169708168318
14.584517437988888
14.167777089162625
13.75392257658177
13.342905994277658
12.934661538309044
12.529108969939223
12.12615665716796
11.725704233385498
11.327644906674418
10.931867453653341
10.53825793044162
10.146701127346589
9.757081795540227
9.369285671721958
8.983200320839282
8.598715818664587
8.215725294738025
7.83412535082225
7.453816370374181
7.074702734731705
6.696692956138856
6.319699739924142
5.9436399872614984
5.56843474268595
5.1940090993448464
4.820292066568707
4.447216403451704
4.074718427294373
3.7027377999061293
3.3312172948528556
2.9601025499531293
2.5893418071967913
2.2188856423121486
1.848686688048729
1.4786993493086593
1.10887951421989
0.7391842619751616
0.3695715665777567
0.3640734778829085
0.715306368584558
1.0517965396709303
1.3734722394935432
1.6802672768945788
1.9721215283713691
2.2489813335845845
2.5107997853718604
2.757536919762467
2.9891598115675135
3.2056425825751456
3.4069663284073006
3.5931189699631014
3.7640950358209855
3.9198953820417906
4.0605268544652
4.186001899415887
4.296338128761956
4.391557843813327
4.47168752337161
4.536757280734625
4.58680029418705
4.621852215736551
4.641950561916864
4.647134091557469
4.637442174367614
4.612914154454218
4.573588713901133
4.519503239495009
4.450693197672649
4.367191522799816
4.269028022751975
4.156228806477462
4.028815739354208
3.886805931441195
3.7302112634453684
3.5590379564868386
3.373286191306992
3.1729497828971835
2.958015915806957
2.728464946907085
2.484270281611385
2.225398328342968
1.9518085379676084
1.6634535334268894
1.3602793348037834
1.0422256845712523
0.7092264775465651
0.36121029944295646
0.7224006805732996
1.4184140740456257
2.0843948312234213
2.720485997388447
3.3268199624686705
3.903517385210243
4.450686334649342
4.968421641297831
5.456804448725643
5.915901956157034
6.345767341751249
6.7464398552301805
7.117945068125563
7.460295270312654
7.773490001010919
8.057516701888789
8.312351480536282
8.537959972766465
8.734298292285615
8.901314056425356
9.038947477068248
9.147132506669664
9.225798028665212
9.27486908268803
9.29426811590116
9.283916250360951
9.243734557642204
9.173645332753356
9.073573358037741
8.943447149106774
8.783200174197903
8.592772038047775
8.372109622230063
8.121168172513748
7.8399123241482265
7.528317055512758
7.186368559967302
6.81406502589521
6.411417313854551
5.978449519342853
5.515199409815941
5.02171872375574
4.498073319380247
3.9443431606985646
3.3606221279651383
2.747017640100219
2.103650077169371
1.430651990971079
0.7281670926360584
1.4447215432443117
2.8366723520529007
4.168563130570252
5.44068083550038
6.65329096426996
7.806635408306932
8.90093074158058
9.93636692934934
10.913106438609208
11.831283731012526
12.69100511727391
13.492348950362208
14.235366134737891
14.920080927821598
15.546492009940884
16.114573798765633
16.624277984216224
17.0755352606744
17.468257233585327
17.802338477889965
18.077658726647172
18.294085169142775
18.45147483761633
18.549677063690943
18.588535986025235
18.567893089974817
18.48758976214095
18.347469842649133
18.147382157938857
17.887183017257833
17.56673865605401
17.18592760900712
16.74464299556451
16.242794700170812
15.680311428627409
15.057142621474178
14.37326020449711
13.628660155602144
12.823363866309414
11.957419275420975
11.03090175120108
10.043914697948017
8.996589862345521
7.889087314394708
6.721595077161991
5.494328380783716
4.20752851592277
2.8614612628629015
1.456414874253929
2.166882193326514
4.25461795189173
6.252276846379605
8.160291474813329
9.9790618742534
11.708952312824252
13.350288736927332
14.903356850680904
16.368400799608935
17.745622429129
19.035181086149578
20.23719392954537
21.351736714845423
22.378845017412566
23.31851585808602
24.170709695096807
24.93535274635922
25.61233960686836
26.20153612688028
26.7027825169633
27.11589664732371
27.44067751054466
27.676908817078477
27.8243626936216
27.88280345730169
27.851991438339113
27.731686824090428
27.521653499213453
27.22166285669768
26.831497554306782
26.350955191646083
25.779851882103497
25.118025694022343
24.36533993444742
23.52168624802335
22.586987502567894
21.56120043106829
20.44431799950204
19.236371467605174
17.937432108759623
16.54761255395765
15.067067723131384
13.49599530651344
11.834635758321758
10.083271764330249
8.242227145140825
6.311865157678026
4.292586159351359
2.1848246009651
2.8888010832485795
5.672091820905106
8.3353048903933
10.879021119822454
13.303777226174827
15.610061560893044
17.798310733703545
19.868907082456303
21.822176951835054
23.65838974088672
25.377757675918023
26.9804362631728
28.466525374494292
29.836070917436587
31.089067041460325
32.225458832027684
33.2451454441747
34.14798362795439
34.93379159999769
35.60235321639042
36.15342240284445
36.58672780036311
36.90197758670895
37.09886443399955
37.17707056546071
37.13627287573856
36.97614807899201
36.69637785117851
36.29665393309041
35.776683160796
35.13619239049382
34.374933283996164
33.492686920798484
32.4892682015658
31.364530006696526
30.118367072178234
28.750719542841875
27.261576161784134
25.650977052790882
23.91901605002624
22.06584252829222
20.09166268500322
17.996740223332576
15.781396385944333
13.446009287365028
10.991012493554106
8.416892798209025
5.724187146708298
2.91347866203165
3.610394936826314
7.088931653568743
10.417411625693463
13.596567351034794
16.627075065252313
19.509549461190883
22.244539513290977
24.83252536502144
27.273916232153184
29.56904927077435
31.718189354354585
33.72152970235625
35.579193300650836
37.29123505273675
38.85764460054432
40.27834975330704
41.5532204641043
42.68207329443049
43.66467630865263
44.50075434225236
45.189994589238026
45.732052456023524
46.12655763205032
46.373120328573265
46.4713376390509
46.420799976780955
46.221097546193135
45.87182680583282
45.372596881673864
44.72303588980226
43.92279712762155
42.97156509209576
41.869061282690836
40.61504974602278
39.209342316858184
37.651803508220134
35.942355001835736
34.080979687172686
32.067725194792764
29.902706867518972
27.586110110170015
25.11819205649877
22.49928249035021
19.729783955932827
16.810170991900605
13.740988424025764
10.52284865192178
7.156427866915264
3.642461142376815
4.331578175730208
8.504970813397328
12.498355361735326
16.312620268463103
19.948584811629573
23.406992819321577
26.68850772536453
29.79370890910996
32.723089261080105
35.477053911340434
38.055920052557816
40.459917787305216
42.68919192650903
44.743804664681974
46.623739057627986
48.328903227933495
49.85913522459765
51.214208465205346
52.39383769027825
53.397685361744315
54.22536844012621
54.87646547793738
55.35052396890852
55.647067894788506
55.765605415109874
55.70563664675524
55.46666148181339
55.04818739394884
54.4497371843197
53.67085661889405
52.711121908720564
51.57014698444732
50.24759051507577
48.74316261964895
47.05663121854819
45.18782796812743
43.13665372047312
40.90308344658885
38.48717055785518
35.88905055795495
33.10894395377724
30.147158351201405
27.00408965911645
23.68022232280451
20.17612850707235
16.49246614877408
12.6299757994903
8.589476181223473
4.371858381734203
5.052262347346605
9.920037260710117
14.577886860997918
19.026860652702087
23.267925148030614
27.301956619779048
31.12973542689152
34.751941849441536
38.169153362961396
41.38184327646589
44.39038065269591
47.19503142613204
49.795960632119304
52.19323565867832
54.38683043251644
56.37663045144522
58.162438575949444
59.74398149539618
61.12091678648959
62.292840483995604
63.259295087499474
64.01977793084251
64.57374984408354
64.92064404135873
65.05987517041456
64.99084846270082
64.7129689251934
64.22565051656275
63.528325251948004
62.62045218103391
61.50152618399292
60.17108652977086
58.62872513961272
56.87409449659975
54.90691514012818
52.72698268079786
50.334174267852895
47.72845443767443
44.90988026801286
41.87860575799305
38.63488535050281
35.179076509924805
31.511641264034708
27.633146617218955
23.54426374005718
19.24576583930678
14.73852461333475
10.023505199838919
5.101759526710577
5.772355556236879
11.333952488135944
16.655747859939105
21.738958148819734
26.584701939235355
31.193991749224676
35.56772767214281
39.70669275863162
43.61155005566371
47.282841213051796
50.720986561772044
53.926286565009484
56.898924540348915
59.63897055038641
62.14638635830476
64.42103134635843
66.46266929669952
68.27097593642124
69.8455471519433
71.1859077810447
72.29152089482498
73.16179748601576
73.79610648406157
74.19378502058818
74.35414887346926
74.27650302046769
73.96015223604843
73.40441166747993
72.60861732769075
71.5721364435268
70.29437759755115
68.77480060118135
67.01292603562325
65.00834439442177
62.76072475903876
60.26982293472643
57.53548897004319
54.557673978769394
51.33643617838412
47.871946054048465
44.16449055164613
40.21447619957141
36.02243105424744
31.589005360470832
26.914970816175217
22.001218329116043
16.848754153014024
11.458694293074066
5.832257074745468
6.491761899247191
12.746530466342518
18.731669608330673
24.448569478414726
29.89850619128668
35.08263277141628
40.001972166402965
44.65741223722446
49.04970262811781
53.17945341091814
57.04713539294406
60.65308197383676
63.99749243421459
67.08043653719388
69.90186032432288
72.46159298921502
74.7593547136666
76.79476535463338
78.56735387399897
80.07656840781844
81.32178687590623
82.30232803743101
83.0174629038829
83.46642642422621
83.64842936213114
83.56267028924417
83.20834762145046
82.58467162798672
81.69087634480204
80.52623132489087
79.09005315888467
77.38171669742572
75.40066590569494
73.1464242780416
70.61860473661348
67.81691893409965
64.74118587545658
61.39133976780873
57.76743700237677
53.86966216586186
49.698332972601314
45.25390400285451
40.536969127455556
35.54826249449764
30.288657950068355
24.759166762854914
18.96093352192558
12.895230078685245
6.563447407890341
7.2103809059254065
14.157576603197958
20.80537143274076
27.15533668805702
33.20891206038576
38.96739576633577
44.43193699864362
49.60353059678329
54.48301382425013
59.07106513132695
63.3682047759163
67.37479717025978
71.09105481991003
74.51704371950663
77.65269007045514
80.49778818824667
83.05200946914489
85.31491229052536
87.28595272360887
88.9644959426815
90.34982822070089
91.44116940663112
92.23768578574776
92.73850323019738
92.94272055202676
92.84942297552459
92.45769564992118
91.76663712666473
90.77537272791193
89.48306773378187
87.88894031650537
85.99227414871214
83.79243061102994
81.28886052079011
78.48111529980491
75.36885749461442
71.95187055573854
68.2300677764521
64.20350028465532
59.87236397361469
55.237005250500694
50.29792547375496
45.05578394431149
39.51139930928093
33.66574923199513
27.519968179645346
21.07534317742851
14.333307379672299
7.295431311503324
7.928106986287402
15.566886719870528
22.876559329431345
29.8588854421709
36.51547492257653
42.847776247412206
48.85706847032162
54.54445565638975
59.9108636561225
64.95703907946042
69.68355032449085
74.09079051062366
78.17898216387839
81.9481835013309
85.39829616292427
88.52907424122813
91.34013446350434
93.83096738572651
96.00094946341537
97.84935587098984
99.37537394786632
100.5781171566005
101.4566394451837
102.00994991263624
102.23702768311375
102.13683689935658
101.70834175105881
100.9505214574009
99.86238512666768
98.44298641625835
96.69143791737741
94.60692518786638
92.18872035380181
89.4361951973069
86.34883364323409
82.92624355140781
79.16816771405105
75.07449395028078
70.64526418126533
65.88068236080152
60.781121127037736
55.347127032185384
49.57942419906318
43.47891624523349
37.04668630991059
30.283995014145006
23.192276181198622
15.773130145011354
8.028314476965502
8.644828887089716
16.974246048008
24.944924594085933
32.55882337051044
39.8177295176602
46.72324717279244
53.27678903738928
59.479570672116
65.33260736972596
70.83671344679827
75.99250378876934
80.80039747862679
85.26062333737661
89.37322720407505
93.13808078526728
96.55489190680879
99.62321600614176
102.342468709182
104.71193934245763
106.73080523935404
108.39814670747442
109.71296253199282
110.67418589821999
111.2807006254204
111.53135761003173
111.42499138380138
110.96043669826585
110.13654505092148
108.9522010727256
107.40633869732014
105.49795703385246
103.2261358637721
100.5900506792311
97.58898717708648
94.22235511647767
90.48970144151804
86.39072256195814
81.925275676067
77.09338900971363
71.89527083508699
66.33131712232536
60.40211766576051
54.10846051660008
47.45133454517179
40.43192994690908
33.05163649992472
25.312039378556985
17.214912324945896
8.76220798278292
9.36042916018027
18.37942825382971
27.010142496567
35.25473848173985
43.11518818176695
50.593257069192774
57.69049538930034
64.40823242628115
70.74757359173078
76.70940015452729
82.29437142553098
87.50292920545189
92.33530430257915
96.7915249282145
100.87142677947524
104.574664624229
107.90072520861534
110.8489413149277
113.41850680660508
115.60849250547449
117.41786275650053
118.8454925456144
119.89018504514847
120.55068947095543
120.82571914464424
120.71396966152541
120.21413707217677
119.32493599064277
118.04511754610087
116.37348709781824
114.30892163323034
111.85038676834647
108.99695326632123
105.74781298544755
102.10229416189232
98.05987592418236
93.62020192642188
88.78309297738326
83.54855853074996
77.91680688922162
71.8882539620351
65.46353040303096
58.643486944321154
51.42919772810193
43.821961429435504
35.82329995429593
27.434954491183614
18.65887869079152
9.497228749144018
10.074783643886889
19.782194493452398
29.07187100891597
37.94619765467986
46.40733918425648
54.457228287829146
62.09755668814659
69.3297695042771
76.1550626883869
82.57438333060603
88.58843262192129
94.19767125997066
99.40232708128447
104.20240470558835
108.59769698088064
112.58779802429456
116.17211766052232
119.34989706884276
122.12022546036862
124.48205761713945
126.43423213669858
127.97549023779573
129.10449499370367
129.81985087069438
130.12012346024605
130.003859302011
129.4696057031723
128.51593046564176
127.1414414374029
125.34480580800604
123.12476906794167
120.48017355111529
117.40997647598593
113.91326739613359
109.9892849634728
105.63743289754873
100.85729504414067
95.64864939384651
90.0114809170878
83.94599305833633
77.45261771601263
70.53202351987791
63.18512220330956
55.41307285177993
47.217283797989474
38.59941192199678
29.56135910591856
20.10526558835081
10.233499961260831
10.787760962347633
21.18229250779839
31.12974959876572
40.632745224053025
49.69364518976835
58.3145554166521
66.49731299469757
74.24348078820326
81.55434537088078
88.4309180603431
94.87393881489979
100.88388275240378
106.46096904997451
111.60517198581447
116.31623388932829
120.59367977329099
124.4368334302485
127.84483478655251
130.81665831976414
133.35113235719038
135.44695908793292
137.1027351342094
138.31697254015603
139.0881200508544
139.4145845660213
139.29475266241957
138.72701208982113
137.70977315225468
136.2414898921521
134.32068099845708
131.94595036041198
129.11600718841873
125.82968561878232
122.0859637140207
117.8839817615214
113.22305976265682
108.10271399222233
102.52267249351078
96.48288935816174
89.98355762339736
83.0251206007937
75.6082814326495
67.73401065476128
59.403551525760996
50.618422868045485
41.38041915166973
31.691607540350255
21.554321610853094
10.971151453320614
11.499222045784876
22.57945576449696
33.18339810069518
43.31390167832361
52.97354186812787
62.16460387710089
70.88907391547842
79.14863420625295
86.94466158827353
94.27822945339807
101.150112752182
107.56079579930142
113.51048261051237
118.99910950677912
124.02635972694927
128.5916798000082
132.69429743847195
136.33324072729644
139.50735839783988
142.2153409907981
144.45574272809486
146.22700393050673
147.52747383261018
148.3554336619476
148.70911986405414
148.5867473670983
147.98653279089086
146.90671751397733
145.34559051927522
143.3015109426251
140.77293025035726
137.75841397105725
134.2566629016641
130.26653370226387
125.78705878437357
120.81746538474502
115.35719370280393
109.40591396302761
102.9635422452251
96.03025490582147
88.6065013917569
80.69301522812296
72.29082293863652
63.40125063677104
54.025928006567725
44.16678937479551
33.82607156032488
23.006308175182134
11.710320046088617
12.209019676876952
23.97340265698985
35.232415678923104
45.989162485978554
56.24643667338414
66.00670873201756
75.27211750281646
84.04446577548785
92.32521975050854
100.1155120734743
107.4161481445527
114.22761540365238
120.55009529365158
126.38347760869274
131.72737694270035
136.58115096476226
140.94392026081061
144.81458949617596
148.19186967128016
151.0743012600048
153.46027803934007
155.34807143728548
156.73585524442493
157.62173055272316
158.0037508007769
157.8799468198941
157.24835178817625
156.1070260101447
154.45408144690748
152.28770592766523
149.60618697470568
146.407935172605
142.69150700876864
138.4556271041048
133.69920974220196
128.42137959152916
122.62149149887048
116.29914921276008
109.45422287463546
102.08686509244919
94.19752538663971
85.7869627738942
76.85625622815799
67.40681273343402
57.44037262013283
46.95901185390813
35.96514092695177
24.461499987415976
12.451149831277082
12.916998068140071
25.363835770302845
37.276379899168965
48.657997077552295
59.51170782536158
69.84017374257233
79.64568944955107
88.93017898311803
97.69519633209237
105.9419297864844
113.67120976815691
120.88351981046804
127.57901035670281
133.75751505324172
139.41856922458055
144.56143022999845
149.18509941788233
153.28834541160424
156.8697284809257
159.92762577377465
162.4602572053917
164.4657118228941
165.94197448499108
166.88695271793142
167.29850362639343
167.17446075579554
166.512660817607
165.31097020129835
163.56731120517463
161.2796879253332
158.44621174375771
155.06512635490853
151.13483226690903
146.65391070364942
141.62114682210094
136.03555214427107
129.89638608407182
123.20317642706455
115.95573859733332
108.15419351884634
99.79898385028083
90.89088834310803
81.43103404244306
71.42090602149068
60.86235431137919
49.75759766112641
38.10922373984206
25.92018537296643
13.19379238843317
13.622992474922103
26.75044122470233
39.31484592545331
51.31984800344958
62.76870352096184
73.66427070990876
84.00900262231065
93.80494455758853
103.0537359122557
111.75661608702143
119.91443408114695
127.52766140472201
134.59640794305358
141.12044041592637
147.09920308793093
152.5318404009867
157.41722121965404
161.75396440135103
165.54046542631937
168.77492384735552
171.45537134409744
173.57970019205462
175.14569198173587
176.1510464462344
176.5934102782205
176.4704058371755
175.77965966442852
174.51883073857658
172.68563841369752
170.27788999032643
167.29350787252145
163.7305562624755
159.58726733994746
154.8620668635028
149.55359911747018
143.66075111079942
137.18267591245643
130.1188149835857
122.46891933839035
114.23306933523065
105.41169286665263
96.00558168313721
86.01590555065707
75.44422390707177
64.2924946480427
52.5630796419111
40.25874654325619
27.382666449541524
13.938406924594785
14.32682885246637
28.13288811385089
41.34734586584041
53.974130297756986
66.0167414114197
77.47823914411457
88.36123698242662
98.66790068446818
108.39995171260225
117.55867496939037
126.14493042514243
134.15916822670806
141.60144688280266
148.47145413272648
154.76853012045441
160.49169251483147
165.63966323903344
170.21089649803767
174.2036078193445
177.6158038510582
180.44531269082773
182.68981454799535
184.34687257054696
185.4139636952155
185.88850940505716
185.76790630176362
185.04955641930388
183.7308972229279
181.80943124939935
179.28275535278166
176.14858952418263
172.40480525287924
168.04945339073043
163.08079147067957
157.49731041635403
151.2977605588328
144.4811768525155
137.04690315452075
128.99461540004302
120.32434347088537
111.0364915167703
101.13185644988754
90.61164429292232
79.47748401969014
67.7314384866249
55.376012016458255
42.41415415836966
28.849259118187813
14.685160325100808
15.028323563413167
29.510828049509207
43.37338828895221
56.62023108243234
69.25510838940762
81.28128631082475
92.70153995135614
103.51815373129506
113.7329267033816
123.34718241998434
132.36178289243844
140.77714618839016
148.5932672196377
155.80974128742855
162.4257899704089
168.44028896269802
173.85179749636546
178.65858901155556
182.85868276918248
186.44987613409296
189.42977729062048
191.7958381863249
193.54538753245896
194.67566372134775
195.18384755058898
195.06709467037876
194.32256769254178
192.9474679199093
190.9390666689083
188.294736167758
185.011980017945
181.08846320572553
176.522041644345
171.31079121610048
165.45303626689844
158.94737748330624
151.79271905524078
143.98829499525323
135.5336944496635
126.4288857968146
116.67423928472735
106.27054791518002
95.21904623400219
83.52142664104574
71.17985278493492
58.196969562037495
44.57590919668861
30.320292840893693
15.434227096820724
15.727283144350537
30.88389483150623
45.392457936628034
59.25750944199705
72.48306072519426
85.07258770683238
97.02902728138469
108.35477954921521
119.0517153529802
129.1211886119984
138.56405294552843
147.38068208157063
155.57099355729014
163.13447523404847
170.07021417250306
176.3769274390744
182.05299444659357
187.0964904656015
191.50522097963048
195.27675659568675
198.40846826079056
200.8975625740717
202.741117021729
203.93611499908147
204.4794805170911
204.36811252166896
203.598918780082
202.16884931146143
200.074929354655
197.3142918786159
193.88420964663572
189.78212684457085
185.0056902771554
179.55278012415775
173.42154022931413
166.61040786973484
159.11814292318255
150.94385631550085
142.0870375885052
132.54758138393845
122.32581259058753
111.42250984913065
99.83892705602818
87.57681245206473
74.63842482637405
61.026546313141495
46.74449120659647
31.796110172069437
16.185789189262614
16.42350414055173
32.25170426165991
47.404015663301955
61.885296611780284
75.69982460433289
88.85128802484317
101.34278450222328
113.1768254324898
124.35534610890174
134.8797208968437
144.75078288892817
153.96884748228896
162.53373933288418
170.44482216227158
177.70103091829512
184.30090582178434
190.24262786829664
195.52405539264907
200.1427613467879
204.0960709852441
207.38109969812464
209.99479077579852
211.93395293325318
213.19529746399286
213.7754749316796
213.67111134326362
212.87884377720712
211.39535546609238
209.21741035215996
206.34188714871584
202.7658129463238
198.48639640304555
193.50106055147407
187.80747524112456
181.40358921463132
174.28766178774404
166.4582940692713
157.91445961778996
148.65553438441728
138.6813257408803
127.99210033673674
116.58861046951785
104.47211859102023
91.64441950869131
78.10785977717029
63.865353712083675
48.92039539823808
33.27706600522875
16.940035673141715
17.11677301959255
33.61385412265377
49.40749863295933
64.50289652154989
78.90459712018321
92.61650267116057
105.64186901539898
117.98331281656053
129.6428247018784
140.62178769305416
150.92100030045094
160.5407036628268
169.48061213170314
177.73994672283885
185.3174708882603
192.21152809842667
198.4200807665458
203.94075009280257
208.7708564542437
212.90746001775537
216.34740130528118
219.08734149116222
221.12380226224784
222.4532051188309
223.07191003894343
222.9762534684236
222.1625856341298
220.62730720695532
218.3669053634689
215.37798931155862
211.65732535283635
207.20187155547296
202.0088121045713
196.07559138126143
189.3999477990638
181.97994739595723
173.81401714166986
164.90097787543266
155.24007673746232
144.8310188999038
133.67399834061274
121.76972733553353
109.11946427525528
95.7250393384708
81.58887748181905
66.71401813084027
51.10413088671877
34.763526494347175
17.697162254532174
17.806866175409503
34.96992434619188
51.4023208114842
67.1095867440738
82.09654778348896
96.36731991267453
109.92531292546818
122.7732408129456
134.91313837857726
146.34638338560438
157.0737235418787
167.0953076375603
176.410720173365
185.01901884371284
192.91877427541814
200.10811146561306
206.58475241068285
212.3460594709858
217.38907907202727
221.7105854017117
225.30712382241052
228.17505377532194
230.3105910121672
231.70984904385958
232.36887974601464
232.2837131069753
231.450396144826
229.8650310522968
227.52381265415588
224.4230652811123
220.5592791731834
215.92914652707475
210.52959729442173
204.35783482144737
197.41137139569895
189.68806373100512
181.18614837956142
171.9042770109293
161.84155143878525
150.99755821178155
139.37240251523914
126.96674105349808
113.78181350329682
99.8194720452416
85.08220839606889
69.57317767891512
53.296218385195345
36.2558676018
18.457370601291846
18.49355003503022
36.31947739529829
53.387873791959606
69.70461990084641
85.27482061480485
100.10280373110024
114.1921267005665
127.54559068898538
140.16526118269155
152.0524943635228
163.2079684833374
173.63171948117648
183.32318011076387
192.2812218793792
200.50419914149032
207.98999473968297
214.73606664133763
220.73949508034121
225.99702977825268
230.5051368862487
234.26004535656574
237.2577925202784
239.49426871358884
240.96526085662077
241.6664949465691
241.59367747955244
240.74253586095057
239.1088579020428
236.6885305301442
233.47757786104503
229.47219879377633
224.6688042902012
219.06405449381862
212.6548958235038
205.4385981520272
197.4127921406417
188.57550675385892
178.92520692381225
168.4608312683966
157.18182969552612
145.0882006467325
132.18052764759886
118.46001474228346
103.92852029515657
88.5885885453183
72.44347820218496
55.49718727325622
37.754473220675585
19.22086745358957
19.176581281964946
37.6620588891199
55.36352799702163
72.28722558466919
88.43853689497647
103.82199747408826
118.4413037625661
132.29933140265624
145.3981604074196
157.73910633110506
169.32275658632673
180.1490110711623
190.21712629748106
199.52576225110442
208.07303126367304
215.8565482330361
222.87348159364132
229.12060450835787
234.59434582760804
239.29084043892476
243.20597870680345
246.33545478012977
248.67481361968464
250.21949666849324
250.96488615320317
250.90634806507632
250.03927391980363
248.35912143952862
245.8614543344947
242.54198138505473
238.39659503923022
233.42140974332233
227.61280021547995
220.96743985209653
213.48233942749363
205.15488620556923
195.9828835302295
185.96459090022248
175.09876446179575
163.38469777272442
150.82226260230613
137.4119494366093
123.15490725603158
108.05298204508297
92.10875338508396
75.32556836812923
57.70757195794194
39.259732813835015
19.987863488519537
19.85570721257496
38.99719850294329
57.328634306921074
74.8566128632707
91.5867986544542
107.5239284020085
122.67182612419792
137.0334263247239
150.61080436230907
163.40521304581
175.41712450665287
186.64627642208197
197.09172169618682
206.7518807518186
215.62459564281335
223.70718526204973
230.99650099617523
237.48898225733456
243.1807114078398
248.06746768176558
252.14477979606636
255.40797703163673
257.852238649581
259.47264158910235
260.26420646704065
260.2219419681312
259.34088777197405
257.61615621265685
255.04297290665062
251.6167166104579
247.33295858664056
242.1875017601207
236.17641993787853
229.29609734521685
221.54326869823274
212.915059986103
203.40903008110223
193.02321322530997
181.75616236382925
169.60699320502454
156.57542878963335
142.6618442437612
127.86731127666899
112.19364186379477
95.64343043044472
78.2200937244553
59.92790743758323
40.772038507259104
20.758571907398007
20.530666240598833
40.32441117653089
59.28252616491834
77.41197343484387
94.71869299037947
111.20761323578876
126.88267119485766
141.74684128795408
155.8021716104731
169.04982665071867
181.49013539551112
193.1226437975199
203.94617061707766
213.95886570530809
223.1582698611184
231.5413754703072
239.10468722115885
245.84428228320502
251.75586943390613
256.8348467175816
261.0763573227128
264.4753434642622
267.02659815349955
268.7248148297119
269.56463491263116
269.5406934113891
268.64766279113826
266.8802953550884
264.23346444340586
260.7022047814871
256.2817523285781
250.9675839828339
244.7554574899085
237.64145187913977
229.62200871613402
220.6939744107347
210.85464375646634
200.1018048022198
188.43378507043948
175.84949903621424
162.3484966727212
147.93101274951516
132.59801644254162
116.3512606798402
99.19333050599717
81.12768960418178
62.15872396779582
42.29178156643715
21.533206707623716
21.20118856881254
41.64319866819795
61.22452221807879
79.95248551508583
97.83329731315109
114.87206482880585
131.07281989642084
146.43855412020164
160.9712618481114
174.67198978750685
187.54089209508413
199.5772898037502
210.7797334953143
221.14606818963475
230.67349949700946
239.35866016851142
247.1976762774085
254.18623237071893
260.31963504224836
265.59287449285546
270.00068375882853
273.5375954037167
276.1979955788488
277.9761754605568
278.86638016876384
278.8628553574614
277.95989174270466
276.1518678967888
273.43329168600997
269.7988407662105
265.24340257005167
259.76211422627864
253.3504028426424
246.00402655906925
237.71911673876656
228.49222161081713
218.32035160879752
207.20102656768705
195.13232484505718
182.11293432356769
168.14220513132543
153.22020378400936
137.34776831105916
120.5265637777184
102.75913745691038
84.04897274166967
64.40054072160447
43.81934817961283
22.311980598546807
21.866997049350015
42.95305149748226
63.153929557185606
82.47731854028663
100.9296856277121
118.51630008979345
135.2412662391047
151.10756583249608
166.11710861496567
180.2707896933618
193.56855244304083
206.00945568588054
217.59174393231137
228.31291955140236
238.16981582038352
247.15866990726147
255.27519495269502
262.51465053881896
268.87191096130294
274.3415308513639
278.91780782627796
282.5948419760985
285.36659211923114
287.22692887633406
288.16968472048825
288.18870125870086
287.2778740845922
285.4311956120234
282.64279635536866
278.9069851628327
274.21828893170317
268.571492342247
261.96167813756426
254.38426845001737
245.8350676322154
236.3103069915066
225.80669175185992
214.32145047637525
201.8523870783761
188.39793542951696
173.95721644011087
158.53009734094115
142.1172527390096
124.72022685219704
106.34149615108029
86.98453145327952
66.65385832636451
45.35511446539607
23.095102519625122
22.527808251761098
44.253451318995275
65.07004762383363
84.98563878121593
104.00693597099958
122.13934930275988
139.3870285249057
155.7529136503851
171.23879404311825
185.84537450528669
199.57234692386407
212.4184660759739
224.38162825517895
235.458951463532
245.6468560161117
254.9411445212646
263.3370803292471
270.8294636822419
277.41270494474463
283.0808944425272
287.8278685889091
291.64727212316916
294.532616427559
296.47733402171195
297.4748294550873
297.5185269275479
296.60191506305034
294.71858934007173
291.86229274482343
288.02695525853716
283.2067328157094
277.39604637921326
270.5896217682854
262.78253084629466
253.97023462898684
244.14862880965157
233.31409211539335
221.4635378101699
208.59446854532
194.70503462691505
179.79409562336807
163.86128507638554
146.90707790569817
128.9328599118023
109.94099858466075
89.93491422223504
68.91915014967547
46.8994406142652
23.88277471248999
23.183333763742972
45.5438737778354
66.97217286147215
87.47661597130765
107.06413913680322
125.74026700340613
143.50916236565965
160.3736861001345
176.33546587648766
191.39497202097508
205.55159892770246
218.8037504612091
231.1489278666648
242.58381879942095
253.1043862035994
262.70595590290407
271.3833019167175
279.1307286747129
285.9421494699842
291.81116066186974
296.7311113099704
300.69516808726337
303.69637547982944
305.727711430781
306.78213872246727
306.85265251394856
305.93232455663593
304.0143446989332
301.0920603605994
297.1590147064671
292.20898427914204
286.23601685993265
279.23447031611306
271.19905316171014
262.1248675084272
252.007455013521
240.8428463419993
228.62761455315274
215.358932695725
201.0346357538083
185.65328692578188
169.21424804261068
151.71775374223972
133.16498881197668
113.55816789357667
92.90061651778959
71.19685219777723
48.45266406634868
24.67518929432761
23.8332817512431
46.82379189996804
68.85960419310203
89.94943106262271
110.10040883135659
129.31814458477504
147.60677571680117
164.9690403771375
181.406357012552
196.9189111887917
211.50574790502372
225.1648676692463
237.8933246864261
249.68732562271435
260.54232754450277
270.453133785168
279.4139866651753
287.4186561742054
294.46052391516497
300.53266180555585
305.6279052241878
309.73892048132655
312.85826666997184
314.9784521247391
316.09198586872367
316.1914245655487
315.26941561219627
313.3187371055735
310.33233549333283
306.3033617732624
301.2252071386717
295.0915389776171
287.8963381217245
279.63393820656347
270.2990679503589
259.8868970822916
248.3930865542976
235.81384355385677
222.14598169867955
207.38698664003667
191.53508712689631
174.5893313920934
156.54966851428628
137.41703418351352
117.1934400606218
95.8820656674499
73.48735147969549
50.01509162139442
25.47252427916255
24.477358804351084
48.092680075254464
70.73164941617367
92.40328523485732
113.11489342122044
132.87212482803557
151.67904615421017
169.5382222531922
186.45080784780794
202.41664662762338
217.43437573348405
231.50153369879365
244.61467001547993
256.7694546206338
267.9607857564758
278.18289483519675
287.42944713729344
295.6936373835659
302.9682794392261
309.24588963133385
314.5187633804149
318.77904506156415
322.01879121397144
324.230027407021
325.4047992434097
325.5352181323568
324.61350259768415
322.6320159928265
319.58330157993396
315.46011598976
310.2554621142187
303.96262249464615
296.57519425541795
288.087126596055
278.49276179385026
267.78688058722383
255.9647527051456
243.02219318125964
228.95562494454492
213.76214801047266
197.4396154078368
179.98671576976693
161.40306229113133
141.68928750794038
120.84714309360125
98.87960358793455
75.79097268100254
51.58699036949807
26.27493898677586
25.115272100278972
49.35001869797655
72.58763261580592
94.8374102953266
116.10678944770928
136.40141856991792
155.72524064302578
174.08058880452748
191.46829173712
207.8877865105922
223.33723664690416
237.8136532534401
251.31301718414454
263.8304003372355
275.3600843784553
285.8956753864947
295.43021314409594
303.95627404066875
311.46606680316967
317.9515205249584
323.4043647133802
327.81620131860484
331.1785689356434
333.4829995847881
334.72106866715217
334.8844388621252
333.9648988792789
331.95439809462135
328.8450781942538
324.6293030132039
319.2996877944203
312.8491291045964
305.27083662734856
296.558368014605
286.7056679106183
275.7071121732539
263.55755820470375
250.25240216656957
235.78764369583246
220.15995855803018
203.36677947018444
185.40638510256292
166.2779970230618
145.9818840806987
124.51947344001364
101.8934671718763
78.1079629823822
53.168577323571625
27.082568775453545
25.746731916210855
50.59529953392521
74.42690270490229
97.25108062088566
119.0753571033928
139.90532374534058
159.74473807508318
178.59563427284837
196.45844391087903
213.3321241809275
229.21429111287162
244.10135537529152
257.9886583813552
270.87060659758845
282.7408021626147
293.592168161713
303.4170671661457
312.2074119243119
319.95476737898434
326.65044347409804
332.2855784992698
336.85121299422076
340.3383544932271
342.738033628479
344.04135232521685
344.239525009085
343.32391390634155
341.28605964715473
338.117708481293
333.81083748550066
328.35767918145945
321.7507469935116
313.98286295677246
305.0471890414241
294.937263387551
283.64704264643694
271.17095150265334
257.5039403046086
242.64155156045769
226.57999586326332
209.31623759023287
190.8480904813162
171.1743229376859
150.29477259216532
128.2104693943143
104.92376611885786
80.43847485141251
54.76000763064192
27.895519033639168
26.371454528641515
51.82803189091618
76.24884321286454
99.6436268115604
122.01993788786777
143.38324706869867
163.73705488400236
183.08301940878943
201.42109423239515
218.74967390851722
235.06574408488794
250.36503361375597
264.64216610023936
277.8908085469924
290.10381499834136
301.27336336344706
311.3910839018256
320.448178175319
328.435527598786
335.3437910530239
341.16349134634766
345.8850906209425
349.49905509046016
351.99590976157566
353.36628403064077
353.60094925317964
352.6908495582269
350.6271273215345
347.4011448175192
343.0045036431643
337.4290635478382
330.6669623116484
322.7106382934
313.55285721732685
303.1867446902866
291.6058258344611
278.80407328897667
264.77596467686976
249.51655045143374
233.02153282929376
215.28735628426926
196.31130981995497
176.09164095521243
154.62768104761523
131.91998124440963
107.97045798925288
82.78254662626381
56.36136123033404
28.713858358938406
26.989165538861048
53.047749678020466
78.0528834581161
102.01445124237941
124.93997468234002
146.8347286466539
167.7018740805678
187.54260468444392
206.3563042200596
224.14071124170866
240.892088103089
256.6053912108112
271.2744396783884
284.8920797700634
297.4503428080088
308.9405945389431
319.3536743069921
328.6800227488942
336.909797105305
344.0329736194219
350.0394368610233
354.91905616412333
358.66174969254035
361.25753694389795
362.69658076657663
362.9692201917926
362.06599557189304
359.97766766802135
356.69523244366565
352.2099333963641
346.51327329983894
339.5970272346034
331.453258758689
322.0743410116236
311.45298445846214
299.58227286579864
286.4557089594932
272.067271046393
256.41148168789886
239.4834892935349
221.27916325584417
201.7952029749894
181.0292608198021
158.9800787417442
135.6476378985502
111.03332025469717
85.14008070620159
57.97262782650686
29.5376108524408
27.599603667077808
54.254019446281504
79.83851125264567
104.36304572204224
127.83503451429212
150.259469853341
171.6390780939404
191.97448781065998
211.26440881107317
229.50581846008598
246.69415176765452
262.82349183347134
277.88675745645924
291.87588499409253
304.7820018884329
316.59558965128093
327.3066345072707
336.90476432028294
345.37937086244693
352.7197169157664
358.91502811344776
363.9545698228611
367.827709737861
370.52396717746217
372.03305037888936
372.3448833214448
371.4496238222529
369.33767480670053
365.99969077416
361.42658155694244
355.60951550897994
348.53992426079367
340.20951114364124
330.6102653204631
319.7344835646852
307.5748015028894
294.1242359848772
279.37624006656097
263.3247718846546
245.9643784703404
227.29029528886048
207.2985620032573
185.98615464260192
163.35113400370597
139.39280973310207
114.11191911806097
87.5108191624335
59.59369003495274
30.366747453265454
28.202525065253532
55.446449514752835
81.60528730490276
106.68901149226373
130.7048343135208
153.65736483634538
175.54878585112883
196.3790460462233
216.14606339830743
234.84593569301825
252.47315416820317
269.0208164409513
284.4808351321235
298.8441389282912
312.10086321068354
324.2405278178732
335.2521999824145
345.12464097404944
353.84643548082806
361.4061032522019
367.7921930017168
372.9933590119983
376.99842129355966
379.7964105147386
381.37659923930636
381.72852127781704
380.84198117787156
378.707056048803
375.3140920373376
370.6536978469454
364.7167377271107
357.49432635239305
348.9778279680497
339.15886210354813
328.0293180481493
315.5813801463578
301.8075658081566
286.7007779389538
270.254373277313
252.46224788456817
233.3189407585426
212.81975624077765
190.96090555286833
167.739667428348
143.15456740204408
117.20557487383309
89.89431657852334
61.22430456761097
31.201176237505287
28.797708199316432
56.624700297233204
83.35286150847857
108.9920818307286
133.54927000071075
157.02853607083742
179.43139458154468
200.75698384649627
221.00229673724235
240.16241833630116
258.23076592054736
275.1993269383018
291.0588909440091
305.799271839428
319.4095172281872
331.87810220304755
343.1931054355101
353.3423660078329
362.3136200022441
370.09461642473497
376.673212578313
382.03744950254656
386.17560855235496
389.07625059280076
390.7282396357698
391.12075303500046
390.2432805877627
388.08561506841284
384.63783684054914
379.8902952660934
373.8335896557792
366.4585524887061
357.75623757408613
347.71791574000747
336.33508051418937
323.599466114174
309.50307988912647
294.0382511541261
277.1976981312993
258.9746144576115
239.36277643629418
218.3566718950366
195.95165116647283
172.14410032077632
146.931636356458
120.31332358578445
92.28990993493274
62.86408131528218
32.04073160542901
29.384959361479865
57.788495959985205
85.08099132603202
111.27214755447592
136.3684492951296
160.3733744355062
183.28762690051522
205.10938647469155
225.83457039919796
245.45710147708266
263.96917753579294
281.3615373369298
297.6237183812008
312.7443025149422
326.71114578357964
339.5115895793633
351.13265077263856
361.561189177878
370.78405136735745
378.7881904892674
385.56076235696816
391.0891986405698
395.3612584999807
398.36506044281884
400.08909657051584
400.52223168554025
399.65368997536905
397.47303216971187
393.97012618477834
389.13511433202143
382.95838018330926
375.4305181529369
366.5423087879532
356.2847026544016
344.6488155722983
331.62593779177024
317.2075595147802
301.38541495522855
284.1515468941484
265.4983934236503
245.41889828208045
223.90664585961025
200.95602159634817
176.56239809581945
150.72234683604898
123.43387486954549
94.6966853587764
64.51246019447365
32.88516228142664
29.964118879556064
58.937637556785276
86.78956250828203
113.52928576398959
139.16272868341593
163.69258435004534
187.1185838007234
209.43778028050048
230.6448455342587
250.732372128095
269.69117593681216
287.5105932262075
304.1787671872771
319.682919325618
334.0096017478568
347.14492709475724
359.07477362218106
369.7849636994231
379.26141475801654
387.4902624607349
394.45795655235344
400.151330487781
404.55764649656516
407.6646182303856
409.46041354918066
409.9336403291447
409.0733184262118
406.8688411075654
403.3099293727477
398.38658263640315
392.0890292414342
384.4076802215446
375.33308964351005
364.8559247371291
352.9669488692637
339.6570202421389
324.9171089959868
308.7383351745634
291.1120297679028
272.0298207764421
251.48374594531253
229.466393488084
205.9710717554298
180.9920083976025
154.52457911513687
126.56556558379862
97.11344157154349
66.16868563241874
33.73411805650919
30.535068096184787
60.07201780775108
88.47861242099697
115.76379221518498
141.93275505380998
166.98723459210453
190.92580427142545
213.74420044974997
235.43565781011796
255.9912501754644
275.40023003566176
293.65036044995554
310.7282335046672
326.6195701581811
341.30949706462644
354.7827968033595
367.02412882128925
378.01821928986294
387.7500189603124
396.2048289432161
403.3683951232606
409.2269726300241
413.7673624094071
416.97692247184466
418.8435568298971
419.3556854805684
418.5021990405198
416.27240181275675
412.6559471582247
407.64276907528637
401.2230138631784
393.38697567138274
384.1250396234125
373.4276360582302
361.28520926125657
347.6882038645432
332.62707188192053
316.0923031137171
298.0744814065671
278.5643689794086
257.5530207293549
235.03193010158597
210.99320774204136
185.42979374120446
158.33570381633922
129.7063092589239
99.53864988620614
67.83177857445116
34.5871352064422
31.09773720593266
61.191637712832744
90.1483562919094
117.97621776448176
144.67951257641687
170.25881550378352
194.7113323724331
218.03126714855262
240.21020151769528
261.2374790658773
281.1005864002439
299.78552398466826
317.2771600916763
333.559562055441
348.6162999158659
362.4307185331312
374.98617528526546
386.2662415049628
396.25486683041385
404.93650660932076
412.29621338402154
418.31969427900157
422.993336799844
426.30420612792483
428.24001745675827
428.7890872676437
427.9402676906973
425.6828682513519
422.00656937425344
416.9013320165811
410.35730774402987
402.36475345656913
392.9139548274019
381.99516234561696
369.5985436580588
355.714155695546
340.3319398422544
323.44174316691647
305.0333684811818
285.09665571757677
263.6215968248276
240.59848605346258
216.0181071437374
189.87195852143117
162.15251714545457
132.85354112576994
101.97041063033183
69.50050591421487
35.44362052614413
31.652114046322527
62.29662521911959
91.79921674163765
120.16740940673583
147.4043755071781
173.50930341396358
198.47779271876294
222.3022711224836
244.97242397765825
266.4756274028708
286.7973761738101
305.9216981352943
323.8315476407101
340.50917147050063
355.9364417635654
370.09515166967543
382.9672706485089
394.53515755837566
404.7817308559009
413.69059633177216
421.2461338120325
427.4335451396641
432.23886650488754
435.6489488094934
437.6514102335198
438.234565524885
437.3873367665163
435.09915050396836
431.35982615234417
426.15946056228836
419.4883135242869
411.3366988429832
401.69488543203465
390.5530126740047
377.90102406836854
363.7286229594928
348.0252538966117
330.78011293213785
311.98218991035
291.620345530468
269.68342568275517
246.16041524318595
221.04063316316643
194.31397029671803
165.97117095437358
136.00415865024522
104.40640590566566
71.17334727252984
36.30283393485732
32.198253956747536
63.38725619927625
93.43185702199705
122.33855650894671
150.10916770040023
176.74123323482178
202.22847548600527
226.5612699781576
249.7271315515635
271.7112027869347
292.4967345637573
312.065549297471
330.3984783327571
347.4757661145072
363.2774350574574
377.78360643231366
390.97477402323807
402.8320287349741
413.3372336906309
422.47315062433677
430.22351950643565
436.5730943225775
441.50763874887934
445.01388612055257
447.07946858707703
447.69282068986865
446.8430628051201
444.519869982255
440.71333169580726
435.4138079359557
428.6117869084293
420.29774941568377
410.462044763517
399.09478279211294
386.1857463781597
371.72432850119344
355.6994977143444
338.0997956102425
318.9133696223258
298.1280442444734
275.73143348227325
251.71109705632443
226.05474255137017
198.75047533153773
169.78709760838063
139.15445753967452
106.84384863966338
72.84845907761618
37.16386961945553
32.7362908382909
64.46397803905177
95.04721845657899
124.49124294894821
152.7962297529378
179.95778035437644
205.96743223024419
230.81319657319926
254.480108763604
276.95077942741244
298.2059343913912
318.22493268434056
336.9862528780683
354.4679394515897
370.64800242779813
385.5047651987683
399.0171571543356
411.1649493947124
421.92893338579097
431.29104385948943
439.2344285377327
445.7434683466289
450.80375267415866
454.4020149126171
456.5260340227709
457.16450817518285
456.30690668787963
453.94330650791824
450.06421940627826
444.6604158928269
437.72275163476036
429.2420018996726
419.20870925987
407.61304950360113
394.4447204104714
379.69285777094217
363.34598276572797
345.3919845698391
325.81814180418496
304.6111862188743
281.7574117474126
257.24283180788973
231.05338743360207
203.17520847546336
173.59492971606056
142.30006325381464
109.2794279376635
74.52363593634921
38.02563569917752
33.266449568052
65.5274361861809
96.64656266948258
126.62750599684287
155.46849487101912
183.16285314887963
209.69958403929968
235.06398117400266
259.2382522766587
282.2021412862572
303.9335354050847
324.40904459012023
343.6045424204874
361.4956589694758
378.05821819972493
393.2686143945856
407.1041241511815
419.54315241236225
430.56541284148216
440.1520444924141
448.2856681594693
454.95038698873566
460.1317368811061
463.81659292568145
465.99303858317984
466.65020461264885
465.77808483256933
463.3673357559351
459.4090669720074
453.89462889536776
446.8154041929717
438.1626088594321
427.9271085591541
416.09925550759914
402.6687508363624
387.62453708456263
370.95472518334765
352.64656005324025
332.6864287079494
311.05991454575366
287.7519013000242
262.74672989920623
236.0284112384767
207.58089757291762
177.38841488561178
145.435858144172
111.70925081577461
76.19626933815252
38.886832426312495
33.789059953977166
66.57850408234665
98.23151930086087
128.74990293349808
158.12957474642323
186.36119767261766
213.43084380266788
239.3206893336973
264.0097217576412
287.47444278447745
309.68955129751316
330.628591957305
350.2645568218605
368.57042942819845
385.5196630696745
401.08658739449055
415.2467398388451
427.97712069728664
439.25637274670237
449.0648882184181
457.3848475152787
464.20019537708595
469.4965612000212
473.2611309276587
475.48247837417216
476.1503640445179
475.2555095189574
472.7893553093877
468.74380981378647
463.1109966287514
455.8830070635344
447.05166426293135
436.6083049150609
424.5435841107563
410.84730854910146
395.5083029551914
378.5143142932231
359.851958119895
339.50671122023215
317.4629544929175
293.7040698905194
268.2125950537754
240.97043909282468
211.9591627390706
181.16032579781964
148.5559044521197
114.12878047581398
77.86330378415245
39.74592895975307
34.304572448382174
67.61831697661265
99.80414003885782
130.86158659338756
160.78385698348916
189.55851638468113
217.16825471399113
243.5916777774853
268.80410999993353
292.7783894147301
315.48563663878394
336.8959812282617
356.97923098743746
375.7054723536097
393.04559276306793
408.9717187770334
423.4575665832327
436.4787041740864
448.01272694783944
458.03935061351916
466.5404270640931
473.4998902942696
478.9036404808516
482.7393750354372
484.99637581287857
485.66526175861975
484.73771615054494
482.20619728804365
478.0636410522252
472.30316325257365
464.91776912834246
455.9000768219898
445.242061116321
432.9348232470315
418.96839218072336
403.3315623941197
386.01177290437903
366.9950320772883
346.2658925722871
323.8074806578342
299.6015840307596
273.62880217918655
245.8687632208264
216.30041100184553
184.9023660302119
151.653363517261
116.53277138186806
79.52119050565344
40.60113878424774
34.813575885881875
68.64831022550547
101.36695997311162
132.96639126244833
163.43661592210276
192.76160312771623
220.92014751580166
247.88677099832051
273.6326350796441
298.1264409830463
321.33529626439247
343.22552871218545
363.76343104955
382.9159230965463
400.6511214394758
416.93881011442124
431.7508091867312
445.06124125946144
456.84669876776707
467.0863173347311
475.761762436093
482.85713812935614
488.35882765949003
492.25527639051637
494.5367277760749
495.19492303240554
494.22277487474946
491.61402518932266
487.36289589786605
481.46374158694675
473.910711768668
464.6974299531104
453.81669607804326
441.2602182806585
427.01837952293477
411.080044203716
393.4324096068059
374.06090683694526
352.9491557747133
330.0789785207992
305.43047577897664
278.98217062486
250.7112240972619
220.59372700623874
188.6050722459135
154.72041170140687
118.91520151769373
81.16583901869298
41.45039389492388
35.316817566126055
69.67026281109428
102.92306748286323
135.06893065350224
166.09413907332197
195.9784970125475
224.69631948279266
252.21746177258922
278.50835781441737
303.5330406454678
327.2541200247406
349.63369497048586
370.6341823838622
390.2190468085798
408.3534205128579
425.00460725474795
440.1424671086201
453.7396834277929
465.7719162739537
476.2178493716778
485.05913980747005
492.28028127834335
497.86839273028465
501.81294476206153
504.105436269577
504.7390335497605
503.7081835500111
501.00821222133425
496.63491808625264
490.5841702318958
482.8515190433965
473.431827148157
462.31892728223005
449.50531313982606
434.9818687409346
418.7376414528142
400.7596635275455
381.0328268593007
359.5398156059228
336.2611013415791
311.17500548522753
284.2578338599998
255.4840883497751
224.82676070341796
192.25771356069274
157.74815370379815
121.26920233994072
82.79256685503333
42.291317911417075
35.815226068954935
70.68634696434869
104.47618413215642
137.17471005081725
168.76387185531246
199.21865841118037
228.50823872991526
256.59713940214067
283.44642836807424
309.0148734230524
333.2600462248781
356.1393460210775
377.61092158788324
397.63447468507246
416.1719333926536
433.187988738659
448.6504928117731
462.5307208861896
474.8035038281271
485.447240112966
494.4437991234181
501.7783290287554
507.43898350743814
511.4165819438891
513.7042175950626
514.296827686901
513.1907385683458
510.3831980205665
505.8719056850107
499.6545514133644
491.7283702225081
482.08972150997516
470.73369928624754
457.6537794345433
442.84150942973747
426.2862455350347
407.974942243451
387.8919986265337
366.0191662754111
342.33552364448656
316.81752180870876
289.4391068926346
260.1719246873623
228.9856132095105
195.84818913682966
160.7265341419433
123.58698709943371
84.39604792173942
43.12119834578692
36.30993728242099
71.69918498552506
106.03075637677154
139.29025517493844
171.4545838896559
202.49317092419605
232.36927815666783
261.04135023028834
288.4643665463196
314.59115849394385
339.3736575733206
362.76404449137186
384.71577469325797
405.18446177169903
424.12860640320633
441.51016455907194
457.2949544390591
471.4529066478629
483.9581664187654
494.78906009408234
503.9279405708439
511.3609280412821
517.0775631733233
521.0703899910671
523.3344852535583
523.8669502246928
522.6663795094354
519.7323202250329
515.0647332909068
508.6634671501846
500.52775285427515
490.6557282051949
479.04399759847297
465.68723336412666
450.57782377405726
433.70557246913484
415.0574538454832
394.61742890830567
372.36632622831814
348.2817928899123
322.3383206693663
294.5073530927467
264.7574794568879
233.05472231771228
199.36292531764315
163.64424849793062
125.85977838059108
85.97026006408018
43.93695831171972
36.80232423054763
72.71191460101788
107.59206129678408
141.4232608914263
174.17656083692765
205.81497401733907
236.29498422650897
265.5680958704362
293.5823811655018
320.28398028322897
345.61851401284105
369.53237419713736
391.97386399884846
412.8941675010451
432.24813576902886
449.99488388388016
466.0982002451022
480.52677536252577
493.2542622383655
504.2591841907127
513.5247085812775
521.0383064434261
526.7913185729583
530.7784483913715
532.9972009843161
533.4472863292049
532.1300030205375
529.047616929377
524.2027473257415
517.5977711554309
509.23425448086783
499.112418626259
487.2306473509565
473.58504042975824
458.1690183493748
440.9729824284982
421.98403451392704
401.18576047273575
378.55808195769606
354.0771813357229
327.7155051969489
299.4418524676824
269.22155379167776
237.01674947955368
202.78677391292655
166.48865478449605
128.07773591380706
87.50843255330167
44.73512804063553
37.29403142842915
73.72826451353778
109.16632908632882
143.5827636053985
176.94182664596647
209.19913204862917
240.3033868737956
270.198175670817
298.82373487619856
326.1186642157878
352.0215274321088
376.4723019830933
399.4136459750429
420.7919598870025
440.5582300224954
458.668649565551
475.0850211913068
489.7749520752788
502.711857667055
513.8747946667341
523.2481462910373
530.8211842457422
536.5875319982728
540.5445531730967
542.6926873903241
543.0347538562748
541.5752406984175
538.3195955957422
533.2735308442486
526.4423537349826
517.8303310997308
507.4400951568247
495.27209640210026
481.3241082514605
465.59078744858334
448.0632938830816
428.72897339660483
407.57110735179026
384.56873315861236
359.69654055681053
332.92484919409054
304.21967387365964
273.5428847264443
240.8524704477835
206.10291357921926
169.2456875662509
130.22988593696556
89.00299437503803
45.51181665026669
37.787014671639284
74.75264220485903
110.76088568572281
145.77934208679176
179.76440220947592
212.66314667962493
244.41535817570622
274.95558126209323
304.21516202519024
332.1242039835896
358.61338395351913
383.6155810155969
407.0672826726053
428.90974391272005
449.0898864452531
467.5609362038826
484.28280679875166
499.222244586195
512.3527572135655
523.6543518351683
533.1131117594017
540.7206412492894
546.473407797514
550.3720097106797
552.4203945521937
552.6250511879811
550.9941951053323
547.5369635481145
542.2626340071847
535.1798768565972
526.296050527322
515.616545618186
503.1441827885423
488.878668159211
472.816109254894
454.9485942202603
435.2638370952557
413.7448922985802
390.3699420903955
365.11216161833784
337.9396671426165
308.8155541350612
277.6980331062657
244.54067218486472
209.29275660248658
171.89977628129606
132.3040536291367
90.4455243679486
46.26268470274273
38.28358739002046
75.79023655790805
112.38431976911954
148.02535261197443
182.66060782417736
216.22732125262985
248.65502908812556
279.8679526458527
309.78734857557845
338.3337483273495
365.4290202599126
390.9982000406338
414.97104892000993
437.28331403116977
457.8776791070825
476.7044071142453
493.7216876550516
508.8957111883608
522.2004989657353
533.6175220778233
543.1351453019599
550.7479318049136
556.4558435234326
560.263369591522
562.1786118800424
562.2123529100409
560.3771273997545
556.6863147611103
551.1532661712525
543.7904765500496
534.6088089699473
523.6167767584166
510.8198868419223
496.2200467107205
479.81503672559074
461.59804929528804
441.5572966723083
419.6756896887398
395.93059062279747
370.2936444917271
342.73069434996944
313.20178757668344
281.66128161176266
248.05805909098189
212.33586378784815
174.43377014365365
134.2868004063796
91.82670445368497
46.98291819190506
38.78647498630073
76.84713851782563
114.04667935597713
150.33520575346907
185.6494186268814
219.91518770371695
253.0502756018435
284.96710724694157
315.57548481892985
344.785156655601
372.5081612458998
398.6608833725917
423.16577724858877
445.95272977657635
466.9600546284057
486.1351236864829
503.43465578281837
518.8246931736635
532.2803036347595
543.785050532513
553.3302749857128
560.9142336782711
566.5411334884681
570.2201003580909
571.9641152149064
571.7889447135917
569.7120894383653
565.7517673070618
559.9259454453629
552.2514299078279
542.743019393957
531.4127265765432
518.2690688212765
503.3164288981589
486.55448571269534
467.97771505358895
447.5749607937365
425.3290778194562
401.21664912835587
375.2077809618268
347.2659814574052
317.3481300600258
285.4045467613336
251.3791720880328
215.20987058311346
176.8288722641449
136.16336815261639
93.13627739648248
47.667204702655916
39.29887894848464
77.93048384182059
115.7597046585782
152.72569398632209
188.75288441534758
223.75400906901083
257.6332882223493
290.2896557502712
321.61990365667975
351.52163433479745
379.895927126166
406.64964649044174
431.6973418474581
454.96271213890145
476.3796298263355
495.8927381605056
513.4576512735096
529.040798501421
542.6189622443294
554.1785628207258
563.7147446064754
571.2303158448977
576.7345905202435
580.2421752521898
581.7717379014475
581.3447879991204
578.9844926553837
574.7145455922201
568.5581016046623
560.5367842286173
550.6697707427846
538.9729558672918
525.4581936084332
510.13261557234756
492.99802365158024
474.05035518794773
453.2792194412759
430.6675053574431
406.19106214944287
379.81845600233197
351.51080821589267
321.2217222452032
288.8973093243643
254.47632461085846
217.89042801286547
179.06458600507997
137.91763275767065
94.3630107429965
48.309712597765184
39.82455300173841
79.04862306107393
117.53710550746769
155.2163816299174
191.99662810564115
227.77537377328446
262.44124184224574
295.87772146782254
327.96681965178766
358.59246018953013
387.6435189667143
415.01641200029553
440.61718178248873
464.36305641405374
486.1834827290735
506.02065760962637
523.8295999963659
539.5778192758928
553.2446437996322
564.8202766682901
574.3046452752242
581.7061072658787
587.0400694146472
590.3275682920678
591.5938532497806
590.8670038202022
588.1766056042774
583.5525014572656
577.023628503596
568.6169463372182
558.3564577233508
546.2623201803456
532.3500449101284
516.6297785588696
499.1056631132262
479.7752697513684
458.62910355871117
435.65017757973465
410.81365661364396
384.08657338587295
355.42762216374547
324.78703746663905
292.10656818242245
257.31956009176537
220.35116246431707
181.11867697417537
139.53206964358253
95.49466881277567
48.904074204712025
40.36789418364036
80.21132516542856
119.39489392647963
157.83007165986797
195.4104407015838
232.0159018434346
267.5170870159113
301.7797835490077
334.6691869128647
366.0538206381283
395.80899233814114
423.81969023197536
449.9828620326157
474.2090544975668
496.4234248349437
516.5661626986758
534.5923826162248
550.4715610095243
564.1865997444771
575.7326000838998
585.1154280396506
592.3501455777898
597.4593730968455
600.4716381615251
601.4197545610496
600.3392651178254
597.2669718468674
592.2395684233327
585.292382658891
576.4582308922238
565.7663818419554
553.241624461675
538.903432544075
522.7652180925056
504.8336656552391
485.1081407494758
463.58016704831886
440.2329690402356
415.041079290552
387.9700121426172
358.9760086152166
328.0058603128929
294.9968233029147
259.876636075631
222.56365883913037
182.96715445636755
140.98773426953437
96.5179948270642
49.443374091238866
40.9340525257277
81.43002331991767
121.35178531395036
160.59336781049458
199.0289952869437
236.51808819119105
272.91048855663416
308.0516686934909
341.78769722535253
373.9697669159075
404.4581292926556
433.1253276618427
459.85866832834745
484.5619157327494
507.15623763758487
527.5804592705972
545.7907093360475
561.75955585936
575.4747365414709
586.9375878284037
596.1612707333063
603.168881186562
607.9915198785027
610.6663825708013
611.234917813933
609.7410857707785
606.229739998522
600.7451439302271
593.3296255761397
584.0223676350626
572.8583256628139
559.8672640177313
545.0728977870292
528.4921285792213
510.1343627368725
490.00090199396624
468.0843987059814
444.36837037586645
418.826771171249
391.42362137704015
362.11269917470054
330.83730271771833
297.5300941217175
262.11304065575894
224.4974720597915
184.58427647472035
142.26426091297483
97.41870547861235
49.920143629725885
41.52906407791032
82.7181132845819
123.42968546005514
163.53735543628508
202.8927085161038
241.33131446642398
278.6789435064674
314.7577213051935
349.3919437293812
382.41331392751005
413.66541894345755
443.0073244009297
470.31622796103875
495.4891700618406
518.4438499469126
539.1186336576271
557.4718674194887
573.4806248809632
587.1390211313668
598.4562221516145
607.4542674757176
614.165808546901
618.6318475496148
620.8995430927323
621.0201313398219
619.0469949736951
615.0338983348971
609.0333954767302
601.0954087881213
591.2659691388308
579.5861039777112
566.0908571874337
550.8084234707262
533.7593803253295
514.9560019925427
494.4016419097047
472.0901729688128
448.0054781249795
422.1209874884472
394.399261875167
364.7916268078544
333.2378650893073
299.66598026082954
263.99204746171745
226.12017237626378
185.94258304853008
143.33988331903961
98.18150045382512
50.32636316411978
42.16001339246857
84.09131830721716
125.65428556754247
166.69843117166508
207.04878577955972
246.51306908449482
284.88911819326376
321.9721884259503
357.56177987963054
391.46770126044794
423.51515625433257
453.5487187098024
481.43514314412676
507.0650298109646
530.3534238815806
551.2394733562571
569.6852992893122
585.6742456023917
599.2086762112691
610.3074771620356
619.0034039947567
625.3403925547539
629.3709275294739
631.153539177741
630.7504765578772
628.2255860472346
623.6424076101491
617.0624882805988
608.5439025761689
598.1399627736281
585.8980977749751
571.8588772611449
556.0551575605542
538.5113267755345
519.2426288878206
498.2545495374424
475.54224972271817
451.0900376406637
424.8708731558697
396.84590386086063
366.9640363086983
335.1615507063377
301.36177211284075
265.47481594893
227.39743035255162
187.01296256692703
144.1914810793646
98.79008960411936
50.65347318930051
42.83523341880971
85.56813837052707
128.05579397022262
170.11932005658576
211.55249622481134
252.13042539647634
291.6184536742787
329.7808634988414
366.3889083757756
401.22783852015056
434.1026667596217
464.8425312784492
493.30361544266515
519.3706762521485
542.9573059314537
564.0051027841193
582.4819574096342
598.3796706053283
611.7111130956179
622.5071187438512
630.8132763280771
636.6867541734681
640.1932601653521
641.4042093730084
640.3941443629794
637.2384302351236
632.0112278540721
624.7837346240342
615.6226721207192
604.5889934400445
591.7367796645806
577.1122937995806
560.7531613533152
542.6876489606768
522.9340156912835
501.4999156420025
478.38183486044824
453.5645504209681
427.0206044666815
398.70979116699596
368.5786597750017
336.56004226701623
302.5726193805865
266.520544206794
228.29314780071172
187.76475651050808
144.79465584160909
99.22724062740102
50.89239603663598
43.56455320896215
87.17040716204063
130.66984192035133
173.85033017839874
216.46873686386633
258.26184126977546
298.95710085008585
338.28304223182096
375.9787400895734
411.8019579585089
445.5356611096076
476.9927539386475
506.01902826543176
532.4944231675087
556.3327843384809
577.4803685839252
595.9133677827134
611.6347300590708
624.6705393275209
635.0661837454938
642.882504719179
648.1920759839267
651.0757208820845
651.6193380900963
649.911073413621
646.038848667428
640.0882381733063
632.1406686485257
622.2719085280754
610.5508072436724
597.038242826078
581.7862366180387
564.837196199542
546.2232512700061
525.9656517650143
504.0742025841101
480.54671474321617
455.3684583953215
428.5116089003101
399.934682925321
369.5819674036393
337.38295006342565
303.2517661524967
267.08668191222887
228.76964126322744
188.16590801539056
145.1238416461847
99.47485025323256
51.03356963050143
44.35960712879354
88.92398751318039
133.53861243576614
177.95091000909565
221.87396212921803
264.9993604729903
307.01026150934933
347.5938547371727
386.4525684461175
423.3134966311657
457.93571649281967
490.11535526435813
519.6884380797887
546.5316907214353
570.5615741454623
591.7318895420631
610.0303162134929
625.474236075253
638.1061662464056
647.9890734976102
655.2017890518305
659.8346857652431
661.98572675141
661.756948076491
659.2513998083227
654.5705398571755
647.8120532928742
639.0680552499391
628.4236269734279
615.9556307883389
601.731749637635
585.8096993131044
568.2365657661792
549.0482252804522
528.2688113355505
505.9101983675115
481.9714791251378
456.43841882512567
429.2828757783403
400.4621845947647
369.918504499144
337.5781417314474
303.35086148821017
267.1292113793326
228.7878849078115
188.18315997895442
145.1524538351427
99.51404201971602
51.06699492362905
45.23422374696466
90.85964606585374
136.7122568895806
182.49159386150993
227.85857784056742
272.4513183704648
315.9010302278714
357.84705078992374
397.9501096669473
435.9032268732036
471.4398705301753
504.3392573403389
534.4289020346441
561.5846973848861
585.7289253014212
606.8266617447098
624.8810500434083
639.9278892527086
652.0299286282092
661.271188053292
667.7515475980049
671.5817751803614
672.8790948683841
671.7633426923846
668.3537130215776
662.7660663040473
655.1107470943859
645.4908481584112
634.0008502571798
620.7255662555698
605.7393209599938
589.1053033095329
570.8750342525371
551.0879011205691
529.7707170751225
506.93727194871246
482.5878483735329
456.7086844354141
429.2713712296078
400.2321806915739
369.5313260080273
337.0921638594568
302.82035476151077
266.6030048802239
228.30781987789652
187.78230854325852
144.85308107265476
99.32529378368184
50.98229864089403
46.20491870581169
93.0141616283096
140.25068538908653
187.55644817438383
234.52992852588494
280.74568304409536
325.77385519423774
369.19832937150557
410.63246270521836
449.7316458815806
486.2022947869608
519.8072112500613
550.3675375702364
577.7617433187024
601.9222155962714
622.8300791245376
640.5088624484972
655.0175680070081
666.4436148471788
674.8960196968867
680.4990781437593
683.3867121442901
683.6975686233193
681.5708889972724
677.1431211772115
670.5452125323912
661.9005021123119
651.3231205093339
638.9168035206268
624.7740289473004
608.9753925531544
591.5891479154545
572.6708445555018
552.2630086031834
530.3948198720364
507.0817483654857
482.32512183176084
456.11160406856584
428.41257136154803
399.183381868708
368.3625400856093
335.8707658864301
301.6099851323669
265.4622665241214
227.28873723966205
186.92851786492193
144.1977250592109
98.88859812297457
50.76881296283522
47.291524366931924
95.43174062193108
144.22584634509855
193.2461684149932
242.01604705479485
290.0342000615723
336.79876453722005
381.82931915393516
424.68554278641074
464.98161976790976
502.3959861043113
536.6764599020111
567.6411650207751
595.1759128337337
619.2288470909195
639.8031921109975
656.9488965163948
670.7538597761675
681.3352927825533
688.8316185333971
693.3951810932158
695.185910833907
694.3659967450426
691.0955435198648
685.5291405580147
677.8132387676029
668.0842152213984
656.4670014344138
643.0741547835237
628.0052614734761
611.346571203535
593.1707766545421
573.5368639781539
552.4899729424096
530.0612169142539
506.2674233296574
481.1107647721019
454.5782594121555
426.6411275834316
397.25399893049916
366.3539721063455
333.85953663756254
299.6693744721231
263.661066968492
225.68974167590312
185.58670209697996
143.15809252786687
98.18365877568408
50.415673758419224
48.51800089492334
98.16583946834079
148.72465134583683
199.68202716278373
250.4703892238999
300.49755722910834
349.17653937804516
395.9523320235101
440.3240361351292
481.86125014218334
520.2143693785678
555.1190205991927
586.395322772554
613.9429630042242
637.7332101215145
657.7989819842946
674.2239725577289
687.1316711791826
696.6749056411711
703.0263413096515
706.3701898931246
706.8952343505446
704.7891643830586
700.2341386148753
693.4034405584438
684.4590700322802
673.5501039147723
660.8116645589504
646.3643463403548
630.3139671519798
612.7515296491883
593.7532949682964
573.3808884487537
551.6813720435134
528.6872314323008
504.41623743495126
478.8711513901751
452.03925304523295
423.8916775629685
394.3825558679709
363.4479600766789
331.004663492181
296.9487328294726
261.1539791081528
223.47030302597977
183.72198049231525
141.70594409640412
97.19012623306998
49.91193894604123
49.913490240894774
101.28153111291519
153.85275849879486
207.01094407260314
260.0778483514216
312.35184802033615
363.1450561153423
411.81602463654843
457.7959055942902
500.6068852342046
539.8726377123702
575.3213392258776
606.7823605209458
634.1780863433928
657.5124109756721
676.8573756263502
692.3392057684309
704.1247339324854
712.4089057383753
717.4037998834083
719.3293677307335
718.4059240533595
714.8482973128239
708.8614698461473
700.6374969837366
690.3534802446579
678.1703748540482
664.2324287743222
648.667073712673
631.5851141807916
613.0810859835616
593.233678903947
572.1061390207407
549.7465837892414
526.1881778443998
501.44912978980125
475.5324804770886
448.42566198029664
420.0998141630306
390.5088529392367
359.58829151769874
327.2538235084795
293.3996850859826
257.8968226529232
220.5909026858362
181.3002115358675
139.8135045664182
95.88787560072998
49.246728540753175
51.51369854701639
104.85860624409227
159.73950820746086
215.41204613738302
271.0624431152531
325.85669288852296
378.98706801380604
429.7121085340036
477.38743899583034
521.4861222241709
561.6085541694187
597.4829534935005
628.958202388818
655.9911333958124
678.630376589065
696.9986657189754
711.2751452526136
721.6788086303393
728.4537972586627
731.8569419714585
732.14765445788
729.5800793850542
724.3972917012298
716.8272552987708
707.0802345128853
695.3473552822982
681.8000367723125
666.5900480228078
649.8499814141552
631.6939712836036
612.2185194152826
591.503318156777
569.6119862257647
546.5926520529007
522.4783352726395
497.28708939540456
471.02187851285
443.6701688442826
415.20322273916474
385.57508907871573
354.7212904772483
322.5572148077735
288.9762268116637
253.84752519832415
217.01378181974326
178.2886120879645
137.45393936834927
94.25732990839775
48.40938795583995
53.36272741388767
108.99567699088502
166.54442110566225
225.10522405175405
283.6972055330622
341.32548088059025
397.0397477896354
449.9832386874129
499.42876056784166
544.8005267782164
585.6822881133953
621.8136415563763
653.07721948034
679.4797520660086
701.1298521344302
718.2149382798564
730.9791347644984
739.7033854769766
744.688477189692
746.2412294087907
744.663788522395
740.2457559313077
733.2587650045375
723.9530774284805
712.5557738488972
699.2701479628879
684.2759629903194
667.7302845309567
649.7686575810752
630.506444120142
610.0401793775767
588.4488391864456
565.7949380852465
542.1253988593973
517.4721500432561
491.8524196060957
465.26870166771266
437.7083796034387
409.14299419302586
379.52715036442646
348.79706132248293
316.8687351087262
283.635816501717
248.9671070714056
212.70379838847057
174.65646778215034
134.60190215554863
92.279832271582
47.38967621927504
55.51552588958785
113.81566416851507
174.46583572349635
236.3623854024258
298.31697854964796
359.13832452343524
417.7063625118708
473.032167688525
524.2995980691293
570.8876054576075
612.3746362726167
648.5283078781898
679.2844512040017
704.71974174684
725.0216981264459
740.4590496106667
751.3545792211405
758.0616990171642
760.9453055183282
760.3669352106464
756.6738906856094
750.1918111281809
741.2200806338949
730.0294679630686
716.8614406631784
701.9286709931791
685.4163339240091
667.4838779492018
648.2670215078407
627.8797888011582
606.4164481288184
583.9532543039847
560.5499255986315
536.2508066436625
511.0856833920997
485.0702261638403
458.2060432809012
430.4803320586334
401.8651169870908
372.3160677607331
341.7708932586717
310.14731246170896
277.3406103773782
243.22079696779454
207.62940027780735
170.37594150749953
131.23415919231118
89.93807079633584
46.177980998152904
58.041211924519494
119.47321779656446
183.75250999113678
249.5223845369664
315.3350824118696
379.7584822368606
441.47048620376665
499.33215031184267
552.4348788696299
600.1212702552015
641.982653732904
677.8385500003201
707.7041571644245
731.751732713153
750.2707810300244
763.6306510097136
772.2478133017665
776.5589263607135
776.9999128335036
773.9906689930093
767.9246854693519
759.1627100180565
748.029571622948
734.8133566586025
719.7662411423271
703.1064098452974
685.0206154705432
665.6670396184575
645.1782078227932
623.6637830366853
601.2131170386758
577.8974797004005
553.7719145684484
528.876688325915
503.23831369933635
476.8701322140093
449.77244650040274
421.93219296708
393.32214572941103
363.89964273607427
333.60482602575195
302.35839093184285
270.058844796525
236.5792852861966
201.7637224818122
165.4229879192879
127.33029736596524
87.21656104469496
44.765562794493
61.02762894695304
126.16487568886596
194.71937772011066
265.0110123083355
335.26515009650734
403.7531934158324
468.9131460191798
529.4383724543252
584.3293595361381
632.9095781270435
674.8112520472175
709.9394345181394
738.4233609535723
760.5630934129133
776.7776531021648
787.5587537588436
793.4323309343577
794.928544107369
792.559880231524
786.806370806526
778.1066585838474
766.853610472037
753.3932770207336
738.0261741972608
721.0100607117622
702.5635738180088
682.8702526212849
662.0826144347379
640.3260564760916
617.7024351315945
594.2932323866422
570.16225831691
545.3578638925553
519.914653327647
493.85469271494503
467.18821403632734
439.91381264060476
412.0181333583815
383.4750367394938
354.24423346722347
324.26937281729295
293.47557115186106
261.7663700638044
229.02012222870093
195.08581755898666
159.77838382692786
122.87352465878493
84.10219247466961
43.144831518238846
64.58768425930391
134.1431573324288
207.7692055254492
283.3680168244017
358.7498952024117
431.8200790339908
500.7331895265519
563.9997760215467
620.5398849364293
669.687833982307
711.1586582615757
744.989465833214
771.4686682053341
791.0637635334568
804.3551664199516
811.9803938984732
814.5902784731549
812.8170028190696
807.2526200702841
798.4361964964824
786.847608794923
772.9061790749282
756.9726072466752
739.3529749028253
720.3038944845781
700.0381363735652
678.7302755418044
656.5220594979476
633.5273164203905
609.8363042893593
585.5194562459036
560.6305111642007
535.2090371819577
509.28236415012066
482.8669420276853
455.96913868378937
428.5854842263005
400.70236121963814
372.2951320378015
343.32668702282143
313.7453910086711
283.4824022264818
252.44833805116687
220.52926827750474
187.5820306707858
153.42888734152925
117.85157512117212
80.58484786545964
41.309660051616774
68.8683019550272
143.7364052368597
223.42274556272503
305.28398999495636
386.59919601883917
464.8204452913946
537.7708471278944
603.7699143844902
661.682882762644
710.9041037259369
751.2927090015131
783.0810453519763
806.7742304109108
823.0545583080509
832.6992195449943
836.5151491655034
835.2913826094934
829.7671695972824
820.6130648647919
808.4219617741361
793.7072522323916
776.9057423825841
758.3834657707873
738.4430199433133
717.3314639464398
695.2481396260832
672.352022987645
648.7683851591025
624.5946599703811
599.9054903705153
574.7569703778979
549.1901221573652
523.2336560790355
496.90606031073025
470.2170592253725
443.16846915913584
415.75446752407345
387.9612781000579
359.7662623011512
331.13639397599593
302.0260845695339
272.3743172503575
242.10104446591745
211.10280566172182
179.2475336934119
146.36854325360855
112.25773530672497
76.65810881161971
39.25574168097222
74.06328480752254
155.37716913944553
242.36130332168443
331.6512311364631
419.84068742907664
503.820890295533
581.0337437654678
649.6141596009049
708.4231109262912
756.9926492698281
795.4137199426353
824.197910682265
844.1383532059104
856.1864816853129
861.3530841618553
860.6356547505578
854.969930642067
845.2014220302923
832.0721509105467
816.2181201576843
798.1737710255694
778.3805444169591
757.1974637171819
734.9123260697011
711.752605325283
687.8955451635054
663.4771794809017
638.6001858860559
613.3405812340027
587.7533252710243
561.8769246702211
535.7371359410423
509.34985953420727
482.72330410841386
455.85948276248126
428.755084208144
401.40174265367614
373.7857113201387
345.8869264023882
317.67743114320604
289.11911380886505
260.16069942218223
230.73392463181094
200.748820872432
170.0880374087934
138.60015876362692
106.09201643263073
72.32006655921865
36.981001789099096
80.43214321508542
169.64353500457355
265.4877359763704
363.6345912783714
459.78704654682656
550.1443284026948
631.7231114320821
702.5082878598639
761.4471676866706
808.3285955654178
843.598099128059
868.1552030169152
883.1660612327873
889.9098813547254
889.6653399927363
883.6349599834963
872.901106932345
858.4058794796894
840.9475688942385
821.1876133420251
799.663450710361
776.8040421495112
752.9459541885129
728.3487238735452
703.208819049239
677.6718950949706
651.843291541643
625.7968509858703
599.5822127436434
573.230759644164
546.7603955507952
520.1793151355748
493.48890350757165
466.68587603652065
439.76374076203376
412.7136385556757
385.52459035716043
358.18315649732335
330.672490191057
302.97074539121036
275.0487779986099
246.86705893999982
218.37169885424208
189.48946995405112
160.121706779447
130.13698298216713
99.36250712312687
67.57426671886415
34.486079595819206
88.32824614987507
187.32048892306608
294.0152722095456
402.77110062646824
508.1252330922542
605.430422688794
691.254971712819
763.5195297624957
821.4113996433022
865.1541061019574
895.7150432964498
914.5171664600499
923.1952098910499
923.413130080769
916.7425484816256
904.5926821903387
888.1789712639882
868.5180423856489
846.43883105247
822.60232364776
797.5247907333484
771.6012968752009
745.1276593458692
718.3199634407052
691.3313321504327
664.2659931417086
637.1908677007169
610.1449844819678
583.1470371507476
556.2013867140245
529.3027737472203
502.43996317769984
475.5985006030184
448.76271730561126
421.91708248129635
395.04696606290264
368.13884369362256
341.17994637242185
314.1573303039492
287.05631654819376
259.8582239916902
232.53729184464544
205.05665903968344
177.36323960440558
149.38131169737875
121.00463612745025
92.08695663392336
62.430830057754264
31.77490392487915
98.24191760729389
209.49302202649278
329.59907106656806
451.11126925188285
567.0337106503233
671.7024110754769
761.2653216177824
833.7545351730785
888.8480425650832
927.4624387135964
951.3068986457718
962.4875251951017
963.2049557483433
955.5522952574721
941.399652302077
922.3435589364502
899.6996676710041
874.5210504076365
847.6293226584127
819.6502205224142
791.0486476914524
762.1605680315819
733.2206329100325
704.385330736688
675.7519306295376
647.3737157490835
619.2720712347176
591.4459764545068
563.879394576171
536.5469795687269
509.4184455265949
482.4618725588999
455.6461602112196
428.9427840461322
402.32696303697065
375.77830378953576
349.28095112646344
322.8232420612188
296.39683038106136
269.9952203881691
243.61161870747372
217.23597976552512
190.85108093884034
164.42741683441116
137.9166537477164
111.24335047726188
84.29465938045969
56.90781155751933
28.85539936054843
110.86820392446475
237.69083744434175
374.5346289678034
511.4207259269855
639.3330089958624
751.430249364453
843.5775820016994
914.247801415687
964.0051850020927
994.821845259351
1009.4229275083627
1010.7692369119449
1001.708309756409
984.7764422158805
962.1139315190736
935.45423019325
906.1550263206929
875.2487697668444
843.4985598502432
811.451532681167
779.4860065790147
747.8511317682269
716.6991555924732
686.1110704710492
656.1166520036828
626.7099098299374
597.860880314835
569.5245544502708
541.6475920552499
514.1733414931394
487.0455693508106
460.2112079696954
433.62234884218657
407.23764408860256
381.0232237169712
354.953190584291
329.00971578032244
303.18272280123347
277.4691178163052
251.87149374334444
226.39620497190646
201.0506729514812
175.83973424567668
150.7607758489375
125.7973168168146
100.91060475150627
76.02874010111262
51.03288902340881
25.740377958703778
127.21673724255409
274.1193778426701
432.0626323336553
587.4683762896566
728.669961973601
847.564392454045
940.0907966373783
1005.7468983295225
1046.585474981539
1066.1177492228082
1068.3981113587465
1057.3951492846052
1036.6361318832332
1009.0583109820216
976.9922996256291
942.2168000607973
906.0433770210834
869.4067772547676
832.9481908359671
797.0862592027454
762.0747755206586
728.0480664514844
695.0558626978225
663.0896294694803
632.1021797562825
602.0221240757226
572.7644187636722
544.2380064082784
516.3513135542137
489.01618477786917
462.1506845969544
435.6810830330397
409.5432503074186
383.6836150669511
358.05978363954046
332.6408710974046
307.4075553742821
282.3518312562445
257.4764102792976
232.79368397589946
208.3241389195632
184.0940770427926
160.13244326956612
136.4664792417975
113.11579233116584
90.08425523449341
67.34897669535687
44.84551468237517
22.448700395383707
148.79619875696412
322.0399077302888
506.84611326898494
684.4349733502861
839.7192405559827
963.4813288829406
1052.5118881573198
1108.3254320042458
1135.3372959614599
1139.192544489818
1125.5766392874827
1099.5414110332063
1065.2294293535276
1025.847391432437
983.766581813393
940.6705433965698
897.7057269918089
855.6146852729343
814.8451036147799
775.6348882446493
738.0764596282872
702.1642121840719
667.828922704853
634.9623281914468
603.4344512119876
573.1056602258187
543.8349595714574
515.4856141025368
487.92891496040716
461.0466688074316
434.7328263375311
408.894542600998
383.452869915121
358.3432147175503
333.51563567276395
308.9350164983622
284.58110973340376
260.44841481651054
236.54582437309602
212.8959462432722
189.53398459189535
166.50603688647425
143.86662148221416
121.67516617179655
99.99102198273829
78.86628617550232
58.33534533949019
38.39972386276176
19.00683472996292
177.9369251360959
386.4160726919366
605.7300035862035
809.4766741808965
978.3394854313057
1102.7134932002077
1181.7956876825078
1220.7221571385094
1227.4472213171227
1210.3753724668095
1176.999380961468
1133.3540713461487
1083.970869918147
1032.0714528612978
979.836336614832
928.665192210787
879.3957932749189
832.4746752781583
788.0840392336955
746.2331469869405
706.8226008392733
669.6886849412804
634.6334164782284
601.4445456692059
569.9085936641129
539.8191360440202
510.9818886033742
483.21768225439837
456.3640798566217
430.2761524801585
404.82676759146
379.90662574947015
355.4242001630254
331.30567367924755
307.4949223440592
283.95355780080354
260.66100852110503
237.61458995659382
214.8294857308456
192.33853739796592
170.19172164216462
148.45518158966894
127.2096634298584
106.54815646094414
86.57237074794224
67.38730837586202
49.092527166006235
31.767880921052637
15.451010065115431
218.38261275108317
475.0558060222421
738.9642244086511
972.4464837269948
1151.5026639087118
1268.2000409772268
1327.065032780459
1339.2765188747824
1317.7017837935161
1273.9331607624279
1217.1130418990497
1153.847851023208
1088.6039564707532
1024.2214096843436
962.3819107780521
903.9791614686662
849.390798848843
798.669030728124
751.6700688453222
708.1398351863076
667.7694380536855
630.2302195422337
595.1952401992311
562.3519015061065
531.4088753129259
502.099453203864
474.182712240863
447.4434127694734
421.69122393545126
396.75966073652995
372.5049767157219
348.8051641750211
325.5591522668206
302.6862509597677
280.12585760151853
257.8374168687707
235.80060028706438
214.0156458417932
192.50377121526992
171.30754871086685
150.49111292705152
130.14007387733852
110.36103390700474
91.2806327835659
73.043974168341
55.81190636607895
39.75566539654803
25.04576077151362
11.830271290243148
276.44014953651424
600.7099563744337
922.17092905808
1186.6303352733742
1366.52466296196
1460.5432149981498
1483.6710322194376
1456.349721956957
1397.4667228435005
1321.5590431307937
1238.620372811759
1154.971824958524
1074.304520498363
998.5587514911052
928.568739237283
864.5020126495967
806.1454508344119
753.0854305010696
704.8180235953043
660.8142983943983
620.5574123015774
583.5623152113305
549.3849538053994
517.6253082990215
487.9269542656439
459.9748042877603
433.4920325869206
408.23677998588846
383.9989861112042
360.59754295149713
337.8778720648172
315.70997352824253
293.9869631511291
272.6240956925524
251.55825910282073
230.74791324258837
210.17343233840253
189.83779083381773
169.76750619323803
150.01372207574312
130.65329064208234
111.78971463118128
93.55387117263646
76.10458435268912
59.62927883329965
44.34482963107571
30.4976704241456
18.359514034796042
8.210913415471273
363.36600685554185
785.1056707289345
1179.38958746783
1468.8413177367913
1628.4560441394906
1674.345828484782
1640.0206030682505
1558.2892202220487
1453.7358255487343
1342.1573893796394
1232.6677837563707
1129.9669062889934
1036.073627965614
951.4778643779998
875.8536766891721
808.480636428702
748.4834661078852
694.9626852066775
647.0616120727484
603.9970911254355
565.0701266704699
529.6658416263904
497.2481603227746
467.35225305367504
439.57640576538034
413.5741869079031
389.04733444907237
365.73953703752784
343.43115045651643
321.93482452516884
301.0919875029957
280.7701277833632
260.86081608372854
241.2784192217298
221.9594647289925
202.8626207045392
183.96925430969884
165.28452187156697
146.83892068309666
128.6901964693974
110.92545764121698
93.6633223875173
77.05597712352375
61.2912617852662
46.59542087851713
33.23777643006417
21.538246814478615
11.875212110171539
4.683042907413577
500.79605541578525
1066.929967081939
1547.1558083450836
1836.599231176809
1933.0477395959354
1891.3453811754848
1773.1394697696053
1623.543408236589
1468.8621256834017
1322.3603131110765
1189.6217214309715
1072.1374659477062
969.3979113981572
880.0298002419865
802.3824005056343
734.8123896906824
675.8096853027953
624.0420601538813
578.3601135083605
537.7843581584376
501.4855446712361
468.76370158458934
439.02841733984354
411.7813739663951
386.60138960160964
363.13187508102345
341.07046557851754
320.1605485818023
300.1844199401193
280.9578320081537
262.3257376771909
244.15907435331297
226.3524695151415
208.82278293469034
191.50842913682544
174.3694461561948
157.38829121730527
140.57134726663736
123.95111120282698
107.58899891920998
91.57864027710222
76.04946013537771
61.17030732042971
47.153071590057046
34.25698412393554
22.79607440589628
13.154355655721483
5.811671160312936
1.3704058008609226
734.0148045020128
1518.151989031896
2076.644402170267
2295.263495398305
2250.648355931377
2069.5275791547074
1844.666295491258
1622.528857117812
1422.008381469627
1248.299175292416
1100.6438924783133
976.0866260225027
871.1577185514707
782.5653245437906
707.4340587756752
643.3475172322175
588.3130718275639
540.7018388043507
499.1862998995271
462.6841842205928
430.3110780306781
401.34166449086865
375.1785560374582
351.3274572973067
329.37746432667524
308.9854750471543
289.8638727766227
271.77081665016755
254.50261915803185
237.88781143154057
221.78259447367353
206.0674534846667
190.6447768617785
175.4373748153777
160.38783743354333
145.45870994332012
130.63349385905036
115.91850444483744
101.34562179425072
86.97595422503608
72.90437226921482
59.26475199765751
46.2355949231105
34.04558918067364
22.979123704651144
13.384095345240532
5.690656613804346
0.4566184866390176
-1.55494333977847
1170.5479566022077
2272.627482718966
2817.1034667349168
2797.4209336874674
2494.8180281007103
2134.092578045762
1801.9817953675583
1521.919038297307
1293.4175222832669
1108.9435083956162
960.0485864067415
839.2958244108996
740.6539823800545
659.3894039770239
591.8319650755351
535.1428593175444
487.1203738664394
446.04771346414174
410.5771001793027
379.6425290580256
352.3943098574157
328.149893030754
306.35679153989975
286.56448460386883
268.4030131408981
251.5665892487052
235.80099155834512
220.89384672282944
206.66713772742915
192.97145693542564
179.68165401858988
166.6936294411968
153.9221026721139
141.29924793876168
128.7741443904484
116.31303581127372
103.90043985180881
91.5411884843858
79.26351696073345
67.12333846896857
55.20982453216892
43.65231551278112
32.62834539484084
22.37212381682963
13.182350803980267
5.429044015205731
-0.43359798717291254
-3.81647380122601
-3.8518014321157374
2081.2408986573787
3557.339874940544
3710.291561272037
3131.301803915988
2502.1549635785836
1985.8774465501792
1591.799242768999
1295.5099754261082
1071.6916214537116
900.6120568875347
767.9902688825597
663.6877397225685
580.4993864206788
513.2578805579826
458.21107947948764
412.59744753664904
374.3567660486134
341.9316537882464
314.1299526745609
290.02816130614997
268.902823987811
250.18117883477584
233.40523664664687
218.20534305758326
204.28052054092032
191.38371848488634
179.310662044533
167.89137576275172
156.98372553862495
146.468511328453
136.24577881015463
126.23211854887964
116.3587980186744
106.57063378534284
96.82556471671776
87.09493743235241
77.36456668377637
67.63668956116395
57.93299551506761
48.29898260051044
38.809952789799205
29.578980199008715
20.767074173964236
12.595307601373213
5.3575134571960445
-0.5699318964653027
-4.724877988271443
-6.5416785625127245
-5.186076138906078
4311.37611674775
5441.6060665755895
4091.295913925056
2891.368594288156
2081.172993039333
1547.5622753709545
1188.8896376720932
940.0723925495828
762.0782900008905
631.1737054376003
532.5328431658176
456.6019013807381
397.0401360376798
349.5238291292345
311.0319571939166
279.40703772256757
253.07772630152726
230.8791259087089
211.93368279990986
195.57056735809488
181.27005188595624
168.6244611834473
157.31032080543378
147.0682052505364
137.68796864503736
128.99779722429227
120.8560171575312
113.14491989770329
105.76608972728903
98.63687173906825
91.6877269357667
84.86030004289131
78.10608555957178
71.38562603535205
64.66821933896274
57.93215377702322
51.16553629230583
44.367835211574445
37.5523318901253
30.74977315781907
24.0136464674428
17.42766234981722
11.116191871968581
5.2584252639150355
0.10639464945135901
-3.9957398751071453
-6.6019132975612
-7.187473531036989
-5.13396477135272
8913.181066306157
5135.333631814821
2856.672057036845
1759.9150532732986
1176.0685387104784
838.5522947451607
627.7727047249587
488.1773063685519
391.34087637274547
321.64094353676245
269.9352808419973
230.5972575594392
200.0153014634383
175.78802907638692
156.26995139368108
140.30385676795763
127.0572387975828
115.91906736375725
106.4327874633203
98.2517396603091
91.10883690726152
84.79552736532108
79.14693870620667
74.03121948454785
69.34178254810871
64.9915895026835
60.90889435759186
57.034047577019834
53.31708427238229
49.71590397174602
46.19490800890212
42.72400296265261
39.2779107161489
35.835751864906
32.380892749599006
28.901070425873865
25.388837823245083
21.842407614032062
18.2670243526889
14.677070219757494
11.099225998377701
7.577190249512255
4.1787402164076894
1.0063254763823555
-1.787162460735093
-3.976031738210577
-5.236051643984613
-5.145258327199802
-3.3336656106814377

SCALARS STRAIN_EQV float 1
LOOKUP_TABLE default
0.009377476421143947
0.4168855958473786
0.001770113430373243
0.013888748896030452
0.00937540582388132
0.009369194268840749
0.009358842467970929
0.009344351613540976
0.009325723386668497
0.009302959969254874
0.009276064059319663
0.009245038889723594
0.00920988825027172
0.009170616513172601
0.00912722866182581
0.009079730322913017
0.00902812780173734
0.008972428120757589
0.008912639061247028
0.008848769207986381
0.008780827996881622
0.008708825765361
0.008632773805409048
0.008552684419036491
0.008468570975955813
0.008380447973208626
0.008288331096436705
0.008192237282439762
0.008092184782620804
0.007988193226866403
0.007880283687336408
0.007768478741595915
0.007652802534437439
0.007533280837684119
0.007409941107191901
0.007282812536189759
0.0071519261040445745
0.007017314619448296
0.006879012756981256
0.006737057085953731
0.006591486090389281
0.006442340179017964
0.006289661684170814
0.006133494848550506
0.005973885799019814
0.005810882506813567
0.005644534733993803
0.00547489396660318
0.005302013335925446
0.005125947530640691
0.00494675270471913
0.004764486388905757
0.004579207418085535
0.004390975893452719
0.0041998532083651965
0.004005902181951329
0.0038091873680359952
0.003609775643963287
0.003407737243383624
0.0032031474949029727
0.0029960896936381183
0.002786659819980603
0.002574974336644389
0.002361183261419317
0.002145492602055711
0.001928204125181404
0.0017097889054001046
0.0014910308623796993
0.0012733261379271306
0.0010593586277992564
0.000854753615214496
0.0006722713165652288
0.000540227403655088
0.0005020627400963737
0.0005789214375306233
0.0007445406398337536
0.0009600073653612245
0.0012030375970076338
0.0014641944354239645
0.001739811616876405
0.0020288062107006906
0.002331448619332072
0.0026488942930971253
0.002983031546130225
0.003336485961944956
0.00371272725609608
0.004116269226428892
0.004552979409832359
0.0050305389314355105
0.005559124972178045
0.006152439860462037
0.006829302575989515
0.007616188051383322
0.008551450980004077
0.009692630262038485
0.011130181720841154
0.013013281172306601
0.015614340743456447
0.0194427477245693
0.025862667792014425
0.038010024292389456
0.0746264242837431
0.26004866880388056
0.2828815664164702
0.11392425235498023
0.0667725210835156
0.047987495280563855
0.03744386526779999
0.03078863084576066
0.026135439878609182
0.0226910799292862
0.020025231926764264
0.0178919196592342
0.016138356791994882
0.014664977767254658
0.01340409132531022
0.012308144084321834
0.011342808166085567
0.010482740241174286
0.00970887555647626
0.009006645669412009
0.008364771498162497
0.007774426090674988
0.007228641452268298
0.006721880359183653
0.006249722078910565
0.0058086282269584465
0.005395765963766905
0.005008872853379245
0.004646152419187761
0.004306192614323957
0.00398790161177985
0.0036904568479966724
0.00341326433493607
0.003155926019180654
0.0029182134819843637
0.0027000465590352996
0.0025014754784594517
0.002322664782305764
0.002163876481361968
0.002025448476413898
0.0019077622678896618
0.0018111916766434771
0.0017360224248292124
0.0016823318467811513
0.0016498188504818535
0.00163757472148031
0.001643781970565561
0.0016653208419240262
0.001697267968420198
0.001732356080562351
0.0017598637716773283
0.001779945812324255
0.0018055720418403852
0.0018365319841995285
0.001862965199265573
0.0018795244883345018
0.0018828176216043797
0.0018707764349514635
0.0018423520042130368
0.0017973418839697887
0.001736299987740221
0.0016605202897964008
0.0015721029930790063
0.00147412549843537
0.001370950225770825
0.0012686888874958505
0.0011757502288088203
0.0011031135032474298
0.0010634847377535132
0.0010684618049152535
0.0011244903564072953
0.0012306611177852547
0.0013803236007366023
0.0015646927073529647
0.0017755681402966234
0.002006349436025583
0.0022520224495191886
0.0025088194731458886
0.0027738751097122734
0.0030449631226440255
0.003320313149712132
0.0035984868435465518
0.0038782943373405856
0.004158737199432045
0.0044389686649937005
0.004718265196091663
0.004996005558754806
0.0052716549684834225
0.005544752718694302
0.005814902254737736
0.0060817630067633525
0.006345043521076538
0.006604495577214523
0.006859909075091859
0.007111107541045063
0.007357944144770555
0.0076002981482737415
0.00783807172773653
0.008071187122756403
0.008299584076789357
0.008523217539178403
0.008742055603789711
0.00895607766265006
0.00916527275548038
0.009369638097936544
0.009569177772895381
0.00976390157038829
0.009953823962876928
0.010138963203522817
0.010319340535989478
0.010494979505138316
0.01066590535873212
0.010832144531009849
0.010993724199691099
0.011150671908614233
0.01130301524885644
0.011450781591780616
0.011593997868013782
0.011732690386895516
0.011866884691438753
0.011996605444307978
0.012121876340755757
0.01224272004486678
0.012359158145827541
0.012471211131286943
0.012578898375183
0.012682238137705165
0.01278124757532703
0.012875942759075009
0.012966338699423109
0.013052449376396297
0.01313428777363732
0.013211865915359541
0.013285194905242857
0.013354284966450688
0.013419145482073158
0.01347978503538702
0.013536211449411382
0.01358843182532486
0.01363645257936617
0.013680279477907994
0.01371991767043393
0.013755371720203097
0.01378664563242015
0.013813742879757179
0.013836666425111159
0.013855418741493845
0.013870001828978313
0.013880417228639575
0.013886666033440055
0.013606555052389007
0.013047835047528876
0.012500209526809272
0.011963196233466065
0.011436312018207592
0.010919073044523784
0.010410995011881372
0.009911593397465982
0.009420383718683267
0.00893688182075905
0.008460604196875828
0.007991068352758566
0.007527793234337271
0.007070299747451625
0.006618111414841551
0.006170755242146777
0.0057277629089526
0.005288672477724321
0.004853030951739026
0.00442039827293093
0.003990353863992473
0.0035625078948490767
0.0031365218718316943
0.002712149070892951
0.002289321492117854
0.0018683606823615287
0.0014505818057283977
0.001040515080368108
0.0006579909407336054
0.0004158623731088477
0.0004933838414818252
0.0008314239584862894
0.0012425924397922766
0.0016735853530328339
0.0021146587150811433
0.0025632335144340065
0.0030185614061620297
0.0034805317870094466
0.003949304163563233
0.004425168942637709
0.004908486682625817
0.005399658697763745
0.005899111678059019
0.006407289141451053
0.006924646453642765
0.007451647817309807
0.007988764398467924
0.00853647313346114
0.009095255954512875
0.009093242509623164
0.008534588758397561
0.007987039853628392
0.007450116660409627
0.0069233458334362185
0.006406260885702801
0.00589840381469176
0.005399327630618242
0.004908600386778451
0.004425811804508135
0.003950584586715607
0.003482594684283904
0.003021609858450288
0.0025675689467963155
0.002120762125153673
0.0016823009692880295
0.0012556066259971595
0.0008526775056926933
0.0005300839948116347
0.00045810855997039843
0.0006886277632209533
0.0010604093865112438
0.0014650191775398046
0.0018796185946634925
0.00229847206131827
0.0027197707680990347
0.003142960378679751
0.0035679860827807306
0.003995024151236017
0.0044243700227447865
0.004856385910831585
0.005291474003582569
0.00573006175469029
0.006172593328253476
0.006619524369540277
0.007071318664366166
0.00752844591586832
0.007991380205541347
0.008460598885712833
0.008936581750967003
0.009419810393980948
0.009910767685876495
0.010409937342497204
0.010917803551526405
0.011434850644112678
0.011961562800505317
0.012498423783193362
0.013045916693781245
0.013604523751819064
0.0090872024367857
0.008528935977707486
0.007981866712937097
0.00744552389991177
0.006919444958571431
0.006403177416042442
0.005896281820029523
0.005398336207754903
0.004908943149933715
0.004427741218515326
0.003954424400944313
0.0034887765763198133
0.003030736463415
0.00258052937715213
0.002138961045336901
0.0017081590774039148
0.0012937777606498312
0.0009130465894474106
0.0006268047214895859
0.000567984844684364
0.0007726398361755527
0.0011178053664815458
0.0015074599213736862
0.0019129811467204659
0.002325702453561597
0.0027425066005663233
0.0031621964751691028
0.003584370375154694
0.004009002765281225
0.0044362646134629095
0.004866437782038343
0.005299870709613796
0.005736953885647526
0.006178105507774997
0.006623762690201187
0.007074375847572914
0.007530404970587161
0.007992317068144615
0.008460584350569653
0.008935682895976089
0.009418091639021856
0.009908291579487553
0.010406765143977655
0.010913995656753321
0.01143046689041833
0.011956662676955119
0.012493066566222455
0.013040161523588114
0.013598429661593752
0.009077136523229848
0.008519515826838636
0.007973246460322493
0.007437871669559506
0.006912946790064655
0.0063980426290474466
0.005892750483050268
0.005396689764445047
0.004909519918919577
0.00443095966261656
0.003960819254508647
0.0034990571972190136
0.0030458855900328623
0.0026019797454275395
0.002168931998968067
0.001750341904421076
0.0013547759944500764
0.0010046975784531792
0.0007597155472335738
0.0007158297336737245
0.0008940294252463917
0.0012070231455151245
0.001575541251033134
0.0019672882867543713
0.002370375239318846
0.0027799797448256175
0.0031939968277184716
0.003611512309129875
0.00403219411665995
0.004456020640053667
0.004883147826810395
0.005313839113525695
0.005748426141706454
0.006187285567460387
0.0066308247539092705
0.007079472596055479
0.0075336734293757306
0.007993882854664975
0.008460564789115284
0.008934189322653698
0.009415231115550869
0.009904168167793555
0.01040148084916051
0.010907651116039804
0.011423161865111948
0.011948496389989727
0.012484137917711607
0.013030569209433811
0.013588272214863206
0.009063046086785157
0.008506330038023403
0.007961181577163398
0.007427163536061767
0.006903856275472895
0.006390863031775853
0.005887817794243001
0.0053943971912916834
0.004910338920905095
0.004435471242712961
0.003969761940569595
0.003513403208885833
0.003066966552140231
0.002631703085085666
0.0022101684149624322
0.0018076296121310965
0.0014354697248796472
0.0011194048749908385
0.0009128096165327716
0.0008826658354214737
0.001039297914110656
0.001321341835388265
0.0016660087488291494
0.0020408224981690445
0.0024315092394673055
0.0028315965513282357
0.0032379883017805183
0.003649172030559761
0.004064442639477907
0.004483537628192948
0.004906452399352201
0.0053333405142875
0.005764456783138494
0.006200123228515927
0.006640707880285352
0.007086611080034939
0.007538256345338951
0.007996084092988976
0.008460547206194964
0.008932107821458576
0.00941123494080388
0.009898402614466657
0.010394088525914358
0.010898772866393267
0.011412937422243164
0.011937064822180411
0.012471637907991643
0.013017139203256742
0.013574050462536472
0.009044932984550383
0.008489381050018164
0.007945675554573135
0.007413404514864037
0.006892180367766626
0.006381647760963392
0.005881494958880479
0.0053914709318763155
0.004911411637096958
0.004441281656890262
0.00398124246486307
0.0035317688365088667
0.0030938564888305905
0.002669411634606351
0.0022620223309385637
0.001878562378062199
0.0015325773947131107
0.0012506243469161214
0.0010776104913431226
0.001059443345468539
0.0011997730607936504
0.0014547034547532961
0.0017753522531230015
0.0021315499883782303
0.0025078795177877165
0.00289659141308129
0.0032936792971515337
0.003697028829085111
0.004105538096374215
0.004518678712075761
0.004936264277339647
0.00535832162910426
0.0057850157754193105
0.006216604259708524
0.006653408367654723
0.007095794348609165
0.007544160796065785
0.007998929931193142
0.008460541426762455
0.008929447924850654
0.009406111708949737
0.009891002179132927
0.010384593896896839
0.010887365041986573
0.0113997961730998
0.011922369217482052
0.012455566636921395
0.012999870733179783
0.013555763066789003
0.009022799625034474
0.008468672021772625
0.00792673291067958
0.007396601092361369
0.0068779280519057845
0.006370408610001114
0.0058737964155683685
0.005387926979315282
0.004912752765951966
0.004448398145929509
0.0039952481377101105
0.0035540967160153742
0.0031264040857000228
0.0027147604693873754
0.0023237511664370076
0.0019615936134446525
0.0016430866277426038
0.0013936751348240634
0.0012495872157884161
0.0012418640329832306
0.0013701952678696978
0.0016023117133660036
0.0019002588128736071
0.0022373440607820314
0.0025981234714179016
0.0029740783685526496
0.0033604855973779343
0.0037546943668174113
0.004155222413207786
0.004561274151021697
0.004972474435211292
0.005388715451928407
0.005810065176480614
0.006236710632096588
0.006668921542587573
0.007107026339977886
0.007551395886401277
0.008002432146116196
0.00846056011365552
0.008926221932838901
0.009399872521006856
0.009881976247874276
0.010373004367308711
0.010873432996681205
0.011383741502001929
0.011904411189746462
0.012435924235407281
0.01297876279900815
0.01353340829202217
0.00899664898376752
0.008444206850055813
0.007904359212984114
0.007376761254692428
0.006861110379279243
0.0063571600637994646
0.0058647398600372635
0.00538378487157356
0.004914380175947867
0.004456829430649108
0.004011763687797486
0.003580318915641679
0.0031644338773179057
0.0027673622323753882
0.0023945626922300704
0.002055207493530536
0.0017644311863054527
0.0015453101707085244
0.001426192973795184
0.001427733887589714
0.0015473412024127411
0.0017605866826711984
0.002037839906077547
0.0023561512314435296
0.0027008355406779143
0.0030631023194473226
0.0034377578369939985
0.003821727409358016
0.00421319755121189
0.004611125483191618
0.005014954179524834
0.005424442302885902
0.0058395596155865325
0.006260420711915124
0.006687241821731426
0.007120311893778503
0.007559972751336338
0.008006605153714486
0.008460618789878645
0.008922444945438266
0.009392531023130504
0.009871336372455122
0.010359329060726598
0.010856983333219331
0.01136477758686416
0.011883192733900639
0.01241271086754198
0.012953814166569499
0.013506983993317463
0.008966484622383399
0.008415990191078538
0.007878561105904298
0.00735389452329447
0.006841740510218856
0.006341919341681113
0.005854346274143595
0.005379067685358332
0.004916314847987588
0.004466585636822076
0.004030771394724296
0.0036103580885589927
0.0032077508585511214
0.002826801667075875
0.002473653457974707
0.0021579938306516607
0.001894513330545137
0.001703277884297597
0.0016059197753165214
0.0016158420621796093
0.001729179998796964
0.0019269156348292174
0.0021856927079364034
0.0024860918529654333
0.002814640746482923
0.0031626844891015377
0.003524808026446379
0.0038976488964064587
0.004279133902331734
0.004668010095060217
0.005063557554671923
0.005465411032698057
0.005873446850851567
0.006287709487368995
0.006708362784596708
0.007135656764930019
0.007569904558504117
0.008011466020693775
0.008460735864949751
0.008918134901728283
0.009384103453122716
0.009859096318276112
0.010343578863128318
0.010838023939253129
0.01134290942471023
0.011858716239962147
0.012385926733499503
0.012925023360989052
0.013476487602445294
0.008932310711178084
0.008384027486165674
0.00784934634363845
0.007328011997443456
0.006819833764847091
0.006324706448477925
0.005842639960037732
0.005373802028381728
0.004918580807555713
0.0044776782085695875
0.004052251236990363
0.0036441287114868026
0.0032561451480954784
0.002892648946728918
0.002560238431533397
0.002268686195337215
0.002031654585505282
0.0018659995281642167
0.001787830554249294
0.001805472884791976
0.0019143911454848265
0.0020993990551446988
0.002341871111820924
0.002625506275122269
0.0029382446405774813
0.003271859070648491
0.003620933240586788
0.003981956358834571
0.00435267872594486
0.0047316859853570765
0.005118123922738952
0.005511520342977528
0.005911668390816615
0.006318548824415698
0.006732277255678132
0.007153067638233447
0.007581206509635224
0.008017034476766528
0.00846093266474742
0.00891331262511021
0.009374608694960027
0.009845272121040683
0.010325766475234055
0.010816564030416706
0.011318142862373403
0.01183098451010622
0.012355572073361857
0.012892388659033251
0.013441916111516256
0.008894132055134979
0.008348324991533245
0.007816723828520594
0.007299126404062493
0.006795407682581266
0.006305544234045114
0.005829648579452703
0.005368018029760764
0.004921205046802162
0.004490119811308685
0.004076181051977211
0.0036815383651693664
0.0033093964847333525
0.0029644711514627354
0.0026535716454292604
0.0023861738607058014
0.0021745246616970814
0.002032350751729568
0.0019713172655899526
0.001996178277332753
0.002102088803405439
0.0022766482174521097
0.0025048205340321085
0.002772963761916643
0.0030704621765469254
0.003389700147407909
0.003725435351589204
0.004074136942224787
0.004433464218446724
0.004801896519179688
0.005178480623080214
0.00556266018216308
0.005954160164504433
0.00635290774610352
0.006758977394067507
0.007172552142841744
0.007593895840203782
0.008023332926762477
0.008461233464166192
0.00890800187426483
0.009364068341081921
0.009829882152094753
0.010305906473300423
0.01079261420068501
0.011290484632662521
0.011800000779047257
0.012321647172087365
0.012855908080668265
0.013403266054369577
0.008851954123414614
0.008308889812245736
0.007780703655069267
0.007267252155136791
0.0067684820906797685
0.006284458461443379
0.00581540319806809
0.005361749328322778
0.004924217436806594
0.004503924225505279
0.004102536704545447
0.003722489016132891
0.0033672783867748604
0.0030418415885154985
0.0027529589204621447
0.0025094976470443914
0.002322071736176195
0.0022015169672631387
0.0021559699869729255
0.002187663829972941
0.0022916610336901
0.002457637329790764
0.002673306078029379
0.002927249769419083
0.0032102302311806125
0.0035153394953619395
0.0038376363938826836
0.0041736785746555325
0.004521114904187081
0.004878374997563013
0.005244445624364836
0.005618713177756897
0.006000853224024961
0.006390752729694537
0.006788454788524823
0.007194118865583815
0.007607991816368788
0.008030386461680685
0.008461665521763442
0.008902229399206263
0.00935250676210771
0.009812947192378652
0.010284015378509351
0.010766186480284278
0.011259942396307282
0.011765768738038742
0.012284152365875768
0.012815579380018895
0.013360533485825185
0.008805783082304439
0.008265729940437906
0.007741297159970239
0.007232405413131554
0.006739079182285239
0.006261477884096038
0.005799938334906398
0.005355033058563657
0.004927650630360785
0.004519106232655901
0.004131292261068117
0.0037668782645571435
0.00342956185922071
0.003124346927421052
0.0028577642961982487
0.0026378372603121907
0.0024734625528786175
0.002372897644261469
0.0023415028987794784
0.0023797280310184233
0.0024826735692381864
0.0026415991712206784
0.002846347180563717
0.0030873428637478387
0.003356608786280732
0.0036479767226953288
0.003956889686974523
0.004280079072503529
0.004615254140302393
0.004960848904804059
0.005315830093037258
0.005679556068056558
0.006051674463986091
0.006432048015575054
0.006820700555764971
0.007217777361962925
0.007623515728144346
0.008038222867585768
0.008462259115401553
0.008896025001680756
0.009339951183555014
0.009794490514879683
0.010260111735087108
0.010737294401450052
0.011226524790046911
0.011728292562843426
0.012243088050227172
0.01277140003595384
0.013313713958951525
0.00875562583161228
0.00821885429790194
0.0076985169782791425
0.007194604164886808
0.006707223604501718
0.006236634332282427
0.0057832920167438465
0.005347909834041927
0.004931539955725439
0.004535681495105776
0.00416242016609945
0.0038146005296937884
0.003496018584422037
0.003211592312780215
0.002967411860818729
0.0027704951056665627
0.002628033993134438
0.0025460424599152145
0.002527710686445866
0.002572228021422902
0.0026748105975982093
0.0028279522396030495
0.0030231629944216356
0.0032523883360709256
0.003508775047494209
0.0037868834923894153
0.0040825871845279905
0.004392853183954407
0.00471550962565542
0.005049043735353771
0.005392440815781911
0.005745061100382634
0.006106547342646355
0.006476755921889556
0.006855705439572111
0.0072435381635171745
0.007640490877603974
0.008046872631110676
0.008463047577733303
0.008889421599029121
0.009326431769035621
0.00977453797541471
0.010234216197286608
0.010705953072357232
0.011190241481266962
0.011687576946076412
0.01219845469003052
0.012723367242549749
0.01326280250053298
0.00870149004448411
0.008168272783151423
0.007652377106180031
0.007153868304542288
0.006672942557121139
0.006209962809363
0.0057655058375038195
0.005340423728015369
0.004935923301969863
0.004553666431487476
0.004195891419351031
0.0038655481514055547
0.0035664235758917535
0.0033032047259954622
0.00308138446671729
0.002906879515129913
0.0027852550946234635
0.0027206081763738394
0.0027144418971944786
0.0027650593677211637
0.002867837308721592
0.003016249880246725
0.003203128676753164
0.0034216724193244803
0.003666013714936344
0.003931403505639361
0.004214163686428307
0.004511537715369326
0.004821517886744914
0.005142686340177732
0.0054740824284179685
0.005815097367574533
0.0061653925908645175
0.006524837158911559
0.006893459908226911
0.007271412780082882
0.007658942560752792
0.008056368940133727
0.008464067330194577
0.008882455290451322
0.009311981709267395
0.009753118111508828
0.010206351625340693
0.010672179259556552
0.011151103229628301
0.011643627134371504
0.012150252832075785
0.012671477899739839
0.013207793584955921
0.008643384210623052
0.008113996323100676
0.007602892970696822
0.007110219726142803
0.006636265902727041
0.006181501598218698
0.0057466250226336415
0.005332622251150327
0.004940840996645301
0.004573078089771738
0.004231675751241547
0.003919612393459219
0.0036405573090900283
0.003398834910625204
0.003199220511262216
0.003046488946339563
0.0029446977132496998
0.002896329102964239
0.0029015821132682756
0.002958143624778747
0.0030615755853713026
0.0032061445407564806
0.0033857411909938968
0.0035945989707551764
0.003827705608643789
0.004080949672438356
0.004351098589088721
0.004635694973109252
0.004932927776830146
0.0052415077662051465
0.0055605594182652
0.0058895320596857965
0.006228128896267803
0.006576251137318041
0.006933954247600287
0.007301413695330428
0.007678898041524039
0.008066747677999832
0.00846535791394672
0.008875165424416631
0.009296637316094286
0.00973026224902672
0.010176543190441851
0.010635991479263453
0.011109121956178906
0.011596448970880876
0.012098483120443034
0.01261572860449641
0.013148681106766296
0.008581317682877138
0.00805603692951403
0.0075500815068149955
0.007063682426677658
0.006597226289011729
0.006151292378460692
0.005726698498516281
0.005324556326244217
0.004946335676745385
0.004593934020092933
0.004269741795917395
0.003976684340748083
0.0037182073671439735
0.003498158174204961
0.003320509653491754
0.003188897856216503
0.0031060140121557107
0.0030729965643095845
0.0030890430109166787
0.0031514204207808735
0.003255887840093453
0.0033973624190309225
0.0035705928522398816
0.0037706692901569518
0.003993316041377365
0.00423499958515813
0.0044929158051591036
0.004764914792919838
0.0050494030680964565
0.005345245590103758
0.005651677880507515
0.005968231613125815
0.006294673551657282
0.0066309562647898935
0.0069771786471914
0.007333554353814681
0.0077003865161971614
0.00807804740945086
0.008466962015981329
0.008867594665748086
0.009280438120528168
0.009706004616110597
0.010144818488783632
0.010597410097854369
0.01106431082046892
0.011546048943667588
0.01204314631526518
0.012556115642952356
0.013085458352214027
0.00851530072715031
0.007994407760408297
0.007493961242563777
0.00701428262042911
0.006555859284248388
0.006119380355011753
0.005705778966955615
0.005316280259953211
0.004952452154117537
0.004616252149698636
0.004310057261288308
0.004036655688334236
0.0037991696544704984
0.0036008743507588486
0.0034448880730672017
0.0033337444645671083
0.003268919218721304
0.0032504444197207095
0.0032767550624472983
0.003344842270447427
0.003450666030241713
0.003589685287275868
0.00375735095515726
0.003949465106884594
0.004162383745188366
0.004393090113316334
0.004639182396528072
0.004898815433351353
0.005170624242557905
0.00545364576870213
0.005747247020910779
0.006051062744626274
0.006364943058350072
0.00668891022569513
0.007023123276306548
0.007367849137595871
0.007723439066312872
0.008090309356198103
0.008468925488365938
0.008859789060668815
0.0092634269736231
0.009680382463828525
0.010111207664589566
0.01055645744189167
0.011016684306229069
0.011492434240621657
0.011984243315446778
0.012492634983938043
0.013018117970147673
0.008445344575583049
0.007929123186632834
0.007434552392697666
0.006962048865663306
0.006512203527044755
0.006085814398796767
0.005683922984863843
0.005307851711643027
0.0049592372767362945
0.004640050662600702
0.004352589096319685
0.00409941942493606
0.0038832492386994674
0.003706707166717629
0.0035720336709662314
0.0034807203637865864
0.003433178400187136
0.0034285387077982146
0.0034646625596046394
0.003538371091300874
0.003645824043169003
0.0037829373124798607
0.003945742091879017
0.004130634467336517
0.004334510764416514
0.004554811686245665
0.004789506362220182
0.005037043591187842
0.005296289598754794
0.005566464042954658
0.0058470804068789925
0.006137893362076503
0.006438853676852796
0.006750070238966888
0.007071778347495946
0.007404313330332131
0.007748088597987173
0.008103577359828851
0.008471297358304796
0.008851798097793259
0.009245650148729828
0.00965343619274836
0.010075743541980101
0.01051315791801997
0.010966258316219423
0.011435612811583657
0.0119217751859824
0.012425282274458676
0.012946651942675374
0.008371461482953329
0.00786019886388104
0.007371876961707806
0.0069070122048295254
0.006466300891624783
0.0060506472003462805
0.005661191049322724
0.005299331659632511
0.004966739787509901
0.004665347886681305
0.0043973036564783794
0.004164870417209283
0.003970260883054206
0.003815403208224658
0.0037016614595186074
0.003629561808975283
0.0035985962913213493
0.003607170145330839
0.0036527201561052866
0.0037319758162693804
0.0038412923241775932
0.003976975391737905
0.004135540053966788
0.004313880141196186
0.004509353479188656
0.004719802634020957
0.0049435339228918376
0.005179273765738756
0.005426115791890331
0.005683466941199376
0.005950996976291253
0.0062285933483668295
0.006516321918860738
0.006814393289663493
0.007123134164325789
0.007442963066584756
0.007774369765313662
0.008117897829489316
0.008474129826404784
0.00884367476275355
0.00922715744341883
0.009625209484472052
0.010038461765421733
0.010467538143003653
0.01091305027684655
0.01137559343841164
0.011855743190586687
0.012354052837725558
0.01287105155608572
0.0082936647862129
0.007787651810440308
0.007305958857069542
0.0068492063196628145
0.006418196670074657
0.006013935437220776
0.005637647688246182
0.005290784365255312
0.004975010182587902
0.004692162191201754
0.004444166868829796
0.004232905903917992
0.004060029329210266
0.003926730645547513
0.0038335192830975862
0.0037800424780843594
0.0037650094399552065
0.003786248630883964
0.0038408904293685446
0.003925630732331492
0.004037014028613399
0.004171681988344396
0.0043265564647074475
0.004498950148874286
0.004686614776111465
0.004887743812334592
0.005100946555395226
0.005325207162607396
0.005559837918322633
0.005804432431649397
0.006058821818941126
0.006323035217808206
0.006597264976073438
0.006881836330087199
0.007177181150493985
0.007483815263876556
0.007802318875300999
0.008133319671506116
0.008477478250217442
0.008835475583810048
0.009208002279039337
0.00959574943689933
0.009999400948323453
0.010419627084121884
0.010857079253193392
0.011312385813815938
0.011786148830445549
0.012278941674442424
0.012791307372608966
0.008211968967073453
0.007711500491041486
0.007236824013746896
0.006788667702799064
0.0063679397732379385
0.005975739956320129
0.0056133615569790045
0.005282277335382123
0.004984100571474852
0.004720511897900282
0.004493144398892125
0.004303425910952157
0.00415238938595384
0.004040477833138564
0.00396738393926736
0.003931967487871678
0.003932280117860127
0.003965699177534328
0.004029142142353771
0.004119314312995614
0.0042329422304414055
0.004366959768191744
0.004518633492430525
0.004685630042641305
0.004866037302225601
0.005058353635281135
0.005261457957809712
0.005474570291231558
0.005697209244234561
0.0059291502745826355
0.006170386748850327
0.006421094647428801
0.0066816010826516725
0.006952356446706353
0.007233909857246685
0.007526887534892599
0.007831973771601254
0.008149894197828411
0.008481401109755031
0.00882726066537351
0.009188241795488418
0.009565106701684364
0.009958602829158615
0.010369456210070054
0.010798366075106487
0.011246000629827
0.011712993889980806
0.01219994346813638
0.01270740920368027
0.008126389717560401
0.00763176490725335
0.007164500531169647
0.006725435847744075
0.0063155829521228096
0.005936125972247171
0.005588405541259222
0.005273881284266224
0.004994064541557499
0.004750415209021269
0.004544201821838635
0.00437633359925705
0.00424718587297689
0.004156451872977933
0.004103057724119576
0.004085168467474301
0.0041002915828084185
0.004145458879822716
0.004217448997521008
0.004313008395527593
0.004429037877135185
0.004562727547855745
0.004711638154677809
0.004873736621791356
0.005047397699634224
0.0052313835714324994
0.0054248110675871875
0.005627113376976815
0.005838000665014117
0.006057422122577261
0.006285530687543855
0.006522650887457327
0.006769249809239828
0.007025910989451178
0.007293310945999899
0.007572198077006094
0.00786337369401965
0.008167675009867892
0.008485959951317805
0.008819093705976597
0.009167936938377802
0.009533335622019348
0.009916112434269698
0.01031705965239825
0.010736933474972715
0.011176449676837829
0.011636280490622056
0.012117052595426859
0.01261934608546261
0.008036944008428483
0.007548466694953214
0.007089018824141317
0.006659553459374931
0.006261183041969345
0.005895163283039786
0.005562856867102511
0.005265670095896733
0.005004957030073507
0.004781890155875246
0.004597304801161008
0.004451535558335527
0.004344273462786163
0.004274477204188449
0.004240365397361738
0.004239499515497007
0.004268944381526452
0.0043254746405149026
0.00440578874477025
0.004506697605298032
0.004625268281747108
0.004758917210067468
0.004905457844078143
0.005063112813194563
0.005230501704638469
0.005406614114451383
0.005590775211649604
0.005782608679455633
0.00598199996812763
0.006189061413362856
0.006404099878956246
0.006627587056760239
0.006860132287421496
0.0071024576602519846
0.0073553751430103405
0.007619765536139621
0.007896559110578813
0.008186717854027484
0.008491219305590504
0.008811041996761176
0.009147152535302235
0.009500494368483433
0.009871978246246641
0.01026247437738791
0.01067280623781024
0.011103745954225032
0.011556011153673055
0.01203026314224276
0.012527106257515939
0.007943650160332582
0.007461629229520766
0.007010411789377125
0.006591066687482539
0.006204801231431568
0.0058529265047497295
0.005536797218252955
0.0052577207882612996
0.005016834206861853
0.004814954571685185
0.004652419278273957
0.004528942058016819
0.004443516457320734
0.004394394262720955
0.0043791515465963216
0.004394833892415233
0.0044381534608417435
0.004505701464347849
0.004594142550144717
0.004700368962137717
0.004821606008759617
0.004955471341373192
0.005099996797839543
0.005253623496206693
0.0054151799958684025
0.005583851212559195
0.005759143435004244
0.005940848784419882
0.006129010959050948
0.006323893095052123
0.006525947956152678
0.006735790329796882
0.006954171364148925
0.007181954557914207
0.007420093162839892
0.0076696088417533975
0.007931571518649094
0.008207080444868332
0.008497246575513831
0.00880317639602538
0.009125957357390116
0.009466645070218577
0.009826252376400817
0.010205740368061406
0.010606011364237895
0.011027903793595221
0.011472188873475604
0.011939568927127988
0.01243067714561787
0.007846527917646671
0.007371277739541934
0.006928714989711022
0.006520025386295106
0.006146503359660091
0.005809495326544084
0.005510312862100453
0.00525011348136485
0.005029753371664872
0.004849626092693586
0.004709511676928264
0.004608467271012767
0.0045447885300765505
0.004516058240492272
0.004519278322112678
0.004551061324624322
0.004607845912032423
0.004686101181811028
0.004782494561562602
0.00489401162478271
0.005018028054183618
0.005152341415686919
0.005295173300864994
0.005445152092395218
0.005601284683959631
0.005762923125991298
0.005929730031401333
0.0061016449168584405
0.00627885249769681
0.006461753218225086
0.006650935878862276
0.0068471520220691265
0.0070512916862309335
0.007264360176630501
0.007487455597315337
0.007721747009581095
0.007968453211416636
0.008228822251562518
0.008504111889039793
0.008795571274871128
0.00910442416174297
0.009431853938167435
0.009778990739482442
0.010146900815819477
0.010536578246836192
0.010948938995768038
0.011384817202190766
0.011844963532906006
0.012330045349877488
0.007745598524827936
0.007277439429977825
0.00684396685837664
0.0064464834033843175
0.0060863602444224795
0.005764954788139984
0.005483494785084269
0.005242931371235825
0.005043772870218464
0.004885922191762311
0.00476854912665898
0.004690029478342565
0.004647972459306489
0.004639337962721446
0.0046606235104387165
0.00470808581834928
0.004777959216460556
0.00486664150487656
0.004970831627626417
0.0050876167435037496
0.0052145152499323884
0.005349486395787437
0.005490917463441042
0.005637597775403853
0.0057886863466460724
0.005943677674177565
0.006102368283701873
0.006264825307489024
0.006431357482229414
0.0066024884240943015
0.0067789317591844325
0.006961567581026437
0.007151419715257191
0.007349633355546738
0.007557452766569049
0.00777619890851986
0.008007247005730295
0.008252004242968706
0.008511887911426826
0.008788304428401216
0.009082629709727523
0.009396191376507813
0.009730253228309628
0.010086002320899179
0.01046453886030299
0.010866868982639222
0.011293900347634587
0.01174644034813679
0.012225196639454424
0.007640884805237258
0.007180143615982988
0.006756208926229586
0.006370498901916295
0.006024448044837765
0.00571939558161585
0.005456438838792191
0.005236260712474596
0.0050589520336666765
0.004923860248824989
0.004829499709744371
0.004773551269158125
0.004752959873397847
0.004764114894648922
0.004803078915047053
0.004865823900498871
0.004948439892751836
0.005047295343818787
0.0051591431388828424
0.005281177400372122
0.005411051842758745
0.0055468716590652625
0.0056871694524823985
0.00583087318486694
0.005977271525437004
0.0061259798319626396
0.00627690841102746
0.006430233632915497
0.00658637180810172
0.006745955352911389
0.006909810590864249
0.00707893648905916
0.0072544836735108495
0.007437733176857273
0.007630074528603173
0.007832982987855796
0.008047995927086545
0.00827668858631942
0.008520649611267906
0.008781456946305971
0.00906065475537917
0.009359732077735446
0.009680103885431193
0.010023095100499108
0.010389927965669971
0.010781712965099008
0.011199443285732188
0.0116439926199556
0.012116115955362033
0.007532411242359861
0.007079421868826554
0.006665486075336026
0.006292134720857179
0.005960848662735342
0.005672914379830909
0.0054292458982767395
0.005230190812490364
0.00507535114633137
0.0049634576627980405
0.00489233273643357
0.004858959745910926
0.004859651025812801
0.004890282283586143
0.004946549014467628
0.00502420321934794
0.0051192424699283345
0.005228040333752979
0.005347420970352639
0.005474688623268931
0.005607625212309981
0.005744468178428895
0.0058838780838952305
0.006024902551460504
0.006166940611896014
0.006309709634681841
0.006453215713031684
0.006597727540763758
0.006743753322583402
0.006892019992060956
0.00704345389543606
0.0071991620846648344
0.007360413421396688
0.007528618809928032
0.007705310043767868
0.007892116960844726
0.008090742847303215
0.008302938294240881
0.008530473974028778
0.008775113036082631
0.009038583997445086
0.009322555096096525
0.009628611068308993
0.009958233203005868
0.010312783328671494
0.01069349212819021
0.011101451889283156
0.011537613520069974
0.01200278742302899
0.007420204063395548
0.006975308175697985
0.006571846823018604
0.006211458778504443
0.005895650187154687
0.005625614193864845
0.005402022034281494
0.005224814041001912
0.005093031447288099
0.0050047320097669065
0.0049570190534747975
0.004946186745256317
0.004967954613930551
0.005017744438766569
0.005090949870954159
0.005183161451148017
0.005290328729175135
0.005408858533509883
0.005535659510651577
0.005668147464186618
0.005804225702720411
0.005942251906977402
0.0060809997050827
0.006219620158707898
0.006357606062380733
0.006494760354174484
0.006631168897665716
0.00676717726455183
0.006903370788943805
0.00704055697912065
0.00717974929637824
0.007322151307111687
0.007469140266788486
0.0076222492988790615
0.00778314749032324
0.007953617440402589
0.008135530070178885
0.008330816814510068
0.00854143965641785
0.00876935979148611
0.009016505987779871
0.009284743893195826
0.009575847603752918
0.009891474726240345
0.010233145952104157
0.010602229834669859
0.010999933074861924
0.011427296225886712
0.011885194376511029
0.007304291325261103
0.006867839115604217
0.006475343641248814
0.006128544525586213
0.005828947387065808
0.005577604762158591
0.005374878701432177
0.005220225858937631
0.005112055171614878
0.005047701252493172
0.00502353139122239
0.005035169084554151
0.005077787653746229
0.0051464161493600885
0.005236208266186787
0.005342645469643576
0.005461667170795555
0.005589736269683149
0.005723855767746197
0.005861553135714838
0.006000846549456844
0.0061402033281111506
0.006278497312897229
0.006414969082028345
0.0065491908897522925
0.006681036910965897
0.006810658576693732
0.006938464328207284
0.007065102869363625
0.007191448871408112
0.007318590030392293
0.007447814369158368
0.007580596706518534
0.007718583290987501
0.00786357372714112
0.008017499522487157
0.008182398860226594
0.008360387556702986
0.008553626574508356
0.008764286898159472
0.008994512987941052
0.009246386348689534
0.009521890926518905
0.00982288203703609
0.010151060321712674
0.010507951848103967
0.010894894969803916
0.011313034018938644
0.01176331939646908
0.007184703003143749
0.006757054054099107
0.006376033317242691
0.006043471455168894
0.005760842257926151
0.005529002974145333
0.005347932944698491
0.005216524871424669
0.005132485637580763
0.005092384006493936
0.005091844754843048
0.005125848843312445
0.005189075420434254
0.005276222239767925
0.005382261043820009
0.005502610744319994
0.00563323267348262
0.005770664106257217
0.005912009544842122
0.00605490720190818
0.006197483888232375
0.006338307142262065
0.006476339864675476
0.0066109001572761126
0.006741627388744462
0.006868454491243167
0.006991585912440169
0.007111480336919278
0.007228837131823942
0.007344585390380878
0.007459874402935274
0.007576064361413455
0.007694716099834958
0.007817578703104837
0.007946573899445716
0.008083776312555127
0.008231388909362486
0.00839171334963039
0.008567115418138111
0.008759986267785222
0.008972700764997368
0.009207574727970154
0.009466823196013522
0.009752521988756657
0.01006657466476134
0.010410686576538722
0.010786347101352674
0.01119482040302023
0.011637144364297546
0.007061471081859729
0.006642995360231931
0.0062739773622878265
0.005956325677797308
0.005691444628354311
0.0054799333314019556
0.00532130762678989
0.00521381291014026
0.00515438738644654
0.005138799868167848
0.005161936865434555
0.0052181736886767124
0.005301751463546655
0.005407097260933922
0.005529054642074472
0.005663020940589316
0.005805006321200073
0.005951636925792657
0.006100123682384008
0.00624821382145693
0.006394136836600326
0.006536552068498092
0.006674501749336643
0.006807371140334528
0.0069348560586909675
0.00705693734066168
0.007173861399193097
0.007286125848662257
0.007394469083078562
0.0074998626464716205
0.007603505193236069
0.007706816790958515
0.007811432273301384
0.007919192323087583
0.008032130983259595
0.008152458390236872
0.008282537736217784
0.008424855823258548
0.008581987083802377
0.00875655159150152
0.00895116831662152
0.009168405597622739
0.009410731383967738
0.009680466132505068
0.009979741219949519
0.010310465337656172
0.010674300610161721
0.01107264924467418
0.011506650535065487
0.006934629650457852
0.006525708649926653
0.006169242477252916
0.00586720057162694
0.005620872833805413
0.005430528449479755
0.005295131679533818
0.0052121951509653056
0.0051778263820071125
0.005186969810746196
0.0052337886571412855
0.0053120972536940874
0.005415757704522654
0.00553898531636359
0.005676544802629531
0.005823847701095923
0.005976975379364344
0.006132654112485989
0.006288204364115103
0.00644148004244487
0.006590807641724466
0.006734930744649683
0.006872962392811875
0.007004346026822046
0.007128824693212102
0.007246417710248912
0.0073574037631484075
0.0074623093191245795
0.007561901227264659
0.007657182347533786
0.007749389012382881
0.00783998905595555
0.00793067905615976
0.008023379343005484
0.00812022526404876
0.008223553207192185
0.008335880012596247
0.008459874708665669
0.008598322017961174
0.008754077802763258
0.008930017514657284
0.009128979678293158
0.009353707324755527
0.00960679091681485
0.00989061651676251
0.010207322646149989
0.010558768490453124
0.010946514938916727
0.011371818632225557
0.006804215000745481
0.006405243061038108
0.00606190108493447
0.005776197518842718
0.005549254464766117
0.005380929603636071
0.005269540382595736
0.005211780273434471
0.005202870277324511
0.005236916654090863
0.005307384836706868
0.005407579576976581
0.00553104462359034
0.005671840021931786
0.0058246964449425575
0.0059850705922634626
0.006149133406968543
0.006313719830654918
0.006476261486539937
0.006634716148836427
0.006787501889779993
0.006933439713466138
0.007071705977470203
0.007201794506703446
0.007323487611206112
0.007436834932546443
0.0075421389655633345
0.007639946111912452
0.007731042147952403
0.00781645099212646
0.007897435616442088
0.007975499856918183
0.00805238974467484
0.008130092820659815
0.008210833744864416
0.008297064412918533
0.008391446811444565
0.008496827049449202
0.00861619946248329
0.008752660439374785
0.008909352655496331
0.009089401623397823
0.009295847718702739
0.009531577869482404
0.009799261661629737
0.010101296523787493
0.010439765859211872
0.01081641260336644
0.011232628967392997
0.006670265730746294
0.00628165156663105
0.005952031941465517
0.005683426741407117
0.0054767271976380524
0.0053312873217783606
0.005244675673360134
0.005212680669198081
0.005229588756539698
0.005288665614660577
0.005382714512241009
0.005504587612365995
0.005647571542835188
0.005805624599193142
0.005973483697726807
0.006146677204241902
0.00632148049514346
0.006494843394637987
0.006664309092209976
0.0068279360595925
0.006984228774016801
0.007132079485321862
0.00727072125944162
0.007399691533231581
0.007518805007477367
0.0076281346086327605
0.0077279992945381345
0.007818957565144226
0.007901805609816218
0.0079775790471265
0.008047557175181647
0.008113268544424436
0.008176496493445443
0.008239283065609452
0.008303929479060198
0.008372991103128384
0.008449264770597766
0.00853576631796102
0.008635696593854186
0.008752394894034121
0.008889279904746937
0.009049779710834125
0.009237254077293961
0.009454913753909049
0.009705742627396704
0.00999242883227249
0.01031731025685426
0.010682338304218268
0.011089061588846453
0.0065328228545321766
0.006154991334657848
0.005839720841534645
0.005589008251159744
0.0054034397169954555
0.005281762027820858
0.005220686492164705
0.005215012707340279
0.00525805396002414
0.0053422449423474435
0.005459771898405386
0.005603095817213593
0.005765307012037618
0.005940312102649868
0.00612289008167332
0.006308663395848362
0.006494023625877489
0.00667603972815637
0.0068523658681346414
0.007021157781829236
0.007181001419639857
0.007330854670219245
0.007470001470946237
0.0075980169892234705
0.00771474240450775
0.007820267888826577
0.007914922531674709
0.007999270105174573
0.008074109674916712
0.008140480107636528
0.008199667495602046
0.008253214402078646
0.008302929631099961
0.008350896945579528
0.00839948082239488
0.008451326985073815
0.008509355166465091
0.008576741429791333
0.0086568875477959
0.00875337554250215
0.008869906623003304
0.009010225433644641
0.009178032597651908
0.009376890690877403
0.009610130541607764
0.009880765628588585
0.010191421981840854
0.0105442893177816
0.010941096462779128
0.006391929920452124
0.006025324144272747
0.005725061435192883
0.005493072931487153
0.00532955273836784
0.005232524738519531
0.00519772916750794
0.005218897065065137
0.005288341001520924
0.0053976866512542646
0.005538557105696685
0.005703086828107813
0.0058842293040274034
0.006075885782352545
0.006272908839622797
0.006471033678876324
0.00666677714704811
0.006857329912633293
0.00704045571120662
0.007214403919746046
0.007377837264371842
0.007529774173376946
0.007669544297070103
0.007796755436363477
0.007911270189324936
0.00801319083156735
0.008102851180562894
0.0081808143979125
0.008247875827604698
0.008305070035877488
0.00835368119825103
0.00839525586260401
0.008431616897222336
0.008464877108813206
0.008497450599169213
0.008532059454118977
0.008571732891806605
0.008619795649978786
0.008679842321033011
0.008755694738387694
0.008851340558887139
0.008970852974359605
0.009118293952026487
0.00929760623504783
0.009512501967890805
0.00976635754192836
0.01006212446167952
0.010402264431602956
0.010788713691750277
0.006247633140571801
0.005892716871642588
0.005608156177706406
0.005395763770229324
0.005255240140958
0.005183757816515184
0.005175967846312737
0.005224459132974793
0.005320528586337586
0.005455027351938605
0.005619077022008642
0.0058045522331336445
0.006004327026536731
0.0062123395841087135
0.006423543412272736
0.006633801738489318
0.0068397633619093085
0.007038741825124811
0.007228608362934168
0.007407702241236621
0.007574758494077559
0.007728851449822844
0.00786935191816007
0.007995895935282353
0.008108363221371519
0.008206863826357902
0.008291731744593248
0.008363524527899322
0.008423028101147353
0.008471266074597094
0.008509512843211458
0.008539309654077249
0.008562482596736459
0.008581161117527637
0.00859779517679395
0.008615168575721461
0.008636405331748382
0.008664965384623542
0.008704625542245326
0.008759441663673855
0.008833688895150318
0.008931778546621883
0.009058152976338172
0.009217163393658757
0.009412939173329849
0.009649260170583505
0.00992944466267117
0.01025626428948962
0.010631893775221586
0.0060999815351673245
0.005757242061432412
0.005489117438365863
0.005297237266122104
0.0051806902196798454
0.005135655781801053
0.005155574974749936
0.005231829504820099
0.005354699740060295
0.0055143091931877854
0.0057013462953065695
0.005907493450161653
0.006125599857972215
0.0063496787906123795
0.006574808059241896
0.006796991088426444
0.007013013232850673
0.0072203108675045116
0.007416860116130735
0.007601086304152314
0.007771792533042122
0.007928104814074717
0.008069431110157966
0.008195431925563913
0.008306000498593959
0.008401251067608605
0.008481514041969224
0.008547337195034093
0.008599492198351866
0.008638985929365253
0.008667076001459063
0.008685289872378644
0.008695446667391072
0.008699680487303765
0.008700463442955495
0.008700625966823642
0.008703371132211495
0.008712278851859892
0.00873129510469182
0.00876470102444861
0.008817057133470332
0.008893119586761608
0.008997728240143164
0.009135670572953808
0.009311530373085963
0.009529534496289164
0.009793413540607736
0.010106291785047912
0.010470617917529217
0.005949027097491748
0.0056189786043653175
0.005368068799530881
0.005197665033870745
0.005106107065514761
0.005088426183152826
0.005136731835632482
0.005241144562361648
0.005390942657775161
0.005575580921993154
0.005785388426906132
0.0060119227211550726
0.00624805941503238
0.006487920807777019
0.0067267286268353575
0.006960635861396453
0.007186567200491578
0.007402080789118061
0.007605254596256412
0.0077945961440484685
0.007968972588483312
0.008127557801325439
0.008269793395894974
0.008395361155763822
0.008504164869872079
0.008596320066779795
0.008672150545867455
0.008732190918427661
0.008777194597655674
0.008808146813124779
0.008826282266295754
0.008833106975072346
0.008830423655324009
0.008820359626810177
0.008805395679370496
0.008788393570690875
0.008772618855132024
0.008761754626540379
0.008759900653581724
0.008771551581864009
0.008801547803661134
0.00885499377721942
0.00893714147873146
0.00905324143575725
0.009208369941677329
0.009407247312445806
0.009654066534390333
0.009952352508634996
0.010304868389135285
0.005794824985891317
0.005478012546668242
0.00524514658364072
0.005097235635782861
0.005031712082186289
0.005042290530056415
0.00511962914889908
0.005252547166691842
0.005429351684279079
0.005638899071119061
0.005871236985652372
0.006117864233112907
0.0063717302607893146
0.0066270961016285795
0.0068793434652865935
0.007124781736456667
0.007360476120208872
0.007584104605604942
0.007793843620067905
0.007988279024938974
0.008166338248610816
0.008327239576490135
0.00847045524054583
0.008595685653872937
0.008702842782316814
0.00879204119051577
0.0088635957376599
0.00891802523639292
0.008956061635304104
0.00897866444528503
0.008987040198442608
0.008982666690990506
0.00896732159305259
0.008943114671917031
0.008912522325940553
0.008878422319169693
0.008844125514981253
0.008813400053451952
0.008790481922098426
0.00878006450929886
0.008787258983564835
0.008817517883291751
0.008876516866519274
0.008969994651390216
0.00910355857822991
0.009282471661323476
0.009511444104162119
0.009794455252900045
0.010134628947524885
0.0056374337528126185
0.00533443806413463
0.005120501653672374
0.004996156670633005
0.004957745645456747
0.0049974852844378165
0.0051044677422548805
0.0052661874681377025
0.0054700284363672445
0.005704329284501007
0.005958936954227435
0.006225355377032568
0.006496651062629882
0.006767249292155189
0.007032704499484199
0.007289487006320717
0.007534802318939156
0.0077664456167915365
0.007982688134008036
0.008182190254103388
0.00836393613301184
0.008527185387080553
0.008671438284289203
0.008796411728653378
0.008902024051914816
0.008988387212254905
0.009055805460670955
0.009104779890855032
0.009136018553277723
0.00915045199658686
0.009149254197372196
0.009133868838958089
0.009106040773638736
0.009067852207895136
0.009021762628965056
0.008970650676374509
0.008917854991374145
0.00886720952451256
0.008823066910977891
0.008790301567858661
0.00877428261674608
0.008780806384626472
0.008815980109599704
0.008886053516866286
0.008997203410667884
0.009155287273797313
0.009365592315067449
0.009632612582348401
0.009959885324657662
0.005476915623556303
0.005188358642430755
0.00499430154174568
0.0048946571527878424
0.004884468908629869
0.004954262909974248
0.005091459299732825
0.005282223847786708
0.005513083079082945
0.005771947791708428
0.006048546219808744
0.0063344481570999315
0.006622875910270714
0.006908440411507876
0.007186878458338858
0.007454823788546506
0.007709620775680085
0.00794917852660082
0.008171859234335268
0.008376394061297981
0.008561820593379245
0.00872743705515058
0.0088727696045819
0.008997549991754497
0.009101701645545746
0.009185332864243707
0.00924873626120776
0.009292393983574638
0.009316988501568996
0.009323418969789853
0.009312823290323225
0.009286606048144512
0.009246472414085632
0.00919446787299599
0.009133023166966422
0.009065003057971458
0.008993756312983874
0.008923162616176001
0.008857669907786619
0.008802313093949644
0.008762702616529925
0.00874496988335935
0.008755657334310826
0.00880154542604249
0.008889418021242114
0.009025781003334316
0.009216563467090757
0.00946684147257941
0.00978062578845857
0.0053133368421232775
0.005039888516758943
0.004866732971486079
0.004792990216252945
0.004812165753872515
0.004912892974955928
0.005080827196708725
0.005300824004582156
0.005558635768682799
0.005841843043913382
0.006140137222562172
0.006445210763408547
0.006750475805107839
0.007050746335086939
0.007341948269015223
0.007620879385295133
0.007885020429383422
0.008132390667681828
0.00836143927027912
0.008570964541664302
0.008760054461407879
0.008928043502390612
0.009074481999367907
0.009199115389484154
0.009301871461417569
0.009382854375967042
0.009442344702645884
0.00948080509046203
0.009498891482197448
0.009497470005026026
0.009477639829305362
0.009440762371575625
0.009388497200372267
0.009322844836412198
0.009246196247667324
0.00916138812043788
0.009071761808452226
0.008981222084167899
0.008894289343508083
0.008816135794616941
0.008752592746884145
0.008710113271871132
0.008695673748142535
0.008716601161272104
0.008780322373027746
0.008894047243812377
0.009064416770587664
0.009297164025042805
0.009596841786429451
0.005146768107584977
0.004889154438805497
0.004738004852471057
0.004691436178579132
0.0047411448833422935
0.004873663302610679
0.005072807430903021
0.005322166203041119
0.0056068182761472435
0.005914117525181806
0.006233798776811085
0.006557729322665553
0.00687954033322528
0.007194262395044302
0.007498014623119427
0.007787757796932932
0.008061105618004126
0.008316183332956079
0.008551523030544645
0.00876598666035137
0.00895870983918636
0.009129061300859626
0.009276614281013775
0.009401127231690471
0.00950253209357913
0.009580928983570538
0.009636586636871905
0.009669948318795347
0.009681643220904198
0.00967250359727389
0.009643588085194693
0.009596211783428552
0.009531983705972611
0.009452852143381905
0.009361158169727038
0.009259696915026799
0.009151785120650279
0.009041331713782925
0.00893290548576728
0.008831790348672095
0.008744014273165856
0.0086763336449385
0.008636152049394174
0.00863135398023471
0.008670042614101493
0.00876018831829483
0.008909219066055726
0.009123608263289243
0.009408528680080644
0.004977285132734655
0.004736297858121406
0.004608351839689747
0.004590305997725549
0.00467174203651719
0.004836881160584134
0.005067649660160286
0.005346440698009042
0.005657775806489942
0.005988889754573894
0.0063296380813250026
0.006672109842710089
0.007010179535596053
0.007339104186838784
0.007655197722787594
0.007955581395116557
0.008237997652267973
0.008500673215500913
0.008742219012164279
0.008961557315134887
0.009157868925457545
0.009330555239790284
0.009479211568636021
0.009603609203077693
0.009703684564140112
0.009779534392956852
0.009831416415596896
0.009859755290435078
0.009865153950823949
0.009848410711905493
0.009810542726726549
0.009752816549726994
0.009676786675064756
0.009584342919963124
0.009477767342992573
0.009359800901652938
0.009233719081465645
0.009103414025237358
0.00897347796996481
0.008849278814386801
0.008737013378943077
0.008643717943680629
0.008577210562830036
0.008545938469116776
0.008558710733103565
0.008624314823092056
0.008751045585357425
0.00894620901674829
0.009215686579538553
0.004804969368237576
0.004581477630022382
0.004478038567330005
0.0044899451499042006
0.004604322310263216
0.004802874479183776
0.005065618359467082
0.005373851354414282
0.0057116690308195404
0.006066296496576815
0.006427782937099938
0.006788480368292086
0.007142525990351778
0.007485409580538889
0.007813639215266443
0.008124492761103743
0.00841583652716054
0.008685993956952878
0.008933650768891799
0.009157786451075147
0.009357624868595694
0.009532598896241815
0.009682325563839696
0.009806589339713206
0.009905332004332197
0.00997864817683807
0.010026786021792137
0.010050153032032971
0.010049327090563212
0.010025073282657415
0.009978367170904388
0.009910425461109863
0.009822745161071296
0.00971715242989022
0.00959586226133859
0.0094615498185958
0.009317433445338376
0.009167367835127279
0.009015943171871989
0.008868581847701191
0.008731618348972302
0.008612340322309172
0.008518961080447453
0.008460489132480925
0.008446464036927108
0.008486545908316344
0.008589980750001931
0.008765008898070284
0.009018321288364217
0.004629908951388601
0.004424873394461574
0.004347364683850843
0.004390737946496676
0.004539282545542026
0.00477199308610549
0.005066994111874218
0.005404617481988168
0.005768676350224977
0.006146495199746095
0.0065283841931828256
0.006906993367390058
0.007276737123484412
0.007633340949637666
0.007973504325107841
0.008294656694889865
0.008594782773255363
0.008872297803009561
0.00912595833408186
0.009354798218481694
0.009558082633977918
0.009735275193975186
0.0098860147914217
0.010010099950088462
0.010107479262326066
0.010178247083014222
0.010222644098714352
0.010241062750717523
0.010234057796872049
0.01020236257444488
0.010146911789811319
0.010068871915337304
0.009969680510736914
0.00985109597597947
0.009715259322679413
0.009564769404868596
0.009402772481097695
0.009233065676805248
0.009060211427753002
0.008889655738495723
0.008727836522975624
0.008582259233290684
0.008461506389441596
0.008375138690116092
0.008333444418520498
0.00834700947272849
0.008426119000149434
0.008580059379960491
0.008816445369336581
0.004452199960812869
0.004266689812345932
0.00421667083317304
0.004293112291377868
0.004477053729306059
0.004744609944238212
0.005072075050851195
0.005438975907407953
0.005828996413243222
0.006229666686249854
0.006631618443609969
0.007027828369413001
0.007412997765928457
0.007783087631173665
0.008134984193430976
0.008466262400263085
0.008775019448606397
0.009059757362360525
0.009319299710003207
0.00955273216189157
0.009759359869513722
0.00993867693081304
0.010090344782403273
0.010214177455955363
0.010310132411749903
0.010378306227489635
0.010418934850701746
0.010432398470846193
0.010419231369660255
0.010380137391503778
0.010316011957373064
0.01022797183624543
0.010117394183554342
0.009985966638809653
0.0098357504915529
0.009669258973315128
0.009489552423262763
0.009300351084612975
0.009106164110946157
0.008912429276430454
0.008725651030036075
0.008553514232181212
0.008404937473773414
0.008290016052237876
0.008219797380375243
0.008205842246950763
0.008259565645674665
0.00839142197722111
0.008610079342728979
0.004271948089814425
0.004107161900192906
0.004086345742966984
0.004197544853705063
0.004418103342060211
0.0047211223793820955
0.005081178475405286
0.005477183309376251
0.0058928509119536635
0.0063160181184943945
0.006737691001662743
0.0071511948791252245
0.007551522976754399
0.007934868631945813
0.008298298433778842
0.008639525849951632
0.008956754269982586
0.009248567462457355
0.009513852411793899
0.009751744423381973
0.009961587748255112
0.010142907249672047
0.010295388171643386
0.010418862123177464
0.010513298130137703
0.010578798141647576
0.010615596785970838
0.010624065504001284
0.010604721484260027
0.01055824210909599
0.010485485918046437
0.010387521415009303
0.010265665396161985
0.01012153284579233
0.009957100800655677
0.00977478883405373
0.009577558785994745
0.009369035749413947
0.009153650577091605
0.008936800462321247
0.008725017319394611
0.008526122510268068
0.008349330381625771
0.008205243946880181
0.008105670777539327
0.008063189735297495
0.008090437727968924
0.008199169539410606
0.008399253029450346
0.00408927089571713
0.003946561774177752
0.003956834591972953
0.004104566592207245
0.004362937561217461
0.004701953286765459
0.005094642664260521
0.005519518846289714
0.005960487686016134
0.006405786273150044
0.0068468391812090915
0.007277335592960717
0.0076925611541659444
0.008088935596557049
0.008463697913895755
0.008814692333572727
0.009140221879525387
0.009438947091730402
0.00970981504950915
0.00995200893801786
0.010164911760949106
0.010348080022116372
0.010501224675943477
0.010624197646711186
0.010716982910804685
0.010779691637527882
0.010812561267087588
0.01081595872051146
0.010790388222676134
0.010736504504630106
0.010655132457799091
0.01054729465874969
0.010414248581318519
0.010257535764512403
0.010079045689169844
0.009881097569917428
0.009666543545373886
0.009438896555788499
0.009202484993795258
0.008962633085848666
0.008725859509955351
0.008500075171076704
0.00829474275854169
0.008120936177519796
0.007991213243238211
0.007919205982566416
0.007918864878020002
0.008003387659057276
0.008184007052377762
0.0039043008466555715
0.00378520720427818
0.0038286488281758933
0.004014768511464473
0.0043121032094156474
0.00468755231050071
0.005112828921757273
0.005566287111033815
0.006032184168978013
0.006499241157751178
0.006959335919007418
0.007406529947522568
0.00783639745802312
0.008245576053766968
0.00863146777207376
0.00899203918896676
0.009325686239351639
0.00963114141297537
0.00990740892571941
0.010153718592432623
0.010369492424108569
0.01055432010576695
0.010707940911056027
0.010830230546593607
0.010921192064867958
0.010980950449124774
0.011009750829483415
0.011007960586415778
0.01097607587216483
0.010914733361603701
0.010824728356246965
0.010707040730921902
0.010562870651364378
0.01039368651544537
0.010201288177733133
0.00998788916813808
0.009756222198734668
0.009509672514753565
0.009252443074628141
0.008989753195621638
0.008728066587855762
0.008475333275762654
0.008241210055278121
0.008037194495133541
0.007876572260665597
0.00777405312831833
0.007744990152774247
0.0078041761997826075
0.00796439451030945
0.003717189480230536
0.0036234724924376956
0.0037023775894541706
0.00392880745475415
0.0042661893174123465
0.004678396999179016
0.00513612389626408
0.005617821453898676
0.006108251217624368
0.006596690011130894
0.007075493777003599
0.0075390980338884105
0.007983357569882023
0.008405116958213476
0.008801930675482284
0.00917187871442292
0.009513443141827093
0.009825423826315252
0.010106879618561607
0.0103570863090819
0.01057550586015958
0.010761763427697505
0.010915629996931561
0.01103700932317268
0.011125928462223522
0.011182531600603975
0.011207077222361535
0.011199938924819687
0.01116161045562698
0.011092715817070728
0.010994025597279482
0.010866481067579297
0.010711228056821823
0.0105296632007665
0.010323495882308206
0.010094830015678218
0.00984627071351813
0.009581061610018864
0.009303258742051254
0.009017945493382192
0.008731488489145074
0.008451823692440555
0.00818874143047169
0.007954105077395043
0.007761891846822841
0.0076279007078384675
0.007568970827891139
0.007601650947987075
0.0077404828403045255
0.00352811312430747
0.003461802328574892
0.0035787008235194278
0.0038474116383503416
0.004225828156918665
0.00467499395507004
0.005164942222188329
0.005674487722852782
0.006189037373204086
0.006698481736199933
0.007195669369529457
0.007675404915575032
0.008133811818851453
0.008567928544741614
0.008975450325886728
0.00935456125511706
0.009703822817000857
0.010022098052169132
0.010308498510797692
0.010562346008343947
0.010783144195241148
0.010970556834809936
0.011124390889723394
0.011244583309645804
0.011331190950985757
0.011384383444148088
0.01140443911943309
0.011391744355089821
0.01134679695426907
0.011270214420769493
0.011162748314310309
0.011025306253640163
0.01085898363197448
0.010665107748317368
0.010445297872553865
0.010201545769654539
0.009936322382619558
0.009652717580659081
0.009354620749132136
0.009046949690318225
0.008735932112669736
0.008429434795296082
0.008137315380974168
0.007871734618737546
0.007647309818762523
0.00748092465628742
0.0073909791206924254
0.00739594539091187
0.007512355885852902
0.003337280830334096
0.0033007294457744535
0.003458404093189762
0.003771385507827207
0.004191695595420288
0.0046778800151642454
0.0051997295494546295
0.005736688480463904
0.006274933613015036
0.0068050118222472145
0.007320268267227814
0.007815865392768191
0.008288179703930483
0.008734428512306673
0.009152435215103361
0.00954047845135899
0.009897192610572076
0.010221500194464876
0.010512564213616606
0.01076975338779655
0.010992615706959146
0.011180857638935742
0.011334327366232032
0.01145300114797827
0.011536972384134505
0.011586443300860939
0.011601719439310657
0.01158320735746038
0.011531416178807315
0.011446963871494234
0.011330589445325159
0.011183172643843367
0.01100576322121265
0.01079962257291655
0.010566281384410414
0.01030761811924758
0.010025964608734061
0.009724246668899842
0.009406169295977686
0.009076456870180442
0.008741157316737634
0.0084080120708123
0.008086875147080619
0.007790126048743778
0.007532954619804677
0.007333305971020586
0.007211202812544254
0.007187212622977909
0.007280116190486345
0.003144945465917495
0.0031408970864579356
0.003342394855064208
0.003701613351735295
0.004164510639537534
0.00468762353024248
0.0052409660401791435
0.005804867769770696
0.006366378663026243
0.00691672782451829
0.007449750437828523
0.007960949260910257
0.008446934845744911
0.008905086553293695
0.009333342628061314
0.00973006662853226
0.010093959695153545
0.010424000731393115
0.010719403819270137
0.010979586442262716
0.011204144638183455
0.011392832768390664
0.011545546571259146
0.011662308800331988
0.011743257169793913
0.01178863462771194
0.011798782206938887
0.011774134904233083
0.011715221241180138
0.011622667394009387
0.011497207072491362
0.011339698714377183
0.011151152082744328
0.010932767061312507
0.010685988401794173
0.010412581461473726
0.010114735646718304
0.009795204368526999
0.009457492683774976
0.009106105911279685
0.008746872961988391
0.00838735370042348
0.008037323955619732
0.007709293912826733
0.007418941693677411
0.0071852289871498195
0.0070298457352001185
0.006975627381348594
0.007043887539339173
0.002951419353236656
0.0029830874888520506
0.003231719670690086
0.003639060954938522
0.004145034074638486
0.0047048258443077124
0.005289170431630964
0.005879516517501691
0.006463864957137777
0.007034135481557462
0.007584636293546073
0.00811118711775059
0.008610610402595361
0.009080429241824589
0.00951868288485993
0.00992381029828727
0.010294573763948777
0.01063000636467125
0.010929373898401562
0.011192145628910815
0.011417970573428554
0.011606657418674296
0.011758157020475678
0.011872546991967395
0.01195001824748434
0.011990863621768896
0.011995468878209774
0.011964306592081442
0.011897933574568613
0.011796992718000943
0.01166222042143357
0.011494461133396468
0.01129469107016288
0.011064053892424416
0.010803912128843574
0.01051591952061352
0.010202121340907897
0.009865092217470277
0.009508124057270341
0.009135480027500592
0.008752733072067215
0.008367206201077022
0.007988520180558996
0.00762921946824716
0.007305369408531726
0.007036879223779064
0.0068471280810062695
0.006761388210785519
0.006803817775118844
0.0027570964905000665
0.0028282577718484803
0.0031275812923165793
0.003584774440434592
0.0041340661848884306
0.00473012312113254
0.005344904788201307
0.005961178683146967
0.006567945346934858
0.0071578055660621275
0.007725513426130339
0.00826717677948665
0.008779804987075401
0.009261045290664321
0.009709023804093614
0.010122245726723817
0.010499529638189356
0.010839961637505856
0.011142861135151397
0.01140775355800185
0.011634347250759697
0.01182251307237163
0.011972265930460253
0.012083747962926706
0.012157213376775378
0.012193015160071423
0.012191594040145163
0.012153470203276229
0.012079238445733543
0.01196956761943951
0.01182520549661296
0.01164699054217854
0.01143587259775619
0.011192945211382643
0.010919493382153806
0.010617061949922959
0.010287551903659466
0.009933354687557645
0.009557538295713559
0.009164103497370788
0.008758333193193524
0.008347260217412236
0.00794027251812158
0.007549845570052526
0.007192314550785462
0.006888440763603612
0.006663286492553299
0.006544719757138717
0.006560081920404697
0.0025624843437097315
0.002677584665380679
0.003031353794615473
0.0035398753826356064
0.004132443656698523
0.0047641887168375086
0.0054087800936788236
0.006050458287446968
0.00667924068825269
0.007288381583286507
0.00787304412357363
0.0084295903735039
0.008955189119826488
0.009447591180003885
0.009904995357091658
0.010325964507081765
0.010709369696862944
0.011054350205278986
0.011360282464969576
0.01162675406101395
0.011853540653780885
0.01204058473150567
0.012187975723248163
0.012295931384618718
0.012364780607116651
0.012394947959586039
0.01238694038889381
0.012341336617182558
0.012258779900656885
0.012139974984868638
0.011985690332138112
0.011796767043842832
0.011574136402500837
0.011318848684490332
0.011032116942250094
0.010715380964865302
0.010370398792371999
0.009999376235347565
0.00960514912272868
0.009191438660068354
0.008763207043638515
0.0083271465713746
0.00789233529084622
0.007471071444935118
0.007079827430891281
0.0067400931374845385
0.006478573883769495
0.0063258751884629205
0.006312885645852236
0.0023682495429145464
0.0025325193689523418
0.002944592845854422
0.0035055513484207696
0.0041410359320336225
0.004807736356332966
0.005481462869698241
0.006148027484891624
0.006798448458260441
0.0074265884528979115
0.008027973777349833
0.008599182182110964
0.009137512255447332
0.009640797151473448
0.01010729446503662
0.01053561705015098
0.010924686007790195
0.01127369560993282
0.011582084545085686
0.011849510452626583
0.012075826194268356
0.01226105717407738
0.012405379524632647
0.012509099273439732
0.012572632778173536
0.012596488826910317
0.01258125287758963
0.012527573987519823
0.01243615508260527
0.012307747360756703
0.01214314984193495
0.011943215403685238
0.011708865124914807
0.011441113473065317
0.011141107915504891
0.01081018806974745
0.010449971755149907
0.010062478590636144
0.009650306517554616
0.00921688326820659
0.008766823554452834
0.008306432686808942
0.007844404011995073
0.007392747475672513
0.006967926669409371
0.006592007698948782
0.006293258942060322
0.006105138743060215
0.006062469134699727
0.0021752836161062915
0.0023948531642045507
0.0028690368424264165
0.0034830413242156557
0.004160741480725002
0.004861524435607076
0.005563683048090634
0.006254635883174107
0.0069263525900855275
0.007573242336053534
0.008191140305753724
0.008776797318049517
0.009327610411195428
0.009841473545939007
0.01031668986673134
0.010751915873551256
0.011146122001113864
0.011498561367295351
0.011808742344320252
0.012076402760269727
0.01230148475547618
0.012484110009673012
0.012624555443360495
0.012723229706876856
0.012780650879010744
0.012797425852158668
0.012774231916449774
0.01271180109633548
0.012610907861730544
0.01247236095396791
0.012297000260457299
0.012085699975112295
0.0118393797428288
0.011559026177412068
0.011245728171966875
0.010900730954433604
0.010525516130147357
0.010121918373737528
0.00969229452366625
0.009239768299369218
0.008768584413642094
0.008284619517966251
0.007796111357809486
0.007314670143872009
0.006856593761826897
0.006444343492034744
0.006107625260478165
0.005882828404996935
0.005809111409303642
0.0019847970255150796
0.0022667927088393207
0.0028065931744509103
0.003473616102607209
0.004192484686774786
0.004926361839494062
0.005656243375576008
0.0063711213598347735
0.007063834752416956
0.0077292617998225245
0.008363484737063269
0.008963381317345299
0.00952641442030901
0.01005051744188691
0.010534026951631425
0.010975638528743493
0.011374373477504213
0.01172955012416137
0.012040756585596448
0.012307823643229467
0.012530797318131434
0.0127099112663299
0.01284555938209522
0.012938269118334863
0.012988676072536655
0.012997500386585346
0.012965525499152452
0.012893579793163707
0.012782521717941673
0.012633229056333387
0.012446593175462255
0.012223519378100385
0.011964934907048726
0.011671806818438825
0.011345172941602892
0.01098619065514676
0.01059621050081808
0.01017688514914854
0.009730329566059905
0.009259356341876461
0.008767822237568283
0.008261139121803339
0.007747023709770226
0.007236577303254537
0.006745767553858629
0.006297242640170016
0.005921970050777064
0.005659298710386051
0.0055531352073128
0.0017984517279241983
0.0021510399276950623
0.0027593029395320294
0.0034785546661749802
0.0042372142665255096
0.005003115734939612
0.005760030691113924
0.006498422684498526
0.007211887350266353
0.007895680546389536
0.00854606311553168
0.009159990736942935
0.00973495881622172
0.010268919519561527
0.010760232407441409
0.011207629948778343
0.01161018868063815
0.011967301576042687
0.012278649708912454
0.012544172661020203
0.012764037834613173
0.012938609191855638
0.013068416090661188
0.01315412291565293
0.013196500169330477
0.013196397629706872
0.01315472012345051
0.013072406428513194
0.01295041182513419
0.012789694877165747
0.012591209168691976
0.012355900973977268
0.0120847142464843
0.011778604944055832
0.011438567671516655
0.011065679093361782
0.010661164828765324
0.010226500041720205
0.009763559405509898
0.009274840685106613
0.008763799505559479
0.008235353024448167
0.0076966384419178396
0.007158143978568364
0.006635338794395116
0.006150825314230934
0.005736602393347915
0.005434943692555225
0.005294912526418468
0.0016185435099557327
0.0020508622025295037
0.002729278146595725
0.0034991188451371402
0.004295904323855665
0.005092721873516486
0.005876029492179007
0.00663759432652505
0.007371628581533886
0.008073661974852023
0.008740059912354136
0.009367804841163539
0.009954391328542074
0.010497771030796315
0.010996318470089871
0.011448803926534664
0.011854367083287912
0.012212488754063635
0.012522959942251808
0.01278584847628203
0.01300146395098348
0.013170321897431902
0.013293108128093284
0.013370644135822417
0.013403854313613605
0.01339373564051634
0.013341330371763854
0.013247702196115685
0.013113916296158719
0.012941023783509658
0.012730051099689171
0.012481995201978811
0.012197825733215586
0.011878495970882343
0.011524965270020532
0.011138237129560089
0.010719419207741833
0.010269815062013746
0.00979106287683488
0.009285345260944605
0.008755708406831129
0.008206551542492838
0.00764438213925496
0.007078978905454671
0.006525144969515992
0.0060051843747237
0.005551840989269967
0.0052101999818539415
0.005034871001635577
0.0014482475590730532
0.001970118789247644
0.0027186094869240205
0.0035365298087114017
0.004369559268594986
0.005196198017007339
0.006005338300050955
0.0067898239153971205
0.007544319953649016
0.008264515888585199
0.008946803140768098
0.00958813844880382
0.01018598293160435
0.01073827069016432
0.011243386480549124
0.011700143336990626
0.012107756433794777
0.012465812186739766
0.012774232970356741
0.013033238489325832
0.013243305100793227
0.013405124409762036
0.013519562353302685
0.013587619816290163
0.013610395625532836
0.013589052580719428
0.013524787020910877
0.013418802309938005
0.01327228656576089
0.013086394970288743
0.012862237093250194
0.012600869869956472
0.012303297225608535
0.011970477899318651
0.011603343890218644
0.01120283329427486
0.010769943406583804
0.010305813310034885
0.00981185057861361
0.009289925600550756
0.00874267176281073
0.008173954229841176
0.007589609942105292
0.006998622043238893
0.006414965656459038
0.005860379825974639
0.00536801139394818
0.004985550087167254
0.004773501344074757
0.0012919653518298996
0.0019131743577703165
0.0027292512802338537
0.003591950906930213
0.004459223862033287
0.005314661192776275
0.006149189450956744
0.006956452928073513
0.0077313867466448916
0.008469717710213669
0.009167781386251458
0.009822455986652889
0.010431138325318442
0.01099173121258619
0.011502629340612903
0.011962698591355667
0.012371247479188874
0.012727991314902102
0.013033010573370423
0.013286705297985604
0.013489747408748465
0.013643032631295592
0.013747633516608338
0.013804754733732407
0.01381569153059426
0.01378179199841555
0.01370442356184533
0.013584943962276889
0.01342467691521007
0.013224892612981265
0.012986793323690913
0.012711504525026032
0.012400072340583122
0.01205346857189709
0.01167260543608186
0.0112583633873231
0.010811637395282202
0.010333410250746052
0.009824866703517308
0.00928757098935676
0.008723745202729343
0.008136711630912882
0.007531606218300458
0.00691654330504511
0.006304518669226882
0.00571643326856519
0.0051854427318277
0.004761525902016728
0.004511366164546536
0.001155953111634133
0.001884593483757562
0.0027629020984457154
0.0036664816136795647
0.004565999613973455
0.0054493496016043445
0.006308973086153474
0.0071390013079238625
0.007934442004611027
0.008690930616878654
0.009404662963961126
0.010072386747469131
0.010691406636518498
0.01125958509580653
0.011775332308677437
0.012237583647183336
0.012645765616047779
0.012999752381163642
0.01329981546650157
0.013546569256955717
0.01374091474724052
0.013883983638247777
0.013977084478892687
0.014021652137787222
0.014019201502721903
0.013971285971804474
0.013879461033355278
0.013745253040866778
0.013570133179435308
0.013355496595533407
0.013102646730128339
0.012812785070392055
0.012487006844970002
0.012126303681335777
0.011731575007743284
0.01130365116699472
0.010843333076456109
0.010351456280118753
0.009828992221046644
0.00927720802269067
0.008697920785823392
0.008093908531245085
0.007469586770473715
0.006832142757588299
0.006193457295898038
0.00557332258877795
0.005004463918134298
0.0045387124987933194
0.004249110643078171
0.0010499052865471257
0.0018885340316258962
0.0028209098400973982
0.0037611666084201795
0.004691068674799369
0.005601650154257638
0.006486266298072571
0.007339196878153805
0.00815531474683363
0.008930031056661125
0.009659317398082509
0.010339741270004497
0.010968491994219572
0.01154338907005813
0.012062871374512039
0.012525968686284316
0.012932258512223942
0.013281811823780536
0.013575131405655055
0.0138130862754396
0.013996845186528408
0.014127811676698255
0.014207562546108403
0.01423779109477583
0.014220255956849302
0.014156735958873618
0.01404899111223995
0.013898729629373704
0.01370758072812098
0.01347707295804949
0.013208617847767525
0.012903498842793609
0.012562865800566123
0.012187735775393848
0.011779001539374306
0.011337450383771725
0.010863797473792342
0.010358740826598798
0.009823049647600638
0.009257705784432954
0.008664132279498206
0.00804456890703663
0.007402702789963416
0.006744752546440679
0.006081368949944572
0.005430977178822051
0.004825399447054967
0.0043177522994815535
0.003987475707729027
0.000990404606651041
0.0019279355380802383
0.002904231324901795
0.0038770224931662474
0.004835726304379957
0.0057731328230858706
0.006682868621938907
0.007559010603704055
0.008396083211738835
0.00918913814525757
0.00993383936899805
0.010626528629208376
0.011264263436186467
0.01184482639397646
0.0123667081830915
0.012829068298836496
0.013231678483101281
0.013574853973703005
0.013859377431131362
0.014086419842479908
0.014257461974350263
0.014374219154130145
0.014438571381239102
0.014452500061906846
0.014418032056746686
0.014337191246470253
0.014211957461401928
0.014044232380700827
0.013835811879095668
0.013588364274247255
0.013303414001888796
0.012982330421523438
0.012626321748101733
0.012236434550259436
0.011813559921990461
0.011358448447032385
0.010871737658506617
0.010353998258688355
0.00980580966148657
0.009227882890782241
0.008621262318905688
0.007987662786064772
0.007330046772642171
0.006653640802362706
0.005967775572938597
0.005289274036824099
0.004648564846441524
0.004099349736731279
0.0037273146849680795
0.0010000558687346171
0.0020038766693303497
0.003013464655913604
0.004015082758779146
0.0050014230339172575
0.005965593285083383
0.006900845356078503
0.007800698984446602
0.00865911407710533
0.0094706474578823
0.010230575174847295
0.010934974222701845
0.011580763321968723
0.012165705841737089
0.012688380121629397
0.013148123662213794
0.0135449580853663
0.013879501579003424
0.01415287490302273
0.01436660611070521
0.014522538080371768
0.014622741876186151
0.014669437953012806
0.014664926345173152
0.014611526262519615
0.01451152496797853
0.014367135422407236
0.01418046194058928
0.013953472988459548
0.013687980249371533
0.013385623184384611
0.013047858504537772
0.012675954271117111
0.01227098877156583
0.011833854943300807
0.011365272046522375
0.010865807722979608
0.010335915893381922
0.009775999841470907
0.00918651665970973
0.008568151689086994
0.00792211524366122
0.007250660616009913
0.006558017781429469
0.005852136133535055
0.005148035148593815
0.004474261947180484
0.003884276536094821
0.0034696148271627755
0.0010886609788493555
0.0021155287101352976
0.003148951965032201
0.0041764600606292845
0.005189817845175006
0.006181105731610076
0.007142580565306235
0.008066855132893246
0.008947108730118902
0.009777269704732807
0.010552151575396193
0.011267537331548968
0.011920213025172299
0.01250795577085696
0.013029483716403018
0.013484376759789092
0.013872977000521645
0.014196277361175347
0.014455805742364453
0.01465351071053494
0.014791653257260985
0.014872707759647703
0.014899274014098386
0.014874001166384501
0.014799523540436276
0.014678407771682741
0.014513110257134136
0.01430594371493262
0.01405905157043452
0.013774388927045645
0.013453709017958136
0.013098554259408238
0.01271025134044008
0.01228991021053473
0.011838427415507913
0.01135649508139356
0.010844618135868867
0.010303144421238078
0.009732315825821718
0.009132354683236404
0.008503610985645197
0.007846817769079112
0.0071635461220508085
0.006457044487984532
0.005733851568193805
0.005007026601459436
0.004302774170842767
0.00367337773797972
0.0032155257799674547
0.0012411594911056474
0.00226075902651939
0.0033109317530356057
0.004362424206866339
0.005402844144021067
0.00642208826219396
0.00741084208923512
0.008360470402775069
0.009263157773660739
0.010112074676472325
0.010901506584812674
0.011626927271429197
0.012285014108850693
0.012873611043236432
0.013391648876958668
0.013839034130046838
0.014216517812544311
0.014525554446000375
0.014768160042166942
0.014946775823937053
0.015064142521748689
0.015123188281700882
0.015126931689166978
0.015078400192471728
0.014980563308722473
0.014836279382073521
0.014648254301462438
0.014419010422711043
0.014150863933339157
0.013845909008999029
0.013506007309646594
0.013132781635066832
0.012727612901409106
0.01229164002972277
0.011825762897082304
0.011330649275616108
0.01080674783256325
0.010254311079420042
0.009673435202389396
0.009064129092783368
0.008426434923049095
0.00776064224961708
0.007067678137643804
0.006349844027189286
0.005612272504842782
0.0048659599220344345
0.004134362102327512
0.0034675784942741756
0.002966398016145247
0.0014357577111357217
0.0024370043337521396
0.003499713183078807
0.00457449476011233
0.0056427910629465745
0.006691384009027424
0.007708861462612531
0.00868500878587974
0.009610805020093288
0.010478540617592907
0.011281921291692573
0.012016116266864368
0.012677742390355162
0.013264789743856047
0.013776500740638213
0.014213216952377327
0.014576207737493746
0.014867493118780063
0.015089670972130629
0.015245755944877478
0.015339034972864488
0.01537294202863224
0.015350952918623513
0.015276499583163298
0.015152902412312963
0.01498331851532761
0.014770703600243362
0.014517785061873057
0.014227043978031248
0.013900703924374395
0.013540724801407437
0.01314880020168935
0.012726357225738059
0.01227455809456654
0.011794303442131568
0.011286237875962505
0.010750759405668981
0.010188035911518057
0.009598034447123129
0.008980573816097836
0.008335419570359697
0.007662457832322088
0.00696202057491314
0.0062355159358413875
0.005486710104837927
0.004724496163510618
0.003969259685678531
0.0032678914396281214
0.0027238356247691956
0.0016591752659741606
0.002641994242821855
0.003715850413243067
0.004814548734047562
0.005912403749808592
0.006992362108893552
0.008040432379707385
0.00904449666644297
0.009994122187196867
0.010880608749416832
0.011697051014836184
0.012438346181792584
0.013101131193679073
0.01368365554062256
0.014185604873362158
0.014607893450655003
0.014952442746126955
0.015221960954000212
0.015419734704267907
0.015549440731164241
0.0156149819791597
0.015620349919554733
0.015569512777093173
0.01546632791524323
0.015314475724904304
0.015117411899863339
0.014878334854070328
0.014600165141046246
0.014285533991958988
0.013936778433571564
0.013555940837736629
0.013144771166357204
0.01270473060325307
0.012236995718686482
0.01174246282657173
0.011221752833295715
0.010675217758475741
0.010102951449198424
0.009504809226130976
0.008880445126097012
0.008229382801716846
0.007551150936204367
0.0068455455693144105
0.006113153749760563
0.0053564503563517316
0.004582253294492506
0.003807671462238074
0.0030754239101915843
0.0024897695795057036
0.001905073171416296
0.0028741707223136504
0.0039603074756705174
0.005084946286443884
0.0062150078636272425
0.007329043918978901
0.008410032217988436
0.009443630875649024
0.01041779528186354
0.011322741895189453
0.012150952912954507
0.01289712479363244
0.013558038562102467
0.014132360083546422
0.014620390338782695
0.015023788628722862
0.015345289860326706
0.015588433007835748
0.01575731298818237
0.01585636346579632
0.015890174034811813
0.01586334204802576
0.01578035710342026
0.01564551477023568
0.01546285538684006
0.015236123524709953
0.014968743830167868
0.014663809296593475
0.014324078483231585
0.013951978710740099
0.013549612782857354
0.013118767284909467
0.012660920989050762
0.012177252366205878
0.01166864569773283
0.011135695854114998
0.010578712565359501
0.009997726131727192
0.009392498361807358
0.00876254577526499
0.008107188252338816
0.00742564870197094
0.0067172560552978796
0.005981866087319849
0.005220772160221775
0.004438817463288625
0.003649771362771108
0.0028913832397763368
0.0022665591298929723
0.0021706122665621575
0.003132869718737692
0.004234616619383734
0.005388680361277195
0.006554665616581434
0.007706261547695537
0.008822972183626028
0.009887908242732916
0.010887223083852864
0.011809984863481924
0.012648105354254516
0.013396205226790992
0.014051391128599424
0.014612957973918013
0.015082043634292858
0.01546126526654051
0.015754362757169196
0.015965868514501904
0.016100816087350114
0.01616449397507033
0.016162246076314137
0.016099316663695146
0.01598073548414608
0.01581123735734106
0.0155952102206908
0.01533666570148715
0.015039226774089955
0.014706127719390581
0.014340222328906476
0.013943997011497455
0.013519586124608856
0.013068787447235268
0.012593076240844232
0.012093616825590986
0.011571271066326133
0.011026603670895469
0.010459884841294129
0.009871091740700333
0.009259911733316702
0.008625752991813321
0.007967773069303293
0.00728494618208671
0.006576212070586022
0.005840801566593559
0.005078969575557391
0.004293758734362423
0.0034957036706310964
0.002717076508993172
0.002057127682728532
0.002454849357935689
0.003418387846310829
0.004541042097634481
0.005729559898342279
0.006936373550005827
0.008129857943542523
0.009285582827624698
0.010383779840207621
0.011408626973999636
0.012348022126224933
0.013193411628479874
0.013939539227828352
0.014584094556948896
0.015127284471780331
0.015571364714982898
0.01592016896856334
0.016178665285458714
0.0163525605158309
0.01644796417240383
0.016471115504068073
0.016428171856283515
0.01632505267517464
0.01616733147223382
0.015960167313807755
0.01570826753748048
0.015415874083963608
0.015086766802424146
0.014724278150855462
0.01433131474961457
0.013910382186665578
0.01346361028704533
0.012992776742943035
0.012499327568989898
0.01198439332740003
0.011448800498627856
0.01089307780942104
0.01031745785172207
0.009721875063470319
0.00910596233160871
0.008469050582983825
0.007810179738978271
0.0071281375923539
0.006421561143492335
0.005689177933998514
0.004930378646954393
0.0041466519258063226
0.0033455868912235353
0.0025538982168220514
0.001865126865238616
0.0027580872878297234
0.0037320272900787333
0.004882767313307866
0.006112440760746747
0.007366316074547579
0.008606940566726593
0.009805442914798373
0.01093883258712431
0.01198916917970895
0.012943224933633576
0.013792176540451413
0.014531190861413778
0.015158896797904043
0.015676783209131503
0.01608857435015767
0.016399629005881204
0.016616397266049056
0.01674595526268709
0.016795626124355492
0.01677268616988162
0.01668414919756451
0.016536618270072006
0.016336193044283128
0.016088420804685307
0.01579828036228979
0.015470189437784209
0.01510802774763117
0.014715169557795157
0.014294520852039723
0.013848557432642206
0.013379361224161534
0.012888652803709271
0.012377818766371153
0.011847932992660223
0.011299771263260365
0.010733819021162019
0.010150272487112668
0.009549033903965859
0.008929702614459327
0.008291565343243634
0.0076335922581206184
0.00695445196807081
0.006252573177018056
0.005526315872062968
0.004774409328831391
0.003997103228674954
0.003199521388515747
0.0024032956113722464
0.001695075444471019
0.003081623214209158
0.004076173768985431
0.005264128037171729
0.006543524476669286
0.007852194018639087
0.009146204160153576
0.010391660682273905
0.011561999302738785
0.012637072673882482
0.013602674663993185
0.014450038495048306
0.015175191557881388
0.015778185690060287
0.016262267767297757
0.016633060054561048
0.016897805986699786
0.017064717292884824
0.01714243932647889
0.017139636259394863
0.01706468737661111
0.016925479723842732
0.016729279896043094
0.016482667742212426
0.01619151624475127
0.015861004061516432
0.015495649674098683
0.015099358441212168
0.01467547593592786
0.014226842678182488
0.013755846753369449
0.01326447186488061
0.01275433915238331
0.012226741674226004
0.011682670858690946
0.011122834531922766
0.010547666390537022
0.009957327075999386
0.009351697426902521
0.008730365201771428
0.008092607896245484
0.007437376891099793
0.0067632935937628124
0.00606868032261775
0.005351678080708277
0.0046105831667043445
0.0038447833714487893
0.0030576017668774626
0.002266698406005313
0.0015522982126337354
0.003427691221144393
0.0044544411261633
0.005690920442425487
0.007030753136098034
0.008403654534252007
0.009758342369736946
0.01105521691126557
0.012263794808253766
0.013361729400782198
0.014334140912148796
0.015172831112833428
0.015875309828655197
0.016443696589136914
0.016883597245491037
0.01720304616747563
0.017411577461146743
0.017519458608210855
0.017537094525033214
0.017474592041476496
0.01734146419100556
0.017146449111237562
0.016897417993427602
0.01660134872890035
0.01626434537651221
0.015891687417040043
0.015487896418211173
0.015056810922995458
0.0146016629874841
0.014125151835287527
0.013629511622445679
0.01311657140419388
0.012587806151108544
0.012044378160549558
0.0114871685248761
0.01091679851813504
0.010333640912750993
0.00973782140855526
0.009129210643195919
0.00850740780811364
0.00787171800271795
0.0072211277167356785
0.006554287603906395
0.005869522438226473
0.005164914397172265
0.004438577599725345
0.003689468211237005
0.002919935053948905
0.002145401231250073
0.001442301478649663
0.00379953021449734
0.004871911406680907
0.006170822272139796
0.0075843406458710235
0.009032858381832484
0.010456572772759775
0.01180937796745451
0.013056568720123538
0.014173772532116682
0.015145980131385068
0.015966336245795944
0.01663469899794079
0.01715609885271999
0.017539242372410606
0.017795172981019097
0.017936154113651192
0.01797479711861379
0.017923424497073147
0.01779363975290694
0.017596066364162846
0.017340217141496094
0.017034458549774284
0.016686040094704847
0.016301165013933878
0.015885084307045078
0.01544220111874134
0.014976176498220906
0.01449003062305329
0.013986235816025549
0.01346679924884033
0.012933334266808991
0.012387119916923933
0.011829148629691788
0.011260162184560859
0.010680676156021173
0.010090993061224077
0.00949120448236797
0.008881182612111547
0.008260562118705246
0.007628714232121169
0.006984717106186993
0.006327331177236305
0.005654998847902843
0.004965913936906871
0.004258278015404763
0.00353108777692807
0.002786665719292063
0.002040399329284193
0.001369247168158259
0.0042015616725240386
0.005335506784713256
0.0067139812005888675
0.008217497974989737
0.00975523366717968
0.011257304613400108
0.012670182111529588
0.013954752525743224
0.015085070452125053
0.016046901541115387
0.016835873397364195
0.017455373814385923
0.01791442270477908
0.0182257162874853
0.018403971278295697
0.018464623277966222
0.01842287610775536
0.01829306266985473
0.0180882607321341
0.01782010363990711
0.017498730921744088
0.017132832731832907
0.016729752107579467
0.016295618407093985
0.015835493223766758
0.015353516328687042
0.014853043859823317
0.014336774297468734
0.013806860015534696
0.013265003638987086
0.012712539290749775
0.012150499253588477
0.011579666739830807
0.011000615457814174
0.010413736569673067
0.009819253520437745
0.00921722515642301
0.008607537639283949
0.007989886063155023
0.007363747707639848
0.006728351170912375
0.006082650753213557
0.0054253272515823805
0.004754865490619525
0.004069838997175857
0.0033697849098319648
0.002658008347111756
0.001952203754226958
0.0013339599778736944
0.004639691129536756
0.005854548140448111
0.007333850084428292
0.008947435904962829
0.010590482328210634
0.01218098150387614
0.01365699025730428
0.014975054900813344
0.016108571119891064
0.017045518838967304
0.017785647991756637
0.018337452265292098
0.018715281682902866
0.018936844688587678
0.019021224051060593
0.018987424642552396
0.018853401288511196
0.018635480147643255
0.01834807851615242
0.018003635324078737
0.017612679523172095
0.01718398041388286
0.016724739545288594
0.016240796741644657
0.01573683274789765
0.01521655819716858
0.014682883568855313
0.014138068047361983
0.013583847174607434
0.013021540292392303
0.01245213928143778
0.011876380232734796
0.011294799583297727
0.010707776018604582
0.01011555916665372
0.009518285850797113
0.008915984503580728
0.008308568377651513
0.0076958186091562195
0.0070773593654862785
0.006452630044546745
0.005820865649869007
0.005181110734556396
0.004532327656474507
0.003873756488405623
0.003205984614724124
0.00253428821356003
0.0018806926067090484
0.001332964152790615
0.00512177314852831
0.006441587470210982
0.00804839032803069
0.00979676740713371
0.011563927380939506
0.013253128510277556
0.014793066030081754
0.016136517519806253
0.017257879447148777
0.01814956587463434
0.01881775240574675
0.019278084178959494
0.01955184350747955
0.019662856775097978
0.01963521926238447
0.01949177722033573
0.01925323380130349
0.018937724359825037
0.01856071724719273
0.018135121725098936
0.017671513761052356
0.017178417092405703
0.016662598522141362
0.016129352535264763
0.015582761633728596
0.015025926274723815
0.014461162959752109
0.013890171707359513
0.013314175506366469
0.012734034865658692
0.012150340582217768
0.011563487562907388
0.010973732102653367
0.01038123453729887
0.009786088720939999
0.009188339384132525
0.008587988183779666
0.007984989276314074
0.007379235757499708
0.0067705397761326615
0.0061586125538918715
0.0055430582809934785
0.004923413803608308
0.004299310299395082
0.003670952667609092
0.0030404747563743937
0.0024159888558976895
0.001825065196381994
0.0013595292360691863
0.0056583131762610725
0.007113655927841281
0.008881832193355099
0.010795489271196959
0.012708313674254153
0.014505615517470129
0.016106096583777242
0.017460271549524748
0.018546379166983547
0.019364599038388337
0.01993068100538085
0.020269977931557947
0.020412509372639626
0.020389296364576148
0.02022992012403722
0.019961099374603483
0.019606028856404382
0.01918423554035127
0.018711753888764882
0.018201473622954156
0.017663560418092826
0.017105887007923138
0.016534438952870167
0.015953677351767254
0.015366852147241303
0.014776266339584291
0.014183494951347377
0.013589564127537696
0.01299509611090647
0.012400425522681445
0.011805691736460414
0.01121091135637256
0.010616034016350254
0.010020983973482183
0.009425689320798646
0.00883010013976874
0.00823419662230595
0.007637988252666736
0.007041505827090288
0.006444789982740248
0.005847884280940688
0.005250850703064728
0.00465384802159891
0.004057368621352962
0.0034628747577666796
0.0028744972147205033
0.002303803584179248
0.0017839351177056794
0.0014057749694910157
0.006263532863122199
0.007894162768328118
0.009867292190250357
0.01198380737008416
0.014066196171812373
0.015978097518608788
0.017628461618617274
0.018968713210938057
0.019985604316783784
0.020691938498374328
0.02111719040598821
0.021299440580177156
0.02127928789781151
0.021095789176372375
0.020784117276994148
0.020374497388907578
0.01989199471607063
0.0193568080293123
0.018784820424082936
0.018188244528471273
0.017576265116439425
0.016955627655104177
0.016331150529048426
0.01570615602977261
0.015082824580133769
0.014462481034525026
0.013845823304896322
0.01323310334679593
0.012624269524613572
0.012019078045236303
0.011417179770792445
0.010818187428733163
0.010221727091517486
0.009627476822892455
0.00903519459851421
0.008444737035310304
0.007856070178939406
0.007269273762996049
0.006684541308196264
0.006102180897122205
0.005522627019970342
0.004946486167599437
0.004374666686886014
0.0038087097599531546
0.0032516068500227503
0.0027098449159343478
0.0021986842190153157
0.0017555370178193854
0.0014642879278239434
0.0069570175880083514
0.008815844985678754
0.01105073345770812
0.013416191506026885
0.015693047913922085
0.017719467514591886
0.019396861182069874
0.020683616565541223
0.021582415094909203
0.022125522577053948
0.02236132583329804
0.022343883462483297
0.022125910304032628
0.021754767394022635
0.021270685553798897
0.020706444340344153
0.020087880171850703
0.01943478561680448
0.018761925691685725
0.018080017739319915
0.017396601177450947
0.016716771504275155
0.016043779372147522
0.015379508304429343
0.014724849391115579
0.014079991729388182
0.013444645709567118
0.012818213763198786
0.01219992056969775
0.011588912288985804
0.010984332279564957
0.010385379000731733
0.009791350363961428
0.009201677659568185
0.008615951319842604
0.008033940201559292
0.0074556058549479255
0.006881113585954947
0.00631084343305028
0.005745407352769554
0.0051856858392748725
0.004632912146366204
0.0040888652331254275
0.0035563080930457684
0.0030399882606215374
0.00254895237018442
0.002101874428077736
0.001737972552295023
0.0015287889103389625
0.007766334023599156
0.00992546635346108
0.012497069279267846
0.015167208814829605
0.01766114226002004
0.01978887638690492
0.021450550127839058
0.02262238612429201
0.023334340832373682
0.023647292642779115
0.023634479975902817
0.023368846073975432
0.022915848794501294
0.022330357062123444
0.021656150055789573
0.020926828985957463
0.020167335849188672
0.01939560161590917
0.018624077207449963
0.01786104413990385
0.017111681923158144
0.016378909005878607
0.015664030121332627
0.014967226324670412
0.014287921417362785
0.013625053507404101
0.012977275052003885
0.01234309974979346
0.011721010418647301
0.011109538563602982
0.010507323634207321
0.009913157877032263
0.009326021091942516
0.008745108406616763
0.008169853336489166
0.00759994789493191
0.00703536144522496
0.006476360573177908
0.005923534012370888
0.00537783062039047
0.004840626766203656
0.004313856914185927
0.0038002779587099095
0.003304016805876991
0.002831719648986004
0.0023949527677724525
0.0020149063096871794
0.0017294157648369032
0.0015942142185830417
0.00873133075964699
0.01129152740396793
0.014299745363996561
0.01733986732974615
0.020063977289032635
0.022255269139828376
0.02382678090288729
0.024791189611983868
0.025222259096008635
0.025220761166941025
0.024890520013021705
0.024324802858182875
0.02360059494828625
0.022777785156742027
0.02190087016007491
0.021001618254781695
0.02010182936914066
0.01921578996043059
0.01835228767778457
0.01751618521160537
0.016709609971165898
0.015932832588477247
0.015184904394939743
0.014464113701147984
0.01376830875850756
0.01309512426338183
0.012442139077217683
0.011806985587197186
0.011187425603248032
0.010581403562604952
0.009987084781686209
0.009402884291996096
0.008827490215260778
0.008259884526364582
0.007699363337095842
0.0071455585001092186
0.006598462477758531
0.006058459315640206
0.0055263667899376695
0.005003499537571239
0.004491772559199268
0.0039938835048807355
0.003513649500065197
0.0030566455552798488
0.002631414229576196
0.0022516509808548826
0.0019395279320491487
0.0017282291705305803
0.0016565901432483827
0.009911497052777295
0.013017344700482016
0.016596048748597172
0.0200772801092113
0.023020186660465326
0.025193131514350625
0.026550964325381267
0.02717313003649551
0.02719952148489726
0.02678269595756352
0.02606042241862812
0.025144398335980887
0.024118846631605125
0.023043856756666474
0.02196026306733845
0.02089443367127812
0.01986231640708536
0.01887259669990005
0.017929045297860855
0.01703220741796236
0.016180589211647833
0.015371475303899604
0.014601482687772758
0.013866929893255312
0.01316407881305433
0.012489290079687713
0.011839120742101639
0.011210384262203667
0.010600186686646786
0.01000594854946766
0.009425419094586789
0.008856687384840176
0.008298193513253558
0.007748742274091057
0.007207521190615906
0.006674124726773405
0.006148586942442655
0.005631426085319498
0.0051237072699080255
0.00462713466994887
0.0041441947104891965
0.0036783902050330245
0.0032346371007641534
0.002819941845022606
0.0024445118048240727
0.002123331183547629
0.0018775203967383437
0.0017329789442134232
0.0017128738315843686
0.011399158955379268
0.015264100358360686
0.01959187890788347
0.023577992932645633
0.026673728985418775
0.028669641459188478
0.029617396631619462
0.029709152645477497
0.029177069800442195
0.028233655796685547
0.027047641486906176
0.02574134845102491
0.02439762887720003
0.02306925871888838
0.021787581570230738
0.02056937032401654
0.019421866106987096
0.01834630556173674
0.01734030961493183
0.01639945998963032
0.015518315766944981
0.014691053100732494
0.013911856083507786
0.013175146124608395
0.012475708501837452
0.011808755014304465
0.011169948336955683
0.01055540479463796
0.009961686419093684
0.009385789338339143
0.008825133101359368
0.008277554012310945
0.0077413046454073865
0.007215061256973894
0.006697940719686516
0.006189528881195997
0.005689923014548875
0.005199792571721278
0.0047204653364807956
0.004254051262457719
0.0038036251672641922
0.0033735031837216914
0.002969663920127785
0.002600365209032198
0.002276923868089885
0.002014295857035964
0.0018303659022076899
0.0017423604940512035
0.0017608116912710874
0.013344619517945185
0.018293110659567777
0.02360195181313909
0.02811278564096341
0.031181843636404055
0.03271380157534356
0.03295442084922221
0.03226988674389437
0.031005743724765906
0.02942984859060445
0.027726716332469824
0.02601301732622664
0.024356760897687034
0.02279359654937709
0.02133878753778336
0.019995361216757906
0.01875939944904296
0.017623355316869965
0.016578069297388462
0.015613954077702658
0.014721660042382522
0.013892423135351523
0.013118223010983393
0.012391831428176635
0.011706800229907981
0.011057418966351346
0.010438660204766146
0.009846123171233866
0.009275981884573204
0.008724941290861335
0.008190203409726957
0.007669444741426986
0.007160805905099038
0.006662894545378656
0.006174802903191642
0.005696142119067398
0.005227096429533174
0.004768502136978034
0.004321958891490129
0.0038899847040193124
0.0034762308418446563
0.003085775098306741
0.002725499417528422
0.0024044950057435146
0.0021342540016011336
0.0019280580853728714
0.0017987586634351238
0.001755053097553591
0.0017988231937451147
0.016006929479799897
0.022547238320178964
0.02911295871031224
0.03403168555502796
0.03666992898613377
0.03725070797954135
0.036367604316838185
0.03462013413621366
0.03246115154748852
0.030181747615628023
0.02794928986843826
0.02584942276487584
0.023918308817366347
0.022164060653040284
0.020579971178369183
0.01915229222190534
0.017864624139623878
0.016700280579142565
0.015643477982522285
0.014679861193153254
0.013796666205894887
0.012982694180930596
0.012228195644890392
0.011524719829969722
0.010864958693150666
0.010242600682678269
0.009652201240381969
0.009089072670237827
0.0085491937972614
0.008029138873683263
0.007526024936800958
0.007037476991312108
0.0065616108241903
0.006097033895417072
0.00564286557395311
0.0051987790347745085
0.004765068444118991
0.0043427466328136675
0.00393368004844242
0.0035407683461606094
0.003168172210894161
0.002821575906327413
0.0025084201899976885
0.002237923643745822
0.0020205190677954335
0.0018662313561091533
0.0017820163432124279
0.0017695220368444048
0.0018259056554633323
0.01986877404578691
0.02881147877228347
0.03687283279585303
0.041720030524704854
0.04310608914237407
0.0419781310965809
0.03946168579030631
0.03638894178942714
0.03324393904262701
0.030268739646038205
0.027563157502975274
0.025151695307879408
0.023022483643275873
0.021148339878534234
0.01949752872772032
0.018038913271825746
0.016744163620992514
0.015588478775842414
0.014550595474305192
0.013612486091719717
0.012758948713771034
0.011977187539485196
0.011256427294378198
0.01058757774199512
0.009962950984188569
0.00937602824514645
0.008821270624740338
0.008293967972024679
0.007790120574405472
0.007306349278611552
0.006839830716660385
0.006388255405918133
0.005949807605579355
0.005523166959827351
0.0051075331696832935
0.004702676215279081
0.004309015897814469
0.003927735286533781
0.003560931873970358
0.0032118048806781853
0.0028848604001015313
0.002586074756809065
0.0023228730402301582
0.0021036575179097404
0.0019365608590862999
0.001827381850440594
0.0017775304124281526
0.0017837875731766752
0.0018415536079479638
0.025898344586082166
0.03855205073971461
0.047953618216089136
0.05137482143412443
0.05001135523472513
0.04617279617096694
0.0415774546645406
0.0370787877306822
0.0330176975376638
0.02948177234657747
0.02644994070053784
0.02386220779948115
0.021650635594732397
0.019751814425154668
0.018110956981037228
0.016682415932864417
0.015428824095317413
0.014319829664118374
0.013330831984047565
0.012441866811073218
0.01163667799029284
0.010901966872169828
0.010226795108942366
0.009602113721256592
0.009020393690546878
0.00847533731576003
0.007961653688201018
0.007474885327891323
0.007011276146356209
0.006567673486929132
0.006141459142541229
0.005730506076851081
0.005333159185270784
0.004948239912981781
0.00457507593191221
0.004213558286249429
0.0038642290923227465
0.003528402046719528
0.003208313338825303
0.002907287183735513
0.0026298693182962023
0.002381822652608156
0.0021697942365979505
0.002000410925190221
0.001878707166054036
0.0018063039767021564
0.0017804453927229803
0.0017951950177647396
0.0018456929403628797
0.0363832471115447
0.05449650214019823
0.06350902318285856
0.062277888184923275
0.05589185048208538
0.04855157194390777
0.04184201587740863
0.03617177885378983
0.0315107748405598
0.027703881637143046
0.024583965203530452
0.022006241472284884
0.01985448422027853
0.01803819296223022
0.016487676534085925
0.015149355576952264
0.01398190012743514
0.01295323632955843
0.012038286123082277
0.011217278546009178
0.010474491662204594
0.009797313980790971
0.009175541669130165
0.008600849888013726
0.00806639328455141
0.007566503022503509
0.007096456753681133
0.006652304523900495
0.00623073845191664
0.0058289976348232745
0.005444802496841105
0.005076314984216471
0.004722122806728483
0.004381247441272145
0.0040531768311624986
0.003737924403296757
0.0034361155088017733
0.003149099117410938
0.0028790734247818987
0.0026291935736514945
0.0024035913379910822
0.002207180313045018
0.002045074775808242
0.0019215046341532
0.0018383849334364583
0.001794159565364159
0.0017837736664591938
0.0018002830131096145
0.0018386589318248301
0.05651509653336649
0.08162002405472225
0.08292498795527978
0.07073474312137876
0.057957168443241044
0.04751592038261479
0.03949526053413308
0.033389698376233415
0.028695858436797304
0.025027600381255132
0.022107749344834296
0.0197407124409663
0.017788136913031768
0.016151177460354042
0.014758280475263674
0.013556908724500893
0.012507933829904885
0.0115818079120013
0.010755921227330954
0.010012755719858098
0.00933857812368417
0.008722503162915517
0.008155813841207326
0.0076314626885954475
0.007143702146376122
0.006687808485579656
0.006259874612293515
0.00585665463236082
0.005475448303175364
0.005114017257379589
0.004770527645247319
0.004443515935765665
0.004131876234517913
0.0038348686854555837
0.003552149219717509
0.0032838207112689142
0.0030305036095359004
0.0027934186260312353
0.0025744622231114902
0.0023762340243982847
0.002201942984554145
0.0020550872850802404
0.0019388095164852754
0.001854940128938687
0.0018029935277681308
0.0017796505949795444
0.0017792311932910625
0.001795053009927488
0.0018213550667076355
0.1057930679029944
0.12299833529627845
0.09446190002673167
0.06993864438425952
0.0533706146569899
0.0422580490692734
0.034595214642080124
0.02910272452567817
0.025019590817637945
0.02188315775671376
0.01940409921877054
0.017395386544498827
0.015732324971331122
0.014329386841822028
0.013126397599059559
0.012080047533815431
0.011158528214951745
0.010338053946024058
0.009600551177967332
0.008932089706936519
0.008321795919442826
0.007761086018925535
0.00724311590013569
0.0067623804717006145
0.0063144179456690415
0.005895589197748205
0.005502911860724661
0.005133935213304524
0.00478664631122635
0.004459400888803649
0.004150874781627028
0.00386003325290236
0.003586116780119597
0.003328642577580727
0.0030874212295128305
0.0028625868797815673
0.0026546367045846976
0.0024644696936100595
0.002293404676339571
0.0021431425191800364
0.0020156207340525367
0.0019127023482854142
0.0018356684030250393
0.0017845694273775881
0.0017576288865839029
0.0017510161473745934
0.0017593101563939794
0.00177656309787653
0.0017961319845912127
0.21229312636513342
0.13057103942978757
0.08119257365090893
0.057127850025472215
0.04328671707054889
0.03468148830539414
0.028864373787550118
0.024687782425195284
0.021542154684737868
0.019082269471382748
0.017099300678994865
0.015460387654657442
0.014077330029622033
0.012889484245249837
0.011853906375939903
0.01093942056647933
0.010122911732600845
0.009386931317723328
0.008718105965247074
0.008106052718036872
0.00754262270840134
0.007021363197703772
0.006537128009548319
0.006085790866910995
0.005664031428339024
0.005269173597503472
0.00489906208014766
0.0045519674444510615
0.004226512870709017
0.003921617826570282
0.003636455366914342
0.0033704208051593535
0.0031231102164680368
0.00289430760785672
0.0026839795212323407
0.0024922750957181057
0.002319527844099751
0.0021662521605282877
0.002033122620698151
0.0019209180101160581
0.001830407074491353
0.0017621541312377966
0.0017162360205937688
0.0016918896364162671
0.0016871446950544426
0.0016985307357366465
0.0017209861762126184
0.0017480694420536629
0.0017709170512495457

SCALARS STRAIN_XX float 1
LOOKUP_TABLE default
0.007817173632427857
-0.06530253110918072
0.0004898761193414258
-0.012309709465157134
0.007815444615125547
0.007810257754368152
0.00780161362499961
0.007789513189746098
0.00777395780619384
0.007754949236549886
0.007732489660179271
0.00770658168890738
0.007677228385074295
0.007644433282317974
0.0076082004090596705
0.007568534314658641
0.007525440098185513
0.0074789234397610385
0.007428990634387227
0.007375648628184375
0.007318905056924424
0.00725876828672508
0.007195247456758806
0.007128352523784728
0.00705809430828374
0.006984484541944912
0.006907535916203536
0.006827262131486905
0.006743677946769049
0.006656799228984961
0.006566643001785645
0.006473227493048968
0.006376572180485381
0.006276697834594495
0.006173626558136719
0.006067381821186067
0.005957988490727595
0.0058454728536397535
0.005729862631779208
0.005611186987749178
0.005489476519781419
0.005364763244001619
0.005237080562169219
0.005106463212789042
0.004972947203278871
0.0048365697206475405
0.004697369017873307
0.004555384272880186
0.004410655416693485
0.00426322292697881
0.0041131275827533675
0.003960410175575205
0.0038051111719521608
0.0036472703210631147
0.0034869262011077845
0.003324115696684199
0.003158873398492454
0.002991230915335069
0.002821216086777545
0.002648852082860892
0.002474156374835154
0.002297139557903463
0.0021178040032555634
0.0019361423120418109
0.0017521355381513865
0.0015657511393691592
0.0013769406072785678
0.0011856367145796493
0.0009917503035773573
0.00079516652047526
0.0005957403754596885
0.0003932914766236889
0.00018759774412635544
-2.1612143693700014e-05
-0.00023466789280700284
-0.0004519687414356738
-0.0006739971596866623
-0.0009013358225214152
-0.0011346888179017134
-0.0013749083844145082
-0.0016230289382433843
-0.0018803108096464016
-0.0021482970585932903
-0.0024288881253242967
-0.0027244411286535403
-0.003037903733263833
-0.0033729972984801737
-0.0037344715699305087
-0.004128465361267167
-0.004563027890442217
-0.005048889988004013
-0.005600635680107213
-0.006238536861222582
-0.0069915335866132244
-0.007902269533405254
-0.00903612697149439
-0.010497983647813486
-0.012468572472451818
-0.01527337857943712
-0.01962845737855537
-0.026822297467846867
-0.04215463133271957
-0.059143665008803775
-0.021426245672501266
0.017955580320795902
0.01293456794229142
0.01121587649387605
0.009244945084179924
0.007864057008104254
0.006802674768661365
0.005979764053671007
0.005321540783288024
0.0047828623415259435
0.0043327148289044985
0.0039497796815037515
0.0036189223420406936
0.0033291709819605747
0.0030724078478321284
0.002842522989442829
0.002634848702037113
0.0024457736172941655
0.002272473645343734
0.002112720831157551
0.001964745210539281
0.0018271334102763596
0.001698753162581751
0.0015786963837876658
0.001466235741097631
0.0013607911438603126
0.0012619036182620821
0.001169214725196148
0.0010824501670756645
0.0010014065690848867
0.0009259406583337904
0.0008559602296406427
0.0007914163979677175
0.0007322967064600783
0.0006786186918074644
0.0006304235069254788
0.0005877691618792341
0.0005507228593808339
0.0005193517557776361
0.0004937112466623234
0.0004738295176631713
0.00045968655385061896
0.00045118498304108634
0.0004481089373820357
0.00045006555347293364
0.0004564015877111527
0.0004660793680401898
0.0004774365234220812
0.0004865769484357352
0.0004986418271618331
0.0005213870777167895
0.0005495387204657587
0.0005745503880905667
0.0005905266255636366
0.0005935796578573904
0.0005812734539913378
0.0005521910106318362
0.0005056344318369876
0.0004414204913888997
0.00035973948177972503
0.00026105542482418587
0.00014603358636602892
1.5486364848882328e-05
-0.00012966816084999944
-0.00028843872647774105
-0.0004597868521987458
-0.0006426479079520431
-0.0008359483720328242
-0.0010386200403960655
-0.001249611721932109
-0.0014678988094566081
-0.0016924910209104027
-0.0019224385429977286
-0.0021568367687196666
-0.002394829793319786
-0.0026356128149548075
-0.0028784335735023425
-0.003122592951051467
-0.00336744484935686
-0.003612395451968786
-0.0038569019713539654
-0.004100470973859183
-0.004342656367732789
-0.004583057131628654
-0.004821314853170444
-0.005057111139335241
-0.005290164952762411
-0.005520229920707831
-0.005747091656349984
-0.0059705651255846925
-0.006190492086378202
-0.0064067386222327605
-0.006619192786356559
-0.006827762368734336
-0.007032372794450292
-0.00723296515830435
-0.007429494397944075
-0.007621927605381884
-0.007810242474842938
-0.007994425883327105
-0.008174472599062982
-0.008350384112115236
-0.008522167580743964
-0.008689834886673478
-0.00885340179217331
-0.009012887191759023
-0.009168312451334953
-0.009319700827733937
-0.009467076961816895
-0.009610466438550139
-0.00974989540779983
-0.009885390259922591
-0.010016977350585682
-0.010144682769626184
-0.01026853214912972
-0.01038855050627821
-0.010504762116872679
-0.01061719041579097
-0.010725857920966003
-0.010830786177787474
-0.010931995721130391
-0.011029506052482776
-0.011123335629911163
-0.011213501868839043
-0.011300021151831971
-0.011382908845785897
-0.011462179325097896
-0.011537845999572326
-0.01160992134595979
-0.011678416942165329
-0.011743343503289864
-0.011804710918773047
-0.011862528290008771
-0.011916803967890605
-0.01196754558981894
-0.012014760115777658
-0.012058453863141222
-0.012098632539924808
-0.012135301276245146
-0.012168464653788316
-0.012198126733121845
-0.012224291078716237
-0.01224696078156164
-0.012266138479294171
-0.01228182637375969
-0.012294026245956222
-0.012302739468313423
-0.012307967014274696
-0.012073055089732738
-0.011603643647404634
-0.011141863617785528
-0.010687387964413566
-0.010239888441998675
-0.009799035693960335
-0.00936449935708923
-0.008935948171598958
-0.008513050094919301
-0.00809547241767439
-0.007682881880384038
-0.00727494478952216
-0.006871327131664671
-0.006471694684555252
-0.006075713124013342
-0.005683048125701749
-0.0052933654608621475
-0.0049063310852175395
-0.004521611220326087
-0.004138872426750592
-0.0037577816684882595
-0.003378006368187576
-0.002999214452753164
-0.00262107438901045
-0.002243255209174658
-0.0018654265259430715
-0.001487258537101592
-0.0011084220196055546
-0.0007285883131666771
-0.0003474292934525728
3.538266491754445e-05
0.0004201747353214827
0.0008072736956909188
0.0011970059942588342
0.0015896978239948738
0.001985675205138893
0.00238526407515645
0.0027887903853511978
0.0031965802032765016
0.0036089598199950087
0.00402625586114365
0.004448795400668979
0.0048769060760051235
0.005310916203377003
0.005751154891824901
0.006197952154465558
0.00665163901542659
0.007112547610819831
0.007581011282057306
0.007579318166963786
0.007110926088696014
0.006650088676599756
0.006196472617595657
0.00574974580735305
0.005309577256334134
0.004875636988201506
0.0044475959322893876
0.004025125811775665
0.003607899029119963
0.0031955885502551735
0.0027878677889377457
0.0023844104925746616
0.001984890630755077
0.0015889822876225975
0.0011963595591305888
0.0008066964561306559
0.0004196668141520604
3.494421063543865e-05
-0.00034779810970333395
-0.0007288873007899004
-0.0011086509718892705
-0.0014874172346663987
-0.001865514740274683
-0.0022432727062149734
-0.0026210209327807987
-0.0029990898089857438
-0.003377810307941059
-0.003757513971722265
-0.0041385328858358035
-0.004521199643466561
-0.004905847299760545
-0.005292809316470662
-0.005682419497363036
-0.006075011914856865
-0.006470920828453117
-0.006870480595585036
-0.007274025575603924
-0.007681890027701453
-0.008094408003658585
-0.00851191323640187
-0.008934739025441773
-0.009363218120363942
-0.00979768260364133
-0.01023846377413158
-0.010685892032723084
-0.011140296771688237
-0.011602006269391979
-0.012071347592093069
0.007574239007556934
0.007106061696234793
0.006645437819453051
0.006192034149546842
0.005745518677933552
0.005305560519233916
0.004871829807820185
0.004443997588502183
0.004021735702996827
0.0036047166737533803
0.0031926135866285994
0.0027850999738207776
0.0023818496983833183
0.001982536841547382
0.001586835593990033
0.0011944201520903623
0.0008049646201220373
0.0004181429192377455
3.3628704006243286e-05
-0.00034890471282492916
-0.0007297844267542139
-0.0011093379986435903
-0.0014878935021155003
-0.0018657795608940874
-0.0022433253758363716
-0.0026208607414750056
-0.0029987160519696836
-0.0033772222964357805
-0.003756711043689071
-0.004137514416518952
-0.004519965055672584
-0.004904396073800993
-0.005291140999692395
-0.005680533713188794
-0.006072908371256228
-0.006468599325760755
-0.006867941033578039
-0.007271267959745906
-0.007678914474458102
-0.008091214744784428
-0.00850850262209413
-0.008931111526254346
-0.009359374327771801
-0.009793623229143816
-0.010234189646783663
-0.010681404094985247
-0.011135596073487606
-0.011597093960293502
-0.012066224911486775
0.007565774362761913
0.00709795495628983
0.006637686922934854
0.0061846371787803965
0.005738473876173933
0.005298866304632755
0.0048654847842849545
0.004438000553573615
0.004016085652883363
0.003599412805674198
0.0031876552986266427
0.0027804868622140705
0.002377581553026805
0.0019786136390801644
0.0015832574892442942
0.0011911874678371738
0.000802077835326405
0.00041560265599168897
3.143571330499668e-05
-0.00035074956630449215
-0.0007312801807195308
-0.0011104836099486335
-0.0014886878640783846
-0.0018662215210324012
-0.002243413753888041
-0.0026205943475802783
-0.0029980937048905195
-0.003376242841691252
-0.0037553733714890316
-0.0041358174793771196
-0.004517907885580118
-0.004901977798839965
-0.00528836085996485
-0.005677391075933966
-0.006069402745022412
-0.006464730373492251
-0.00686370858447135
-0.007266672019722566
-0.007673955235094184
-0.00808589259052954
-0.00850281813560631
-0.008925065491671706
-0.00935296773173704
-0.009786857259395038
-0.010227065688126048
-0.01067392372245831
-0.011127761042547195
-0.011588906193838835
-0.012057686483573913
0.007553925168467316
0.007086606744024731
0.0066268367884456565
0.006174282421990289
0.005728612025148818
0.005289495135026164
0.004856602334415774
0.004429605135314776
0.004008175858559631
0.0035919875111846316
0.003180713663019819
0.0027740283239534634
0.002371605823190334
0.0019731206917412876
0.0015782475492823623
0.0011866609964237152
0.0007980355133306336
0.00041204536554253894
2.8364517740449595e-05
-0.0003533334438770491
-0.00073337538003691
-0.0011120886571733082
-0.0014898011961483404
-0.0018668415105890462
-0.0022435387346007216
-0.0026202226396905594
-0.002997223640804388
-0.0033748727914520256
-0.0037535017679671944
-0.004133442843013441
-0.004515028848515335
-0.004898593128263393
-0.00528446948051106
-0.005672992090949295
-0.006064495456515715
-0.006459314300575398
-0.006857783480086286
-0.007260237885441549
-0.007667012333768366
-0.008078441456552076
-0.008494859582546532
-0.008916600617027277
-0.009343997918545118
-0.009777384174440868
-0.010217091276484264
-0.010663450198103934
-0.011116790874781957
-0.011577442089288861
-0.012045731363531882
0.007538692744039741
0.0070720182925143775
0.006612888544556706
0.006160970887978362
0.0057159340014797015
0.0052774477451878205
0.0048451830440863495
0.004418811766120478
0.003998006596683479
0.003582440911107967
0.0031717886466943487
0.0027657241757125008
0.0023639221807173756
0.001966057533417874
0.0015718051782365986
0.0011808400215992804
0.0007928368278903585
0.00040747012291381633
2.44141056009124e-05
-0.0003566574313869852
-0.0007360711715970351
-0.001114154334795051
-0.0014912347266623066
-0.001867640777866173
-0.0022437015722720603
-0.002619746864140557
-0.0029961070842204653
-0.00337311333471799
-0.0037510973731907237
-0.004130391585479855
-0.004511328947858389
-0.004894242978639162
-0.005279467679556321
-0.0056673374672983595
-0.006058187095639047
-0.006452351568691879
-0.006850166045888706
-0.00725196573936149
-0.007658085804492147
-0.00806886122448538
-0.00848462668991298
-0.008905716474274655
-0.009332464306723787
-0.009765203243212329
-0.010204265537414672
-0.01064998251290056
-0.01110268443813845
-0.011562700406017739
-0.012030358219684335
0.007520078801434036
0.007054191200571133
0.006595843653594868
0.006144703883055066
0.00570044093962027
0.005262725085417349
0.004831227670519085
0.004405621004400987
0.003985578224106976
0.0035707731607716375
0.003160880206049336
0.0027555741799022947
0.0023545302010970475
0.0019574235616517267
0.0015639296063730721
0.001173723618517602
0.0007864807125056092
0.00040187573451863504
1.9583171710009037e-05
-0.0003607229293365832
-0.0007393690343521142
-0.0011166821828748317
-0.0014929900391182135
-0.0018686209319189618
-0.002243903883544245
-0.002619168627210124
-0.002994745613233715
-0.003370966003806282
-0.003748161656438368
-0.004126665096192411
-0.004506809476880245
-0.004888928531464507
-0.005273356511969255
-0.005660428119268141
-0.006050478423185018
-0.006443842773418415
-0.006840856701872947
-0.0072418558170591184
-0.007647175691310108
-0.008057151741651034
-0.008472119105252068
-0.008892412510496984
-0.009318366144801846
-0.009750313520427756
-0.010188587339644426
-0.010633519360716565
-0.011085440266301205
-0.011544679535960363
-0.012011565324608061
0.007498085456887621
0.007033127442777889
0.006575703920072102
0.006125483017940872
0.005682134237320266
0.005245328325669203
0.004814737145190566
0.004390033536381918
0.003970891178691786
0.0035569844499583527
0.003147988286203598
0.002743578043251231
0.0023434293615269544
0.0019472180352885717
0.0015546198874225794
0.0011653106508357394
0.0007789658573635975
0.0003952607350118022
1.3870114244793992e-05
-0.00036553165605758363
-0.000743270782447654
-0.0011196740901242533
-0.0014950690751568095
-0.0018697839454425737
-0.0022441476501935034
-0.0026184898978167974
-0.002993141162123228
-0.0033684326768596766
-0.0037446964186218647
-0.0041222650782638095
-0.004501472020980335
-0.0048826512352977925
-0.005266137271267765
-0.005652265168219201
-0.006041370372490487
-0.006433788645634164
-0.00682985596365637
-0.007229908407931884
-0.007634282048519967
-0.008043312820693945
-0.008457336395594938
-0.008876688046020934
-0.009301702508469067
-0.009732713842662484
-0.010170055289911722
-0.01061405913178226
-0.011065056550663276
-0.01152337749395841
-0.01198935054374555
0.007472715245183566
0.007008829381703808
0.006552471500928843
0.0061033102161342145
0.005661015562232242
0.005225258860527022
0.004795712577314186
0.00437205017824229
0.003953945980252442
0.003541075002806101
0.003133112820000962
0.0027297354150590484
0.00233061903855465
0.0019354400716352891
0.001543874895369445
0.0011555997672401145
0.0007702907056953292
0.0003876233835563076
7.2730309777142865e-06
-0.0003710856514402675
-0.0007477785688806707
-0.0011231322974658772
-0.0014974741380079982
-0.0018711321580945912
-0.0022444352223260555
-0.0026177130105884032
-0.0029912960243077946
-0.0033655155806931853
-0.003740703795030994
-0.004117193551150113
-0.004495318460230961
-0.004875412808188342
-0.005257811491912613
-0.005642849944709805
-0.006030864051343242
-0.006422190053146475
-0.00681716444374656
-0.007216123856012175
-0.007619404940922589
-0.008027344239142652
-0.008440278046187202
-0.00885854227216145
-0.009282472297172455
-0.009712402823626015
-0.010148667726749227
-0.010591599904805982
-0.011041531130606219
-0.01149879190604684
-0.011963711321560011
0.007443971136463309
0.006981299782273307
0.006526148917553274
0.0060781877237018195
0.0056370868596154105
0.005202518314979613
0.004774155257857745
0.004351671878551118
0.003934743231594004
0.0035230450776301933
0.0031162537267974692
0.002714045885122521
0.0023160985053045013
0.0019220886431412455
0.0015316933207290228
0.0011445893974447458
0.0007604534496036887
0.0003789616595751443
-2.1028497223334449e-07
-0.0003773872811224476
-0.0007528948895812136
-0.0011270594019754724
-0.0015002078962773867
-0.0018726682801199852
-0.0022447693218435928
-0.002616840669177812
-0.002989212855522372
-0.003362217293845587
-0.0037361862582726444
-0.004111452853485937
-0.004488350972108766
-0.004867215240293773
-0.00524838095178895
-0.005632183990805217
-0.006018960744065141
-0.0064090480024759965
-0.006802782852937306
-0.007200502560864253
-0.007602544444089646
-0.008009245738896147
-0.008420943459026409
-0.00883797424862629
-0.009260674230189827
-0.009689378848697033
-0.010124422713268208
-0.01056613943779489
-0.011014861482151472
-0.011470919995741605
-0.011934644665283003
0.007411856555559076
0.006950541828248067
0.00649673906953004
0.006050118120440574
0.005610350361081982
0.005177108550941494
0.004750066664040809
0.00432889972095346
0.00391328361960434
0.0035028949666377563
0.0030974109110090344
0.0026965089813214566
0.0022998669282958224
0.0019071625736268119
0.0015180736663497067
0.0011322777477133126
0.0007494520254318956
0.0003692732580725509
-8.582349776896642e-06
-0.00038443924101850445
-0.0007586225877871899
-0.0011314583610700342
-0.0015032733879289187
-0.0018743953961261252
-0.0022451530460196366
-0.0026158759496569413
-0.0029868946770509573
-0.0033585407496729467
-0.00373114662124404
-0.004105045645952319
-0.004480572034265471
-0.004858060796549752
-0.005237847674754213
-0.0056202690624649705
-0.006005661913681939
-0.006394363640730623
-0.006786712001783206
-0.007183044978531285
-0.007583700644632364
-0.007989017025640898
-0.008399331951230018
-0.008814982900617488
-0.009236306842231874
-0.009663640068780231
-0.010097318029016122
-0.01053767515765765
-0.01098504470505849
-0.011439758568396942
-0.011902147126316185
0.007376375403812394
0.006916559140774306
0.006464245250060174
0.00601910433234649
0.005580808594317509
0.005149031674448887
0.004723448464247322
0.004303734927049934
0.0038895679163527793
0.0034806249954970336
0.0030765842603980944
0.002677124166858507
0.002281923363859841
0.00189066053408534
0.0015030142427862622
0.0011186627959696184
0.0007372841087551206
0.00035855558462710127
-1.7845993808661263e-05
-0.00039224456205921463
-0.0007649648585624852
-0.0011363324967741228
-0.0015066740242876428
-0.0018763169688245248
-0.0022455898709962336
-0.002614822303794343
-0.002984344878816952
-0.003354489239286073
-0.003725588039949464
-0.004097974913998521
-0.004471984427170132
-0.004847952019234214
-0.005226213933108916
-0.005607107131884199
-0.005990969204075114
-0.006378138257481691
-0.0067689528020875855
-0.007163751622492942
-0.007562873640455953
-0.007966657768202087
-0.008375442753257484
-0.008789567015673853
-0.009209368478633528
-0.009635184393558075
-0.010067351160990518
-0.010506204148679525
-0.010952077508462655
-0.011405303993721487
-0.011866214779366396
0.007337532083336196
0.006879355798936924
0.006428671162981464
0.005985149645311808
0.005548464393695076
0.00511829004345432
0.004694302523280204
0.004276178859400686
0.003863596980136716
0.0034562355227175014
0.003053773644070332
0.00265589083714374
0.002262266754166369
0.0018725810380870924
0.0014865131632945487
0.0011037422865702294
0.0007239471090913114
0.0003468057501726497
-2.8004366685180407e-05
-0.00040080661498275447
-0.0007719252532818639
-0.0011416854998717203
-0.0015104135938528848
-0.001878436842518756
-0.002246083654974762
-0.0026136835619875046
-0.0029815672221025526
-0.0033500664141062307
-0.0037195140159397705
-0.004090243970204177
-0.004462591236420749
-0.004836891730240237
-0.005213482249823053
-0.00559270038964148
-0.0059748844419905064
-0.006360373286542247
-0.006749506268326908
-0.007142623064580356
-0.0075400635409746935
-0.007942167597831663
-0.008349275007014273
-0.008761725240305157
-0.009179857290205085
-0.00960400948422658
-0.010034519293912721
-0.010471723139979617
-0.010915956195165832
-0.011367552186563587
-0.011826843199409787
0.007295331523663295
0.006838936362249701
0.006390020941306649
0.005948257719960413
0.005513320911690569
0.005084886276127855
0.004662630907870551
0.004246233024574511
0.0038353717564074312
0.0034297269387865096
0.0030289789101460036
0.002632808316309446
0.0022408959228707877
0.0018529224368226608
0.0014685683385087973
0.001087513724823812
0.000709438164439655
0.0003340205657020329
-3.9060942286867026e-05
-0.0004101291149935705
-0.0007795076838805087
-0.0011475214337238668
-0.0015144962656888452
-0.0018807592460930076
-0.002246638640843964
-0.0026124639355866353
-0.002978565841633316
-0.003345276287777188
-0.003712928398115812
-0.004081856456031057
-0.004452395854488734
-0.004824883032839518
-0.0051996554003209215
-0.005577051246478813
-0.005957409638755618
-0.006341070307529199
-0.006728373518926824
-0.007119659935793299
-0.007515270467259321
-0.007915546107437877
-0.008320827763873268
-0.008731456076478588
-0.009147771227828292
-0.009570112745819325
-0.009998819299879062
-0.010434228492079051
-0.01087667664471043
-0.011326498586091804
-0.011784027436603887
0.00724977921071389
0.006795305894992722
0.006348299167179543
0.0059084326075140095
0.005475381630985321
0.005048823259550538
0.00462843589233474
0.004213899076151805
0.003804893278501125
0.0034010996650056403
0.003002199883068755
0.002607875853339655
0.0022178095703893367
0.0018316829138213283
0.0014491774708676607
0.001069974371355638
0.0006937541357778311
0.0003201965370533698
-5.1019523562561084e-05
-0.00042021612607820024
-0.0007877164266344812
-0.0011538447375001068
-0.0015189265921209476
-0.0018832887952136457
-0.002247259457948915
-0.002611168018307611
-0.002975345246720871
-0.0033401232371278915
-0.0037058353835991787
-0.004072816342682241
-0.004441401981631791
-0.004811929312691162
-0.005184736413600798
-0.005560162334517024
-0.00593854699153944
-0.006320231047073247
-0.006705555777284463
-0.0070948629269529575
-0.007488494552089641
-0.00788679285075924
-0.008290099982647698
-0.008698757878026176
-0.009113108036894167
-0.009533491319239692
-0.009960247727529379
-0.010393716182732042
-0.010834234295394946
-0.011282138133527565
-0.01173776198929197
0.007200881217999732
0.0067484699922962035
0.006303510893131808
0.005865678766562932
0.005434650377129721
0.0050101041586772185
0.004591719964261862
0.004179178817571964
0.0037721626680824382
0.003370354151957285
0.002973436360506433
0.002581092617796755
0.0021930062688152985
0.0018088604793875104
0.0014283380488658549
0.0010511212364283221
0.0006768916016620168
0.0003053298599552545
-6.388424691617613e-05
-0.0004310720647419736
-0.0007965561252073659
-0.001160660228532632
-0.0015237095104269245
-0.0018860304934171673
-0.002247951122661381
-0.002609800786387808
-0.0029719103211180535
-0.003334612001844604
-0.003698239517337165
-0.004063127930746522
-0.0044296136256665565
-0.004798034237807915
-0.00516872857243101
-0.0055420365076797335
-0.005918298883959328
-0.0062978573795189185
-0.00668105437242065
-0.0070682327891117905
-0.00745973593987286
-0.007855907341485776
-0.00825709052755752
-0.008663628847048799
-0.009075865251692
-0.00949414207314352
-0.00991880079089811
-0.010350181792199941
-0.0107886241254192
-0.01123446524861391
-0.01168804077527012
0.00714864423996492
0.006698434807847112
0.006255661664500889
0.005820001080593688
0.005391131331618167
0.00496873242542387
0.004552485830096615
0.004142074204703696
0.0037371811351944277
0.0033374908775180368
0.0029426881097919452
0.002552457695126316
0.0021664844564924586
0.001784452964809512
0.0014060473412206079
0.001030951074341443
0.0006588468530876974
0.00028941641552754046
-7.765958593914147e-05
-0.000442701702898134
-0.0008060317926629154
-0.0011679731034626804
-0.001528850343170868
-0.0018889897317179946
-0.002248719037372047
-0.0026083675970950734
-0.002968266321191209
-0.0033287476824600936
-0.0036901456900592213
-0.004052795848259075
-0.00441703510025271
-0.004783201757158101
-0.005151635412328446
-0.0055226768410649735
-0.005896667885814623
-0.006273951326936053
-0.006654870739126878
-0.007039770333629963
-0.007428994786381442
-0.007822889052329295
-0.008221798166238692
-0.00862606703041056
-0.0090360401898806
-0.009452061595829744
-0.009874474358129437
-0.010303620488170791
-0.010739840633372601
-0.011183473805037043
-0.011634857101527459
0.007093075627339752
0.006645207083073262
0.006204757542851991
0.005771404876106428
0.0053448290452011785
0.004924711807706844
0.004510736420456744
0.004102587347998274
0.003699949977801195
0.003302510344331197
0.0029099548638448925
0.0025219700815159044
0.0021382424322595834
0.0017584580163928385
0.0013823023910477586
0.001009460378051738
0.0006396158887984103
0.00027245176646504367
-9.235035422188003e-05
-0.00045511016960078166
-0.0008161488121017145
-0.0011757889378135274
-0.0015343547967875347
-0.0018921722863177361
-0.002249568987470499
-0.0026068741851479494
-0.0029644188719669343
-0.003322535736219238
-0.0036815591341504417
-0.0040418250467617566
-0.004403671021297663
-0.004767436097540082
-0.005133460718989312
-0.005502086628973495
-0.005873656751699333
-0.006248515058239966
-0.00662700641745074
-0.00700947643181609
-0.007396271258264617
-0.007787737414046158
-0.008184221567845994
-0.00858607031642069
-0.008993629947181767
-0.009407246187321135
-0.009827263940275638
-0.010254027010567743
-0.01068787781832247
-0.011129157105060905
-0.011578203632705002
0.00703418342436197
0.006588794177638545
0.006150805130217195
0.005719895941125239
0.005295748451239878
0.0048780463582456315
0.00446647489500669
0.004060720514063613
0.003660470580685731
0.0032654130766329335
0.0028752363165038836
0.0024896286782758624
0.0021082783493767817
0.0017308730893779143
0.0013571000101588026
0.000986645374174367
0.0006191944112514079
0.00025443115416153017
-0.00010796170694368814
-0.0004683029512841955
-0.0008269129355472165
-0.0011841136835770458
-0.0015402289579728363
-0.0018955843139485114
-0.0022505071358285894
-0.002605326656553884
-0.0029603739605560562
-0.0033159819703264225
-0.003672485416959312
-0.004030220794896074
-0.0043895263010355
-0.004750741758314133
-0.005114208523797082
-0.005480269381261504
-0.00584926841820654
-0.006221550887187382
-0.006597463051346963
-0.006977352014015814
-0.007361565532274069
-0.007750451814413181
-0.008144359301307452
-0.008543636431814133
-0.00894863139246034
-0.009359691851849063
-0.009777164680429138
-0.010201395656523043
-0.01063272915979551
-0.011071507853670358
-0.011518072358563548
0.006971976407700437
0.006529204101050276
0.006093811593932172
0.005665480543875079
0.005243894878877751
0.004828740442912
0.004419704646685896
0.004016476126478411
0.00361874441354796
0.0032261996163124645
0.0028385321171927715
0.0024554322857115807
0.002076590209153178
0.0017016954418118502
0.0013304367735987692
0.0009625020185384876
0.0005975778234675144
0.0002353494970546421
-0.0001244991409068114
-0.0004822858901242606
-0.0008383302806510427
-0.001192953664343594
-0.0015464792873806491
-0.0018992323443288404
-0.002251540014247418
-0.0026037314793102354
-0.0029561379263924195
-0.003309092532017917
-0.0036629304309968615
-0.004017988669006293
-0.0043746061392858256
-0.004733123503531526
-0.00509388309698656
-0.005457228817644473
-0.005823505999407858
-0.006193061268989013
-0.00656624238629421
-0.006943398068012082
-0.007324877794132358
-0.0077110315971528585
-0.0081022098337972
-0.008498762939166085
-0.00890104116338352
-0.009309394290978618
-0.0097241713434633
-0.010145720265827957
-0.010574387597989086
-0.011010518132572186
-0.011454454560805738
0.006906464126874019
0.006466445545150114
0.006033784691829865
0.005608165451369933
0.005189274065765366
0.0047767987483692785
0.004370429305055195
0.003969856765637913
0.003574773028130189
0.003184870518071775
0.0027998418648307348
0.0024193795964497344
0.0020431758542932554
0.0016709221284498376
0.0013023090145618142
0.0009370259924944286
0.0005747612270230099
0.0002152013905095397
-0.00014196849264019849
-0.0004970651800920056
-0.0008504073247398635
-0.001202315567460365
-0.001553112610073932
-0.0019031232691457895
-0.0022526745112567796
-0.00260209547034425
-0.0029517174476625697
-0.0033018738948399897
-0.003652900380418756
-0.004005134540166468
-0.004358916011336965
-0.0047145863509430695
-0.005072488937993419
-0.005432968859536383
-0.005796372780251103
-0.006163048795245263
-0.006533346265653817
-0.006907615636588524
-0.007286208236972153
-0.00766947606080844
-0.008057771529494797
-0.008451447234874947
-0.008850855662861451
-0.0092563488976413
-0.00966827830670633
-0.010086994207225513
-0.01051284551460481
-0.01094617937445971
-0.011387340779653497
0.006837656945929214
0.006400527917221073
0.005970732797501727
0.005547957947619135
0.005131892170052971
0.004722226288724788
0.004318652738498484
0.003920865167395036
0.0035285580541708408
0.003141426343531647
0.002759165100884975
0.0023814691881729943
0.002008032961978736
0.001638549994769943
0.0012727128198364202
0.000910212700193628
0.0005507394214727778
0.00019398110859583347
-0.00016037593415649666
-0.0005126473602274309
-0.0008631508956779793
-0.0012122064326380187
-0.0015601361021072477
-0.0019072643269102147
-0.0022539178555934965
-0.002600425778006672
-0.0029471195232330227
-0.0032943328404409986
-0.003642401763112901
-0.003991664556977418
-0.004342461651834089
-0.004695135557312239
-0.005050030762464687
-0.005407493618955881
-0.005767872207472843
-0.006131516186876809
-0.006498776625520147
-0.006870005814084527
-0.007245557059257786
-0.0076257844575653745
-0.008011042648712944
-0.008401686547876507
-0.008798071056504493
-0.009200550751377955
-0.009609479551909928
-0.010025210365955765
-0.010448094714752054
-0.01087848233800974
-0.011316720780651796
0.006765566086106199
0.0063314613734072114
0.0059046649253013325
0.00548486585111684
0.005071755781316474
0.004665028410874255
0.0042643790549843075
0.003869504220234469
0.0034801011939638686
0.0030958676541112205
0.0027165013014505994
0.0023416995157120304
0.00197115903670366
0.0016045756711900875
0.0012416440259444567
0.0008820572670841988
0.0005255069055252641
0.00017168260815282057
-0.00017972796589565314
-0.0005290393045985411
-0.0008765681589506281
-0.001222633636361221
-0.0015675572725527128
-0.0019116630829609706
-0.002255277594608229
-0.002598729859350302
-0.0029423514493005266
-0.003286476435110146
-0.0036314413476415154
-0.003977585123408194
-0.004325249033981984
-0.004674776599390071
-0.005026513485346103
-0.005380807383981279
-0.005738007877580362
-0.006098466284682479
-0.006462535487779562
-0.0068305697417481055
-0.0072029244620871735
-0.007579955992013703
-0.00796202134748274
-0.008349477939267949
-0.008742683271362624
-0.009141994615137275
-0.009547768658926571
-0.009960361133024637
-0.010380126410434346
-0.010807417084148264
-0.011242583522241927
0.006690203669174846
0.006259256852097987
0.00583559075472289
0.005418897531232692
0.005008871930033326
0.004605210798171803
0.004207612601050155
0.003815776960680705
0.003429404215273265
0.0030481950024870506
0.0026718498682284783
0.0023000689024375307
0.0019325514028830917
0.0015689955675916587
0.0012090982161634344
0.0008525545398940185
0.000499057880323992
0.0001482995355805389
-0.00020003140633887543
-0.000546248208356162
-0.0008906666003116854
-0.0012336048713884216
-0.001575383940206277
-0.001916327403815466
-0.002256761566765927
-0.0025970154513398165
-0.002937420789907384
-0.0032783120002108125
-0.003620026144204317
-0.003962902870880832
-0.004307284343303243
-0.004653515149841152
-0.005001942199395312
-0.005352914600177153
-0.005706783521407698
-0.006063902037117114
-0.006424624951065924
-0.006789308601675519
-0.007158310645764783
-0.007531989819841326
-0.00791070567768785
-0.008294818303036952
-0.00868468799624078
-0.009080674934012701
-0.009483138801558134
-0.00989243839672619
-0.010308931206199669
-0.010732972954201177
-0.011164917124733609
0.006611582761076401
0.006183926106876698
0.005763520653730831
0.005350061923075942
0.004943248095190537
0.0045427794720219496
0.004148357958628243
0.0037596865665993056
0.0033764689423176914
0.0029984089224115093
0.0026252101182547404
0.002256575530886917
0.001892207197257286
0.0015318058682620116
0.0011750707186369224
0.0008216990884019992
0.0004713862552313462
0.00012382523684385653
-0.00022129337771844909
-0.0005642815692300544
-0.0009054540032678313
-0.0012451281205464303
-0.0015836242041248503
-0.0019212654249738358
-0.0022583778673186177
-0.0025952905350546075
-0.002932335340376062
-0.0032698470755688665
-0.0036081633687014385
-0.003947624623708155
-0.0042885739451076765
-0.004631357047335142
-0.004976322148403982
-0.005323819847354182
-0.005674202984696643
-0.006027826484837507
-0.006385047179262741
-0.006746223609096484
-0.007111715805519496
-0.007481885046449227
-0.00785709358785562
-0.008237704368117497
-0.008624080683918137
-0.009016585836344106
-0.009415582746093172
-0.009821433537015804
-0.010234499087617081
-0.010655138550637044
-0.011083708841403486
0.00652971741545157
0.006105481738579891
0.005688465700566948
0.005278368540349559
0.004874892209543239
0.00447774079093295
0.00408661993929231
0.0037012363480178664
0.0033212972445057897
0.0029465099166405655
0.0025765812722131284
0.0022112174325484525
0.0018501233611118006
0.001493002527377849
0.0011395566058022984
0.0007894852093347396
0.0004424856565568905
9.825277123309928e-05
-0.00024352128718467436
-0.0005831471637379063
-0.0009209384205912836
-0.0012572116239435499
-0.0015922864070566888
-0.001926485511190539
-0.00226013480613019
-0.0025935632918435963
-0.0029271030826158225
-0.003261089374777041
-0.003595860398880808
-0.003931757356904151
-0.00426912434473942
-0.004608308259936581
-0.004949658694340733
-0.005293527810958862
-0.005640270204094567
-0.005990242741515418
-0.006343804387167366
-0.006701316002741566
-0.007063140126229377
-0.007429640725480344
-0.007801182924723139
-0.008178132702012078
-0.008560856555633885
-0.008949721137666823
-0.009345092853121198
-0.00974733742341113
-0.010156819413327724
-0.010573901721200797
-0.01099894503254751
0.006444622716580466
0.006023937225951896
0.005610437703495567
0.00520382748564718
0.004803812661983889
0.004410101446514228
0.004022403575445598
0.0036404297350421284
0.003263891022568686
0.0028924984426983765
0.0025259624411491013
0.0021639924767211825
0.001806296632339578
0.0014525812651704417
0.0011025506953921149
0.0007559069327595564
0.0004123494397155381
7.157492947827782e-05
-0.0002667228027251414
-0.0006028530173026955
-0.0009371281389654066
-0.0012698638386262422
-0.0016013790907280657
-0.0019319962081266566
-0.002262040856526755
-0.0025918420502833023
-0.0029217321311486404
-0.003252046731272629
-0.0035831247214523753
-0.003915308145293391
-0.004248942139587356
-0.004584374840844074
-0.004921957277545066
-0.005262043247321289
-0.005604989177903967
-0.005951153970368592
-0.006300898822894755
-0.006654587033000849
-0.007012583775997321
-0.0073752558572444775
-0.007742971435704765
-0.008116099716251338
-0.008495010608246516
-0.00888007434804143
-0.009271661083274981
-0.00967014041717753
-0.010075880911515595
-0.010489249547351073
-0.010910611143439233
0.006356314821193011
0.005939306954313897
0.005529449217879651
0.005126449457576558
0.004730018296417178
0.004339868455839198
0.003955714107910383
0.0035772702623868835
0.0032042521916887737
0.002836374896169674
0.0024733526113786646
0.0021148983583558654
0.0017607235373713614
0.001410537564925909
0.0010640475532919533
0.0007209580313883479
0.0003809707053608906
4.378425688789724e-05
-0.00029090582304843604
-0.0006234073673840844
-0.0009540316357737788
-0.0012830933896060231
-0.0016109109418409153
-0.00193780618418262
-0.002264104593937428
-0.0025901352226821803
-0.002916230668589549
-0.003242727033934932
-0.003569963868942913
-0.003898284102736146
-0.004228033961736341
-0.004559562875435238
-0.004893223369020459
-0.005229370941912618
-0.00556836393085498
-0.005910563355809719
-0.006256332746553912
-0.006606037947550634
-0.0069600468984074085
-0.007318729387025533
-0.007682456772402389
-0.008051601673987455
-0.008426537624516128
-0.008807638683357506
-0.009195279007627663
-0.009589832378645871
-0.0099916716817477
-0.010401168338028371
-0.010818691687275131
0.006264810998539434
0.0058516062415933205
0.005445513559906332
0.005046245754019255
0.0046535184064598785
0.004267049149524627
0.00388655696932564
0.003511761549995024
0.00314238266117616
0.002778139591170887
0.002418750627359148
0.0020639325847726887
0.001713400383005697
0.0013668666709912266
0.001024041498571532
0.000684632033255978
0.00034834232009971233
1.4873082253849665e-05
-0.0003160784405636802
-0.0006448186186361793
-0.0009716575269378717
-0.0012969090110696458
-0.0016208907275182764
-0.0019439241611891936
-0.0022663346229612573
-0.002588451229744314
-0.002910606869190391
-0.0032331381508264763
-0.003556385344951743
-0.003880692310181646
-0.0042064064100372275
-0.004533878418479978
-0.004863462413790813
-0.0051955156596887216
-0.005530398472102321
-0.005868474069554288
-0.006210108404689878
-0.006555669974101581
-0.006905529603279972
-0.007260060203256889
-0.0076196364953169254
-0.007984634700050112
-0.008355432187002226
-0.008732407081265672
-0.009115937823553098
-0.009506402680607436
-0.009904179203246072
-0.010309643629913504
-0.010723170234331274
0.0061701296680306515
0.005760851360975833
0.005358644816198226
0.0049632282707568545
0.004574322725208621
0.004191651154801711
0.0038149377626811518
0.0034439072791518296
0.0030782843101991673
0.00271779273761856
0.0023621551722681784
0.0020110924611411243
0.001664323248173759
0.0013215635879813802
0.000982526611045728
0.0006469222382882271
0.00031445694245767946
-1.5166446655478225e-05
-0.00034224889648925677
-0.0006670952889955635
-0.0009900145045925418
-0.0013113194764629629
-0.0016313272188082295
-0.0019503588325048005
-0.002268739491363578
-0.002586798411874487
-0.0029048688089312116
-0.0032232878395799126
-0.0035423965363435353
-0.0038625397311420565
-0.004184065970265395
-0.004507327420282568
-0.00483267976418961
-0.005160482086520535
-0.005491096745586205
-0.005824889230473473
-0.006162227999939818
-0.0065034842998895545
-0.006849031955726198
-0.007199247135550903
-0.007554508079933405
-0.007915194793825485
-0.008281688696127297
-0.008654372222469814
-0.009033628376948162
-0.009419840228840043
-0.009813390350784566
-0.010214660195481791
-0.010624029408719107
0.006072290433672894
0.005667059559353187
0.005268857848454142
0.004877409494598004
0.004492441409225334
0.004113682372769212
0.003740862234239851
0.0033737111634294954
0.0030119589590124306
0.0026553344148664004
0.002303564746004334
0.001956375074595609
0.001613487975685458
0.001274623081409727
0.000939496741764479
0.000607821739337541
0.0002793070548503681
-4.634232009578115e-05
-0.000369425527019389
-0.0006902459454856855
-0.0010091112632610202
-0.0013263335160056443
-0.0016422291007156748
-0.001957118766922547
-0.002271327589364611
-0.002585184925465306
-0.002899024360497377
-0.0032131836427925706
-0.003528004610784464
-0.00384383311305638
-0.004161018921923285
-0.0044799156404157665
-0.004800880601864416
-0.005124274760622653
-0.005450462571820778
-0.005779811857426861
-0.006112693655313382
-0.006449482047501287
-0.006790553963287576
-0.0071362889525698504
-0.007487068924371617
-0.007843277845356027
-0.008205301393008943
-0.00857352655818034
-0.008948341191808866
-0.00933013349093454
-0.009719291419534266
-0.010116202060306646
-0.01052125089429809
0.005971314114429711
0.005570249070644254
0.005176168292160024
0.004788802490037863
0.004407885015788666
0.004033150948920091
0.0036643362400135375
0.0033011769137257247
0.00294340833506539
0.002590764541238199
0.002242977640302169
0.0018997772768558872
0.0015608901640102955
0.0012260396799889722
0.0008949455268789553
0.000567323448331446
0.0002428850023967323
-7.866261481902155e-05
-0.0003976166993573627
-0.0007142791283949301
-0.0010289564130509655
-0.001341959720042047
-0.001653604867077079
-0.0019642122966360663
-0.002274107032424994
-0.0025836186223509618
-0.002893081071330836
-0.00320283276664636
-0.00351321639789739
-0.0038245788728988785
-0.00413727123013161
-0.0044516485475990936
-0.004768069847180697
-0.005086897992815063
-0.0054084995801073135
-0.00573324481424722
-0.006061507372460667
-0.006393664246600341
-0.006730095560935054
-0.0070711843597293204
-0.007417316358818413
-0.007768879655103027
-0.008126264387720857
-0.00848986234460715
-0.008860066508252273
-0.009237270534710719
-0.00962186816032825
-0.010014252531243953
-0.01041481545150056
0.005867222769541276
0.005470439122958137
0.0050805925483023845
0.004697420878374034
0.004320664472357884
0.003950065235938327
0.0035853657048656624
0.0032263081965777617
0.00287263403330878
0.0025240828389338898
0.0021803919106205723
0.0018412956652096996
0.001506525159161982
0.0011758076798921964
0.0008488664053951929
0.0005254201282630195
0.00020518303951520865
-0.00011213543287642993
-0.0004268307362876942
-0.0007392032623352082
-0.0010495583782361385
-0.0013582064264732368
-0.001665462698428554
-0.0019716473873463763
-0.002277085525567815
-0.0025821069104539265
-0.002887046022797362
-0.0031922419408286426
-0.003498038252164465
-0.0038047829652400975
-0.004112828420926008
-0.0044225312041665694
-0.004734252054614287
-0.0050483557743707524
-0.005365211130102545
-0.005685190745995876
-0.006008670983249514
-0.006336031801095272
-0.006667656593699004
-0.0070039319967371075
-0.0073452476569795845
-0.0076919959578525265
-0.008044571693712955
-0.008403371685464602
-0.008768794330185868
-0.009141239077647287
-0.00952110582697653
-0.00990879423730659
-0.010304702947027358
0.00576003971772035
0.005367649938448453
0.004982147766894863
0.004603278808077874
0.004230791037067121
0.0038644337476400996
0.003503956573206686
0.003149108584840606
0.0027996374699433783
0.002455288793733955
0.002115805344431355
0.001780926561709367
0.0014503880467781
0.001123921151309151
0.0008012526413963455
0.00048210443184830507
0.00016619338535996868
-0.00014676882947953836
-0.000457075827816032
-0.0007650265525278731
-0.0010709252794148653
-0.0013750815903367927
-0.0016778103208353783
-0.0019794314884067172
-0.0022802702070961953
-0.002580656593474215
-0.002880925668335874
-0.0031814172576687637
-0.0034824758955661773
-0.003784450730843384
-0.004087695438158574
-0.004392568133464014
-0.00469943129263161
-0.005008651671120818
-0.005320600221605638
-0.005635652005561882
-0.005954186093943631
-0.006276585451267622
-0.006603236796686653
-0.006934530434978728
-0.00727086004982426
-0.007612622451298567
-0.007960217269186227
-0.008314046583547785
-0.008674514483947016
-0.009042026548897554
-0.00941698923743041
-0.0097998091852338
-0.010190892398595178
0.005649789549021438
0.005261902724579
0.004880851820990441
0.004506390915081444
0.004138276248934189
0.0037762651028057474
0.0034201147501311813
0.003069581499719495
0.0027244198287753284
0.002384381608872598
0.0020492154255108107
0.001718665990434005
0.001392473644509745
0.0010703739476857037
0.0007520973513944398
0.0004373689477790207
0.000125908289284173
-0.00018257072848932134
-0.0004883599282294032
-0.0007917568644823696
-0.0010930647972484933
-0.0013925926334016937
-0.0016906548434499156
-0.0019875713607089363
-0.002283667469377625
-0.002579273687289071
-0.002874725648284733
-0.0031703639882420063
-0.003466534237795863
-0.0037635867237496325
-0.004061876480089072
-0.004361763168410242
-0.004663611006462825
-0.00496778870241402
-0.005274669391366702
-0.005584630569628615
-0.005898054021242594
-0.00621532573036708
-0.006536835772249658
-0.006862978174776612
-0.007194150741923061
-0.007530754829888908
-0.007873195066293533
-0.008221879002538734
-0.008577216689352019
-0.008939620165602617
-0.009309502850772644
-0.009687278831975205
-0.01007336203716664
0.005536498128049825
0.005153219655379845
0.004776723269701778
0.004406772271487339
0.00404313186632229
0.0036855679575141208
0.003333846031723403
0.002987730143039659
0.002646981999255296
0.002311360152387292
0.0019806192938042824
0.0016545096526729905
0.0013327764948749456
0.0010151597181053181
0.000701393537575974
0.0003912062556316715
8.432010767292118e-05
-0.00021954882392998182
-0.0005206906367363597
-0.00081940158501962
-0.0011159840155614336
-0.0014107462714280953
-0.0017040025723510828
-0.001996072879801374
-0.002287282754157514
-0.0025779632105365595
-0.0028684505789044294
-0.0031590863730321817
-0.003450217171736986
-0.0037421945146621505
-0.004035374813630168
-0.004330119279360063
-0.004626793862095788
-0.0049257692034631664
-0.00522742059566907
-0.005532127942993379
-0.005840275719414825
-0.006152252915169448
-0.006468452964074903
-0.006789273642579502
-0.0071151169307272985
-0.007446388824579854
-0.007783499089120224
-0.008126860940303092
-0.008476890644723623
-0.008834007025377462
-0.009198630862200505
-0.00957118417653062
-0.009952089389348308
0.005420192587031077
0.00504162384111282
0.004669781308588909
0.004304438321044251
0.0039453697920260634
0.0035923509244301308
0.003245156023112903
0.0029035574185150154
0.0025673245051894833
0.0022362228971973576
0.0019100137004111322
0.0015884528998968122
0.0012712908587774506
0.0009582719233561555
0.0006491341278253692
0.00034360899064637225
4.1421393667486015e-05
-0.0002577104657226308
-0.0005540750596293254
-0.000847967462364538
-0.0011396892413488738
-0.0014295483165012706
-0.001717858797979208
-0.002004940811498485
-0.0022911203196486467
-0.002576728946652146
-0.002862103812921993
-0.0031475873845714826
-0.0034335273417478666
-0.003720276468323614
-0.004008192564103341
-0.004297638379312262
-0.004588981569742193
-0.004882594669555141
-0.005178855077400315
-0.005478145050204032
-0.00578085169775042
-0.0060873669699976
-0.00639808762798167
-0.006713415188163263
-0.007033755829181872
-0.0073595202492121314
-0.007691123461483762
-0.008028984515052642
-0.008373526127609505
-0.008725174217014527
-0.009084357318370484
-0.009451505873820785
-0.009827051382916285
0.005300901307102639
0.004927139284592815
0.004560045705590286
0.004199404799542224
0.0038450019831688456
0.0034966224773237582
0.0031540500427073292
0.0028170658406478054
0.002485447423011263
0.0021589678531007683
0.0018373949572141404
0.0015204907044014775
0.001208010709956151
0.0008997038563326974
0.0005953120235521834
0.0002945699197644319
-2.7949984879576534e-06
-0.0002970625275977649
-0.0005885196516585198
-0.0008774604227710682
-0.001164185798972722
-0.0014490034515825603
-0.0017322275532197498
-0.0020141785569939563
-0.0022951829764112693
-0.0025755731744170514
-0.0028556871687376636
-0.003135868459311412
-0.003416465882148275
-0.003697833492448597
-0.003980330478264672
-0.004264321104434837
-0.004550174684971955
-0.004838265580557322
-0.005128973216298571
-0.005422682113469489
-0.005719781927568911
-0.0060206674837248
-0.0063257387992431205
-0.006635401081971276
-0.006950064692120547
-0.007270145054290786
-0.007596062505680172
-0.007928242065856024
-0.008267113113036427
-0.008613108951616051
-0.008966666255678837
-0.00932822437351398
-0.009698224478725051
0.005178653886019371
0.0048097908222213895
0.004447536720465141
0.004091687638067113
0.0037420403438899914
0.0033983908389061297
0.003060533010860275
0.0027282574297520373
0.0024013502883980086
0.002079592489815473
0.0017627588806633301
0.0014506176275476314
0.001142929730712638
0.0008394486675510999
0.000539920156524887
0.00024408203053032096
-4.833579249945369e-05
-0.00033761125487571095
-0.0006240300340180789
-0.0009078853608410656
-0.0011894777955211528
-0.0014691149741232331
-0.0017471113389067273
-0.0020237878642224774
-0.0022994717887914254
-0.002574496363855429
-0.002849200625241124
-0.003123929195815823
-0.003399032123171112
-0.0036748647556713344
-0.003951787658276588
-0.004230166567816874
-0.004510372385674411
-0.004792781204140308
-0.005077774361062087
-0.00536573851580573
-0.005657065738029182
-0.005952153599308618
-0.006251405256291261
-0.006555229512777254
-0.0068640408469632375
-0.00717825938903717
-0.007498310833408635
-0.007824626269105142
-0.008157641911296441
-0.008497798716546559
-0.00884554186426717
-0.009201320086993495
-0.00956558483255969
0.005053481090272104
0.00468960404757263
0.004332275005487871
0.003981302846826136
0.0036364965985758828
0.003297663849853607
0.00296460932104255
0.0026371335914402265
0.002315031989908893
0.0019980936501341664
0.001686100729220076
0.0013788277855675771
0.0010760413093740583
0.0007774993967194933
0.00048295155612377693
0.00019213863471647784
-9.520715021102237e-05
-0.0003793620894898909
-0.0006606107860135309
-0.0009392459003609399
-0.001215567853973606
-0.0014898845052615777
-0.0017625108132047545
-0.0020337685019302647
-0.0023039857384329204
-0.0025734968340936863
-0.0028426419789884683
-0.0031117670162039337
-0.0033812232615153814
-0.003651367371875422
-0.003922561264238525
-0.004195172084320832
-0.004469572222993198
-0.004746139376143672
-0.005025256642033137
-0.0053073126484193545
-0.005592701700042731
-0.005881823935464027
-0.006175085480730161
-0.006472898585920511
-0.006775681729307655
-0.0070838596726681205
-0.007397863450209798
-0.007718130272670716
-0.008045103327409875
-0.008379231454777265
-0.00872096868076306
-0.009070773585913912
-0.00942910849081166
0.004925414789407008
0.0045666052151351715
0.0042142814848833456
0.003868266376992037
0.0035283821431283426
0.0031944488166525606
0.0028662826913774947
0.002543694978746937
0.002226490648206224
0.001914467452206992
0.0016074151339769069
0.0013051148129900932
0.001007338540088873
0.0007138490115057225
0.00042439942868214425
0.0001387334888317813
-0.00014341451032098308
-0.0004223194692600738
-0.0006982652070963603
-0.0009715441220906986
-0.001242456810429604
-0.0015113116607595569
-0.0017784244409928592
-0.0020441178926054755
-0.0023087213461012585
-0.0025725703695636884
-0.0028360064603088347
-0.0030993767876310342
-0.003363033992534282
-0.0036273360482077
-0.0038926461828612154
-0.004159332864409622
-0.004427769844401682
-0.004698336256548065
-0.00497141676322245
-0.005247401741401359
-0.005526687497669481
-0.005809676500164333
-0.006096777613665907
-0.0063884063224574975
-0.006684984924108156
-0.006986942675959881
-0.0072947158748621135
-0.007608747849602526
-0.007929488844559462
-0.00825739577237826
-0.008592931812987446
-0.008936565836064489
-0.009288771624185135
0.004794487870105356
0.004440821121551173
0.0040935772101994665
0.00375259395771374
0.0034177078714750786
0.0030887523356318315
0.0027655559941718103
0.0024479413348829845
0.0021357234793058354
0.0018287091799220178
0.0015266960219995056
0.001229471823838358
0.0009368142257345242
0.0006484904548974034
0.0003642572508974727
8.386093403897534e-05
-0.00019296240261707865
-0.0004664865979920437
-0.0007369950455087189
-0.0010047802545002588
-0.001270143371231297
-0.0015333936794282655
-0.0017948480990010365
-0.0020548307000930553
-0.0023136722477793276
-0.0025717097907001687
-0.00282928630472847
-0.0030867504004675403
-0.003344456101014824
-0.003602762694043117
-0.003862034659872362
-0.00412264167486092
-0.004384958687155455
-0.00464936605961179
-0.00491624977254726
-0.005186001676913354
-0.005459019786487267
-0.005735708595772361
-0.006016479408473933
-0.006301750659681103
-0.006591948213240356
-0.006887505614265897
-0.007188864275303533
-0.007496473573368766
-0.007810790833946632
-0.00813228117709578
-0.008461417200082824
-0.008798678470533138
-0.009144550803977282
0.004660734127326059
0.004312278961392073
0.003970183188489844
0.003634300905111007
0.0033044839742024344
0.0029805800902495613
0.0026624310608192
0.0023498713144223873
0.002042726640182395
0.0017408131603140892
0.001443936531987041
0.0011518913708985258
0.0008644608849449377
0.0005814167028600336
0.000302518879679089
2.7516058447361966e-05
-0.00024385423423886794
-0.0005118651824738905
-0.0007768001892673581
-0.0010389523229410642
-0.0012986237253271521
-0.0015561250043449864
-0.001811774632046079
-0.002065898367369144
-0.0023188287207110796
-0.002570904475061935
-0.0028224702759377367
-0.0030738762997328493
-0.0033254780074582525
-0.0035776359881738856
-0.003830715893793909
-0.004085088464372409
-0.004341129640479981
-0.0045992207568691275
-0.00485974880930487
-0.005123106784203829
-0.005389694038582686
-0.005659916715759737
-0.005934188180274913
-0.006212929453597957
-0.006496569630380818
-0.0067855462532826
-0.007080305622766202
-0.007381303016755013
-0.007689002793664544
-0.008003878351124441
-0.008326411911728428
-0.008657094106430022
-0.008996423325809681
0.004524188129519616
0.004181006154172318
0.0038441201798137814
0.003513401899692195
0.0031887197058221434
0.002869936618366778
0.0025569084591768702
0.0022494822805222935
0.001947495054941871
0.0016507726269192335
0.0013591289219385457
0.001072365403552886
0.0007902707645634343
0.0005126208343843681
0.00023917868125935583
-3.0305114728210875e-05
-0.00029609204390753995
-0.0005584551318495877
-0.0008176783146212868
-0.0010740557521595573
-0.001327891106676118
-0.0015794968116665765
-0.0018291933552785147
-0.0020773085995815805
-0.0023241771547695775
-0.0025701398245873055
-0.0028155431363895943
-0.0030607389662777873
-0.0033060842667777847
-0.003551940901565461
-0.0037986755888499008
-0.004046659952217601
-0.0042962706750321565
-0.0045478897518864796
-0.00480190482811832
-0.005058709616012912
-0.005318704374027448
-0.00558229643317406
-0.005849900752571621
-0.006121940484122505
-0.006398847524285767
-0.006681063028997285
-0.006969037865947519
-0.007263232976678621
-0.00756411961932698
-0.007872179461353532
-0.008187904490315076
-0.00851179670968727
-0.00884436758601953
0.004384885054603112
0.004047030138925722
0.0037154084601380352
0.0033899107281973977
0.0030704231167655582
0.0027568250458669986
0.002448987240204561
0.002146770075552966
0.0018500222196632596
0.0015585795680031506
0.0012722644686486168
0.000990885224930467
0.0007142358592028414
0.00044209611649685416
0.0001742316829645282
-8.960540901813228e-05
-0.0003496762193864456
-0.000606254214150707
-0.0008596244864239092
-0.0011100829163971887
-0.001357935300875266
-0.0016034964812884772
-0.0018470894968746002
-0.0020890447870757795
-0.0023296994642347905
-0.002569396674496939
-0.0028084850615147754
-0.0030473183441962967
-0.003286255016393999
-0.0035256581731517786
-0.003765895464950996
-0.004007339178343391
-0.004250366438442205
-0.004495359525966802
-0.0047427062988903215
-0.004992800706214884
-0.00524604337897857
-0.005502842281266136
-0.005763613401733786
-0.006028781463954143
-0.006298780631729693
-0.006574055183409748
-0.006855060127182545
-0.007142261727307149
-0.007436137909329059
-0.007737178510520713
-0.008045885340142465
-0.008362772012698812
-0.008688363516237169
0.004242860493018585
0.003910378132225105
0.0035840675452425592
0.0032638399853765383
0.0029496007457251033
0.0026412467825594164
0.0023386646503217486
0.002041728762289745
0.0017502999839099746
0.0014642245586328172
0.0011833333590473682
0.0009074414494675779
0.0006363479400693338
0.00036983610740286624
0.00010767375173881873
-0.00015038624166576788
-0.00040460517262497296
-0.0006552576639449406
-0.0009026307040521789
-0.0011470226305509996
-0.0013887420894915046
-0.0016281070029871324
-0.0018654435750978127
-0.002101085362725994
-0.0023353724347828404
-0.0025686506391885897
-0.00280127099347938
-0.003033589210990534
-0.0032659653708462626
-0.003498763736361068
-0.003732352722986717
-0.003967105013638058
-0.004203397816112422
-0.004441613254373342
-0.0046821388826824885
-0.004925368308918973
-0.005171701910893077
-0.005421547627015737
-0.005675321800302051
-0.0059334500523445105
-0.006196368161569668
-0.006464522917783405
-0.006738372922714821
-0.007018389303990576
-0.007305056307735834
-0.007598871732837902
-0.007900347167865869
-0.00821000798978043
-0.008528393081969482
0.004098150213775818
0.003771076845025048
0.0034501158706802364
0.0031352007306462808
0.0028262572674203137
0.0025232011758234314
0.002225935805562601
0.001934350332581717
0.00164831830683361
0.0013676965756542411
0.00109232457367002
0.0008220239624125453
0.0005565985958088694
0.00029583478166908626
3.950180435685364e-05
-0.00021264732989905366
-0.00046087496607644465
-0.000705457734093447
-0.0009466853855690913
-0.0011848595749957562
-0.0014202926247925398
-0.0016533063110074084
-0.001884230703105387
-0.0021134030874808644
-0.0023411670002191874
-0.002567871390341113
-0.0027938699304172337
-0.0030195204871410163
-0.0032451847602752784
-0.0034712280943930106
-0.003698019464058254
-0.003925931629551221
-0.004155341456931177
-0.004386630393137237
-0.004620185083927891
-0.00485639811972198
-0.005095668891786705
-0.005338404538686517
-0.005585020960426429
-0.005835943875258293
-0.006091609891645124
-0.006352467565379799
-0.006618978409319694
-0.006891617820634986
-0.007170875887894709
-0.007457258037757972
-0.007751285478545436
-0.008053495395609983
-0.008364440851277626
0.0039507898889070345
0.003629152153131622
0.0033135704221973795
0.0030040020939082097
0.0027003950902441502
0.002402685116918893
0.0021107933231977044
0.001824624380164206
0.001544064985743214
0.0012689827947974918
0.0009992257629083783
0.0007346218833809356
0.00047497928889227853
0.00022008668226729516
-3.028594470176789e-05
-0.00027638634957676727
-0.0005184788825287672
-0.0007568431834639635
-0.0009917727817314924
-0.0012235736456650947
-0.001452562726688011
-0.0016790665393121773
-0.0019034198142893824
-0.002125964257617333
-0.0023470474432497872
-0.002567021862376343
-0.0027862441471605236
-0.003005074481970446
-0.0032238762104913367
-0.003443015642727778
-0.0036628620618214536
-0.003883787926836229
-0.004106169264183515
-0.004330386237149313
-0.004556823880005029
-0.004785872980392035
-0.0050179310910060115
-0.005253403649024498
-0.005492705179174551
-0.005736260553777045
-0.0059845062804962865
-0.006237891785841214
-0.00649688065969109
-0.006761951823256215
-0.007033600579945377
-0.007312339505623093
-0.007598699131746857
-0.007893228371948446
-0.008196494639849172
0.003800814771199132
0.0034846287154168057
0.0031744463102722914
0.002870250824052248
0.0025720138975305097
0.0022796925942771586
0.0019932269060492294
0.0017125377340401447
0.0014375253549975715
0.0011680683693712068
0.0009040231171984683
0.0006452235368103777
0.0003914814320109504
0.0001425871054353432
-0.0001016896904762199
-0.00034159853793427203
-0.0005774069294144776
-0.0008093986911026033
-0.0010378723101759288
-0.0012631392198335385
-0.0014855220926919318
-0.0017053531888989587
-0.0019229728003336242
-0.0021387278267991083
-0.002352970514391317
-0.002566057380435159
-0.0027783483436900173
-0.00299020607305496
-0.003201995562850238
-0.0034140839379704704
-0.003626840487819742
-0.003840636923952475
-0.004055847852731269
-0.00427285145102653
-0.004492030329972196
-0.004713772568991817
-0.004938472899650395
-0.005166534016303875
-0.005398367987941952
-0.005634397742999626
-0.005875058596195075
-0.00612079978359896
-0.006372085969133884
-0.006629398682531852
-0.00689323764544663
-0.007164121938958795
-0.007442590962169475
-0.007729205128012152
-0.008024546238919537
0.00364825931942276
0.0033375295331061205
0.0030327562815535003
0.0027339507727803386
0.0024411101253599236
0.0021542141873976545
0.0018732228742300225
0.0015980740486173615
0.0013286819531346111
0.001064936190365089
0.0008067012329538176
0.0005538164331048059
0.0003060964901492186
6.333232570725471e-05
-0.00017470769106793082
-0.00040827623053267363
-0.0006376452669323755
-0.0008631041857822798
-0.0010849577986387301
-0.0013035243267263785
-0.001519133410603198
-0.0017321241977075073
-0.0019428435535375575
-0.0021516444356610275
-0.002358884463003705
-0.00256492470614755
-0.002770128717864497
-0.002974861816965775
-0.003179490632851209
-0.0033843829129521913
-0.003589907590592429
-0.0037964351066269997
-0.004004337974519712
-0.004213991575216323
-0.0044257751651926094
-0.004640073078314669
-0.004857276099557856
-0.005077782986102321
-0.0053020021087744965
-0.0055303531841631726
-0.005763269064943503
-0.006001197552944829
-0.006244603196263639
-0.0064939690282352774
-0.006749798202338772
-0.007012615473141727
-0.007282968469239294
-0.00756142869986965
-0.007848592232581539
0.0034931567645224496
0.0031878754425359937
0.0028885101589473695
0.0025951023053447132
0.002307676368866491
0.002026236494198353
0.0017507636385153437
0.0014812133465731195
0.0012175141562839713
0.0009595666282838314
0.0007072429769255876
0.00046038726546913933
0.0002188161155008226
-1.7680129806531795e-05
-0.0002493358568418525
-0.00047640832056061494
-0.0006991755473643368
-0.0009179340779795929
-0.0011329966243554957
-0.0013446897105909169
-0.0015533513623674803
-0.0017593289026927202
-0.0019629769043153587
-0.0021646553413138415
-0.0023647279744056574
-0.0025635609967385366
-0.002761521959508892
-0.002958978989864844
-0.0031563003072895175
-0.00335385403906514
-0.00355200833049581
-0.00375113174127812
-0.003951593915685999
-0.004153766510996179
-0.004358024365713274
-0.004564746886555261
-0.004774319630715146
-0.0049871360575128865
-0.005203599421096536
-0.005424124773244075
-0.005649141042487635
-0.005879093152666139
-0.0061144441405621905
-0.006355677228474146
-0.006603297803409319
-0.006857835250071304
-0.007119844579996773
-0.007389907794139422
-0.007668634910985794
0.0033355386093260747
0.0030356845326612453
0.002741714200883781
0.0024537016285773906
0.002171700707901094
0.001895741483776952
0.0016258271089760468
0.001361931510225383
0.0011039977761526133
0.0008519372577343049
0.0006056293528135942
0.00036492192897874705
0.00012963232427651988
-0.00010045114667330424
-0.00032556726232834494
-0.0005459796262789124
-0.0007619741506489823
-0.0009738563791442175
-0.0011819487348114755
-0.001386587772164341
-0.0015881215062171807
-0.0017869068826399225
-0.0019833074441597542
-0.0021776912389211076
-0.002370429007150978
-0.002561892673460943
-0.002752454163685459
-0.0029424845574717133
-0.0031323535809890356
-0.003322429438150327
-0.0035130789736130263
-0.0037046681564858637
-0.0038975628700163613
-0.00409212998945134
-0.004288738727613081
-0.004487762225379895
-0.004689579362058181
-0.004894576758448725
-0.005103150943121901
-0.005315710649913458
-0.005532679211837185
-0.005754497013410562
-0.0059816239597465445
-0.00621454191664729
-0.006453757071325485
-0.006699802158286396
-0.006953238489372682
-0.007214657721049997
-0.007484683285795407
0.0031754340532643283
0.00288097147727763
0.0025923703688408226
0.002309740025145616
0.002033165941614873
0.0017627057655284113
0.001498386031886411
0.0012401997170650159
0.000988104621288656
0.0007420225667476438
0.0005018393754321112
0.00026740557037902533
3.8537726791861016e-05
-0.00018497961408359478
-0.0004033915650736527
-0.0006169701495613053
-0.0008260112985190372
-0.001030831690560392
-0.00123176553273376
-0.0014291613725569636
-0.0016233790226892284
-0.0018147866692591278
-0.002003758223787405
-0.002190670967379557
-0.0023759035248524085
-0.0025598341960445976
-0.0027428396620061933
-0.0029252940752314584
-0.0031075685356692813
-0.003290030947934189
-0.0034730462498896476
-0.0036569769984867335
-0.0038421842952780054
-0.004029029031227115
-0.004217873428134615
-0.004409082852013559
-0.004603027871907632
-0.004800086535785238
-0.005000646833115428
-0.005205109311408412
-0.005413889811265067
-0.005627422281240552
-0.005846161630018984
-0.0060705865689703875
-0.006301202393096575
-0.006538543642674519
-0.006783176581599437
-0.007035701421572851
-0.007296754213959852
0.003012869332302416
0.00272374677033399
0.0024404754904742212
0.0021632029812566934
0.0018920487200169596
0.0016270997644305465
0.001368407247294652
0.0011159838150660156
0.0008698020209378272
0.0006297936541015091
0.0003958499596590191
0.00016782267959188427
-5.447417485013317e-05
-0.00027126192440535095
-0.000482794312284839
-0.0006893542050787182
-0.0008912500262405114
-0.0010888120410999054
-0.0012823886056060642
-0.0014723424814391045
-0.0016590473085188618
-0.0018428843130421733
-0.0020242393156909948
-0.002203500091194273
-0.002381054117505041
-0.002557286740863793
-0.002732579772237627
-0.0029073105212117124
-0.0030818512654280164
-0.0032565691470909895
-0.0034318264827976133
-0.003607981468848904
-0.003785389261076664
-0.003964403405869572
-0.004145377597282673
-0.004328667733647998
-0.004514634245764912
-0.004703644667339614
-0.0048960764166859905
-0.005092319756643052
-0.005292780897078797
-0.005497885201124791
-0.005708080452342369
-0.005923840135303483
-0.006145666676544287
-0.006374094586515819
-0.0066096934360292195
-0.006853070592827928
-0.007104873635392972
0.002847866962732218
0.002564015850790323
0.0022860203036127666
0.0020140691930079606
0.0017483185588023746
0.0014888867910067306
0.001235850858964476
0.0009892436334731462
0.0007490523117128361
0.0005152179196274611
0.00028763583387915806
6.61572370525363e-05
-0.00014940860350469605
-0.000359291360271987
-0.0005637561119806313
-0.0007630993955791302
-0.0009576449871224116
-0.0011477395496863694
-0.0013337482770147172
-0.0015160506490436883
-0.0016950364006986483
-0.0018711017893591926
-0.0020446462299987776
-0.0022160693509545495
-0.002385768508162002
-0.002554136781936847
-0.0027215614682854217
-0.002888423066425328
-0.0030550947557265694
-0.0032219423485626737
-0.0033893247004443613
-0.0035575945550767422
-0.0037270997993953878
-0.0038981851019311772
-0.004071193906746005
-0.0042464707544173155
-0.004424363900876367
-0.00460522820408843
-0.004789428247401535
-0.004977341666707484
-0.005169362646202873
-0.005365905544388046
-0.005567408607904174
-0.005774337725817487
-0.0059871901709743006
-0.006206498268054313
-0.006432832919961676
-0.006666806915250664
-0.006909077929454152
0.0026804448755933935
0.0024017781011658745
0.002128988363877919
0.0018623094341525571
0.0016019367216724215
0.0013480219930040067
0.0011006693077322757
0.0008599322250446018
0.0006258122885848781
0.00039825875478010156
0.00017716949083941558
-3.760706502494229e-05
-0.00024626901563035153
-0.00044905734322132993
-0.0006462516403358907
-0.0008381654038161646
-0.0010251410604051893
-0.0012075448842506216
-0.0013857619537658104
-0.001560191278905474
-0.0017312412112314842
-0.0018993252293518764
-0.0020648581724437495
-0.002228252975481052
-0.0023899179421568734
-0.002550254575791864
-0.0027096559750362896
-0.002868505790019016
-0.0030271777257476623
-0.0031860355728735856
-0.0033454337411720977
-0.003505718267965554
-0.0036672282719127786
-0.0038302978217627237
-0.003995258189492229
-0.004162440457395319
-0.004332178448869996
-0.004504811952594168
-0.00468069020925567
-0.004860175628806959
-0.005043647704180948
-0.005231507084396389
-0.005424179765896972
-0.005622121355727289
-0.00582582135370447
-0.006035807393072322
-0.006252649370234786
-0.006476963384080589
-0.0067094153941955476
0.0025106154261850602
0.0022370257010925487
0.001969354795649636
0.0017078852651445445
0.0014528549519333724
0.0012044511741745936
0.0009628063387008869
0.0007279950362807305
0.0005000326235036524
0.0002788752437637345
6.44211929557055e-05
-0.0001434865043318887
-0.00034505647363509105
-0.0005405445118705282
-0.0007302484508157491
-0.000914502565823724
-0.0010936717277746837
-0.001268145484305657
-0.0014383322389417983
-0.0016046536754742522
-0.0017675395513548318
-0.001927422959453414
-0.002084736133494096
-0.002239906849860706
-0.0023933554579957453
-0.0025454925538073853
-0.0026967172956086777
-0.002847416350198157
-0.00299796344764525
-0.0031487195169260865
-0.0033000333704304233
-0.0034522429031466073
-0.003605676771610701
-0.003760656518055884
-0.003917499106217033
-0.004076519836549615
-0.004238035609871578
-0.004402368509327993
-0.004569849670842091
-0.004740823411633982
-0.004915651584777289
-0.00509471812497244
-0.005278433746631589
-0.005467240749910639
-0.005661617883426347
-0.0058620852040398574
-0.006069208864262224
-0.006283605746556398
-0.006505947851130012
0.0023383842603037566
0.0020697423137336773
0.0018070848624079788
0.0015507475598388713
0.0013010140323010053
0.001058109463686542
0.0008221958521252605
0.0005933690031031703
0.0003716572574457046
0.0001570218894951566
-5.0640945587984015e-05
-0.00025149688362266324
-0.00044576884665386077
-0.0006337315902036475
-0.0008157055433258725
-0.0009920501832528228
-0.0011631571774747779
-0.0013294435089605872
-0.0014913447768920246
-0.0016493088378015516
-0.0018037899223535226
-0.001955243332959239
-0.002104120798455851
-0.002250866535375644
-0.002395914041707553
-0.002539683629008159
-0.002682580682464717
-0.0028249946260140435
-0.0029672985606512374
-0.003109849538250213
-0.003252989430103898
-0.0033970463484662254
-0.0035423365801101336
-0.003689166992788852
-0.003837837878018925
-0.003988646196347055
-0.004141889193822752
-0.004297868360435157
-0.0044568937024979036
-0.004619288301131334
-0.004785393127901411
-0.004955572086181088
-0.005130217242771316
-0.005309754208666181
-0.005494647620516421
-0.005685406665294213
-0.005882590579873698
-0.006086814044728023
-0.006298752376727931
0.0021637490153597477
0.0018999015786785034
0.0016421323279790234
0.0013908348220149913
0.0011463421484638782
0.0009089198176262421
0.000678760627448656
0.00045598157092334446
0.00024062277509419652
3.264838391368527e-05
-0.0001680507707980134
-0.00036165292184599587
-0.0005483997956921621
-0.0007285899974596218
-0.0009025716426985884
-0.001070734524202491
-0.0012335020876964367
-0.0013913234661677718
-0.0015446657915967883
-0.001694006967516988
-0.0018398290486673057
-0.0019826123371574616
-0.0021228302698083727
-0.0022609451399719146
-0.0023974046700584867
-0.0025326394286678336
-0.0026670610687424337
-0.0028010613503716385
-0.0029350119033708655
-0.0030692646800076565
-0.0032041530466191924
-0.003339993463697382
-0.003477087706649673
-0.003615725583250219
-0.003756188108202198
-0.003898751099725803
-0.004043689167222461
-0.004191280062467981
-0.004341809369144814
-0.004495575506577941
-0.004652895023079251
-0.004814108152180897
-0.004979584601119864
-0.00514972953512903
-0.005324989713338189
-0.005505859722339482
-0.005692888241711602
-0.005886684262013289
-0.006087923159960804
0.0019866978302018473
0.0017274653796793965
0.0014744375746950644
0.0012280712588051794
0.0009887530279850815
0.000756791331780738
0.0005324109098063801
0.00031574964027287003
0.00010685777599162352
-9.430055098151591e-05
-0.00028784375698958156
-0.0004739674336192469
-0.0006529374881335762
-0.0008250821399744769
-0.0009907831251014126
-0.0011504664521774254
-0.0013045930324931537
-0.001453649472263141
-0.0015981392749954359
-0.0017385746564178208
-0.0018754691280291691
-0.002009330960352688
-0.0021406575954498897
-0.002269931041671428
-0.0023976142528630735
-0.002524148469685173
-0.002649951482295302
-0.0027754167610033777
-0.002900913394020519
-0.0030267867683262083
-0.003153359930137916
-0.0032809355646357397
-0.003409798539657498
-0.003540218964292914
-0.0036724557199956723
-0.0038067604284169262
-0.003943381826160594
-0.004082570521657947
-0.0042245841130252385
-0.004369692647846084
-0.004518184406097393
-0.004670371985756525
-0.00482659866686895
-0.004987245023929672
-0.0051527357482721164
-0.005323546631720633
-0.005500211650019793
-0.005683330069484793
-0.005873573482913827
0.0018072076321005368
0.001552381849099893
0.0013039254376982223
0.0010623645719480164
0.0008281438214428061
0.0006016173424212255
0.0003830428485868155
0.0001725784424520295
-2.9717737706866365e-05
-0.00022388521597500183
-0.000410056481930883
-0.0005884502366166281
-0.0007593629730089793
-0.0009231593117142367
-0.0010802615180597304
-0.0012311386112761735
-0.0013762954438193374
-0.0015162620834330862
-0.0016515837768529347
-0.0017828117164176878
-0.0019104947731274965
-0.0020351723049959053
-0.0021573681002427497
-0.0022775854725391453
-0.0023963034909699685
-0.002513974300828118
-0.0026310214725021805
-0.002747839303883875
-0.0028647929959953813
-0.00298221962086714
-0.00310042980399455
-0.0032197100499053166
-0.0033403256474869372
-0.003462524100877405
-0.0035865390411472797
-0.003712594583050323
-0.0038409100992655917
-0.00397170539137446
-0.004105206241969285
-0.004241650335518231
-0.004381293536717512
-0.004524416513895284
-0.004671331691476752
-0.004822390509500403
-0.004977990959629787
-0.005138585355986297
-0.005304688285404119
-0.005476884665353732
-0.0056558378187614305
0.0016252421626116176
0.0013745830628470943
0.0011305027062471912
0.0008936034203019111
0.0006643926872089249
0.00044327328920963985
0.00023053677857248073
2.6360354400525865e-05
-0.00016919292826799576
-0.0003561708341615656
-0.0005347258454455831
-0.0007051067102774849
-0.0008676481315295966
-0.001022759113613222
-0.001170910484355506
-0.0013126220822480962
-0.001448450052364168
-0.0015789746327196667
-0.0017047887427777898
-0.0018264876126622863
-0.0019446596201630126
-0.0020598784364992944
-0.0021726965236921712
-0.002283639977887268
-0.0023932046747371614
-0.0025018536449038543
-0.0026100155892071833
-0.002718084432845373
-0.002826419815139071
-0.002935348413992584
-0.0030451660113269344
-0.0031561402158033214
-0.0032685137710444026
-0.0033825083902547584
-0.0034983290707833806
-0.00361616885406537
-0.0037362140069708144
-0.003858649609448206
-0.0039836655401495405
-0.004111462856217392
-0.004242260565429104
-0.004376302788290716
-0.004513866304358689
-0.004655268470980377
-0.0048008754937237524
-0.0049511110159779215
-0.005106464980515715
-0.005267502698175178
-0.005434874038201629
0.001440749695589466
0.0011939823694424659
0.0009540552325137744
0.0007216544979323954
0.0004973560348075605
0.000281614311703246
7.47553361016666e-05
-0.0001230263312308015
-0.000311666604146537
-0.0004912272344703515
-0.0006618879493539044
-0.0008239359088323978
-0.0009777530964240047
-0.0011238022815909096
-0.001262612181683062
-0.0013947624084509396
-0.001520868717668183
-0.0016415689977743561
-0.0017575103424674605
-0.00186933745979096
-0.001977682582205294
-0.00208315696272611
-0.0021863439743163206
-0.0022877937748408527
-0.0023880194583898277
-0.0024874945850913086
-0.002586651964454855
-0.0026858835601954664
-0.0027855413855629
-0.0028859392655884615
-0.002987355354598247
-0.0030900353122343335
-0.003194196057688288
-0.0033000300387323947
-0.0034077099684971107
-0.0035173939980589417
-0.0036292313062154316
-0.0037433680989173504
-0.003859954019404567
-0.003979148975940067
-0.004101130397014367
-0.0042261009238867275
-0.004354296547278501
-0.004485995188891631
-0.0046215257191417475
-0.004761277390049459
-0.004905709646591386
-0.005055362260927926
-0.005210865711750737
0.0012536603899561752
0.0010104712841792554
0.0007744445754623366
0.0005463591609648245
0.00032686537425238166
0.00011647254840702406
-8.445859391167237e-05
-0.0002757186552368347
-0.0004572475610044903
-0.0006291282361786457
-0.0007915765327735323
-0.0009449281058718055
-0.0010896230076390357
-0.0012261887885527218
-0.0013552228681791732
-0.0014773748728528907
-0.0015933295446921088
-0.001703790716138413
-0.0018094667266761585
-0.001911057542259599
-0.002009243730158608
-0.002104677347327954
-0.002197974721960559
-0.0022897110468238033
-0.0023804166590977
-0.0024705748534775834
-0.0025606210613093004
-0.002650943226151937
-0.0027418832129486453
-0.002833739101537971
-0.002926768233372394
-0.003021190901129782
-0.0031171945928222394
-0.0032149387237491237
-0.003314559810225444
-0.0034161770577079836
-0.00351989835221056
-0.003625826657379358
-0.003734066830041599
-0.0038447328742948483
-0.003957955658164175
-0.004073891117459268
-0.004192728968680677
-0.004314701946622208
-0.004440095572680991
-0.0045692584467936365
-0.004702613039343051
-0.004840666939287808
-0.004984024491090186
0.0010638832063060918
0.0008239158632820168
0.000591504091312596
0.0003675295228006102
0.00015272371000434742
-5.234589479051824e-05
-0.0002472840986757381
-0.0004318702211768555
-0.0006060547057349618
-0.0007699506247272943
-0.0009238208261032159
-0.0010680616151513816
-0.001203183939830402
-0.001329793055987201
-0.0014485675983806402
-0.0015602388870101106
-0.0016655711698578262
-0.0017653433569486282
-0.0018603326495592694
-0.0019513003232591091
-0.0020389797923908333
-0.002124066971993065
-0.0022072128638233966
-0.0022890182266755623
-0.0023700301465070933
-0.002450740296721668
-0.0025315846703007905
-0.0026129445700778346
-0.0026951486580303746
-0.0027784758860127552
-0.002863159156214889
-0.0029493895875982515
-0.0030373212928611684
-0.003127076597763831
-0.003218751659908037
-0.003312422466629751
-0.0034081512110589046
-0.003505993061348453
-0.0036060033504184547
-0.003708245222215495
-0.003812797775414538
-0.003919764746689154
-0.004029283773140775
-0.0041415362672100955
-0.004256757927401003
-0.004375249894415928
-0.004497390544822594
-0.004623647893112828
-0.004754592547916672
0.0008713022992000302
0.0006341524526664311
0.00040503436192215053
0.00018494392065680418
-2.5298591896840555e-05
-0.00022506434122766816
-0.00041392461571764655
-0.0005916523468674252
-0.0007582168592517036
-0.0009137725740766059
-0.001058642647489701
-0.001193298691294635
-0.001318337797418522
-0.0014344580750722561
-0.0015424338244396235
-0.0016430913305592655
-0.0017372860851776828
-0.0018258820515583084
-0.001909733394092135
-0.001989668914305442
-0.0020664792769017355
-0.0021409069794345904
-0.0022136389193366524
-0.0022853013418534067
-0.0023564569094961137
-0.002427603614211127
-0.0024991752532191186
-0.0025715432039422233
-0.0026450192583874522
-0.0027198593090566534
-0.0027962677137676056
-0.002874402203186875
-0.0029543792304885866
-0.0030362796959904764
-0.003120155009941422
-0.003206033483259506
-0.0032939270586149205
-0.0033838384126640697
-0.0034757684744334966
-0.003569724414842157
-0.0036657281681866313
-0.0037638255481519944
-0.003864096018587268
-0.003966663172931761
-0.004071705965820113
-0.0041794707260313785
-0.0042902839615829025
-0.004404565945390987
-0.004522845043485532
0.0006757727749469658
0.0004409826800192418
0.00021479782706092243
-1.6583639941454564e-06
-0.00020746854643538537
-0.00040193933923980685
-0.0005846104448703655
-0.0007552550535944481
-0.0009138720960491127
-0.0010606713246876787
-0.0011960525146846451
-0.001320580262351552
-0.0014349559242326036
-0.0015399881945949382
-0.001636563683337896
-0.0017256186556317932
-0.001808112855405451
-0.0018850060819886492
-0.0019572379437828727
-0.0020257109907162625
-0.002091277238934224
-0.002154727952063727
-0.0022167864345237626
-0.002278103521490528
-0.002339255412794214
-0.002400743488521144
-0.0024629957562973294
-0.0025263696082038524
-0.0025911556036858144
-0.002657582039150369
-0.0027258201115831285
-0.002795989529706472
-0.0028681644699967285
-0.002942379814971148
-0.003018637646768775
-0.0030969139997777256
-0.0031771659017845594
-0.003259338753868364
-0.0033433741151523283
-0.00342921796971625
-0.0035168295596035085
-0.0036061908700504366
-0.0036973168509055673
-0.003790266451739299
-0.003885154537410132
-0.003982164735863852
-0.004081563250711115
-0.004183713647670034
-0.004289092596260369
0.00047711567626982504
0.0002441675257819978
2.051245451607786e-05
-0.0001925832734851647
-0.00039409599763390313
-0.0005832648881840645
-0.0007596013500066126
-0.0009228877715999305
-0.0010731664275503774
-0.001210719865412234
-0.0013360444796470528
-0.0014498191811396551
-0.0015528711150945892
-0.0016461402826094661
-0.0017306447124699688
-0.0018074475456357464
-0.0018776270717457775
-0.0019422504273830764
-0.002002351356110453
-0.0020589121591604335
-0.002112849744246586
-0.0021650055125611804
-0.0022161387095040556
-0.002266922798048236
-0.002317944387544943
-0.002369704256837732
-0.0024226200404147274
-0.0024770301922916356
-0.0025331988978053027
-0.002591321663200641
-0.002651531372783504
-0.002713904660634231
-0.002778468496550085
-0.0028452069329229016
-0.0029140680001643673
-0.0029849707729590266
-0.00305781265821254
-0.0031324769783571266
-0.003208840941002357
-0.0032867840980871643
-0.003366197404952753
-0.0034469929923002865
-0.003529114761938505
-0.003612549910627108
-0.003697341475206839
-0.003783601976595094
-0.0038715282201427365
-0.003961417285326008
-0.004053683708833758
0.00027511201849145933
4.3420265978574846e-05
-0.0001781557586476648
-0.00038818920350666697
-0.0005855398814626871
-0.000769377118354328
-0.0009391891761756886
-0.0010947795887099564
-0.0012362515673014149
-0.0013639822873777688
-0.0014785893088365715
-0.0015808916007055886
-0.0016718676441217365
-0.0017526129099554597
-0.0018242986939236267
-0.0018881338937342684
-0.001945330878985576
-0.001997076177613843
-0.0020445063150467645
-0.002088688815164866
-0.0021306081164467767
-0.0021711559741311674
-0.002211125805072746
-0.0022512103770807
-0.00229200223757477
-0.0023339963055272646
-0.0023775941047295968
-0.0024231091857242863
-0.0024707733603831633
-0.002520743451075145
-0.0025731083313740993
-0.002627896104527176
-0.002685081327855797
-0.002744592245206401
-0.002806318035449222
-0.002870116123174511
-0.0029358196286889474
-0.003003245058785131
-0.0030722003581198226
-0.0031424934538772376
-0.003213941434082976
-0.0032863805027140633
-0.0033596768527477533
-0.0034337385915541585
-0.0035085288415686033
-0.0035840801229633096
-0.0036605101041012333
-0.0037380387799624964
-0.0038170071086065793
6.949565397544599e-05
-0.00016160197539531046
-0.00038160171206110677
-0.0005888955045509382
-0.0007822154273189816
-0.0009606594338224146
-0.0011237003629828608
-0.001271178796702143
-0.0014032814226543587
-0.001520507372103446
-0.0016236255235619265
-0.0017136259772755954
-0.0017916688370289207
-0.0018590331363543809
-0.0019170682835414985
-0.0019671498458479902
-0.0020106409146021876
-0.0020488597439431585
-0.002083053875735775
-0.0021143805746450892
-0.0021438931090444913
-0.0021725322226141246
-0.002201122037564014
-0.0022303695983234804
-0.0022608672875560967
-0.002293097408229805
-0.0023274383117585333
-0.0023641715510399307
-0.0024034896394048294
-0.0024455040955513527
-0.0024902535462238765
-0.002537711740313184
-0.002587795399198879
-0.0026403718884949676
-0.0026952667464725036
-0.002752271145242416
-0.002811149393317905
-0.002871646613435176
-0.0029334967483680627
-0.0029964310606041267
-0.003060187299629584
-0.003124519713482217
-0.003189210079280573
-0.0032540799206140364
-0.0033190040679178107
-0.003383925701185897
-0.003448872992585575
-0.0035139774398227075
-0.0035794939496801986
-0.0001400553212654379
-0.00037130839864445153
-0.0005902918797694584
-0.000795192511254289
-0.0009846024350447027
-0.0011575481013596615
-0.0013134981690693902
-0.0014523513888317838
-0.00157440683082442
-0.0016803198362759092
-0.0017710476752945334
-0.0018477890773063166
-0.0019119216104715956
-0.0019649404045025765
-0.0020084010372607526
-0.0020438686405486583
-0.0020728745138029626
-0.002096880834803765
-0.0021172534692830407
-0.002135242428921243
-0.002151969213041274
-0.002168420082688716
-0.0021854442373473015
-0.002203755870878319
-0.0022239391506252183
-0.0022464552703406436
-0.002271650855543157
-0.0022997671350245205
-0.0023309494243936926
-0.002365256590158491
-0.002402670272172107
-0.0024431037367355357
-0.002486410312202314
-0.0025323914245065082
-0.002580804303089372
-0.002631369469904929
-0.002683778157179559
-0.002737699824836036
-0.002792789967161133
-0.002848698411270563
-0.002905078317768539
-0.002961596096988435
-0.003017942452374134
-0.0030738447558016357
-0.0031290809477398096
-0.0031834951379253462
-0.0032370150595979613
-0.003289671502399824
-0.0033416198161115712
-0.00035392898784451093
-0.0005861868538527271
-0.000804777149098948
-0.001007653410937434
-0.0011932547744887972
-0.0013605382250400644
-0.0015089843256513233
-0.0016385780200500952
-0.0017497678849136243
-0.0018434084709408813
-0.0019206910522442007
-0.0019830682088857743
-0.0020321772793856097
-0.002069766966690233
-0.002097630409325636
-0.0021175469806439364
-0.002131234071266119
-0.0021403092280235085
-0.002146262316644311
-0.0021504368631265914
-0.0021540194034019976
-0.002158035509126629
-0.0021633511270051746
-0.002170677935257225
-0.0021805815510009333
-0.002193491588536333
-0.0022097127487911185
-0.0022294362986257713
-0.002252751464804085
-0.00227965641522844
-0.0023100686269482834
-0.002343834546319541
-0.002380738532916947
-0.002420511147630651
-0.002462836899411562
-0.002507361606957033
-0.002553699563592665
-0.0026014407176682894
-0.0026501580984632025
-0.002699415729936129
-0.002748777282275655
-0.0027978157143230473
-0.00284612415845123
-0.00289332829308267
-0.0029391004362853412
-0.002983175576415198
-0.003025369532349262
-0.003065599406523997
-0.003103906459190897
-0.0005725923296471189
-0.0008068188726540401
-0.001025708339495661
-0.001226948329085046
-0.0014088112572391703
-0.00157018997506082
-0.0017105996949053175
-0.0018301487420809767
-0.0019294829609925943
-0.0020097101691120486
-0.00207231178574702
-0.002119048706957314
-0.0021518677937754334
-0.0021728141869856664
-0.0021839532731027372
-0.0021873046988795048
-0.002184789519458039
-0.0021781904694742837
-0.002169124516685333
-0.0021590263004076307
-0.0021491407475667367
-0.0021405230544286422
-0.0021340442717147495
-0.0021304008852896864
-0.002130127000543113
-0.0021336079812393598
-0.0021410946375273604
-0.002152717286074756
-0.0021684992081340247
-0.0021883692044435063
-0.0022121730887517538
-0.0022396840764474443
-0.0022706121146844546
-0.00230461226948922
-0.002341292337613418
-0.00238021989001045
-0.0024209289828903205
-0.0024629267938298463
-0.0025057004562088134
-0.002548724376494095
-0.0025914683262063185
-0.002633406603864401
-0.002674028561485131
-0.0027128507846992805
-0.002749431204476932
-0.0027833854011168613
-0.0028144053370598027
-0.0028422807241654108
-0.002866923193847945
-0.0007966068945588073
-0.0010338981250381171
-0.0012538550617503669
-0.001453861088211196
-0.0016320080182046642
-0.0017871348255281139
-0.001918823300328703
-0.00202735454477836
-0.002113633237802148
-0.0021790885145803046
-0.0022255610365060075
-0.002255185472734624
-0.002270276412898885
-0.0022732239892932072
-0.0022664035187296844
-0.002252101548163819
-0.002232458999872948
-0.0022094307756865715
-0.0021847602356013327
-0.0021599663968879194
-0.0021363414513521275
-0.0021149561986026303
-0.002096671166868503
-0.002082151472035342
-0.0020718837945666625
-0.002066194191554401
-0.0020652657795573216
-0.0020691556068751053
-0.002077810274063334
-0.0020910800576706204
-0.002108731447244258
-0.002130458124706691
-0.0021558905042882714
-0.002184604016411837
-0.0022161263658699165
-0.0022499440281415067
-0.0022855082716819256
-0.0023222410114685024
-0.0023595408120745814
-0.002396789368338384
-0.002433358798795575
-0.002468620091316355
-0.0025019530411743707
-0.002532758018016265
-0.0025604698886516064
-0.0025845744060290082
-0.0026046273502918216
-0.002620276675076555
-0.002631287871732349
-0.0010266482177002587
-0.0012682532419890508
-0.0014901287618575149
-0.001689309187654607
-0.0018636925060932959
-0.002012081375850603
-0.002134168789555621
-0.0022304743389768324
-0.0023022410650556362
-0.0023513051827545595
-0.002379951578781337
-0.0023907670988854938
-0.0023865016660467838
-0.0023699446739117
-0.0023438213333332276
-0.002310711076917522
-0.002272987987854571
-0.0022327816317103052
-0.0021919556461429245
-0.0021521009237274458
-0.0021145401067719
-0.0020803402865300982
-0.002050331155114306
-0.0020251263067072867
-0.0020051458573707368
-0.001990639003602794
-0.0019817055413174148
-0.001978315706197265
-0.0019803279708333794
-0.001987504647730849
-0.0019995253078098837
-0.0020159981406572755
-0.002036469464777646
-0.0020604316520123553
-0.0020873297674928668
-0.0021165672509822903
-0.002147510981891358
-0.002179496082013614
-0.002211830819354353
-0.002243801984560541
-0.0022746811187069893
-0.0023037319770990577
-0.0023302196171949563
-0.002353421498084457
-0.0023726409722561737
-0.0023872235356978827
-0.0023965761781026412
-0.0024001901402689735
-0.0023976673410276844
-0.0012635301100414748
-0.0015108762448804644
-0.0017356110330919439
-0.0019343676532078968
-0.0021048390960889778
-0.0022458200472224056
-0.002357176938560881
-0.0024397554557223887
-0.0024952399427779735
-0.00252598185299132
-0.0025348146530956694
-0.0025248708078800244
-0.0024994133030296203
-0.0024616903296406792
-0.002414817900274166
-0.0023616917734285508
-0.0023049274109541887
-0.002246824876788526
-0.002189354560304448
-0.0021341592412352506
-0.0020825681355198158
-0.0020356190021334243
-0.001994085002656198
-0.0019585036743288813
-0.0019292060252307924
-0.0019063443396912898
-0.0018899177702942326
-0.0018797951843984445
-0.001875735033566809
-0.0018774022353293743
-0.0018843822124407703
-0.001896192339508239
-0.0019122911136286447
-0.0019320854056649184
-0.0019549361710996874
-0.001980163011087034
-0.002007047980607357
-0.0020348390451317908
-0.0020627535921812767
-0.0020899824106915127
-0.002115694559196711
-0.0021390435526519452
-0.002159175305502095
-0.0021752382729890996
-0.0021863962308314305
-0.0021918441223058166
-0.0021908273787785426
-0.0021826650831784228
-0.002166777295644684
-0.0015082352944689459
-0.0017629582317373743
-0.0019915885920158763
-0.0021902975103720856
-0.002356566170892929
-0.0024892255019430334
-0.0025884021395565747
-0.002655384942999193
-0.002692433066714779
-0.002702549617308406
-0.0026892444165845016
-0.0026563061065760837
-0.002607598837156691
-0.00254689316834744
-0.002477735509846551
-0.0024033560219848984
-0.0023266117099346407
-0.0022499594844720182
-0.002175453083692688
-0.0021047577025545116
-0.0020391766908435943
-0.0019796855112419465
-0.0019269691047024175
-0.0018814597549094945
-0.0018433733943401184
-0.0018127430103086171
-0.0017894483791689383
-0.0017732417882447699
-0.001763769716016668
-0.0017605906536805258
-0.0017631893876381075
-0.0017709881429560648
-0.0017833550294068592
-0.001799610248106799
-0.0018190305185549968
-0.0018408521808424214
-0.0018642734214273995
-0.0018884560667657702
-0.001912527389304454
-0.0019355823756761967
-0.001956686917032671
-0.0019748823949425065
-0.0019891921507680516
-0.0019986303386411164
-0.002002213668050354
-0.0019989765372057933
-0.00198799003857697
-0.0019683852801586493
-0.0019393814089860573
-0.0017619544012434651
-0.0020259345334613654
-0.002259596721186835
-0.002458579727623627
-0.002620154210185254
-0.0027432549385046946
-0.0028283898279384025
-0.002877447815410914
-0.0028934363005490397
-0.0028801819561655763
-0.002842026687039286
-0.0027835447509097985
-0.0027092992864825327
-0.0026236483717390355
-0.002530603521412199
-0.002433737965036101
-0.002336138373576954
-0.0022403917984225264
-0.0021485991073773815
-0.0020624067230869455
-0.001983049583120372
-0.00191139961529232
-0.0018480154184789613
-0.0017931901099400988
-0.0017469953698616356
-0.0017093205597126966
-0.001679906423402433
-0.0016583733272532847
-0.0016442442915701877
-0.0016369632482998858
-0.001635909057553002
-0.0016404058569792282
-0.0016497303229940086
-0.0016631164074214083
-0.0016797580886977123
-0.0016988106513510098
-0.001719390986311034
-0.0017405773909400166
-0.0017614093431489314
-0.001780887728930522
-0.0017979760163357866
-0.001811602889451834
-0.0018206668802383807
-0.0018240435598551735
-0.0018205958688853052
-0.0018091881713180047
-0.001788704603847835
-0.0017580722544917882
-0.0017162896397378141
-0.0020261360842266235
-0.002301542335133855
-0.0025414735108050188
-0.0027409555231638454
-0.002897063886473903
-0.0030089393262217427
-0.003077640338208256
-0.003105866815998056
-0.003097599962132047
-0.003057706205433053
-0.002991547977322255
-0.002904634390741564
-0.00280233292145777
-0.002689651568241992
-0.0025710913490236834
-0.002450562183226278
-0.002331351283359528
-0.0022161317073155122
-0.0021069990512521414
-0.00200552570986829
-0.0019128241148009383
-0.0018296124553378
-0.0017562783176296067
-0.0016929373085478143
-0.0016394850120045774
-0.0015956415721926423
-0.001560988854718344
-0.001535000559982385
-0.001517065910361784
-0.0015065076542341363
-0.0015025951670649684
-0.0015045534147225398
-0.0015115685005909
-0.0015227904626929634
-0.0015373339312864179
-0.0015542772086171996
-0.0015726602951577281
-0.0015914823631283728
-0.001609699169360622
-0.0016262209054400262
-0.0016399110023905539
-0.0016495864376373237
-0.001654020129980241
-0.0016519460485430876
-0.0016420676970246156
-0.001623070656331549
-0.0015936398671518304
-0.0015524823001231286
-0.0014983555886423083
-0.002302552093281812
-0.0025918948545877937
-0.0028394279154524277
-0.0030394738639203042
-0.003188952223000363
-0.003287362931642765
-0.0033365524971499874
-0.003340315989549661
-0.0033039018481279825
-0.0032334870457325846
-0.0031356801223571106
-0.003017093255936557
-0.002884006383829104
-0.0027421300022501365
-0.0025964607849651637
-0.0024512162788207672
-0.0023098312843336283
-0.0021749981515434133
-0.002048734976365695
-0.0019324685407233165
-0.0018271220180734963
-0.0017332004572622635
-0.0016508695926506292
-0.001580025512263071
-0.0015203541634878082
-0.0014713806607591084
-0.001432508976406937
-0.0014030529386517658
-0.0013822596118572075
-0.0013693261598543074
-0.0013634112435169238
-0.0013636419148085333
-0.0013691168659133307
-0.0013789067899043148
-0.0013920525186041158
-0.0014075615295305738
-0.0014244033599625713
-0.001441504433310814
-0.001457742791144516
-0.0014719432326730716
-0.0014828733907588168
-0.001489241317225637
-0.001489695206472838
-0.0014828259491957707
-0.0014671732686120237
-0.0014412362383068728
-0.0014034889995715033
-0.0013524024723030464
-0.001286472775123157
-0.002593382699484982
-0.0028995777252169286
-0.0031561255129271375
-0.0033565466803117568
-0.0034976832470726797
-0.0035796237901775697
-0.0036053370081985184
-0.003580097181214055
-0.003510801352694024
-0.00340527394154355
-0.0032716352681923175
-0.0031177836772551667
-0.002951013695046383
-0.0027777700337533458
-0.0026035216907949817
-0.0024327320791860704
-0.0022688987989918637
-0.002114638451280566
-0.001971795962879188
-0.0018415627704845578
-0.0017245929323701347
-0.001621110265295718
-0.001531002745234572
-0.0014539026752050759
-0.0013892526334880126
-0.0013363581323000695
-0.0012944284002398242
-0.001262606888857029
-0.0012399931026371921
-0.0012256572421966636
-0.0012186489880062629
-0.0012180015730633986
-0.0012227321203177668
-0.0012318390673960317
-0.0012442973739685975
-0.0012590521086894083
-0.0012750109434765539
-0.0012910360422914088
-0.0013059358183534556
-0.0013184570466127365
-0.001327277855842128
-0.0013310021848850495
-0.0013281563669730462
-0.0013171885985612808
-0.0012964721448344846
-0.0012643132179507716
-0.0012189645163720175
-0.0011586454114831946
-0.00108156968967546
-0.0029013301743777142
-0.0032277754561755648
-0.003494796930868887
-0.003695011527296437
-0.0038253267896114843
-0.0038867635037730004
-0.003883884823039547
-0.0038239641207986983
-0.003716041270371768
-0.003570002788460147
-0.0033957859320875843
-0.003202763490776245
-0.002999325789198977
-0.002792646107568357
-0.0025885975689245396
-0.002391782363344178
-0.0022056350392563396
-0.0020325671920102366
-0.001874128436066845
-0.0017311661400182619
-0.001603972959898177
-0.0014924163031251898
-0.0013960474847651214
-0.0013141907062893914
-0.0012460133775032654
-0.0011905799928466146
-0.0011468919987690541
-0.0011139160298393284
-0.0010906026766929547
-0.001075897665464079
-0.0010687470305576346
-0.0010680975823847416
-0.001072893725727525
-0.0010820714798727704
-0.001094550390063849
-0.0011092238996775958
-0.0011249486710870338
-0.0011405332974803312
-0.0011547268354844056
-0.0011662076075560704
-0.001173572772721461
-0.0011753292435016938
-0.0011698866338870073
-0.0011555530532517816
-0.0011305347040233144
-0.0010929403788121766
-0.0010407920586176511
-0.0009720428530945319
-0.0008846034601584646
-0.0032297714836828917
-0.0035804390630468294
-0.003859375171976695
-0.004058199668458922
-0.004174134307495622
-0.004209647953767062
-0.004171568455319779
-0.004069872618477608
-0.003916379925271819
-0.003723540662782701
-0.003503445829964265
-0.0032671170704119982
-0.0030240768185206034
-0.0027821601361093387
-0.002547510987766443
-0.002324702817771944
-0.0021169304042328056
-0.00192623169479118
-0.001753710785379321
-0.0015997441446491522
-0.001464160683314928
-0.0013463922404806997
-0.0012455948667489877
-0.0011607434370162033
-0.0010907031229247105
-0.0010342815089280817
-0.0009902649553949865
-0.0009574424102357683
-0.0009346193843343953
-0.0009206243174514628
-0.0009143091144990234
-0.0009145452474642254
-0.0009202165017360223
-0.0009302091952830757
-0.0009434005094359071
-0.0009586454341127884
-0.0009747627416253068
-0.0009905203562210405
-0.001004620477373555
-0.0010156848414907271
-0.0010222405690372763
-0.0010227071433339258
-0.001015385204850075
-0.0009984480194395046
-0.0009699366828722494
-0.0009277603379401894
-0.0008697028696287301
-0.00079343765773221
-0.0006965519446181789
-0.00358296664306057
-0.003962510663724453
-0.004254669383017915
-0.0044500039376235145
-0.004546472388116122
-0.00454876968379303
-0.004466943451714552
-0.004314627161467776
-0.004107231929215131
-0.003860362310450562
-0.00358861022070032
-0.003304772832554123
-0.0030194593222815447
-0.0027410057876595764
-0.0024756034377025503
-0.0022275523116230297
-0.001999570819117248
-0.0017931122225073315
-0.0016086579463885121
-0.001445972193769296
-0.001304312471826538
-0.0011825969204227148
-0.0010795327444407705
-0.0009937115003284362
-0.0009236772257358028
-0.0008679729699225154
-0.0008251705408664524
-0.0007938874526239141
-0.000772794256238489
-0.0007606147292193097
-0.0007561208041737544
-0.0007581236373251851
-0.0007654618426952628
-0.0007769876339722356
-0.0007915514093473144
-0.0008079851720623199
-0.0008250850904309576
-0.000841593457586616
-0.000856180307874016
-0.000867424981407211
-0.0008737980019895147
-0.0008736437507679273
-0.0008651645853447604
-0.0008464072774275327
-0.0008152529205189968
-0.0007694117762905156
-0.0007064248431329911
-0.0006236741718953637
-0.0005184040258338629
-0.003966347425595325
-0.004380227755275919
-0.004686583552950343
-0.004874933487543035
-0.0049446803806077605
-0.004903925388316556
-0.0047673014811499305
-0.00455338363999039
-0.004282192066483606
-0.0039731494604495765
-0.0036436613574231183
-0.0033083229871812402
-0.0029786493508468814
-0.0026631798816952406
-0.002367809959350372
-0.0020962283093686135
-0.0018503747214000145
-0.0016308656630883121
-0.0014373612797336094
-0.0012688650101351437
-0.0011239577606355685
-0.0010009741029816978
-0.0008981300708405214
-0.0008136122235002964
-0.0007456366989881912
-0.00069248561039029
-0.0006525267047578637
-0.0006242208861967288
-0.0006061210798837743
-0.0005968649983207203
-0.0005951636513697733
-0.0005997868911442467
-0.0006095468724020489
-0.000623280011462321
-0.0006398278186042702
-0.0006580168417243751
-0.0006766378783488042
-0.0006944245784945707
-0.0007100315657209005
-0.000722012245450758
-0.0007287965506089233
-0.0007286690030155613
-0.00071974765896754
-0.0006999647766430389
-0.0006670504049042375
-0.000618520543366835
-0.0005516720214898962
-0.0004635866964389779
-0.0003511478273152957
-0.004386924238030075
-0.004841540129347732
-0.0051623880857136414
-0.005338128242547466
-0.00537079385695392
-0.005273694276656929
-0.005068003879716544
-0.004778955542910218
-0.00443241579865181
-0.004052312201859271
-0.0036590580379933695
-0.003268876038109221
-0.002893795802897464
-0.0025420731585004113
-0.0022188154705291337
-0.001926657714721499
-0.0016663944900216351
-0.0014375209166706407
-0.0012386676430909422
-0.0010679340678105102
-0.0009231330719869577
-0.0008019636013539659
-0.0007021270474991646
-0.0006214013690830182
-0.0005576843487351581
-0.0005090148811835969
-0.00047357899736970993
-0.00044970553246632267
-0.0004358549347859633
-0.0004306036388292689
-0.0004326256284018573
-0.00044067223620068013
-0.00045355081409383796
-0.000470102622872573
-0.0004891801002352911
-0.0005096235477891203
-0.0005302372148877285
-0.0005497647371154532
-0.0005668639023667377
-0.0005800807644024963
-0.0005878232050953516
-0.0005883341736118292
-0.0005796650264145997
-0.0005596496908953502
-0.0005258808170349877
-0.0004756896902712582
-0.00040613243136283783
-0.0003139857958334713
-0.0001957564882321683
-0.004853870388621076
-0.005356687535495373
-0.005691047465251075
-0.005845277759641224
-0.0058260322789804725
-0.005654599149916683
-0.005361493297339632
-0.0049808592026002445
-0.004545836620902114
-0.004085450862551301
-0.0036230523983522382
-0.003175995458203791
-0.002756126289337581
-0.0023706846754047517
-0.002023326099965557
-0.0017150854994457724
-0.0014451953043756295
-0.001211731799922693
-0.0010120984701498595
-0.0008433707268434183
-0.0007025306904271458
-0.0005866189722213977
-0.0004928261792157586
-0.000418542067003886
-0.00036137584622564223
-0.0003191574634936918
-0.00028992678617408355
-0.0002719154406985412
-0.00026352445848212835
-0.0002632997419256544
-0.0002699065619974142
-0.0002821037473639196
-0.00029871785336894885
-0.0003186173561154776
-0.00034068676585276986
-0.00036380046914422787
-0.00038679607308487324
-0.00040844702473238903
-0.00042743430628128243
-0.000442317056323617
-0.00045150204041684294
-0.00045321200142685314
-0.00044545309148461
-0.0004259818782517133
-0.00039227290817291094
-0.0003414885803892237
-0.00027045416836235514
-0.0001756421240984296
-5.3171013188940686e-05
-0.005379378766987665
-0.0059390083655783965
-0.006283591828309898
-0.006402333695270421
-0.0063098730140818925
-0.006039763333274526
-0.005635841479305051
-0.005144029663848904
-0.004606224973704125
-0.004056816001541943
-0.003521517700711993
-0.003017811295908798
-0.002556244391237139
-0.002142016204661818
-0.001776492842291372
-0.0014584821589120555
-0.001185220230295327
-0.0009530879855603512
-0.0007581043808503503
-0.0005962480286418239
-0.00046365404231448956
-0.0003567239142129794
-0.0002721770546004025
-0.0002070646794155792
-0.00015876046418352233
-0.0001249376953742186
-0.00010353927906813984
-9.274460889480488e-05
-9.09356833724631e-05
-9.666378278296722e-05
-0.00010861730604411202
-0.00012559091171081976
-0.00014645582207861718
-0.000170130979182892
-0.00019555464881117895
-0.0002216560290337205
-0.00024732641732555516
-0.0002713895141958564
-0.0002925704827483194
-0.0003094634351620412
-0.0003204970737114843
-0.0003238982801382767
-0.0003176535512735418
-0.0002994683932954628
-0.00026672524449490587
-0.00021644137764632865
-0.00014522969604455205
-4.926737263478975e-05
7.572046614733041e-05
-0.005979947566698923
-0.006606080916954783
-0.006953478690431891
-0.007014794574950172
-0.006818399595184332
-0.00641677275953002
-0.0058726499489258534
-0.005247159973312706
-0.0045921545146297045
-0.003946896950524738
-0.0033380342744188767
-0.0027814355200447586
-0.002284717119121529
-0.0018497110712483887
-0.0014745226448967948
-0.0011550834850210254
-0.0008862409204210588
-0.000662475317286703
-0.00047834293064226777
-0.00032872780451256856
-0.0002089670831372653
-0.00011489612884755737
-4.284534632886805e-05
1.0390176104893567e-05
4.7594725926247694e-05
7.118144452946881e-05
8.324238732062422e-05
8.559655547163078e-05
7.983469374250873e-05
6.736051224828787e-05
4.942850435468715e-05
2.7178826249883714e-05
1.6698597810199667e-06
-2.609084804477274e-05
-5.511655534730375e-05
-8.441150435158085e-05
-0.00011294064222141381
-0.0001395982661277495
-0.00016317503227787633
-0.0001823228239460073
-0.00019551701232670832
-0.00020101565329792848
-0.00019681515124082838
-0.00018060195707648996
-0.0001497001342613269
-0.00010101544990785694
-3.097843520738497e-05
6.450813394820454e-05
0.00019010794252016794
-0.006678360616414622
-0.007381338849130201
-0.007716785879353483
-0.0076861193561809545
-0.007341377388980025
-0.006764306702811194
-0.0060441030249488315
-0.005260701934499011
-0.0044760722248181565
-0.003732393661782449
-0.003054470443239428
-0.002453861333876532
-0.0019330682740577997
-0.0014889980024089275
-0.0011154978341252407
-0.0008050587845653818
-0.0005498768657455745
-0.0003424631196207572
-0.00017595656641924626
-4.425214110678234e-05
5.798020832268637e-05
0.00013533597503149683
0.00019174552779241405
0.00023055436241045668
0.000254603942081183
0.00026630781821894087
0.00026772068121095477
0.000260599707716639
0.00024645852301277
0.00022661458896754139
0.00020223105258651564
0.00017435416495428097
0.00014394737669374408
0.00011192317457328627
7.917366632537864e-05
4.660085682264142e-05
1.5147491160751037e-05
-1.4170731207886755e-05
-4.023084045801095e-05
-6.176551272184944e-05
-7.732258469870384e-05
-8.522048900341805e-05
-8.349877221534852e-05
-6.986259512718751e-05
-4.1619934352241095e-05
4.389404720556156e-06
7.187206478929953e-05
0.00016516173850894544
0.00028929060401183815
-0.007506828448097889
-0.008296338739785792
-0.008591815921610044
-0.00841437499289641
-0.00785710939161214
-0.007046930586034856
-0.006109052605348242
-0.005144794679841615
-0.004223919430256521
-0.0033870177600837485
-0.0026524026651481244
-0.0020235638022626885
-0.0014952862388221792
-0.0010579725031273641
-0.0007003913662807471
-0.00041127311057511957
-0.00018014165317218646
2.321869090172665e-06
0.00014418450822712738
0.0002523097479861982
0.0003324729658670325
0.00038950102906948683
0.00042741291411742613
0.0004495500401201155
0.0004586917149734214
0.00045715473707461443
0.0004468780458066028
0.0004294941493287255
0.00040638934119131137
0.00037875471784720727
0.0003476298807005493
0.0003139410332674772
0.0002785350101695422
0.00024221062022056206
0.0002057485570109291
0.00016994102486827395
0.0001356221384504197
0.00010370007085861582
7.519184070938628e-05
5.12615466105662e-05
3.326280698180001e-05
2.278621740604836e-05
2.1712921208685843e-05
3.227602917658945e-05
5.713257809755734e-05
9.944943839845788e-05
0.00016300567516108755
0.0002523092108282221
0.0003727155816067723
-0.008512127604243015
-0.009393832613211878
-0.009597042721408516
-0.00918530395329676
-0.008323482916698363
-0.007207358900005248
-0.00600837538267289
-0.004847902226761909
-0.003796179220560421
-0.0028838163214392467
-0.002115805402752707
-0.0014830047736546577
-0.0009698960509216862
-0.0005591807770369715
-0.00023420633945687563
1.9935966371668022e-05
0.00021605668092593115
0.00036489560540977316
0.00047532206911314774
0.0005545949197624852
0.0006086251473196788
0.000642215283571463
0.0006592663154873363
0.0006629511577100795
0.0006558575095254697
0.0006401043249846458
0.0006174363468229721
0.0005893008414875403
0.0005569101617092301
0.0005212932230434786
0.00048333848915940725
0.00044383064743681866
0.0004034828277905897
0.000362965968100544
0.00032293674799565436
0.0002840653844933816
0.0002470644907756128
0.00021272012323661493
0.00018192606135417067
0.00015572226671239225
0.00013533836611693412
0.00012224298218019292
0.00011820000458986901
0.0001253338261301834
0.00014620753422138477
0.0001839208579443724
0.00024223652360719217
0.0003257403901717748
0.0004400270147564972
-0.009764335705358729
-0.010731480683730855
-0.01074469939113741
-0.009958139324372953
-0.008662757227560188
-0.007155882113358934
-0.005660895476777443
-0.004307953541856585
-0.0031518377072462
-0.002199926969835196
-0.0014354091121481726
-0.0008321139147477946
-0.0003625016734450023
-1.3521094213565343e-06
0.0002729173079830125
0.0004781022241421816
0.0006285674914716776
0.0007357697981755108
0.0008087884215024609
0.0008547991183678258
0.0008794717609575849
0.0008872928739096925
0.0008818222588463202
0.0008658949867220087
0.0008417795431241194
0.0008113014612045194
0.0007759401298275508
0.0007369049424666083
0.0006951956671757131
0.0006516508861873632
0.0006069875531218433
0.0005618341120836173
0.0005167591812693384
0.00047229749311032687
0.00042897457666479094
0.0003873315419102505
0.0003479512556363029
0.0003114871571013242
0.00027869591441846003
0.0002504750310526743
0.00022790634874304133
0.00021230619551379504
0.00020528291772915763
0.00020880332973727267
0.00022527234536656726
0.0002576358191810485
0.00030952440927181635
0.00038545961675981455
0.0004911291604342699
-0.011372026981158495
-0.012384628672240518
-0.012023089769118686
-0.010636955422953648
-0.008737124507132274
-0.006758652938712917
-0.004963680596573185
-0.0034594185895941883
-0.0022573320253270373
-0.0013245881443327747
-0.0006148077935627591
-8.24911255107709e-05
0.0003115471781110076
0.00059904176191283
0.0008048861463549953
0.0009482846552420097
0.0010439335075477264
0.0011030461295965157
0.001134180666770613
0.001143883612602552
0.0011371807078292117
0.001117947622264602
0.001089188660090678
0.0010532461733015648
0.00101195820010953
0.0009667775747963028
0.0009188624219958023
0.0008691454263098121
0.0008183873957891691
0.0007672192660792346
0.0007161756991246812
0.0006657227225827442
0.0006162813639707526
0.0005682489064848112
0.0005220191945453506
0.0004780033182882962
0.0004366519824043763
0.00039848088724912106
0.0003641004779613294
0.0003342513875752573
0.00030984672543525604
0.0002920219609066216
0.00028219258224894406
0.00028211954699602915
0.0002939846668555818
0.00032048618174262966
0.0003649820620479083
0.0004317294958700868
0.000526268673224653
-0.013510345214992812
-0.014440718896365647
-0.013350057034771816
-0.011014447835136772
-0.008314809848795422
-0.005832973219481962
-0.0038053469226156846
-0.0022515442465621746
-0.0011022765115181604
-0.0002703907473855221
0.00032239685546009466
0.0007384815246842928
0.0010250456610277204
0.0012169015372909535
0.0013394677241058716
0.0014112513045479178
0.0014457467120599175
0.0014528318247936127
0.001439775579297262
0.0014119596513147877
0.001373394528241605
0.0013270892816135103
0.0012753176070646327
0.0012198102781344408
0.0011618952551038543
0.0011026004135062765
0.0010427294685776585
0.000982918613474392
0.000923679259655974
0.0008654307866807834
0.0008085261821497991
0.0007532727484625551
0.000699949582106639
0.0006488232338508204
0.000600162795384121
0.0005542556039049504
0.0005114247919600703
0.0004720500152261553
0.000436592831955393
0.0004056283163040783
0.0003798844304572016
0.00036029022783289066
0.0003480328155382878
0.0003446211277479405
0.00035195338521301633
0.0003723909062766789
0.00040886688675834115
0.00046511348074707026
0.0005461427047412509
-0.016466662216327584
-0.0169572501007507
-0.014452117179369704
-0.010672058298729487
-0.0070423790644214435
-0.004173522894447626
-0.002107391295782456
-0.0006817488374145329
0.00027868510698658266
0.0009143301382517812
0.0013264173960075396
0.0015851155016773804
0.0017383754489804517
0.0018189030832257902
0.0018490945703418756
0.0018443914571885317
0.0018155267124860212
0.0017700240502644187
0.001713202139093437
0.0016488516528418203
0.0015796955220867704
0.0015077046261378346
0.0014343163279826772
0.0013605871403039732
0.0012873003370335485
0.0012150424823910537
0.0011442583485998178
0.0010752907112591137
0.0010084095218368394
0.0009438336230073244
0.0008817472779825974
0.0008223131901627864
0.0007656833051167752
0.0007120084570850851
0.000661447813405748
0.0006141790645617859
0.0005704103970927479
0.0005303954673954933
0.0004944528552651359
0.000462991775219454
0.0004365460394535267
0.0004158180986044563
0.00040173379612359894
0.00039550515399075503
0.0003986920971823238
0.0004132476833621779
0.0004415487021661585
0.0004865069218339818
0.0005520402111629241
-0.020731118804912074
-0.019763178240477165
-0.014574652599399229
-0.008848004744785467
-0.004497003446889396
-0.0016608907352633345
9.823251501604215e-05
0.0011597037574382855
0.001784505878781116
0.002137143094762744
0.002319443459125386
0.002394451139378735
0.002401571078116967
0.0023657338775689577
0.0023029115440505975
0.0022234560566182886
0.0021341447001630605
0.0020394509263138086
0.0019423456632353432
0.0018448098229260166
0.0017481665287017376
0.0016532991571015926
0.0015607960463592183
0.0014710474924647145
0.0013843113297252116
0.0013007576031279465
0.0012204991958973087
0.0011436129534239461
0.0010701543487929982
0.001000167763847093
0.0009336938276188964
0.000870774846411404
0.000811459106346224
0.000755804687934486
0.0007038833806960257
0.000655785315987735
0.0006116250515073654
0.0005715500543316265
0.0005357528586141941
0.000504488627942265
0.0004781003894110958
0.00045705462248721296
0.0004419895265476287
0.00043377539350993033
0.000433577026166615
0.00044288554015867176
0.00046345469882520807
0.0004971390614364052
0.0005460212769159561
-0.026868156727807485
-0.021740947174049136
-0.011853108836890499
-0.004526020775504272
-0.0005347107924881626
0.0015410727310137418
0.002574740340544975
0.0030559903507869027
0.003240720116962822
0.003264859681560252
0.003201920422766777
0.003092565006110322
0.002959694160946627
0.002816366590007867
0.002670063404191281
0.002525046621930533
0.002383695034357711
0.0022472769488630726
0.0021164051960740754
0.001991308913526939
0.0018719976218552412
0.0017583609237560114
0.0016502291807686045
0.0015474102662346896
0.0014497115246017746
0.0013569525323985088
0.0012689721292241558
0.0011856318894628466
0.0011068174047741408
0.0010324382496552237
0.0009624271927724734
0.0008967390270966311
0.0008353492820218633
0.0007782530282737024
0.0007254639814957137
0.0006770141528400844
0.0006329543943067867
0.0005933563639720571
0.0005583167266615188
0.0005279648592742756
0.0005024760018706373
0.00048209268971562136
0.00046715815677174366
0.00045816496728422196
0.0004558158612183172
0.00046106747509395973
0.0004750441067205985
0.0004985405688126276
0.0005311306307044378
-0.035202491658007755
-0.01774888564907178
-0.0033145938849995435
0.002144232253705431
0.004177879556111335
0.0047940603348832905
0.004848865588733058
0.004678207983969588
0.004423343353207133
0.004144845458215047
0.0038689238243319306
0.0036064362980739763
0.003361233605493355
0.003133960032877791
0.002923841996079961
0.0027295440127618597
0.002549578613076574
0.0023824977901434436
0.0022269760936366595
0.0020818399890777644
0.0019460710775678729
0.0018187972534885084
0.001699278977781063
0.0015868942701605
0.001481124156847844
0.0013815393351531424
0.0012877883120699478
0.0011995870203955414
0.001116709795422173
0.0010389815449198953
0.0009662709309977771
0.0008984843864006387
0.0008355608006940934
0.0007774667297701307
0.0007241920050725797
0.0006757456503054468
0.0006321520610772166
0.0005934474820021712
0.000559676953424279
0.0005308921441231837
0.0005071509186436382
0.0004885202341887301
0.0004750851609779394
0.000466968344089852
0.00046436426387751195
0.0004675809142988263
0.0004770120443320508
0.0004926299221894026
0.0005116570621722938
-0.03068159694145543
0.002373530760088855
0.007878808454283705
0.008555909456151964
0.007908713547961407
0.007091551413523569
0.00633250656366623
0.0056769807363922405
0.005119029927797211
0.004643226052737279
0.004234246707235664
0.0038792357941331993
0.0035679288973347973
0.0032922640924654676
0.0030459274571944966
0.0028239606332602796
0.0026224501109254035
0.002438289187581019
0.002268997633303897
0.002112585281428773
0.0019674485047936566
0.0018322911993903478
0.0017060640548071868
0.0015879175283442723
0.0014771651472109786
0.0013732546429871643
0.0012757450609158887
0.0011842884497337454
0.0010986150740969168
0.0010185213359628909
0.0009438597681165617
0.0008745305895925537
0.0008104744009041764
0.0007516656546823625
0.0006981065695676469
0.0006498211647628024
0.0006068490806608873
0.0005692388175561752
0.000537039970055761
0.0005102939629974754
0.0004890227186037377
0.00047321464120030077
0.000462807382121469
0.00045766720047943354
0.0004575653622012482
0.0004621506504885464
0.00047089198880863326
0.00048277700217107256
0.0004939872161786873

SCALARS STRAIN_YY float 1
LOOKUP_TABLE default
-0.0025803187257640303
-0.10413852222914664
-0.001473456729748468
0.002747426948258136
-0.0025797481140016343
-0.0025780363415228713
-0.0025751835972156467
-0.002571190197430462
-0.0025660565882812403
-0.0025597833488684163
-0.0025523711954181794
-0.0025438209863331007
-0.002534133728154364
-0.0025233105824252755
-0.0025113528734436175
-0.0024982620969019598
-0.002484039929393056
-0.002468688238762007
-0.0024522090952862063
-0.0024346047836513174
-0.002415877815691858
-0.0023960309438439964
-0.002375067175273027
-0.0023529897866093608
-0.0023298023392159806
-0.002305508694912306
-0.002280113032055886
-0.0022536198618612335
-0.0022260340448341243
-0.0021973608071743644
-0.0021676057569663953
-0.0021367748999802094
-0.0021048746548550934
-0.00207191186742528
-0.0020378938239157263
-0.0020028282626958216
-0.0019667233842594056
-0.0019295878590380733
-0.0018914308326352103
-0.0018522619280146868
-0.0018120912441228487
-0.001770929350380479
-0.0017287872764147894
-0.0016856764963394388
-0.001641608906824854
-0.0015965967981236284
-0.0015506528171247425
-0.0015037899214189743
-0.0014560213232606145
-0.0014073604221711555
-0.001357820724810721
-0.0013074157505846284
-0.001256158921255579
-0.0012040634326388466
-0.001151142106194658
-0.0010974072180416905
-0.0010428703025527897
-0.0009875419272692976
-0.0009314314353586206
-0.0008745466511941857
-0.0008168935438561675
-0.0007584758424004634
-0.0006992945955504593
-0.0006393476669732667
-0.0005786291554485956
-0.000517128726907512
-0.0004548308423668601
-0.0003917138620386784
-0.0003277490011465156
-0.0002628991068706621
-0.00019711721799503534
-0.00013034485869090062
-6.25100046394711e-05
6.475357606117171e-06
7.671817995175134e-05
0.00014834794306189947
0.0002215210605541751
0.00029642632495213705
0.00037329169821948005
0.00045239285303799726
0.0005340640150579556
0.000618711859643517
0.0007068335072871745
0.0007990400834040345
0.0008960879291344814
0.0009989204799575324
0.0011087252481537524
0.0012270125555324252
0.0013557261775068719
0.0014974018103222908
0.0016553988019730181
0.0018342475732842367
0.0020401823952592713
0.0022819957301753457
0.002572387352096084
0.002930548133965538
0.00338509313919072
0.003988324810316968
0.004788811672624987
0.0060620951517026955
0.0067978153392550394
0.011660391355309274
-0.04376542709112267
-0.09229680178285429
-0.06724338977349117
-0.04735331444671126
-0.03643316677192458
-0.029387212530595855
-0.02458414385734224
-0.021091899379167195
-0.018438233438421797
-0.016348336758121057
-0.014654911497119144
-0.013250091121816299
-0.01206148141046856
-0.011038790643704693
-0.010146088102021028
-0.00935709145870045
-0.008652191914831131
-0.008016513444988244
-0.007438610810407309
-0.006909574390911999
-0.00642240130426755
-0.005971545068683443
-0.005552587571698464
-0.0051619964427531695
-0.004796943094329098
-0.004455164527959604
-0.004134857144655557
-0.0038345942381866893
-0.0035532611851666895
-0.003290003952533649
-0.003044187658263059
-0.0028153626975079282
-0.002603236482295962
-0.0024076492014073747
-0.0022285522265456936
-0.002065987891501503
-0.0019200693570642913
-0.0017909591342195608
-0.0016788445402100283
-0.0015839078467806134
-0.0015062880443733329
-0.0014460298167040808
-0.0014030132076781887
-0.001376854094025215
-0.0013667602258767841
-0.00137131941366736
-0.0013881857494488503
-0.001413624170776423
-0.0014419203919981693
-0.0014646907850682789
-0.0014767607220169121
-0.0014859124663430812
-0.0014972569194418583
-0.0015068340955082804
-0.0015129115011792704
-0.0015143937919236128
-0.001510593370994462
-0.0015011131113374099
-0.0014857669576472943
-0.0014645234300884324
-0.0014374650964023017
-0.001404759089356361
-0.0013666352173885565
-0.001323369341818259
-0.0012752704671823434
-0.0012226705086534895
-0.0011659160413552971
-0.00110536156073604
-0.0010413639309880818
-0.0009742777960903837
-0.0009044517924433615
-0.0008322254444885768
-0.0007579266525969408
-0.0006818697007242025
-0.0006043537232717777
-0.0005256615784846597
-0.0004460590810566045
-0.00036579455045143705
-0.0002850986344252737
-0.0002041843698011303
-0.00012324744495401108
-4.2466630863713384e-05
3.799564995521365e-05
0.00011799264481388017
0.00019739250806655173
0.0002760774771441432
0.000353943007762203
0.00043089688610120636
0.0005068583333070475
0.0005817571153335921
0.0006555326689570706
0.0007281332527895312
0.0007995151302992998
0.0008696417902040454
0.0009384832081466565
0.0010060151523131888
0.0010722185345627966
0.0011370788077039728
0.0012005854088002477
0.0012627312477516694
0.0013235122398953525
0.0013829268809769646
0.00144097586254599
0.0014976617256285962
0.001552988550381218
0.0016069616793517039
0.0016595874719544934
0.0017108730877695155
0.0017608262963273447
0.0018094553111157596
0.0018567686456211208
0.001902774989336331
0.0019474831017849414
0.001990901722712435
0.0020330394967353893
0.0020739049108635665
0.00211350624342288
0.0021518515230352087
0.002188948496419929
0.002224804603897401
0.002259426961574107
0.0022928223492874045
0.0023249972034886657
0.0023559576143185046
0.002385709326201524
0.0024142577413743815
0.0024416079258263723
0.0024677646171819
0.002492732234113837
0.002516514886932053
0.0025391163890267077
0.0025605402688966272
0.002580789782526849
0.002599867925896615
0.002617777447456393
0.0026345208604177106
0.002650100454714588
0.002664518308541086
0.002677776299368939
0.0026898761143661076
0.002700819260149423
0.002710607071821469
0.0027192407212466296
0.0027267212245302153
0.002733049448674252
0.0027382261173810596
0.002742251815993635
0.002745126995553515
0.0027468519759638044
0.002670878474870686
0.002520558071809953
0.002375674338153555
0.0022359939258884687
0.0021012825021542447
0.001971304830891474
0.0018458248606655348
0.0017246058171686007
0.0016074102989971362
0.0014940003753431963
0.0013841376843627407
0.0012775835310524508
0.001174098983542038
0.0010734449668168278
0.0009753823529415895
0.00087967204696493
0.0007860750677450845
0.0006943526230084318
0.0006042661780576442
0.0005155775175713639
0.0004280488000425464
0.0003414426044575647
0.00025552196886213796
0.00017005042055506792
8.479199769140244e-05
-4.887378689533151e-07
-8.602669655743966e-05
-0.00017205626595850898
-0.00025881132454519395
-0.00034652526418410545
-0.0004354310212396628
-0.0005257611160985887
-0.0006177477008280086
-0.0007116226145995608
-0.0008076174464720642
-0.000905963605036586
-0.0010068923943523655
-0.0011106350955271127
-0.0012174230532155939
-0.0013274877662310391
-0.0014410609813679809
-0.0015583747894838407
-0.0016796617227841093
-0.0018051548521719196
-0.001935087883470299
-0.002069695251233572
-0.0022092122087954413
-0.002353874913154974
-0.0025039205032315603
-0.002503361654416336
-0.002353339439879143
-0.0022086998202702768
-0.0020692056780553525
-0.0019346208804382758
-0.0018047102005855353
-0.001679239232237062
-0.001557974299176479
-0.0014406823609610098
-0.0013271309162660172
-0.0012170879051285888
-0.0011103216112848813
-0.0010066005657418664
-0.0009056934526304183
-0.0008073690183059701
-0.0007113959845865825
-0.00061754296694011
-0.0005255783983421636
-0.0004352704594504653
-0.00034638701566985786
-0.00025869556159763274
-0.0001719631732613469
-8.595646851145e-05
-4.415758521059132e-07
8.481588810543839e-05
0.00017005083239668428
0.0002554986965723205
0.00034139544668071453
0.0004279775623829418
0.0005154820153017159
0.0006041462387582075
0.0006942080891172431
0.0007859057990063367
0.0008794779227477845
0.0009751632744122163
0.0010732008589434683
0.0011738297969080547
0.0012772892434532723
0.0013838183021605
0.0014936559345518075
0.0016070408660713853
0.001724211489465055
0.0018454057665456824
0.0019708611294387834
0.0021008143824683967
0.0022355016059301125
0.002375158063110283
0.0025200181119515164
0.00267031512286664
-0.0025016851684229735
-0.0023517330747850895
-0.0022071627018475093
-0.002067736996525349
-0.0019332198989167049
-0.0018033762619617533
-0.0016779717645427072
-0.0015567728195065578
-0.0014395464780179723
-0.0013260603316031516
-0.0012160824131744463
-0.001109381098234663
-0.001005725007403202
-0.0009048829113069701
-0.0008066236388097336
-0.000710715989465871
-0.0006169286510079863
-0.0005250301225881437
-0.00043478864441326426
-0.00034597213435183516
-0.0002583481319893277
-0.000171683750557039
-8.574563707347549e-05
-2.999409811632603e-07
8.488770851666771e-05
0.0001700522162739193
0.0002554290260857184
0.00034125411662588867
0.00042776398846100516
0.0005151956422487225
0.0006037865482685922
0.0006937746075053042
0.0007853981045527481
0.0008788956526688541
0.0009745061313858328
0.0010724686171346698
0.0011730223074210011
0.001276406439133404
0.0013828602016747182
0.0014926226456611347
0.0016059325880135034
0.0017230285143556845
0.0018441484797099839
0.0019695300085777467
0.0020994099955633505
0.0022340246078003667
0.0023736091905255385
0.002518398177215442
0.0026686250057895156
-0.002498891227040667
-0.0023490559824480006
-0.002204600995304784
-0.002065289320927033
-0.0019308850218555662
-0.001801153084898366
-0.0016758593317054982
-0.0015547703243744548
-0.0014376532675040576
-0.001324275908068162
-0.0012144064344079553
-0.0011078133755476616
-0.0010042655019745217
-0.0009035317289320388
-0.0008053810231971048
-0.0007095823142296287
-0.0006159044104966371
-0.0005241159216868296
-0.0004339851874561873
-0.00034528021327162595
-0.00025776861382320604
-0.0001712175644343339
-8.539376078986471e-05
-6.338726216137403e-08
8.500790595100671e-05
0.00017005501675404489
0.0002553133960565557
0.0003410190436310967
0.00042740849496680777
0.0005147187992129432
0.0006031874883679067
0.0006930525379297281
0.0007845523192714365
0.0008779255440744538
0.0009734112012071416
0.0010712484865150196
0.0011716767260430694
0.0012749352932694968
0.001381263521035625
0.001490900608906165
0.0016040855267773768
0.0017210569156466127
0.0018420529865261215
0.0019673114185805862
0.002097069257657569
0.002231562816461752
0.002371027577717011
0.002515698101753505
0.0026658079400225243
-0.002494980134688962
-0.002345308438403415
-0.0022010149380002897
-0.0020618628426312124
-0.0019276163882612218
-0.0017980407510300722
-0.0016729019542796597
-0.0015519667707628582
-0.001435002621471393
-0.0013217774724686437
-0.0012120597310325554
-0.0011056181423241274
-0.0010022216877242363
-0.0009016394858945009
-0.0008036406975268084
-0.0007079944346676803
-0.0006144696754232237
-0.00052283518474322
-0.0004328594419277798
-0.00034431057541045584
-0.0002569563052811086
-0.00017056389397190896
-8.490010541511994e-05
2.688270512307689e-07
8.517722382800352e-05
0.00017005997313140897
0.0002551525359129059
0.0003406909416083792
0.0004269117747631168
0.0005140521526227904
0.0006023496938465378
0.0006920424785525348
0.000783368999961287
0.0008765681079598853
0.0009718789449712495
0.0010695408745808876
0.0011697934034307078
0.0012728760969643593
0.001379028489679801
0.001488489990623898
0.001601499784936844
0.0017182967323456366
0.0018391192635877074
0.001964205275839348
0.0020937920283131684
0.0022281160392742527
0.002367412985830153
0.0025119176079350103
0.0026618636181277022
-0.0024899523205689778
-0.002340490831005848
-0.0021964048644604883
-0.002057457831441234
-0.001923414194331452
-0.0017940393759895423
-0.0016690996621939735
-0.0015483620994653502
-0.0014315943897338368
-0.0013185647832547054
-0.001209041971082625
-0.0011027949783326552
-0.0009995930593793556
-0.0008992055960524992
-0.0008014019997848454
-0.0007059516186039838
-0.0006126236497606685
-0.0005211870586908085
-0.00043141050494099886
-0.0003430622755991042
-0.000255910226690248
-0.00016972173294649284
-8.426364624264382e-05
6.97737031152279e-07
8.539669946505679e-05
0.00017006811688830004
0.0002549474633053439
0.00034027080650617103
0.00042627479439188987
0.0005131966321147985
0.0006012740501838421
0.0006907452637404665
0.000781848923268158
0.0008748240570521926
0.0009699100057614651
0.0010673463495932678
0.0011673728284800067
0.0012702292559320094
0.0013761554271531917
0.0014853910221515054
0.001598175504645305
0.0017147480176436525
0.0018353472766813317
0.0019602114617707223
0.0020895781092273857
0.0022236840046299666
0.0023627650782679366
0.002507056304522637
0.0026567916067303243
-0.002483808341675331
-0.002334603664031265
-0.0021907712086016717
-0.0020520746374734222
-0.001918278695042075
-0.0017891491107532853
-0.0016644524959123497
-0.0015439562361186376
-0.0014274283808278776
-0.0013146375314659897
-0.0012053527294101363
-0.0010993433450851575
-0.0009963789693329117
-0.0008962293081082873
-0.0007986640814621748
-0.0007034529276988
-0.000610365313480743
-0.0005191704505833616
-0.0004296372199096843
-0.00034153410328946476
-0.0002546291235226428
-0.00016868979303868992
-8.348307147904022e-05
1.2246675629712378e-06
8.566766046075314e-05
0.00017008076801577898
0.0002546994804097369
0.0003397599126372386
0.0004254987904664942
0.0005121534270281503
0.000599961690182782
0.0006891619608701549
0.0007799930826905555
0.0008726943030316625
0.0009675052060948985
0.001064665638252249
0.0011644156262194394
0.0012669952885929758
0.0013726447413832665
0.0014816039982382678
0.0015941128661441928
0.001710410837471199
0.0018307369793277295
0.0019553298212732773
0.0020844272425420973
0.002218266360044685
0.0023570834184958867
0.0025011136841291415
0.002650591343571096
-0.0024765488866616003
-0.002327647560013857
-0.0021841145065799594
-0.002045713693570317
-0.0019122102061847612
-0.0017833701433732085
-0.0016589605079340153
-0.0015387490925475311
-0.001422504363278232
-0.0013099953419886123
-0.001200991489003267
-0.001095262587284096
-0.0009925786292738215
-0.0008927097074705737
-0.0007954259096901728
-0.0007004972198877968
-0.000607693425314082
-0.0005167840306866678
-0.0004275381799742628
-0.00033972458630460167
-0.0002531114704359405
-0.00016746650813642683
-8.255678678259493e-05
1.8512286204530604e-06
8.599171983381115e-05
0.000170099530072243
0.0002544101689591072
0.00033915980774279486
0.00042458526482364034
0.0005109239816952216
0.0005984139894472662
0.0006872938660353323
0.0007778026845509101
0.0008701799527927045
0.000964665544488541
0.0010614996225717932
0.0011609225549829572
0.0012631748235238383
0.0013684969263733637
0.0014771292749360954
0.0015893120857929377
0.0017052852685989772
0.0018252883108753615
0.0019495601607329438
0.00207833910866978
0.0022118626697101296
0.0023503674672325503
0.002494089119963072
0.002643262133728619
-0.0024681747805554433
-0.0023196232643118986
-0.0021764354002605235
-0.0020383755182412644
-0.00190520910685682
-0.0017767027011003078
-0.0016526237646438124
-0.0015327405684384954
-0.0014168220671872955
-0.0013046377751532723
-0.0011959576426802676
-0.0010905519346876558
-0.000988191112298642
-0.0008886457186755847
-0.0007916862700138583
-0.0006970831525464072
-0.000604606526331819
-0.0005140262364856651
-0.0004251117324325371
-0.0003376319956765461
-0.00025135547649635104
-0.00016605003990016742
-8.148292111836986e-05
2.5793091739112484e-06
8.637076976025782e-05
0.0001701262838154638
0.00025408138384319656
0.00033847230663097694
0.0004235359782731596
0.0005095099893717148
0.0005966325605544776
0.0006851424985159782
0.0007752791428022876
0.0008672823036230404
0.0009613921910324175
0.001057849335849348
0.0011568945027706223
0.0012587685961831796
0.001363712559249275
0.0014719672669146755
0.001583773413579792
0.001699371396256255
0.001819001194132197
0.001942902245563205
0.0020713133236301418
0.0022044724115129477
0.0023426165790350617
0.0024859818618697127
0.0026348031450201814
-0.002458686990321257
-0.00231053164989814
-0.002167734641300434
-0.0020300607191223174
-0.0018972758423960734
-0.001769147052901432
-0.0016454423485232073
-0.0015259305533587009
-0.0014103811861755355
-0.0012985643287092286
-0.0011902504952031046
-0.001085210504460754
-0.0009832153555818235
-0.0008840361084474502
-0.000787443769905749
-0.0006932091864977896
-0.000601102944474019
-0.0005108952777462261
-0.00042235598432849297
-0.00033525435174064366
-0.0002493590917489463
-0.0001644382847613146
-8.02593341190927e-05
3.4110695368294586e-06
8.680697370633261e-05
0.00017016317920798274
0.0002537152450738933
0.0003376994831923996
0.00042235294275416724
0.0005079133846182526
0.0005946192457377264
0.0006827095938281014
0.000772424072503497
0.0008640028371473263
0.0009576864818265918
0.0010537159576058386
0.00115233248268104
0.0012537774448087013
0.0013582922965764133
0.001466118444128861
0.0015774971300555607
0.0016926693112318536
0.001811875532512719
0.0019353557972697222
0.0020633494358968663
0.002196094973523799
0.002333829998291015
0.0024767910316904618
0.002625213402605575
-0.002448086631256452
-0.002300373722858684
-0.002158013095833855
-0.0020207699969488346
-0.0018884109277585992
-0.0017607035123726744
-0.0016374163607305037
-0.0015183189291373411
-0.0014031813797051318
-0.0012917744402216602
-0.0011838692658687755
-0.0010792373040763303
-0.0009776501636886148
-0.0008788794895055463
-0.0007826968431364767
-0.0006888735909970078
-0.0005971808001777323
-0.0005073891427988531
-0.0004192688093839214
-0.00033258943169173216
-0.0002471200153474351
-0.00016262888256690644
-7.888362517705083e-05
4.348931916642318e-06
8.730275671964272e-05
0.0001702126255545
0.000253314127878157
0.00033684366055641846
0.0004210384116591359
0.0005061363338983438
0.0005923761078533984
0.0006799970951423262
0.0007692392817616467
0.000860343211844361
0.0009535499121088864
0.0010491008073409969
0.001147237627283637
0.0012482023053756452
0.0013522368698500875
0.0014595833277644688
0.001570483542633394
0.001685179106407364
0.0018039112066716712
0.001926920490029349
0.002054446922756803
0.002186729649966579
0.00232400685462808
0.002466515617953191
0.0026144917828050396
-0.0024363749742119523
-0.0022891506285921404
-0.0021472717497493243
-0.002010504150034065
-0.0018786149513366213
-0.0017513724410462284
-0.0016285459240584221
-0.0015099055726380817
-0.0013952222758241706
-0.0012842674899407602
-0.0011768130916499642
-0.001072631234855237
-0.0009714942126322623
-0.0008731743252399227
-0.0007774437551421598
-0.0006840744498490814
-0.0005928380132809719
-0.0005035056062395737
-0.00041584785648490774
-0.0003296347788192544
-0.00024463570548566294
-0.00016061922713489496
-7.735314453061193e-05
5.3955689011120356e-06
8.786079360328936e-05
0.00017027727948804028
0.00025288065062872844
0.00033590739909999945
0.00041959486805037693
0.0005041812241232124
0.0005899054193720388
0.0006770071428268687
0.0007657267619097241
0.0008563052539254934
0.0009489841278786382
0.0010440053369217828
0.0011416111817701968
0.0012420442054779102
0.0013455470800424196
0.0014523624853647887
0.001562732981181203
0.001676900872675302
0.0017951080705884692
0.0019175959467623849
0.00204460518617694
0.00217637563668005
0.0023131461577667878
0.0024551544699175643
0.00260263700615615
-0.0024235534536274916
-0.0022768636586915636
-0.0021355117145419045
-0.001999264079236951
-0.0018678885792065003
-0.0017411542520959777
-0.001618831186284364
-0.0015006903589435683
-0.0013865034743708593
-0.001276042804201627
-0.001169081030957031
-0.0010653910962442614
-0.0009647460547973497
-0.0008669189353919249
-0.0007716826095539031
-0.000678809668848368
-0.0005880723114082831
-0.0004992422382709139
-0.00041209055996127564
-0.0003263877136858162
-0.0002419033914086155
-0.0001584064790097206
-7.566500665628917e-05
6.553889557670001e-06
8.848399464705947e-05
0.00017036003048070958
0.0002524176602863304
0.0003348934819822902
0.0004180250104466321
0.0005020506488362386
0.0005872096490970868
0.0006737420618240786
0.0007618886756451948
0.0008518909463197111
0.0009439909157837323
0.0010384311213993414
0.0011354544956980739
0.001235304256965275
0.0013382237910714023
0.0014444565250272823
0.0015542457928195974
0.001667834694182635
0.001785465947064302
0.0019073817346796362
0.0020338235481784372
0.002165032026082203
0.00230124679183924
0.0024427062910094
0.00258964762974212
-0.0024096236763620493
-0.002263514258489807
-0.0021227342337191146
-0.0019870507934028336
-0.0018562325597996088
-0.001730049414447432
-0.001608272323932014
-0.001490673164982026
-0.0013770245506789514
-0.0012670996594184025
-0.00116067206811038
-0.0010575155909386957
-0.0009574041248647247
-0.0008601115029045481
-0.0007654113560722209
-0.0006730769847442253
-0.000582881240067834
-0.0004945964159405736
-0.0004079941519444241
-0.00032284534755211425
-0.0002389200878267772
-0.00015598758075757724
-7.381610631124191e-05
7.82702278906422e-06
8.917548854542323e-05
0.00017046398350256675
0.0002519282149854307
0.00033380489784007317
0.0004163317358108487
0.0004997473916740769
0.0005842914462619309
0.000670204346529979
0.0007577273428199804
0.000847102415473977
0.0009385721910029621
0.0010323798480119661
0.001128769013117925
0.001227983647160702
0.0013302679220345004
0.0014358660885510077
0.0015450223358347004
0.001657980642826129
0.0017749846225934562
0.0018962773602896332
0.0020221012457212195
0.002152697801658776
0.0022883075091976735
0.0024291696316753875
0.002575522038829159
-0.002394587431297779
-0.0022491040352441427
-0.0021089406897402685
-0.001973865415261178
-0.001843647728983877
-0.0017180584572834556
-0.0015968695464494975
-0.001479853873629311
-0.0013667850598452214
-0.0012574372867478756
-0.001151585118620957
-0.0010490033309731306
-0.0009494667468822326
-0.000852750082116438
-0.0007586277998904989
-0.0006668739759731479
-0.0005772621747313078
-0.0004895653365728503
-0.0004035556771229132
-0.00031900459839162565
-0.00023568261209044872
-0.00015335927517295955
-7.180313762317203e-05
9.218297536917053e-06
8.993860208794668e-05
0.00017059243840744642
0.0002514155633326909
0.00033264482021788666
0.0004145181193270231
0.0004972744066993329
0.0005811536216162039
0.0006663966428082646
0.0007532452235323173
0.0008419419156454055
0.0009327299828282287
0.0010258533031050066
0.001121556260841594
0.0012200836284473882
0.0013216804380391522
0.0014265918433908342
0.0015350629725937037
0.0016473387719280197
0.001763663841561347
0.001884282263843684
0.0020094374250986813
0.002139371831992365
0.0022743269237498476
0.0024145428817026193
0.002560258437856344
-0.00237844669969256
-0.002233634766931225
-0.002094132611460797
-0.001959709187755787
-0.0018301350155416896
-0.0017051819749460129
-0.0015846231008194711
-0.001468232378314005
-0.0013557845416107828
-0.001247054877506093
-0.0011418190353835178
-0.0010398528449145905
-0.0009409321426494532
-0.0008448326084959934
-0.0007513296129015301
-0.0006601980754202263
-0.0005712123351911402
-0.0004841460337200454
-0.0003987720102464065
-0.0003148622098710918
-0.00023218760452986542
-0.0001505181268277589
-6.962261667381453e-05
1.0731219370008205e-05
9.077683615188459e-05
0.00017074886557127966
0.0002508831199433126
0.00033141658325941403
0.00041258739050131776
0.0004946347951561014
0.0005777991250638381
0.0006623217267177073
0.0007484448981249225
0.0008364118103162399
0.0009264664176016901
0.0010188533566612423
0.0011138178345831973
0.0012116055059912534
0.001312462339431164
0.0014166344732578495
0.0015243680613416521
0.001635909109003797
0.0017515032997099667
0.0018713958131962305
0.0019958311358490577
0.0021250528643586564
0.0022593035038673825
0.002398824262052346
0.002543854840826032
-0.002361203666250533
-0.0022171084116160977
-0.0020783116820416447
-0.0019445834807767515
-0.001815695447026422
-0.0016914206322332648
-0.001571533276622572
-0.001455808588165075
-0.0013440225259078176
-0.0012359515894208584
-0.0011313726159076776
-0.0010300625863177704
-0.0009317984416120639
-0.0008363569101471624
-0.0007435143469481931
-0.0006530465855001943
-0.0005647288025146247
-0.00047833539598995944
-0.00039363987677554224
-0.0003104147737210128
-0.0002284315524143654
-0.0001474605474499624
-6.727090807417957e-05
1.2369442953685805e-05
9.169383747659188e-05
0.00017093687725466822
0.0002503344366845406
0.00033012365313306313
0.000410542905066813
0.000491831778137386
0.0005742310193599387
0.0006579824794863409
0.0007433290436477114
0.0008305145503184064
0.0009197836986361563
0.0010113819441004979
0.0011055553826734843
0.001202550623341403
0.0013026146491983415
0.0014059946671928225
0.001512937946746118
0.0016236916475264596
0.0017385026368211265
0.0018576172970555804
0.001981281324185402
0.0021097395179210943
0.0022432355649096847
0.0023820118162710124
0.002526309061166687
-0.0023428607308695337
-0.0021995271173505526
-0.0020614797472919277
-0.0019284897982643212
-0.0018003301559709195
-0.001676775170078415
-0.0015576004115555597
-0.0014425824337401805
-0.001331498539149878
-0.0012241265538174284
-0.001120244610714971
-0.0010196309436097395
-0.0009220636924668901
-0.0008273207213290168
-0.0007351794494009911
-0.0006454166958877461
-0.0005578085389703058
-0.0004721301891558727
-0.00038815587711321653
-0.00030565875597748926
-0.0002244108180383675
-0.00014418282564282459
-6.474425607660983e-05
1.4136739826753342e-05
9.26933656349993e-05
0.0001711601940976304
0.00024977316903723734
0.0003287695946053715
0.0004083881121103583
0.0004888686645989071
0.0005704524493276852
0.0006533818582135642
0.0007379004062946226
0.0008242526482155066
0.0009126840827036187
0.0010034410449751285
0.0010967705870068012
0.0011929203456170767
0.0012921383983130474
0.0013946731069158225
0.0015007729490393862
0.0016106863375839886
0.001724661428550267
0.0018429459175965945
0.0019657868259568834
0.0020934302765654444
0.0022261212614251846
0.0023641034015539075
0.002507618701148684
-0.0023234205210194148
-0.0021808932325596553
-0.0020436388243948445
-0.0019114297856415163
-0.0017840403864243237
-0.0016612464116039782
-0.0015428248974223013
-0.0014285538733693204
-0.0013182121113312628
-0.0012115788838474306
-0.0011084337330434235
-0.0010085562515799174
-0.0009117258767006309
-0.0008177216982571678
-0.0007263222813803649
-0.0006373055042605547
-0.0005504484113324493
-0.0004655270820009272
-0.00038231651490744367
-0.00030059052761111094
-0.00022012167148466322
-0.00014068116153792554
-6.203882083632983e-05
1.6036960853504922e-05
9.377925455961167e-05
0.00017142260609881443
0.00024920303692205215
0.00032735803211203507
0.00040612651578642023
0.00048574881410085036
0.0005664666059901902
0.0006485228617248984
0.000732161769274875
0.0008176286484364859
0.0009051698526186813
0.0009950326581382174
0.0010874651408558922
0.0011827160399607295
0.00128103460874468
0.0013826704522348354
0.0014878733515922837
0.0015968930753093025
0.0017099791773351747
0.0018273807824203958
0.0019493463591590543
0.0020761234814168916
0.002207958579106717
0.00234509667954258
0.0024877811409381723
-0.002302885904707175
-0.0021612093168567603
-0.0020247911109509964
-0.0018934052375221833
-0.0017668275007834966
-0.0016448352685400347
-0.001527207186611923
-0.0014137229001569551
-0.0013041627840058023
-0.0011983076838729678
-0.0010959386700196139
-0.0009968368046812115
-0.000900782924315946
-0.000807557437487394
-0.0007169401389697794
-0.0006287100404490098
-0.0005426452180030128
-0.0004585226763828554
-0.0003761182299643062
-0.00029520640012020705
-0.0002155603286772556
-0.0001369517070340942
-5.915072049655912e-05
1.807399266673393e-05
9.49553679213122e-05
0.0001717279273659167
0.00024862777927053825
0.00032589260461313163
0.00040376163091465633
0.0004824755935894376
0.0005622766849537331
0.0006434084909456295
0.0007261159155199093
0.0008106450926020359
0.0008972432854135737
0.0009861587729260157
0.0010776407231459229
0.0011719390529034146
0.0012693042738373128
0.0013699873242733474
0.0014742393867376302
0.0015823116909629564
0.0016944553023235387
0.001810920895833179
0.001931958516002863
0.002057817323089739
0.0021887453265728163
0.0023249891069569983
0.0024667935273937625
-0.0022812600039529563
-0.0021404781522125216
-0.0020049389942915496
-0.0018744181056489229
-0.001748692986868805
-0.00162754274797694
-0.0015107477990634055
-0.0013980895496849
-0.0012893501192298706
-0.001184312060124093
-0.0010827580954653193
-0.000984470872366694
-0.0008892327320175752
-0.0007968254972077204
-0.0007070302778003912
-0.0006196272944247183
-0.0005343957204406724
-0.0004511135420616763
-0.0003695574363553611
-0.00028950266672833624
-0.0002107229954050882
-0.00013299061231775156
-5.607607983010299e-05
2.0251707335383617e-05
9.622554757543478e-05
0.00017207994383972025
0.00024805110155157184
0.0003243769134479435
0.0004012969316857795
0.00047905232746586757
0.0005578858383223917
0.0006380417031035535
0.0007197655845719297
0.0008033044794387711
0.0008889066155476355
0.000976821335850142
0.0010672989687384171
0.0011605906842621083
0.001256948335738306
0.001356624286256991
0.0014598712196448038
0.0015669419355294756
0.0016780891282310861
0.0017935651494108695
0.001913621754567496
0.0020385098337414864
0.0021684791270737414
0.00230377792618347
0.0024446527627453585
-0.00225854620870114
-0.0021187027544015136
-0.0019840850609741945
-0.0018544705069901135
-0.0017296384652070729
-0.001609369959434559
-0.0014934473297237294
-0.0013816539084534063
-0.001273773709553061
-0.0011695911327644914
-0.0010688906845207624
-0.0009714567166942412
-0.0008770731841543089
-0.0007855234217982732
-0.0006965899414283494
-0.0006100542486114913
-0.0005256966794360829
-0.0004432962568831078
-0.00036263056636548496
-0.0002834756498722446
-0.0002056059180480796
-0.00012879407945232124
-5.2811086253157224e-05
2.257390441950946e-05
9.759355422439553e-05
0.00017248235313760407
0.0002474766153893748
0.0003228144623303453
0.00039873579263388637
0.0004754822401185077
0.0005532971193461522
0.0006324253590032636
0.0007131134229405589
0.0007956092186136021
0.0008801619925342119
0.0009670222122474814
0.001056441434240607
0.0011486721571438152
0.0012439676595270566
0.0013425818215813679
0.001444768930033813
0.0015507834656798836
0.001660879873041976
0.0017753123118326997
0.00189433439007064
0.0020181988789987337
0.002147157410235523
0.0022814601559533187
0.0024213554933005255
-0.0022347481910879874
-0.0020958863846362585
-0.001962232106367978
-0.0018335647319148718
-0.0017096656964611934
-0.001590318122218437
-0.0014753064565077856
-0.0013644161231051166
-0.0012574331891422874
-0.0011541440495074218
-0.001054335130286188
-0.0009577926124616498
-0.0008643021767383297
-0.0007736487700438222
-0.0006856163939569782
-0.0005999879150391241
-0.0005165448968206809
-0.0004350674529673415
-0.00035533412099242323
-0.00027712175574723386
-0.0002002054418182575
-0.00012435842388630602
-4.935205409561938e-05
2.5044244503058533e-05
9.90629993701253e-05
0.00017293869557699626
0.0002469077693308397
0.00032120858854878254
0.00039608142095348686
0.00047176839002011084
0.0005485134189328611
0.0006265621625434759
0.0007061619271518382
0.0007875615777627187
0.0008710114323202123
0.0009567631422885414
0.0010450695588077319
0.0011361845835927142
0.0012303630036460955
0.001327860308846629
0.0014289324914982249
0.0015338358269396668
0.0016428266344684084
0.0017561610179648857
0.0018740945857917968
0.001996882149848611
0.0021247774039750977
0.0022580325822693648
0.00239689809834176
-0.002209869919960028
-0.0020720325612803014
-0.0019393831442364173
-0.0018117032523611853
-0.0016887765889260775
-0.001570388573012338
-0.0014563259487518354
-0.0013463764104773568
-0.0012403282461374565
-0.0011379700009343519
-0.001039090162695766
-0.0009434768701538365
-0.0008509176448975309
-0.0007611991474265056
-0.0006741069574046632
-0.0005894253779114567
-0.0005069372632498514
-0.00042642386961422307
-0.0003476647277704803
-0.00027043753674244053
-0.00019451807740228366
-0.00011968014480678857
-4.569549809096962e-05
2.7666173211260414e-05
0.00010063726753622992
0.00017345227534382168
0.0002463477697325911
0.0003195623843507689
0.0003933367791585929
0.00046791359442072133
0.000543537393093485
0.0006204545915843851
0.0006989133786408641
0.0007791636219326437
0.0008614567617037938
0.0009460456906913439
0.0010331846193616934
0.0011231289253934018
0.0012161349862336301
0.0013124599935256942
0.0014123617481800466
0.0015160984348985274
0.001623928375080963
0.0017361097571680917
0.001852900343692565
0.0019745571545998764
0.0021013361267302466
0.002233491749765615
0.0023712766794292683
-0.0021839156755242284
-0.002047145071524148
-0.0019155414161957096
-0.0017888887298882494
-0.0016669732060234366
-0.0015495827736697332
-0.0014365066761485856
-0.0013275350685181264
-0.0012224586363379641
-0.001121068237677214
-0.0010231545698551892
-0.0009285078620080989
-0.000836917594144615
-0.0007481722429644178
-0.0006620590543612859
-0.0005783638422108273
-0.0004968708127616739
-0.0004173624136974974
-0.00033961920676156554
-0.00026341976267219014
-0.00018854057696665594
-0.00011475600535332253
-4.183821714148772e-05
3.044283462610986e-05
0.00010231942765837054
0.00017402607070005072
0.0002457994906548411
0.00031787860740850604
0.00039050449700056555
0.0004639203435758965
0.0005383713803003287
0.0006141048191932175
0.0006913697695737908
0.0007704171445822028
0.0008514995550070736
0.0009348711894429651
0.0010207876796073934
0.001109505949490941
0.0012012840469079467
0.0012963809559130568
0.0013950563885316014
0.0014975705542792372
0.0016041839060146335
0.0017151568608159695
0.001830749494793893
0.0019512212110295302
0.0020768303801750876
0.002207833953708105
0.0023444870503354087
-0.0021568900639982735
-0.0020212279828814572
-0.0018907104009169284
-0.0017651240235016519
-0.0016442577737004194
-0.001527902319144847
-0.001415849618164322
-0.0013078924881108067
-0.0012038241983128306
-0.0011034380896326468
-0.0010065272220905475
-0.0009128840515302272
-0.0008223001358788617
-0.0007345658710965486
-0.0006494702565269517
-0.0005668006890215405
-0.00048634278487924565
-0.00040788022839916005
-0.0003311946456376891
-0.00025606550179635423
-0.00018227002057791264
-0.0001095831237912237
-3.777738950244691e-05
3.3376972923993e-05
0.0001041121324457106
0.00017466263201770804
0.00024526537155378225
0.0003161595791705274
0.0003875867714717707
0.00045979070337104355
0.0005330173076566469
0.0006075146242253693
0.0006835327186226481
0.0007613235892287018
0.0008411410621679272
0.0009232406727739395
0.001007879532180067
0.0010953161774543418
0.0011858104035203376
0.0012796230749735349
0.0013770159158860151
0.001478251275673248
0.0015835918691453066
0.0016933004890185566
0.0018076396893804136
0.001926871438856892
0.0020512567426244077
0.0021810552328760946
0.002316524727872582
-0.002128798032104473
-0.0019942856543432863
-0.0018648938229214873
-0.0017404121971159592
-0.0016206326876178623
-0.0015053489454855962
-0.001394355873908848
-0.001287449165850052
-0.0011844248700559334
-0.001085078987401844
-0.0009892070989827584
-0.0008966040268200137
-0.0008070635275755911
-0.0007203780191709086
-0.0006363383397842148
-0.0005547335383189189
-0.0004753506950909703
-0.0003979747712031245
-0.0003223884848591041
-0.000248372212705128
-0.00017570391418392228
-0.00010415907685074055
-3.351068062873441e-05
3.647082096014387e-05
0.00010601750441069369
0.00017536396633183182
0.00024474730146961665
0.0003144070698073431
0.00038458525362899953
0.0004555262051156861
0.0005274765847046448
0.0006006852901206949
0.0006754033756342093
0.0007518839607672523
0.0008303821273565326
0.0009111548035731221
0.000994460633214178
0.0010805598283733509
0.0011697140033715692
0.0012621859876832398
0.0013582396155285559
0.0014581394897505429
0.0015621507176464267
0.001670538616543038
0.001783568387112855
0.001901504752704064
0.002024611563347989
0.0021531513636015576
0.0022873849239259947
-0.0020996448812339308
-0.001966322747017746
-0.0018380956607915167
-0.0017147565264923337
-0.0015961005200090805
-0.001481924537817647
-0.0013720266724260854
-0.0012662057177953434
-0.0011642607072991917
-0.0010659904861567426
-0.0009711933196809297
-0.0008796665381029523
-0.0007912062181625323
-0.0007056069011370791
-0.0006226613465074027
-0.0005421603200295166
-0.000463892414621081
-0.00038764390215906275
-0.0003131986140457732
-0.00024033784824800675
-0.000168840300399542
-9.848201652956634e-05
-2.9036365035095546e-05
3.972597441453951e-05
0.0001080370071704917
0.00017613140700578622
0.0002442464883022355
0.0003126221683640851
0.00038150092088096166
0.00045112772119021427
0.0005217499836088213
0.0005936174907169578
0.0006669823140684761
0.000742098725413809
0.0008192230971559855
0.000898613790393521
0.0009805310285777025
0.0010652367545338493
0.0011529944683487114
0.0012440690434337154
0.0013387265179519714
0.001437233858733511
0.0015398586948284776
0.0016468690179360368
0.0017585328471483308
0.0018751178557310788
0.001996890958051334
0.0021241178552740547
0.0022570625390349597
-0.002069436281089465
-0.0019373442340506197
-0.0018103201545991987
-0.0016881605054778759
-0.0015706640260648164
-0.0014576311382174523
-0.0013488633833816932
-0.001244162894252665
-0.0011433319035965561
-0.0010461722921428218
-0.0009524851768130671
-0.0008620705398938444
-0.0007747268991217249
-0.0006902510180940014
-0.0006084376558837534
-0.0005290793542548911
-0.000451966260491099
-0.0003768859835198146
-0.00030362348073548207
-0.0002319609727828298
-0.00016167788344634282
-9.255080177283936e-05
-2.4353463629223082e-05
4.3143250008370604e-05
0.00011017130050422486
0.00017696546698420246
0.0002437633116627036
0.0003108051366305653
0.00037833393328517984
0.0004465953251454602
0.0005158375043666785
0.0005863111618007455
0.0006582694100095154
0.0007319676981593082
0.0008076637173010659
0.0008856172941365537
0.0009660902709673347
0.001049346369189963
0.001135651033415952
0.0012252712530488874
0.001318475357972304
0.0014155327849326715
0.0015167138111619738
0.0016222892518651388
0.00173253011839003
0.0018477072341541723
0.0019680908058133384
0.0020939499476650414
0.0022255521579171433
-0.0020381782825743544
-0.0019073554095960232
-0.0017815718123412871
-0.0016606278513531803
-0.00154432614968264
-0.0014324709533601876
-0.001324867528095297
-0.0012213215956178858
-0.001121638812315695
-0.0010256242920542724
-0.000933082174340294
-0.0008438152382594377
-0.0007576245619085875
-0.0006743092264202555
-0.0005936660630979085
-0.0005154894416328215
-0.00043957109695941243
-0.0003656999919469661
-0.00029366221283211313
-0.00022324089413860992
-0.00015421616971927898
-8.636514656396033e-05
-1.946189809670651e-05
4.672252617571315e-05
0.00011242007753253791
0.00017786567400823738
0.00024329715768939275
0.0003089552451394084
0.00037508347230325034
0.0004419281347505244
0.0005097382236127768
0.0005787653570387685
0.000649263706479497
0.0007214899165741695
0.0007957030169082335
0.0008721643234532728
0.0009511373270266188
0.0010328875657146797
0.001117682477867088
0.0012057912319528574
0.0012974845293632908
0.0013930343761250907
0.0014927138193999712
0.001596796644712295
0.001705557030006466
0.0018192691528882698
0.0019382067478107001
0.002062642610473675
0.0021928480473866196
-0.002005877329679162
-0.0018763618965791928
-0.0017518554151255694
-0.001632162509057955
-0.0015170900283942856
-0.001406446361825131
-0.0013000407908669853
-0.0011976828893099922
-0.001099181970675045
-0.00100434658553461
-0.000912984069727174
-0.0008249001436889669
-0.0007398985623434107
-0.0006577808142789743
-0.0005783458683066289
-0.0005013899648984577
-0.00042670644953551884
-0.0003540856446015428
-0.0002833147561652205
-0.0002141778118111004
-0.00014645562557707992
-7.992578608390088e-05
-1.4362664047196105e-05
5.0462564452513625e-05
0.00011478188227076469
0.0001788303860367213
0.00024284623409126516
0.0003070705895983905
0.00037174756037078316
0.0004371241364016787
0.0005034501255053447
0.000570978086870233
0.0006399632617255513
0.0007106634997262051
0.0007833391790761923
0.0008582531178719099
0.0009356704736150356
0.0010158586273812942
0.0010990870487226356
0.0011856271370083715
0.0012757520346640683
0.001369736407562716
0.0014678561877190521
0.0015703882734636743
0.0016776101823863243
0.0017897996525917947
0.0019072341881994914
0.0020301905455359925
0.0021589441571644996
-0.0019725402700898065
-0.0018443696529653053
-0.0017211760208263316
-0.0016027686540408537
-0.001488958997262535
-0.0013795599209054377
-0.0012743850305321214
-0.0011732480278342505
-0.0010759621259708863
-0.000982339521080955
-0.000892190920855962
-0.0008053251301420872
-0.0007215486926884784
-0.0006406655873630318
-0.0005624769764251414
-0.00048678100281246417
-0.00041337263287627435
-0.00034204354055955566
-0.0002725820287117764
-0.000204772983037671
-0.0001383978540878683
-7.323466274128387e-05
-9.05802476586226e-06
5.436080971271684e-05
0.00011725390567307592
0.00017985658500196955
0.00024240736356889725
0.00030514788594504516
0.0003683228595324217
0.0004321799892319511
0.000496969913113321
0.0005629461388607093
0.0006303649800862843
0.0006994854909317394
0.0007705693966951199
0.0008438810176127909
0.0009196871823266006
0.0009982571270079066
0.001079862375639562
0.0011647765965309143
0.0012532754298153481
0.0013456362804133426
0.0014421380708103393
0.0015430609479624158
0.0016486859387248032
0.0017592945484247724
0.001875168297568397
0.0019965881922036077
0.002123834124147961
-0.0019381743641984084
-0.0018113849762138035
-0.0016895389658986293
-0.0015724506934515214
-0.0014599365915179963
-0.0013518143727582754
-0.0012479022921675353
-0.0011480184680071615
-0.0010519802641564824
-0.0009596037356537357
-0.0008707031381416375
-0.0007850905008999209
-0.0007025752622026316
-0.000622963964844292
-0.000546060008856708
-0.0004716634577465739
-0.0003995708939991127
-0.00032957531912231053
-0.0002614660931798407
-0.00019502890855427335
-0.00013004579261416405
-6.629513401756881e-05
-3.5517275572827245e-06
5.841316723892431e-05
0.00011983175815755143
0.00018093964691395792
0.00024197575366485813
0.000303182242124278
0.0003648044473034684
0.0004270908071528634
0.0004902927986321637
0.0005546648779574115
0.0006204644239967694
0.0006879516830243793
0.00075738971227296
0.0008290443190277497
0.000903183991326606
0.0009800798156823776
0.0010600053767053086
0.0011432366329950927
0.001230051763277118
0.0013207309764330377
0.0014155562788749632
0.0015148111926204244
0.0016187804174688791
0.0017277494308735042
0.0018420040194312426
0.0019618297364569215
0.002087511280779719
-0.001902787292166308
-0.0017774145055513002
-0.0016569498650023662
-0.001541213265355057
-0.0014300265476649976
-0.001323212649712524
-0.0012205948188690474
-0.0011219958913832317
-0.00102723764096041
-0.0009361401983356554
-0.000848521542351599
-0.0007641970619038374
-0.0006829791870549551
-0.0006046770865916207
-0.0005290964284123123
-0.00045603919835385254
-0.0003853035724025733
-0.0003166838367524849
-0.0002499703498051731
-0.00018494953999542707
-0.00012140393328313737
-5.9112204233491283e-05
2.1507551705712835e-06
6.261375446975359e-05
0.000122509216460287
0.00018207308618373164
0.00024154474096671485
0.00030116690458403816
0.00036118556783709677
0.0004218499169964529
0.00048341227070114456
0.0005461280250386169
0.000610255605642207
0.0006760564247801359
0.0007437948405640826
0.0008137381145920108
0.0008861563635770842
0.0009613224997863101
0.0010395121544791719
0.0011210035779504746
0.001206077509304293
0.0012950170086957757
0.0013881072444988929
0.0014856352277113904
0.0015878894858876724
0.0016951596690448767
0.00180773608028445
0.0019259091243727378
0.0020499686682187712
-0.0018663871586460656
-0.0017424652216638248
-0.0016234146080446599
-0.0015090612356143396
-0.0013992328027612189
-0.0012937578785207071
-0.0011924650635011247
-0.001095182225925917
-0.0010017358157422551
-0.0009119502584205574
-0.0008256474287117177
-0.0007426462033624515
-0.0006627620905770293
-0.0005858069328454896
-0.0005115886788046864
-0.0004399112188912535
-0.0003705742788384647
-0.00030337336453983843
-0.00023809975139715833
-0.00017454051107756996
-0.00011247856856477778
-5.1692782518097946e-05
8.041957772375596e-06
6.695462510863948e-05
0.0001252779425245376
0.0001832482719167361
0.00024110550747302728
0.0002990929773791229
0.0003574573563847605
0.00041644859086598096
0.0004763198370523747
0.0005373274121072136
0.0005997307567481847
0.0006637924071297152
0.0007297779727694631
0.0007979561163711235
0.0008685985305360022
0.0009419799055458977
0.0010183778816562628
0.0010980729786822518
0.0011813484950761732
0.0012684903682341209
0.0013597869874116264
0.0014555289504056268
0.0015560087550784418
0.0016615204168811681
0.0017723590038070114
0.0018888200806443933
0.0020111990551036074
-0.0018289824947352318
-0.0017065444433668753
-0.0015889393542023456
-0.001475999692040042
-0.0013675594915443234
-0.0012634533833256745
-0.0011635157003180296
-0.0010675796689746386
-0.0009754766883148802
-0.0008870356983587957
-0.0008020826379442902
-0.0007204399904996994
-0.0006419264149535309
-0.000566356457677164
-0.0004935403402639982
-0.0004232838169451192
-0.0003553880946710053
-0.0002896498082943233
-0.00022586104287181108
-0.00016380939491239532
-0.00010327806438226173
-4.404596944906913e-05
1.4112123699949741e-05
7.142546312222109e-05
0.0001281271719898447
0.0001844541138038558
0.0002406467668323864
0.00029694911169170224
0.00035360853497123923
0.00041087575073966986
0.0004690047406750164
0.0005282527124629288
0.0005888800749933032
0.000651150427793401
0.0007153305610959615
0.0007816904619012965
0.0008505033204168622
0.0009220455303632358
0.0009965966757770617
0.00107443949619207
0.0011558598214053695
0.0012411464664791594
0.0013305910771797547
0.0014244879157522816
0.0015231335767689758
0.001626826622798283
0.001735867129846469
0.0018505561329294484
0.001971194962785361
-0.0017905822566782748
-0.0016696598207516788
-0.001553530522440505
-0.0014420339353684586
-0.0013350109410417144
-0.001232302687089848
-0.0011337496363439947
-0.0010391907115729904
-0.0009484625390052681
-0.0008613987920566002
-0.0007778296349705283
-0.0006975812644264279
-0.0006204755455965216
-0.0005463297377229503
-0.0004749563030064241
-0.00040616279151689527
-0.00033975179397377486
-0.00027552095358612805
-0.000213263027727284
-0.0001527659900141809
-9.381316338979984e-05
-3.618337503469293e-05
2.0348875628961594e-05
7.60132439831529e-05
0.00013104336969338437
0.00018567671510516526
0.0002401544180561932
0.0002947211634935498
0.0003496250771542475
0.0004051176433491621
0.0004614536476666986
0.0005188911441831867
0.0005776914455373205
0.00063811913300027
0.0007004420825064694
0.0007649315014750524
0.0008318619701577212
0.0009015114802372048
0.000974161462447054
0.001050096794120603
0.0011296057768082624
0.0012129800734365093
0.0013005145939351537
0.0013925073178672753
0.0014892590423284946
0.0015910730433197906
0.0016982546389121556
0.0018111106428704837
0.0019299486979914016
-0.0017511958207804823
-0.0016318193242562673
-0.0015171947779932249
-0.0014071694665774293
-0.0013015916622565182
-0.0012003095112055884
-0.0011031700223959606
-0.001010018164240012
-0.0009206960722646373
-0.0008350423690975384
-0.0007528915961219629
-0.0006740737542680342
-0.0005984139496126306
-0.0005257321378817625
-0.0004558429605041603
-0.0003885556636522014
-0.00032367409076100584
-0.0002609967383062628
-0.0002003168641794839
-0.0001414226378145811
-8.409732128883407e-05
-2.811947093117606e-05
2.673685050397223e-05
8.07018603345977e-05
0.00013400984944650363
0.00018689899010171374
0.00023961116421639117
0.00029239181701595784
0.0003454898396942907
0.0003991574833311917
0.0004536503049579754
0.0005092271452802888
0.0005661501362095867
0.0006246847350093176
0.0006850997805467052
0.0007476675658948939
0.0008126639203365205
0.0008803682926600276
0.0009510638266021498
0.0010250374183075617
0.0011025797447898888
0.0011839852516050131
0.0012695520872929023
0.0013595819716447077
0.0014543799844657368
0.001554254261345367
0.0016595155829641772
0.0017704768447204255
0.0018874523939833576
-0.0017108329739512484
-0.001593031229054187
-0.0014799390142046787
-0.001371411969993741
-0.0012673063384815997
-0.0011674777729857588
-0.001071780263637856
-0.0009800651842962749
-0.0008921804642067488
-0.000807969885554094
-0.0007272725058349305
-0.0006499222018362949
-0.0005757473299685123
-0.0005045704958904773
-0.00043620842475911026
-0.00037047192207440016
-0.0003071659140405081
-0.0002460895556171683
-0.00018703639395756255
-0.0001297945747751328
-7.414707931779896e-05
-1.9871980026953118e-05
3.325729641340258e-05
8.547170907419188e-05
0.0001370063552028622
0.000188100243277034
0.000238996093562871
0.0002899401716497385
0.00034118215895406756
0.00039297506267249593
0.00044557516613369375
0.0004992420189660063
0.0005542384649872001
0.0006108307042526073
0.0006692883842526753
0.0007298847138637043
0.0007928965923565401
0.000858604744476632
0.0009272938514647278
0.0009992526667801371
0.0010747741042811398
0.0011541552857291526
0.0012376975337032303
0.0013257062953846432
0.0014184909821666758
0.0015163647097602984
0.0016196439233628346
0.0017286478925990223
0.001843698061377741
-0.0016695038992272648
-0.0015533040940838294
-0.0014417703290651729
-0.0013347672915933195
-0.0012321598097592146
-0.0011338115807080773
-0.0010395840295547298
-0.000949335304903931
-0.0008629194145266528
-0.0007801855021726811
-0.0007009772639644529
-0.0006251325003374664
-0.0005524827972090973
-0.0004828533279685465
-0.00041606276608335824
-0.0003519232966067154
-0.00029024071369981863
-0.00023081459048895914
-0.00017343850708789743
-0.00011790032250247329
-6.398247634303855e-05
-1.146230679088811e-05
3.988762797707546e-05
9.029923666703521e-05
0.00014000860059065756
0.0001892557073923662
0.00023828422043037367
0.0002873412898701244
0.0003366774098667036
0.00038654632453033466
0.00043720498366145444
0.0004889135475575901
0.0005419354385187702
0.0005965374350614394
0.0006529898032879289
0.0007115664583355885
0.0007725451473890588
0.0008362076443496069
0.0009028399449774183
0.0009727324500911627
0.001046180123280338
0.0011234826085725347
0.0012049442925715081
0.0012908742948205543
0.0013815863695046393
0.0014773987011770795
0.0015786335769374937
0.0016856169175000213
0.0017986776498989943
-0.0016272191555523619
-0.0015126467349647066
-0.0014026959957146312
-0.0012972414118304632
-0.0011961570529468446
-0.0010993152258698125
-0.0010065852632515915
-0.0009178324660255588
-0.0008329172033524901
-0.0007516941708615721
-0.0006740118050498345
-0.0005997118488624276
-0.000528629060865593
-0.00046059105804618916
-0.0003954182802429762
-0.0003329240625350449
-0.000272914800626356
-0.00021519019340326961
-0.00015954354637298662
-0.00010576211963092552
-5.362750430126795e-05
-2.916012061038309e-06
4.6600936698115714e-05
9.515643930424478e-05
0.00014298776363330656
0.0001903360375276053
0.0002374459832752418
0.00028456570380441804
0.0003319465253678322
0.0003798428996054093
0.0004285123659812373
0.0004782155737310667
0.0005292163606317457
0.0005817818841288847
0.0006361827986590685
0.0006926934713578081
0.0007515922267679609
0.0008131616096615502
0.0008776886536721595
0.0009454651420913174
0.001016787845908973
0.0010919587230391326
0.0011712850615902548
0.0012550795491227396
0.001343660249043921
0.0014373504646903457
0.0015364784712179613
0.0016413770952578566
0.0017523831224486863
-0.0015839896510243534
-0.001471068189972946
-0.0013627234260943366
-0.001258840412256268
-0.0011593031568049583
-0.0010639931722967177
-0.0009727881900107871
-0.000885561047579031
-0.0008021787537164093
-0.0007225017306075054
-0.0006463832311093265
-0.0005736689246923499
-0.0005041966430357481
-0.0004377962734773422
-0.00037428978624354237
-0.0003134913795084793
-0.0002552077249114437
-0.00019923829525969605
-0.0001453757556973967
-9.340639962551744e-05
-4.3110611101071505e-05
5.736663733268976e-06
5.336545246725777e-05
0.00010001031433243268
0.0001459099333593339
0.00019130675809031494
0.00023644669717692857
0.00028157887811741666
0.00032695547429872907
0.00037283160339657284
0.00041946529809644417
0.00046711754805189853
0.0005160524100123465
0.0005665371811355291
0.0006188426286428683
0.000673243267207857
0.0007300176737818354
0.0007894488279233669
0.0008518244641561035
0.0009174374214199199
0.0009865859732605675
0.0010595741211215093
0.001136711831868309
0.001218315199577935
0.001304706510667053
0.001396214190618028
0.0014931726099612352
0.0015959217267850767
0.0017048065429868808
-0.001539826608739081
-0.00142857767815463
-0.0013218601268417118
-0.0012195704351238845
-0.0011216032914823093
-0.0010278500417321146
-0.0009381973250743303
-0.0008525259051699319
-0.0007707097004825969
-0.0006926150141661203
-0.0006180999598353609
-0.0005470140758185305
-0.0004791981170435555
-0.00041448401061128237
-0.0003526949585440642
-0.00029364566910289325
-0.00023714269651575748
-0.00018298486803025593
-0.00013096377678667448
-8.086431911519254e-05
-3.246525549205348e-05
1.4460224588674908e-05
6.0143952139046775e-05
0.00010482225918623245
0.00014873550489313825
0.00019212765976828194
0.00023524595817303595
0.0002783406269878941
0.0003216646959594005
0.00036547389289465215
0.0004100266245740114
0.00045558404201845315
0.0005024101865840347
0.0005507722113021751
0.0006009406698908037
0.0006531898639607348
0.0007077982371376801
0.0007650488030793157
0.0008252295926918785
0.0008886341042564916
0.0009555617386447501
0.0010263182003411586
0.001101215843598069
0.0011805739417788952
0.0012647188567703749
0.001353984084303539
0.001448710150208865
0.0015492443319979898
0.0016559401798350026
-0.0014947415242571593
-0.0013851845485494119
-0.0012801136464314355
-0.0011794376350942049
-0.001083062671717594
-0.0009908905955347547
-0.0009028174806793299
-0.000818732408912004
-0.0007385164667847444
-0.0006620419671580224
-0.0005891718904322829
-0.0005197595365186158
-0.000453648374590665
-0.0003906720741580494
-0.0003306546980759162
-0.0002734110357840436
-0.00021874705339786082
-0.00016646043630857976
-0.00011634119960490796
-6.817234188100096e-05
-2.1730518855456182e-05
2.3213285493983715e-05
6.689311082924698e-05
0.00010954741386859368
0.0001514185195162776
0.00019275214339714575
0.00023379699689285438
0.00027480448312899863
0.00031602848973499853
0.000357725281587451
0.0004001534942316698
0.0004435742262526854
0.00048825122652496056
0.0005344511700647314
0.0005824440141147247
0.0006325034240503569
0.000684907256777334
0.0007399380874693606
0.0007978837636835046
0.0008590379691790773
0.0009237007781042195
0.0009921791785869605
0.0010647875432008846
0.001141848022309766
0.001223690834892821
0.0013106544301631495
0.0014030854922038594
0.0015013387589399296
0.0016057766261283746
-0.00144874611362511
-0.001340898219395259
-0.0012374915124529484
-0.0011384481220600429
-0.0010436865130282191
-0.0009531197121266932
-0.0008666537724573153
-0.0007841864860058112
-0.0007056063492909548
-0.0006307917815746023
-0.0005596105897953119
-0.0004919196693753403
-0.000427564925433388
-0.0003663813949551509
-0.00030819354716199454
-0.0002528157367437389
-0.0002000527828298626
-0.00014970064560532181
-0.00010154717223198606
-5.537288419998898e-05
-1.0951779364887226e-05
3.19478764500003e-05
7.356279128567511e-05
0.00011413394284975897
0.00015390594613157171
0.000193126507764263
0.00023204597911108404
0.00027091701705961313
0.00030999435855699753
0.0003495347120519021
0.0003897967662499502
0.0004310413139714808
0.00047353148639400766
0.0005175330906213582
0.0005633150413077437
0.0006111498749218902
0.0006613143332327431
0.0007140900006702977
0.0007697639783014187
0.000828629575352402
0.0008909869973934281
0.0009571440085159311
0.0010274165431055637
0.0011021292411011463
0.0011816158789959008
0.0012662196672796888
0.0013562933836023805
0.001452199309713964
0.0015543089392516252
-0.0014018522507648346
-0.0012957281060399506
-0.0011940011577868948
-0.0010966078940190527
-0.0010034799801162952
-0.0009145423598555524
-0.0008297116254276093
-0.0007488946679729547
-0.0006719876139337777
-0.0005988750461344283
-0.0005294295022865714
-0.0004635112377868733
-0.00040096823436414075
-0.00034163643155749046
-0.00028534015429121373
-0.00023189270695200825
-0.00018109710248087607
-0.0001327468940514609
-8.662707681045267e-05
-4.2515027909306724e-05
-1.814545163569825e-07
4.060867843008742e-05
8.009526639823905e-05
0.00011852225210101652
0.00015613690054550045
0.00019318917848498707
0.00022993125107800827
0.0002666171051815547
0.0003035023054087649
0.0003408438859359708
0.00037890037803767207
0.00041793197051259723
0.0004582007975037494
0.0004999713457684574
0.0005435109711144359
0.0005890905115084055
0.0006369849823043561
0.0006874743370044456
0.000740844274984831
0.0007973870757086443
0.0008574024369987221
0.0009211982930017459
0.0009890915855697568
0.0010614089608228516
0.001138487360765772
0.001220674477964756
0.0013083290395159985
0.001401820884936844
0.0015015308011968043
-0.0013540718929076767
-0.0012496835361499314
-0.0011496498343122052
-0.0010539227588242661
-0.0009624481266810037
-0.0008751635649774658
-0.0007919967799656646
-0.0007128641437317285
-0.0006376696041753838
-0.0005663039164908734
-0.0004986441870562519
-0.00043455371382383756
-0.000373882101186912
-0.0003164656220622508
-0.0002621277957239043
-0.00021068014680056257
-0.0001619231088603179
-0.00011564703512467744
-7.163327901071881e-05
-2.965530830006946e-05
1.0520181360273995e-05
4.913218530588903e-05
8.642436961769917e-05
0.00012264413685070252
0.00015804179902226267
0.00019286987528588373
0.00022738252782336654
0.0002618351456865897
0.0002964840826681636
0.00033158655181084185
0.0003674006759266657
0.000404185690494302
0.0004422022925013591
0.00048171312625552853
0.0005229833947624773
0.000566281583033984
0.0006118802775697818
0.0006600570641617509
0.0007110954841579586
0.0007652860273036077
0.0008229271372182378
0.000884326203491187
0.0009498005122578201
0.0010196781249164621
0.0010942986524812015
0.0011740138908375997
0.0012591882800094822
0.0013501991485020959
0.0014474367018827705
-0.0013054169926086379
-0.001202773650643335
-0.0011044445126164315
-0.0010103982435220593
-0.0009205958257889058
-0.0008349883745517594
-0.0007535152983350057
-0.0006761028200500119
-0.0006026628644076881
-0.0005330923089960637
-0.0004672725877148953
-0.00040506962728711904
-0.00034633409048870356
-0.0002909018937632124
-0.00023859496213435305
-0.00018922218094624688
-0.0001425805019020232
-9.845616012435499e-05
-5.662595945743476e-05
-1.6858584789919417e-05
2.108409733309058e-05
5.7445785281384776e-05
9.247456776156904e-05
0.00012642185556410723
0.00015954144267640857
0.00019208871532991334
0.00022432002310651677
0.00025649222194204513
0.00028886239482858733
0.0003216877522221051
0.00035522571068785647
0.0003897341451369607
0.0004254718071036445
0.0004626988988892522
0.0005016777909347125
0.0005426738675667342
0.0005859564840989262
0.0006318000161727455
0.0006804849801983204
0.0007322992016502716
0.0007875390058388887
0.0008465104035505766
0.0009095302416288753
0.0009769272861274159
0.0010490432031763364
0.0011262334001070906
0.0012088676867821335
0.0012973307145176527
0.0013920221475500205
-0.001255899394691229
-0.0011550072885628537
-0.0010583917660080266
-0.0009660394898757529
-0.0008779276899307797
-0.000794021814146173
-0.0007142735726634042
-0.0006386193913876514
-0.0005669792817423192
-0.0004992561225874714
-0.00043533534021819587
-0.0003750849630473341
-0.00031835601935564783
-0.00026498323966483994
-0.00021478601997429458
-0.0001675695984221237
-0.00012312639586931073
-8.12374704044494e-05
-4.167403669258496e-05
-4.199003277360891e-06
3.143151582701842e-05
6.546675487689724e-05
9.815995043235826e-05
0.00012976712563544934
0.00016054602948309404
0.00019075525064279897
0.000220653520311892
0.00025049921380337903
0.0002805500560748575
0.00031106303231634436
0.0003422945009984024
0.0003745005034553883
0.00040793726111154616
0.0004428618487891389
0.00047953303011510906
0.0005182122388402155
0.0005591646877609602
0.0006026605848941102
0.0006489764345150584
0.0006983963985431052
0.0007512136915576728
0.0008077319803714289
0.0008682667565615976
0.0009331466476818484
0.0010027146300332634
0.0010773291028698673
0.0011573647808434395
0.001243213358355283
0.001335283896414935
-0.0012055307162703588
-0.001106392853896826
-0.00101149763692987
-0.0009208511345455139
-0.0008344479798941817
-0.0007522688404040523
-0.0006742783355929427
-0.0006004234217420468
-0.000530632250307278
-0.0004648134944530702
-0.00040285612612997457
-0.00034462961523190616
-0.00028998451282397086
-0.00023875337262471708
-0.00019075195900664088
-0.00014578068582563053
-0.00010362622840626168
-6.406325087554565e-05
-2.685619255982097e-05
8.238939848748128e-06
4.147282348734849e-05
7.310115798964123e-05
0.00010338313005484046
0.00013258003634353255
0.00016095409102848124
0.00018876743830451015
0.00021628138440718536
0.00024375585831259983
0.0002714491053709134
0.0002996176137144424
0.00032851626935537226
0.0003583987324576321
0.0003895180242751428
0.000422127311606485
0.0004564808732899217
0.0004928352311361905
0.000531450425685448
0.0005725914152298062
0.0006165295745495514
0.000663544267704208
0.000713924466970578
0.0007679703875662636
0.0008259951050776371
0.0008883261195687386
0.0009553068271543064
0.0010272978563695134
0.001104678223062594
0.0011878462537787404
0.0012772202238036101
-0.0011543222077760595
-0.001056938162095289
-0.0009637674836342203
-0.0008748371722422377
-0.0007901605015893931
-0.000709734288767333
-0.0006335366753317251
-0.0005615254418722682
-0.0004936368632141308
-0.0004297850964798122
-0.00036986208005021504
-0.00031373790866623397
-0.00026126163885967224
-0.00021226246998931608
-0.00016655123957423634
-0.00012392216745263362
-8.415478149906286e-05
-4.7015958032581295e-05
-1.22620123814976e-05
2.03592208926906e-05
5.110637328148426e-05
8.024264204511966e-05
0.00010803404637141356
0.00013474787480849404
0.00016065135163398359
0.0001860105428746206
0.00021108951615081417
0.0002361497625257558
0.00026144988316265105
0.0002872455388778228
0.000313789656588237
0.00034133288316828825
0.0003701242742750188
0.00040041220317862947
0.0004324454724616289
0.0004664746095009442
0.0005027533248120053
0.0005415401105502149
0.0005830999545825555
0.0006277061435055742
0.0006756421257292922
0.000727203403208726
0.0007826994175152424
0.0008424553927311174
0.0009068140940819425
0.0009761374573037385
0.0010508080395441322
0.0011312302381351336
0.001217831218985388
-0.0011022845926116909
-0.0010066502637108843
-0.0009152058047251499
-0.000828000800048051
-0.0007450684900211779
-0.0006664228169512565
-0.0005920560574466105
-0.000521937066247008
-0.0004560101386952564
-0.0003941944811688969
-0.0003363842619910351
-0.00028244920024683706
-0.0002322356371069756
-0.00018556802412578177
-0.00014225075571577817
-0.00010207026869898939
-6.479733038186608e-05
-3.0189437771305228e-05
2.006746019522776e-06
3.205298675723611e-05
6.021716726078985e-05
8.677112277732935e-05
0.00011198866917938588
0.00013614386103888432
0.00015950950821547183
0.0001823559715790346
0.00020495025108890896
0.00022755537280708116
0.00025043007557784547
0.00027382879312426445
0.00029800192311865703
0.00032319637132149914
0.00034965635606107326
0.00037762445600558747
0.0004073428822816416
0.00043905495429161223
0.00047300675703287887
0.000509448956179881
0.0005486387454740338
0.0005908418990808184
0.000636334899340868
0.0006854071077558588
0.000738362944010057
0.0007955240343486825
0.0008572312866840515
0.0009238468453769966
0.0009957558738024896
0.0010733681075852097
0.0011571191159116256
-0.0010494278827474501
-0.0009555352422430385
-0.0008658160388767266
-0.0007803442409411443
-0.0006991744796870369
-0.0006223388451738754
-0.0005498443565372657
-0.00048167113530209194
-0.00041777128861111845
-0.0003580684878241869
-0.000302458207961237
-0.00025080857568210435
-0.000202961758613035
-0.00015873581731740138
-0.0001179269332802213
-8.031192196025772e-05
-4.5650939081209874e-05
-1.369029057826654e-05
1.5834738486736333e-05
4.3197113658355324e-05
6.867540846272613e-05
9.255134875688076e-05
0.00011510759319180441
0.0001366257887229494
0.00015738493024280986
0.00017766004418443004
0.00019772120760011558
0.0002178329069055518
0.0002382537341846236
0.00025923641375416584
0.0002810281474711074
0.0003038712639292507
0.0003280041541278145
0.0003536624741933281
0.00038108059422317653
0.00041049327100689537
0.00044213752121066707
0.0004762546704014936
0.0005130925518447016
0.0005529078273183163
0.0005959684000480525
0.000642555887263474
0.0006929681167215651
0.0007475216077777735
0.0008065539932547439
0.0008704263334053108
0.0009395252677161514
0.0010142649442807516
0.0010950886599762066
-0.0009957611671575217
-0.0009035979828407037
-0.000815600336673522
-0.0007318685443877815
-0.0006524801608270292
-0.0005774864947235836
-0.0005069099020201251
-0.0004407418901893334
-0.0003789420396256016
-0.0003214377224363685
-0.0002681245750925654
-0.00021886766044393324
-0.00017350323735693118
-0.0001318410431982997
-9.366698583579414e-05
-5.874613769146775e-05
-2.6825924399676015e-05
2.360595648953634e-06
2.9091457782709496e-05
5.365261120010567e-05
7.633490951705624e-05
9.743133646900048e-05
0.00011723451918246863
0.0001360345692759668
0.00015411728052919238
0.00017176270128677062
0.0001892440904093795
0.00020682725756648868
0.0002247702819923869
0.0002433235984894977
0.0002627304353384763
0.00028322758571228124
0.00030504649201773537
0.00032841462108795794
0.000353557107129282
0.00038069863858283814
0.00041006556436690156
0.0004418881942109265
0.0004764032667390339
0.0005138565575131537
0.0005545055972862589
0.000598622468130805
0.0006464966418597284
0.0006984378211330466
0.0007547787389067528
0.0008158778663688859
0.0008821219732275121
0.0009539284772997481
0.0010317475127738507
-0.00094129236953433
-0.0008508419079993335
-0.0007645593011131879
-0.0006825733617281393
-0.0006049862212087753
-0.0005318695271983864
-0.00046326154357512195
-0.00039916518920721233
-0.0003395470200378281
-0.00028433712796469
-0.00023342990143848663
-0.0001866855679828472
-0.00014393241885143904
-0.00010496960138126066
-6.957035552260238e-05
-3.748556735355679e-05
-8.447513750231561e-06
1.782632186717037e-05
4.162947346245116e-05
6.32628547115599e-05
8.303134462933626e-05
0.00010124066662137166
0.00011819461616713323
0.00013419267789580025
0.00014952805939411062
0.00016448615703212877
0.00017934345866982282
0.000194366879405522
0.00020981351955609573
0.00022593082870708825
0.00024295715580224808
0.0002611226626287877
0.0002806505764555989
0.00030175875676966
0.0003246615507191408
0.00034957191183832004
0.000376703756584551
0.00040627453303232475
0.0004385079755110932
0.0004736370178735627
0.0005119068363570733
0.0005535779904931593
0.0005989296271969313
0.0006482627089170467
0.000701903221567518
0.0007602053118664909
0.0008235542966699705
0.0008923694789864933
0.0009671066966419339
-0.000886027971134018
-0.0007972686757751479
-0.000712691692843187
-0.0006324566939266141
-0.0005566921734654617
-0.0004854912877447215
-0.0004189087435735317
-0.00035695877766789286
-0.00029961422863630793
-0.0002468066658488366
-0.00019842750530507658
-0.00015433001341308428
-0.00011433207647895682
-7.821959734566342e-05
-4.575037119480818e-05
-1.665828975122574e-05
9.342273565471348e-06
3.25520365158094e-05
5.3282465309223426e-05
7.185162706480064e-05
8.858033085137884e-05
0.00010378863249652093
0.00011779276035320252
0.00013090250210645582
0.0001434190771256172
0.0001556335052103064
0.00016782547104934875
0.0001802626744009661
0.00019320064885047783
0.00020688302682628223
0.0002215422251510557
0.0002374005234670462
0.00025467150709038155
0.0002735618459342726
0.0002942733817201393
0.0003170054965421776
0.00034195773663844853
0.0003693326657512874
0.000399338922507958
0.0004321944556057722
0.00046812990917488584
0.0005073921283131055
0.000550247751422317
0.0005969868515182941
0.0006479265830968695
0.0007034147844506566
0.0007638334774799083
0.0008296021981091528
0.0009011810804784026
-0.0008299726939041963
-0.0007428778353149312
-0.0006599940956507067
-0.0005815146091126544
-0.0005075961685017394
-0.0004383546569527996
-0.00037386170610398395
-0.00031414262625764633
-0.00025917560620516977
-0.00020889213473462842
-0.00016317855485009636
-0.00012187862722862208
-8.479695279170474e-05
-5.1703086171889234e-05
-2.2336162400327098e-05
3.590142119064277e-06
2.638248722483527e-05
4.636274592281775e-05
6.386302448835313e-05
7.922094953832781e-05
9.277532401624766e-05
0.00010486223169176023
0.00011581164809645883
0.0001259445956529326
0.00013557086277787844
0.00014498729135564714
0.00015447662437881315
0.00016430689575042123
0.00017473133710430022
0.0001859887717542419
0.0001983044632163644
0.00021189138477381575
0.00022695187688159812
0.00024367966044014366
0.00026226217571737043
0.00028288321865385657
0.00030572584807603276
0.0003309755387627955
0.00035882355609309635
0.0003894705279113009
0.0004231301882271221
0.0004600332651857053
0.0005004314823648659
0.0005446016378092278
0.0005928497192019544
0.0006455150062750215
0.0007029741028541092
0.0007656448309397434
0.0008339899079571056
-0.0007731291381872507
-0.000687666433609152
-0.0006064605370808829
-0.0005297409272436715
-0.00045769479620746956
-0.00039046201781930967
-0.00032813155514452297
-0.0002707393571448613
-0.00021826773573666025
-0.00017064615886971946
-0.00012775334598200128
-8.942051145174879e-05
-5.5435571041734244e-05
-2.5548106574374563e-05
5.251248955118193e-07
2.3094350029395638e-05
4.249080898030555e-05
5.906084163948e-05
7.31601936535542e-05
8.514867974404594e-05
9.538531452593646e-05
0.00010422399368401059
0.00011200978234485182
0.00011907584382869763
0.00012574102135512466
0.00013230806810426987
0.00013906250745218673
0.0001462720951257157
0.00015418684816687067
0.0001630396016203961
0.00017304705229470585
0.00018441124928411656
0.00019732149273096744
0.00021195660499245816
0.0002284875415894949
0.0002470803126292387
0.0002678991883874604
0.0002911101652200987
0.00031688466963247786
0.0003454034789161786
0.00037686083619825617
0.00041146873583847166
0.00044946135175630286
0.0004910995764340897
0.0005366756319430954
0.0005865177063933691
0.000640994559637259
0.0007005200309554149
0.0007655573687843364
-0.0007154973682367005
-0.0006316285662819054
-0.0005520820583023167
-0.00047712686916887015
-0.00040698287571014347
-0.0003418152465192448
-0.0002817305782680246
-0.00022677478247881688
-0.0001769327042646096
-0.0001321293867674045
-9.223283569398388e-05
-5.705809028039299e-05
-2.6372372001676192e-05
9.893883842759799e-08
2.266575620549216e-05
4.166642398822917e-05
5.746077183177434e-05
7.04233052000458e-05
8.093671427372717e-05
8.938585338025273e-05
9.61523085606375e-05
0.0001016096375308917
0.00010611933523724248
0.000110027550595998
0.00011366255657099811
0.00011733295681573552
0.00012132659772318144
0.00012591014470048068
0.00013132927531853134
0.00013780943921593014
0.00014555713463337838
0.0001547616535536589
0.0001655972510568593
0.00017822569905062702
0.00019279918950895758
0.00020946355728096444
0.00022836179699367576
0.0002496378522762188
0.0002734406582060034
0.00029992841925982616
0.00032927310501384977
0.0003616651442464591
0.000397318294817095
0.00043647466168772464
0.0004794098286710624
0.000526438060872686
0.0005779175243626755
0.0006342554573507131
0.000695913213035082
-0.0006570744374780335
-0.0005747548639243039
-0.0004968462264653972
-0.00042366066740337494
-0.00035545323878644064
-0.0002924157388136117
-0.00023467255726050684
-0.00018227858685881948
-0.00013521916797365474
-9.341195099146771e-05
-5.671048931582545e-05
-2.4909319220889348e-05
2.249756935551739e-06
2.5070489770767646e-05
4.389441507884895e-05
5.909280009006035e-05
7.105858212924643e-05
8.019854584531694e-05
8.692594660916764e-05
9.165374581604491e-05
9.478858147696223e-05
9.672555697240459e-05
9.784389396708115e-05
9.850346350412376e-05
9.904218291170719e-05
9.97742456148587e-05
0.00010098913611655824
0.00010295137286939204
0.00010590091685433456
0.0001100541826855872
0.00011560559117387847
0.0001227296066902417
0.0001315832086215829
0.00014230875305124013
0.00015503718788734133
0.00016989159148858568
0.0001869910110060824
0.00020645458178478182
0.00022840591296971469
0.00025297772676038943
0.0002803167393270467
0.00031058877016193476
0.00034398406347768695
0.0003807228001087293
0.00042106077118511664
0.00046529517558999145
0.0005137704918810049
0.0005668843619155706
0.0006250934078818049
-0.0005978538438278225
-0.0005170319038672877
-0.00044073658177315456
-0.00036932713610191015
-0.0003030965119782958
-0.00024226448800698797
-0.00018697321352215135
-0.00013728519426817187
-9.318367338692624e-05
-5.457525287022591e-05
-2.129451434154661e-05
6.889668593079712e-06
3.026647885973066e-05
4.9174539960006314e-05
6.399271123758155e-05
7.513065252226503e-05
8.301948374597745e-05
8.810282162780014e-05
9.082842528307378e-05
9.164062956282248e-05
9.097369254132404e-05
8.924613460561948e-05
8.685610309974723e-05
8.417775977720421e-05
8.155865900236203e-05
7.931806280822573e-05
7.774612417621451e-05
7.710386151688065e-05
7.762384440995751e-05
7.951151217494568e-05
8.294705177869233e-05
8.808776893040604e-05
9.507089505633726e-05
0.00010401678242377699
0.00011503244928909306
0.00012821544599070367
0.00014365802098736946
0.000161451572592064
0.00018169137721263384
0.00020448158819608153
0.00022994050063226967
0.0002582060766163907
0.0002894417224564294
0.00032384230400650527
0.0003616403787260192
0.00040311261317604874
0.0004485863424065206
0.0004984462130738498
0.0005531408351488187
-0.0005378249033684557
-0.00045844153530430476
-0.00038373201029798243
-0.00031410719811061916
-0.00024990090561408107
-0.0001913622358175049
-0.00013865080462674428
-9.183487150909997e-05
-5.0892301677929463e-05
-1.571415232198836e-05
1.3889428773866674e-05
3.818138200387122e-05
5.748843142694415e-05
7.219075713821299e-05
8.271109902519003e-05
8.950371805308e-05
9.304359513170879e-05
9.381618927137292e-05
9.230801161475011e-05
8.899820499860822e-05
8.43512541971736e-05
7.881089316622014e-05
7.279522472572464e-05
6.669302646231112e-05
6.0861184645655264e-05
5.562317541094042e-05
5.1268498578893595e-05
4.8052963206451915e-05
4.619972396185945e-05
4.5900972368062565e-05
4.732019557213141e-05
5.0594926308350496e-05
5.583992009483563e-05
6.315070853959992e-05
7.260749012960588e-05
8.427933147303612e-05
9.822866218903159e-05
0.00011451605513412844
0.00013320529013241544
0.0001543687036922592
0.000178092829188653
0.00020448433155564882
0.00023367623765921386
0.00026583445808250894
0.00030116458809253954
0.00033991896501414653
0.0003824039460698647
0.00042898735496840756
0.00048010602708806194
-0.00047697202814794837
-0.0003989601032375889
-0.0003258060322117451
-0.0002579773676742725
-0.00019585202160193882
-0.00013970972479379618
-8.972691958172851e-05
-4.597513513310281e-05
-8.422721424039548e-06
2.3060336259456138e-05
4.869492625228511e-05
6.878313801317315e-05
8.369695720333858e-05
9.386589451840233e-05
9.976409844564271e-05
0.00010189745851826859
0.00010079114129554756
9.69779235759638e-05
9.098760334047551e-05
8.333768485876969e-05
7.452545540767574e-05
6.502150089321423e-05
5.526464872815384e-05
4.5658279745175445e-05
3.656791683051552e-05
2.831997563973454e-05
2.1201550906374544e-05
1.546110890798813e-05
1.130996081882829e-05
8.924401212112576e-06
8.448409259842471e-06
9.996825724611913e-06
1.365893543392449e-05
1.9502401555349103e-05
2.7577513793480835e-05
3.7921727072703915e-05
5.056447983139978e-05
6.553229142425288e-05
8.285414609926489e-05
0.000102567176413354
0.0001247226616901409
0.0001493923571238287
0.00017667516638666947
0.00020670416503601463
0.000239653973657189
0.00027574846847860934
0.000315268803145613
0.00035856169840267627
0.00040604793657278426
-0.0004152738907042819
-0.0003385575537155072
-0.00026692599352950985
-0.00020090918856588424
-0.0001409326969343816
-8.730809064122491e-05
-4.022753502894161e-05
2.3745168567512742e-07
3.413324138046292e-05
6.161771471041577e-05
8.29507806198726e-05
9.848242747109714e-05
0.00010863899347504646
0.00011390835404545552
0.00011482469214518787
0.00011195345277970059
0.00010587699397227035
9.7181343618441e-05
8.644436376320508e-05
7.422551881214323e-05
6.105734809391805e-05
4.743866028461552e-05
3.382939978288646e-05
2.0647084081615308e-05
8.264676014002603e-06
-2.990265934310621e-06
-1.2835324252946645e-05
-2.103200896136359e-05
-2.7383747195686148e-05
-3.173321342414548e-05
-3.395911875728186e-05
-3.397255677528577e-05
-3.1712981733988954e-05
-2.7143874059554207e-05
-2.024812851664226e-05
-1.1023182925229413e-05
5.241097591757171e-07
1.438287552923967e-05
3.054389856377293e-05
4.900561112028412e-05
6.978042302752119e-05
9.290142015305758e-05
0.00011842945858225873
0.00014646067554055509
0.00017713442932743018
0.00021064166867490464
0.0002472337170326133
0.00028723143920322824
0.0003310347365196309
-0.00035270245390736643
-0.0002771963990968185
-0.0002070521477043341
-0.0001428686293171999
-8.512290686646384e-05
-3.415944590678954e-05
9.815585921307823e-06
4.6734980462953546e-05
7.666637692296807e-05
9.980387744079611e-05
0.00011645607491589383
0.00012703129895111354
0.00013202094318345847
0.00013198173450712503
0.00012751775022384892
0.00011926289462887985
0.00010786442499197135
9.396798135319351e-05
7.820443674336208e-05
6.117875400110662e-05
4.346091939100294e-05
2.55789262868511e-05
8.013706379844665e-06
-8.804148624252939e-06
-2.4496066383133952e-05
-3.873578290475299e-05
-5.124845203749451e-05
-6.180877722941625e-05
-7.023834981526034e-05
-7.640235496592096e-05
-8.020578009387824e-05
-8.158923295373266e-05
-8.052444939571357e-05
-7.70095449159347e-05
-7.106404059323279e-05
-6.272367323661987e-05
-5.2034981933540836e-05
-3.904964886927709e-05
-2.381856135905136e-05
-6.3855544746027615e-06
1.3219210467485532e-05
3.4986277085952144e-05
5.893437775550403e-05
8.511840716346475e-05
0.00011363791351531871
0.0001446461228039042
0.00017835949578834387
0.00021506779815250177
0.0002551446417844161
-0.0002892218396376989
-0.00021483051744386472
-0.00014613661146647972
-8.381544019855913e-05
-2.8399761464042994e-05
1.973227586990478e-05
6.0363044685873835e-05
9.343525169996925e-05
0.00011904603040627237
0.00013743598955531788
0.00014897411214329082
0.0001541395372699761
0.00015350131065186567
0.00014769716589971282
0.0001374123108414671
0.00012335905774357725
0.00010625797117078117
8.682102971163674e-05
6.573712269622445e-05
4.3660042163135016e-05
2.1198991738025086e-05
-1.0884776681097108e-06
-2.270127879616668e-05
-4.3197575068570915e-05
-6.219580443053707e-05
-7.93742110478668e-05
-9.446914950414498e-05
-0.00010727240722124831
-0.00011762776335250136
-0.00012542696975692547
-0.00013060530463976372
-0.00013313681430238145
-0.00013302932472303297
-0.00013031927357193274
-0.00012506638546375126
-0.00011734818914921341
-0.00010725435519054471
-9.488081644479229e-05
-8.03236213903491e-05
-6.367246185318143e-05
-4.5003811984106745e-05
-2.4373614256445464e-05
-1.8094507850674457e-06
2.2697855652453747e-05
4.9203256901830805e-05
7.78171438919617e-05
0.00010871567652556702
0.00014215177502685528
0.00017846674502841609
-0.0002247870033506849
-0.00015140375438696396
-8.41221772248657e-05
-2.3702481150716936e-05
2.9262357215509294e-05
7.436012246969659e-05
0.00011136536599276603
0.00014023799307971707
0.00016111497678106268
0.00017429610799807316
0.00018022495540018224
0.00017946636113630454
0.00017268184023908062
0.00016060419486765842
0.0001440125185596941
0.00012370857403926072
0.00010049530533892681
7.515801371285602e-05
4.844850580515425e-05
2.1072325778026535e-05
-6.32098053743313e-06
-3.3144747824037646e-05
-5.887948710511792e-05
-8.307491676770584e-05
-0.00010535007447065592
-0.00012539185528695485
-0.00014295230246860746
-0.00015784494519366365
-0.0001699404374461977
-0.00017916170787937724
-0.00018547878527816475
-0.00018890342044280972
-0.0001894835845443199
-0.0001872978873003195
-0.00018244992619689815
-0.0001750625506597714
-0.00016527200255450625
-0.00015322187650573804
-0.00013905683007464642
-0.0001229159646150002
-0.00010492579248483347
-8.519270501675114e-05
-6.379485822097242e-05
-4.077339951175096e-05
-1.612296879238695e-05
1.0218578992637894e-05
3.8381265275722054e-05
6.857490747702588e-05
0.00010110185612349776
-0.00015934217330121347
-8.684828860269778e-05
-2.0940962250193262e-05
3.75249632227348e-05
8.789145108009655e-05
0.0001297124460194199
0.00016275977612342785
0.00018701999444314943
0.00020268293564162931
0.00021012321662541855
0.00020987622470744483
0.00020261030061738405
0.00018909684190876463
0.00017017994449211593
0.00014674699512748357
0.00011970135923328185
8.993800958090326e-05
5.832264190427927e-05
2.5674546535958687e-05
-7.246732945470624e-06
-3.975111327472747e-05
-7.122435595827148e-05
-0.00010113151206952997
-0.0001290178642567863
-0.000154507814344923
-0.0001773021485386994
-0.00019717407590677527
-0.00021396438666018702
-0.00022757602064785165
-0.0002379682782364667
-0.0002451508487528453
-0.00024917777832389465
-0.0002501414507225519
-0.00024816661247809013
-0.00024340443726203476
-0.00023602659431570805
-0.00022621926116966895
-0.00021417700170919818
-0.00020009641634058384
-0.00018416946132371326
-0.00016657632892039254
-0.0001474777786764636
-0.0001270068128218227
-0.0001052595953382196
-8.228552473302231e-05
-5.80763849320487e-05
-3.255451698977452e-05
-5.55997647772033e-06
2.316333256643932e-05
-9.281900256438713e-05
-2.108271306591747e-05
4.348712704313473e-05
9.99298551083716e-05
0.000147517262228114
0.0001857705761821593
0.00021446594986104794
0.0002336288353337601
0.00024351834373886883
0.00024460325579822584
0.0002375317193245019
0.00022309683713794826
0.0002022003239720016
0.00017581622560430832
0.0001449563905699669
0.00011063901171978752
7.386115657681547e-05
3.557582011012861e-05
-3.3263103139391514e-06
-4.203047239215163e-05
-7.9807139881094e-05
-0.00011601748675849066
-0.00015011555031865798
-0.0001816476721200333
-0.000210249786963157
-0.00023564309069265543
-0.00025762855797883955
-0.00027608071021248404
-0.0002909409582269873
-0.00030221077002365315
-0.00030994484355170715
-0.0003142444011070833
-0.0003152506661531773
-0.0003131385356676397
-0.0003081104212598884
-0.00030039019973204795
-0.0002902171878489679
-0.00027784003610853425
-0.0002635104216123785
-0.00024747641029471135
-0.00022997535329860597
-0.00021122618101762636
-0.00019142096112417795
-0.0001707155937069882
-0.00014921952753321754
-0.00012698439640007608
-0.00010399149360931781
-8.013802572642836e-05
-5.522211388508946e-05
-2.513436821544035e-05
4.599022701834432e-05
0.00010925613872284079
0.0001635840192893978
0.00020817019895083555
0.00024250561117011848
0.0002663803907481388
0.0002798747780500266
0.0002833378887460991
0.00027735661100483644
0.00026271732495239397
0.0002403632939934619
0.0002113504793210541
0.00017680422739516088
0.00013787883876345552
9.572151183645516e-05
5.144162763057181e-05
6.085849672599064e-06
-3.9380908893854594e-05
-8.408893265277051e-05
-0.0001272720869051891
-0.00016827180732592595
-0.00020653743880150177
-0.00024162367408409047
-0.0002731858037077761
-0.000300973417372119
-0.00032482310693976446
-0.0003446506230188884
-0.00036044283876882077
-0.0003722497816074921
-0.00038017690927652503
-0.00038437773294794364
-0.00038504682721587913
-0.0003824132145475445
-0.0003767340692261145
-0.0003682886518824313
-0.00035737235926650013
-0.0003442907538989959
-0.00032935342373283105
-0.00031286751233058907
-0.0002951307547910953
-0.0002764238535314656
-0.0002570020309578813
-0.00023708560302956871
-0.0002168494289165046
-0.00019641110740173384
-0.0001758178104885877
-0.00015503166879271557
-0.00013391365152173873
4.381226587327203e-05
0.00011448631279872834
0.00017647604995749133
0.00022856863782994008
0.00026987964758426464
0.0002998740084793894
0.00031836899384268813
0.0003255202612967023
0.0003217931582188416
0.00030792237574203685
0.0002848635284187495
0.0002537403513040992
0.00021579098748447656
0.00017231636498629688
0.0001246330257679562
7.403206413167385e-05
2.174513795735744e-05
-3.1082105506646807e-05
-8.340935834813545e-05
-0.00013431428674903767
-0.00018299927749959588
-0.00022879324003144408
-0.00027114944948594677
-0.00030964038453346054
-0.00034395043074694764
-0.00037386720636539694
-0.0003992721386137654
-0.0004201307877927385
-0.0004364832917005679
-0.0004484351899682326
-0.00045614878929153835
-0.0004598351471005735
-0.0004597466824552421
-0.00045617036753589635
-0.0004494214093332394
-0.0004398372972024833
-0.0004277720661514939
-0.0004135906066073114
-0.0003976628377494462
-0.0003803575525430647
-0.0003620357377262795
-0.0003430431710499948
-0.00032370210102150576
-0.00030430182136584327
-0.0002850879637223691
-0.0002662503479060607
-0.0002479092495504265
-0.00023009997009343364
-0.00021275562358885614
0.00011414202959442177
0.00018454303772016956
0.00024527499343146575
0.00029497452309096284
0.00033267140990092536
0.0003578115374424373
0.0003702571818672562
0.00037026624394240204
0.0003584535603170236
0.00033573851192489346
0.0003032836921356974
0.0002624294237500713
0.0002146285024146044
0.00016138481568284124
0.00010419857822960288
4.45199638859084e-05
-1.628798996769487e-05
-7.69771063426905e-05
-0.00013643292779114136
-0.00019368564180161085
-0.000247914255955467
-0.00029844531179365474
-0.0003447474166104192
-0.00038642278064332514
-0.00042319680375366153
-0.0004549065861577939
-0.00048148906153974713
-0.000502969281644311
-0.0005194492277865725
-0.00053109739109794
-0.0005381392511670247
-0.0005408486913203447
-0.0005395403162288537
-0.000534562581171516
-0.0005262915993813622
-0.000515125461792415
-0.0005014788798519132
-0.00048577794494622517
-0.0004684547859630517
-0.00044994189864897005
-0.0004306659160924764
-0.0004110405887894908
-0.0003914587454613705
-0.00037228301242758777
-0.0003538350803989343
-0.00033638332346450084
-0.00032012859610594524
-0.0003051880603153201
-0.0002915769259901335
0.00018600050837977444
0.0002563234137459014
0.0003158017497889576
0.0003629020157413232
0.00039656389580028373
0.00041622498718305034
0.0004218167872761802
0.00041373439746858476
0.00039278441210574555
0.0003601167846439268
0.00031714703016835766
0.00026547498125420455
0.00020680559921099073
0.00014287624220318818
7.539350430491032e-05
5.981443290614674e-06
-6.38581534979088e-05
-0.0001327737697394693
-0.00019958143214046653
-0.0002632727063651974
-0.00032301509208937373
-0.0003781465336155365
-0.00042816567098052927
-0.0004727192787648271
-0.0005115881156516899
-0.0005446721682713096
-0.0005719760400404728
-0.0005935950235938237
-0.0006097022114626149
-0.000620536846416414
-0.0006263939895705395
-0.000627615488105443
-0.0006245821513783945
-0.0006177069900599741
-0.0006074293336838232
-0.0005942096140323372
-0.0005785245820531804
-0.0005608627122022092
-0.0005417195385242213
-0.0005215926603752141
-0.0005009761519461642
-0.00048035410868935147
-0.00046019306573791274
-0.0004409330291419711
-0.00042297687100503745
-0.0004066778551578276
-0.00039232508142775235
-0.00038012666400952244
-0.0003701904925495214
0.00025956246500352664
0.00033002053829334077
0.00038822850632169725
0.0004324602746561268
0.00046156254164722577
0.00047498078483895756
0.00047274854969478475
0.00045544380501597037
0.00042411874628156543
0.00038021103262367295
0.00032544497050651655
0.0002617307134601954
0.00019106836052659726
0.00011546219404023894
3.684848759072379e-05
-4.2961420087722635e-05
-0.000122322578165579
-0.00019978334363834893
-0.00027409948669604445
-0.00034423763497357096
-0.00040937035776467123
-0.00046886512247099055
-0.0005222691415588399
-0.0005692918320472362
-0.0006097862811154375
-0.0006437307869010811
-0.0006712112462104458
-0.0006924049033171786
-0.0007075657609584562
-0.0007170117852242641
-0.000721113906164389
-0.0007202867197616536
-0.0007149807280606157
-0.0007056759065110496
-0.0006928763555158479
-0.0006771057721104978
-0.0006589034639698788
-0.0006388206188360501
-0.0006174165360958717
-0.0005952545225656469
-0.0005728971511824443
-0.0005509005795325539
-0.0005298076256451401
-0.0005101393023815015
-0.0004923845203309019
-0.0004769876835963027
-0.0004643339242515476
-0.00045473174998056365
-0.0004483929151454513
0.0003350376549802747
0.000405863096384268
0.00046275385535093916
0.0005037656044201144
0.0005276516916265794
0.0005338893381841847
0.0005226586750140816
0.0004947803606669132
0.0004516209306756058
0.00039497693410947554
0.000326949278801586
0.000249818244626665
0.00016592771090329084
7.758471927835076e-05
-1.3022029681397651e-05
-0.00010388344505907199
-0.00019321164165361782
-0.00027946376378018556
-0.0003613507519639181
-0.00043783412659298415
-0.0005081138660184004
-0.0005716102136514578
-0.0006279418594958841
-0.0006769024879769159
-0.0007184372259088079
-0.0007526201011238964
-0.0007796332554238228
-0.0007997483536759387
-0.0008133103935785979
-0.0008207239418337176
-0.0008224416934172474
-0.0008189551616215041
-0.0008107872481925016
-0.000798486406851151
-0.0007826220927700522
-0.0007637811795771776
-0.0007425650199369138
-0.0007195868227238
-0.000695469017334055
-0.000670840272795542
-0.0006463318359166692
-0.0006225728493386984
-0.000600184308176932
-0.0005797713146620531
-0.0005619132957204453
-0.0005471518606997849
-0.0005359759971322597
-0.0005288043324226666
-0.0005259642285136701
0.0004126780428819199
0.00048412201418901457
0.0005396059573352652
0.0005769382808469281
0.000594782836049218
0.000592683426680618
0.0005710273080643258
0.0005309564279114276
0.0004742395915117714
0.000403120921063288
0.0003201599562153157
0.00022807691142193165
0.00012961358195323625
2.7416842994149038e-05
-7.60517981990283e-05
-0.00017858013510019255
-0.0002782444944183504
-0.0003734275739286641
-0.0004628189580902775
-0.0005454025636111859
-0.0006204350251964308
-0.0006874185286951107
-0.0007460709697550416
-0.0007962956619768369
-0.0008381522066368552
-0.0008718296043443707
-0.0008976222532963429
-0.0009159091396421792
-0.0009271362741212485
-0.0009318022521337399
-0.0009304466969098646
-0.0009236412730631582
-0.000911982917877141
-0.0008960889195826216
-0.0008765934672209097
-0.0008541452991061294
-0.0008294060817931326
-0.0008030491557255992
-0.000775758285594258
-0.0007482260521030903
-0.0007211515175351846
-0.0006952367912054225
-0.0006711821143308705
-0.0006496790794577323
-0.0006314016000599776
-0.0006169942542495199
-0.0006070576453299226
-0.0006021304529198468
-0.0006026678919104078
0.0004927868270828972
0.0005651185301368544
0.0006190457087225654
0.0006520970493248124
0.000662857589679211
0.0006509882544045997
0.0006171659311359767
0.0005629574465242648
0.0004906465364911683
0.00040303526374807497
0.00030324051593119683
0.00019450295232420478
8.002105865265174e-05
-3.718217282655534e-05
-0.00015435717659986747
-0.00026909143698142235
-0.0003793425628322855
-0.00048344611773851187
-0.0005801040776010069
-0.0006683596285745608
-0.0007475633895060452
-0.0008173352699946124
-0.0008775252311206405
-0.0009281753178931318
-0.0009694845482794701
-0.00100177760275727
-0.0010254777637704326
-0.0010410841934537507
-0.0010491533897178662
-0.0010502845020134988
-0.0010451080965801218
-0.0010342779171415017
-0.0010184651747933426
-0.0009983549076199583
-0.0009746439669009177
-0.0009480402058699988
-0.0009192624642569425
-0.0008890409543462485
-0.0008581176605283458
-0.0008272463639420746
-0.0007971918973259662
-0.0007687282241682081
-0.000742634923009744
-0.0007196916455137758
-0.0007006701095438606
-0.0006863231902326516
-0.0006773706869498963
-0.0006744813753024048
-0.0006782510021293431
0.0005757298177314352
0.0006492340076628966
0.0007013696075680032
0.0007293500266937203
0.0007317030259014201
0.0007082797396154861
0.0006601595079946121
0.0005894709840105206
0.0004991573331660226
0.00039271557980707916
0.0002739378151310756
0.00014667637995452454
1.4647890730357105e-05
-0.00011871640079952339
-0.00025037281582657167
-0.00037772370618330275
-0.0004986388422609789
-0.0006114477951225938
-0.000714911496690479
-0.0008081804295957951
-0.0008907456939439562
-0.0009623878231602989
-0.0010231268835095841
-0.0010731762147228596
-0.001112901208071282
-0.0011427837823397846
-0.0011633926885570023
-0.0011753594182236926
-0.0011793592702221134
-0.001176097013347449
-0.001166296533983563
-0.0011506938571025638
-0.0011300329544771948
-0.0011050637927686735
-0.0010765421161446354
-0.0010452304966690196
-0.001011900216755679
-0.0009773335691278529
-0.0009423261699672558
-0.0009076888804179506
-0.0008742489212690552
-0.0008428497475373442
-0.0008143492267539687
-0.0007896156411054678
-0.0007695210144153808
-0.0007549312562249721
-0.0007466926230740301
-0.0007456140268263522
-0.0007524447746009577
0.000661949902582254
0.0007369218763649266
0.000786911757511638
0.0008087800398588751
0.0008010358184302457
0.0007638260849172351
0.00069878749086838
0.0006087920923338042
0.0004976278507194121
0.00036965611993994285
0.00022948323146870786
8.167391539118385e-05
-6.947673029947254e-05
-0.0002201064640772743
-0.00036688647038207733
-0.0005070671406117722
-0.0006384799802026941
-0.0007595073982953338
-0.000869031418452515
-0.0009663707155227741
-0.0010512133672434532
-0.0011235506873226164
-0.0011836157072674935
-0.001231828404227281
-0.0012687486543712934
-0.001295037097845786
-0.0013114235793966478
-0.0013186825182909534
-0.0013176144054027894
-0.0013090325756654475
-0.0012937544219248642
-0.0012725962724945694
-0.001246371228555282
-0.0012158893347712085
-0.001181959527892018
-0.0011453928680254244
-0.0011070066026325764
-0.0010676286427589166
-0.0010281020442947653
-0.0009892890848502978
-0.0009520745105492667
-0.0009173674990265446
-0.0008861018486329142
-0.0008592338642485209
-0.0008377373737974703
-0.0008225952846997453
-0.0008147870851636374
-0.0008152717200797521
-0.000824965331550187
0.0007519856002776715
0.0008287221469325812
0.0008760440175535344
0.0008904213265913952
0.0008704098569469743
0.0008166053972376852
0.000731415368953825
0.000618696596482865
0.00048331936051901336
0.00033071718705893205
0.00016647174573261592
-4.033176083939605e-06
-0.00017587124867127213
-0.0003447439188366541
-0.000507069392580245
-0.0006600045966245749
-0.0008014169701018314
-0.0009298225937054705
-0.0010443050320827207
-0.0011444262996200272
-0.0012301382592107557
-0.001301699960427699
-0.001359604127909364
-0.0014045142761200113
-0.0014372127119768874
-0.0014585589053176251
-0.0014694572590753796
-0.0014708331025477805
-0.001463615683395314
-0.001448726985478238
-0.0014270753053128582
-0.0013995526484754106
-0.0013670351381054324
-0.0013303857480749803
-0.0012904587761676523
-0.0012481055541541386
-0.0012041809506338486
-0.0011595502590173445
-0.0011150960777407126
-0.0010717247840213995
-0.0010303721778627817
-0.000992007831973507
-0.0009576376294264943
-0.0009283039097299217
-0.0009050825835284493
-0.0008890765271221679
-0.0008814045434976381
-0.0008831851902900978
-0.0008955148385996203
0.0008464950739710542
0.0009252789783812387
0.0009691725589235645
0.0009742227429036243
0.0009391392341631111
0.0008651887196473029
0.0007558449338775919
0.0006162709125114851
0.0004527226797093886
0.00027195807621824275
8.071565218176202e-05
-0.00011469641915612394
-0.0003086860843665995
-0.0004965423189802198
-0.000674496752901349
-0.0008397058925148082
-0.0009901787961203168
-0.0011246725120332701
-0.0012425732445758841
-0.001343776393577939
-0.0014285741590009393
-0.001497555736896805
-0.0015515223786436994
-0.0015914176834130878
-0.0016182722982311382
-0.0016331615405897337
-0.0016371741767360892
-0.001631390553394535
-0.0016168683919271787
-0.001594634740731432
-0.0015656827964062314
-0.0015309725169612431
-0.0014914341437819723
-0.0014479739142907178
-0.0014014813807231297
-0.00135283785175086
-0.0013029255439980791
-0.001252637071712498
-0.0012028849168290723
-0.001154610510217452
-0.0011087925196489878
-0.0010664538829511516
-0.001028667049031512
-0.000996556800322873
-0.0009712999367003927
-0.0009541210165831537
-0.0009462832940072552
-0.0009490739821217398
-0.0009637830340775699
0.0009462875090608114
0.0010273617367461962
0.0010667277953345655
0.0010599897190889107
0.0010061841570887242
0.0009075726953169383
0.000769106405114961
0.0005976829442525811
0.0004013293775063653
0.00018842824961920468
-3.292942778462815e-05
-0.00025542054345462084
-0.00047278780386805774
-0.0006799774614708876
-0.0008731497256839471
-0.001049599361364062
-0.0012076215972133264
-0.0013463522118658533
-0.0014656030852881474
-0.0015657072782445103
-0.0016473817078817288
-0.001711611004200031
-0.001759553080869447
-0.001792465083010758
-0.0018116473860228521
-0.001818402937649205
-0.001814009236838915
-0.0017997004620208812
-0.00177665758405407
-0.001746004652020322
-0.001708809779622955
-0.0016660896629659416
-0.0016188167167610068
-0.001567928123147072
-0.0015143362472296307
-0.001458939990014646
-0.001402636726940687
-0.0013463345227129608
-0.0012909643237592472
-0.001237491810500757
-0.0011869285439498056
-0.0011403419657553537
-0.0010988637092175235
-0.001063695554979982
-0.001036112227857322
-0.001017460096568501
-0.0010091507304470504
-0.001012648218334855
-0.0010294491989992494
0.001052364520330612
0.0011358897717379524
0.0011691423808826429
0.0011472924074891477
0.0010699804358280107
0.0009409382741414063
0.0007671683536628893
0.0005578733324932694
0.00032333547754709313
7.3909640287112e-05
-0.00018076609876185867
-0.0004323009708861181
-0.0006738331718628421
-0.0009001049221090129
-0.0011073871134849034
-0.0012933095197239508
-0.0014566439404673504
-0.0015970756332131242
-0.001714986414728642
-0.0018112627500777023
-0.0018871346473074146
-0.0019440461484014626
-0.001983555207858867
-0.002007259240466741
-0.00201674210652944
-0.002013538395085307
-0.0019991112823895263
-0.0019748407977552285
-0.0019420199075758926
-0.0019018563675940736
-0.0018554787630878367
-0.0018039455466041243
-0.0017482561945498798
-0.0016893638442392334
-0.0016281889508261982
-0.0015656336279084582
-0.0015025964143145776
-0.0014399872489696541
-0.0013787424401295323
-0.001319839386966809
-0.0012643107507767093
-0.0012132576787277916
-0.0011678615535006542
-0.0011293935778373676
-0.0010992213102315185
-0.0010788110634858405
-0.0010697248926747338
-0.0010736107793948013
-0.0010921846208800379
0.0011659753542466456
0.0012519605389312294
0.001276807928510565
0.0012353194034072645
0.0011281821137849868
0.0009612999532042921
0.00074453114258205
0.0004901397659786144
0.00021126101931928654
-7.939491934605414e-05
-0.0003704790448854911
-0.0006525556600802118
-0.0009183162128758304
-0.00116253684522169
-0.0013818695594728925
-0.0015745463780598712
-0.0017400568281948914
-0.0018788388121548927
-0.0019920055428160055
-0.0020811182898980707
-0.002148006149102738
-0.002194629107699103
-0.002222978329873976
-0.0022350069125744443
-0.0022325846635255497
-0.0022174712385666095
-0.0021913029351837143
-0.0021555893940045923
-0.002111717318924178
-0.0020609590528274935
-0.0020044844341807755
-0.0019433748204881474
-0.0018786385147840368
-0.0018112270893034799
-0.0017420522831657348
-0.0016720032726965095
-0.0016019641852633437
-0.0015328317586136564
-0.001465533043089412
-0.0014010430060379664
-0.00134040182528386
-0.0012847315474692478
-0.001235251630836931
-0.0011932926844630265
-0.0011603074565867955
-0.0011378778268939238
-0.0011277162573464505
-0.0011316599175459907
-0.0011516556120752808
0.0012886912498313308
0.0013768792587678658
0.0013899937932780326
0.0013226426466939056
0.0011772687674452276
0.000962991815557479
0.0006936553819425484
0.00038557960451010564
5.5468755685517124e-05
-0.0002812261487698531
-0.0006113661894167344
-0.0009246276396207009
-0.0012135612286653386
-0.0014733517456351763
-0.0017014136239493771
-0.0018969284785466944
-0.0020603955450962663
-0.0021932350102350506
-0.002297461144533164
-0.002375427172533473
-0.0024296354344420235
-0.002462602661815416
-0.0024767693606784214
-0.002474443060343584
-0.002457766671556172
-0.0024287048779263742
-0.0023890430778605587
-0.002340394773004295
-0.002284214426224729
-0.0022218136972446956
-0.0021543796380684987
-0.002082993930303867
-0.002008652607894734
-0.0019322859623224498
-0.0018547784977994974
-0.0017769889105960779
-0.0016997701236259322
-0.001623989424797384
-0.001550548741602209
-0.0014804050372765332
-0.0014145907334510155
-0.0013542339428558314
-0.0013005781200436106
-0.0012550004912591783
-0.0012190282924455509
-0.0011943514284014634
-0.0011828297006403476
-0.0011864923196749089
-0.0012075271543826593
0.0014225066395147645
0.0015121850640903017
0.0015086977882136365
0.0014068351500524517
0.0012119393470149398
0.0009379088425609527
0.000604157834207128
0.00023234926495993569
-0.00015642974242705
-0.0005436712707621999
-0.0009145449076432555
-0.0012582174614020197
-0.0015676204537199007
-0.001838900844622668
-0.002070746817269223
-0.002263718954109345
-0.002419660127798942
-0.0025412146514799394
-0.002631459923356297
-0.0026936390887739303
-0.0027309771906328245
-0.002746562407605957
-0.002743275765725889
-0.00272375554881385
-0.002690385622208774
-0.002645299580245758
-0.002590394864571216
-0.0025273527592859224
-0.0024576615005234836
-0.0023826407170641217
-0.002303466120729847
-0.0022211938572432033
-0.0021367842641421553
-0.0020511250040468054
-0.0019650536801403273
-0.0018793801185597592
-0.0017949085352118588
-0.001712459803009464
-0.001632894006271396
-0.001557133414669093
-0.0014861859270282607
-0.0014211689151965023
-0.0013633332192389547
-0.0013140867752387542
-0.0012750169582868565
-0.0012479101699102157
-0.0012347665074735614
-0.0012378066180659397
-0.0012594672578299382
0.0015699781987107003
0.0016596614376588048
0.0016323732936198154
0.0014838407187615366
0.0012241652181439605
0.0008743800907837496
0.00046168353117000127
1.469691101645132e-05
-0.0004402760712219761
-0.0008815644173361115
-0.0012930720375810556
-0.0016641794493337525
-0.001989016363588267
-0.0022654630089086886
-0.002494129404971332
-0.0026774531200286777
-0.0028189732589543604
-0.0029227864041399126
-0.002993163370060309
-0.003034295601818518
-0.0030501395853504004
-0.0030443316822134914
-0.003020151321631151
-0.0029805158978522123
-0.0029279953542575704
-0.0028648381049659333
-0.0027930027064693164
-0.0027141916950716716
-0.002629885416906827
-0.0025413746462449316
-0.0024497914371371943
-0.002356138077205999
-0.002261314279733584
-0.0021661429103181085
-0.0020713946312332643
-0.001977811883050823
-0.001886132624152631
-0.001797114224317553
-0.0017115578650356567
-0.001630333740057277
-0.0015544072738201686
-0.0014848664728043803
-0.0014229503694266066
-0.0013700782601494266
-0.0013278790056892864
-0.0012982189728888427
-0.0012832262183490595
-0.001285307322536039
-0.0013071521448442536
0.0017344173644599087
0.0018213029669109093
0.0017594280965115283
0.0015469180433134305
0.0012016929485934302
0.0007554889241426083
0.00024633833058487764
-0.0002882619822653226
-0.0008161314623001958
-0.0013127941328098386
-0.0017618703560679932
-0.002154180520094126
-0.0024862467136047006
-0.002758690063304592
-0.0029748069945073063
-0.0031394395101830563
-0.0032581503307902437
-0.0033366623959461966
-0.003380505241247847
-0.0033948121354217403
-0.00338422098607552
-0.0033528429768546614
-0.0033042729107157914
-0.003241623325304893
-0.003167570529725647
-0.0030844050667882816
-0.002994082108707219
-0.0028982693027965606
-0.0027983908883348063
-0.00269566772781743
-0.0025911533955588484
-0.0024857667560313768
-0.002380321619462819
-0.00227555413312705
-0.0021721485854014344
-0.0020707622856070973
-0.0019720501475290197
-0.0018766895554074015
-0.0017854060332339466
-0.001699000176122789
-0.001618376239669428
-0.0015445727158710787
-0.0014787951290224366
-0.0014224510997235262
-0.0013771873316410221
-0.0013449274069920747
-0.0013279079780712244
-0.0013287091034295262
-0.0013502724037217362
0.0019201578110770307
0.001999175149085722
0.0018862926410701808
0.0015848400312090949
0.0011256506157613644
0.000556570792170405
-6.944575402817454e-05
-0.000704006636455326
-0.0013089813732485717
-0.0018583422272771544
-0.0023372859881269775
-0.0027399767081975057
-0.0030669495203558134
-0.0033227801153344477
-0.0035142638552253663
-0.0036491269058960135
-0.0037351881577382673
-0.003779861366300541
-0.0037898943838591548
-0.003771263179091322
-0.003729160629582645
-0.0036680389840828415
-0.003591679239753273
-0.003503270846567527
-0.003405492015376141
-0.0033005853641373123
-0.003190426430383919
-0.0030765842634238733
-0.00296037428038963
-0.0028429040933750926
-0.002725113266818388
-0.0026078080581891927
-0.0024916922016244847
-0.0023773947559097286
-0.0022654959792603596
-0.002156552126061001
-0.002051119990259656
-0.0019497819484204787
-0.0018531721844833732
-0.0017620047134545291
-0.0016771037729247235
-0.0015994371308633848
-0.0015301528617552157
-0.0014706201164073063
-0.0014224741981762878
-0.0013876655683927042
-0.0013685108561127257
-0.0013677412780372933
-0.001388540299870844
0.002132924678661635
0.0021950231164653694
0.0020056549022702264
0.001578764117263834
0.00096668678116342
0.00024151867507352098
-0.000523701869843865
-0.0012681586336575484
-0.0019490914995177883
-0.0025417410248439465
-0.003036010596460123
-0.003432118376699503
-0.003736615634429896
-0.003959327375412602
-0.0041112667664122415
-0.004203351384789222
-0.004245698053694624
-0.004247299040114144
-0.004215931105432294
-0.004158195552564359
-0.004079623932307944
-0.003984809853156676
-0.003877544381769474
-0.0037609432447623242
-0.0036375605008440587
-0.0035094870653049892
-0.0033784344800544958
-0.003245805315098202
-0.00311275199385469
-0.0029802259208755316
-0.002849018715430515
-0.002719797210271546
-0.0025931337127690773
-0.0024695328715221287
-0.00234945635635625
-0.002233346445014134
-0.002121649512163329
-0.0020148403299484197
-0.0019134480101651447
-0.0018180843493567356
-0.0017294752965323484
-0.0016484962830167899
-0.0015762122757779357
-0.0015139236393981736
-0.0014632190755125979
-0.0014260366340251157
-0.0014047323104141307
-0.0014021522170003659
-0.0014216984909537073
0.0023803306136414015
0.002409292695003576
0.0021030347713329872
0.0014966845753335983
0.000678720097684174
-0.00024254311157187458
-0.0011682822750274102
-0.0020256629821224226
-0.002771442512494754
-0.0033874386476097224
-0.0038730038874158906
-0.0042378723642594734
-0.0044967574089732065
-0.0046658357873337886
-0.004760730166255334
-0.004795512846031927
-0.004782336370549978
-0.004731414573387063
-0.004651178394570216
-0.004548502812141142
-0.004428947942531056
-0.004296985744987991
-0.004156200099102156
-0.004009456909825182
-0.003859045381989251
-0.0037067936041457056
-0.003554162234758962
-0.0034023200570901524
-0.003252204835831121
-0.0031045724705368316
-0.002960037001569979
-0.002819103631959863
-0.0026821966016490617
-0.0025496834914494476
-0.002421897336675652
-0.002299157784240974
-0.0021817924185684595
-0.002070159296281779
-0.0019646716539777204
-0.0018658256822220859
-0.0017742322076478578
-0.0016906531484172094
-0.0016160438135136845
-0.00155160263140669
-0.0014988307234956172
-0.0014596044571782568
-0.0014362635151446423
-0.0014317131456790394
-0.0014495304604145443
0.002672480109967096
0.002638752907022021
0.002149932319591319
0.001283424810477593
0.00018888307789198533
-0.0009725175552342397
-0.002072141402998856
-0.0030305340883077236
-0.0038132173909448536
-0.004417329330066985
-0.0048579957975739
-0.0051581920904341105
-0.005342522288547091
-0.005433965700084892
-0.005452501165306767
-0.005414780330879998
-0.005334319312394684
-0.005221903119843024
-0.005086041629667484
-0.004933400341422395
-0.004769175224186184
-0.004597404408925809
-0.004421220364656933
-0.004243050444962246
-0.0040647746434276655
-0.003887848851196349
-0.003713400797378391
-0.0035423046289035087
-0.003375238954740692
-0.0032127322165481503
-0.0030551984684775574
-0.002902966040597435
-0.002756301100983724
-0.0026154277967825185
-0.0024805464213566164
-0.0023518509011974803
-0.002229546800979171
-0.0021138709850371806
-0.0020051140242801774
-0.0019036463777445528
-0.0018099493046548898
-0.0017246514265194801
-0.0016485720223484435
-0.00158277282774541
-0.0015286217068924829
-0.0014878740431976123
-0.0014627796148825034
-0.0014562203887409225
-0.0014718730504193478
0.0030225059125472548
0.0028706443109625668
0.002089686208926189
0.000842317048060634
-0.0006181650013841883
-0.002058003961981164
-0.003322553128682737
-0.0043419965447141495
-0.005107721907059132
-0.005644559822159931
-0.005990242824196593
-0.0061837439185164905
-0.006259912768988324
-0.006247718002917332
-0.006170256506049132
-0.006045484486793554
-0.0058871430448659
-0.00570564243080772
-0.005508818250897662
-0.005302542763644183
-0.005091203534880656
-0.004878071189325137
-0.0046655787257862125
-0.0044555322004396075
-0.0042492690036983055
-0.00404777651201306
-0.0038517809607267334
-0.0036618140297742102
-0.0034782628108991492
-0.0033014074456212267
-0.0031314496982589174
-0.002968534980596002
-0.0028127698122486916
-0.002664236335640835
-0.0025230052702524125
-0.0023891485587354128
-0.002262752902378845
-0.002143935378640688
-0.002032862346334527
-0.001929772833290641
-0.0018350075253397158
-0.0017490443304196551
-0.001672541413349632
-0.0016063890580698126
-0.0015517737201546783
-0.0015102623537249782
-0.001483922100167942
-0.0014754943707630808
-0.0014886315031249625
0.003445963225746168
0.0030679050782009554
0.001807046764199502
1.8943339206989318e-06
-0.001922924523904898
-0.0036478367870287354
-0.00501944948626426
-0.0060131856438258025
-0.006672716740904777
-0.007063957372580351
-0.007251635278365198
-0.007290384069416511
-0.007223055884514468
-0.007081940463448497
-0.00689080770479962
-0.006666909502486482
-0.006422653903847261
-0.0061669084134926555
-0.005905977394168982
-0.005644320127576985
-0.00538507234959848
-0.005130422717424921
-0.004881883718096544
-0.004640486344221553
-0.004406919905589071
-0.004181632395516124
-0.003964902488153732
-0.0037568911172970176
-0.0035576783565750836
-0.003367289738942153
-0.003185715039371831
-0.003012921769263835
-0.0028488651035903922
-0.002693495619791042
-0.002546766028446598
-0.0024086379907842514
-0.002279090125239261
-0.00215812838274064
-0.002045800086858368
-0.0019422130376138547
-0.0018475610812854898
-0.001762157344598017
-0.001686475877277327
-0.0016212020681580785
-0.0015672933056153082
-0.0015260572803319356
-0.001499269681374607
-0.0014893725045966588
-0.0014997973210204296
0.003955882424804921
0.0031289017097620997
0.001061864365742321
-0.0015436094562697733
-0.0039957390636247425
-0.005923563377065233
-0.007252764795783781
-0.008067394826655541
-0.008491798968297368
-0.008639524890656253
-0.008599173655676612
-0.00843509408091668
-0.008192320602302933
-0.007901722983539153
-0.007584190189378767
-0.007253721536557053
-0.006919611711454429
-0.0065879618982153665
-0.006262713871083986
-0.005946354415810762
-0.00564039449371051
-0.005345695177277371
-0.005062689413599178
-0.004791532851468799
-0.004532206229491922
-0.004284584578804804
-0.004048483615930312
-0.003823690413572181
-0.0036099832174768115
-0.0034071437773240676
-0.0032149645477582423
-0.003033252439621284
-0.0028618303615084856
-0.0027005375241578727
-0.0025492293457409915
-0.002407777772621536
-0.002276072906149132
-0.0021540269941179024
-0.0020415820915069827
-0.0019387229792825061
-0.0018454971538465481
-0.0017620436593571848
-0.0016886318984495191
-0.0016257100356631415
-0.0015739608689570167
-0.0015343655434574693
-0.001508294505608146
-0.0014976915973531763
-0.0015054688740171601
0.004531112768812462
0.0027771478189281135
-0.0006647177361850942
-0.0043202185103561885
-0.007200442905717044
-0.00904899971457998
-0.01004905069084193
-0.010459039814989787
-0.010490644889469825
-0.010291806456550714
-0.00995922428177995
-0.009554086349902041
-0.00911438319749168
-0.00866334355949483
-0.008214913267098792
-0.007777235978498151
-0.007354846310168375
-0.006950049200129038
-0.006563788165536891
-0.006196192486748409
-0.005846922031497059
-0.005515383963571166
-0.005200867966064837
-0.0049026294313118945
-0.004619939331654763
-0.004352112729673174
-0.004098523606617568
-0.003858610957666514
-0.00363187935074695
-0.003417896017186728
-0.0032162858161879915
-0.0030267249529817714
-0.002848934047185128
-0.0026826709923768177
-0.002527723992648348
-0.0023839051963695096
-0.0022510454744081587
-0.0021289911222392016
-0.002017603619230382
-0.001916764058640566
-0.001826384422209476
-0.0017464283269735537
-0.0016769437161642947
-0.0016181081380406415
-0.0015702822532897565
-0.0015340597023577318
-0.0015103068125189578
-0.0015002553691984555
-0.0015058740092851047
0.005009852385727112
0.001192135105242298
-0.004458874105423186
-0.009163101976743124
-0.011862893278466194
-0.013033942911305524
-0.013282348263901844
-0.013026740525097905
-0.012516381033039509
-0.01189116466049045
-0.011227308916703413
-0.010565207974365068
-0.009925365205694217
-0.009317316821683894
-0.00874461352387769
-0.008207607447298149
-0.007705014800466772
-0.007234790818148457
-0.0067946154814772786
-0.006382157565929553
-0.005995212065437516
-0.0056317654244056325
-0.005290019987644667
-0.004968395878716225
-0.004665520870489104
-0.004380214343086414
-0.004111468795702372
-0.003858430826242959
-0.0036203825753919755
-0.0033967240922395253
-0.0031869567659496417
-0.002990667793396018
-0.0028075155651147016
-0.0026372158238813226
-0.0024795284705089043
-0.0023342449618690975
-0.0022011763812328777
-0.002080142489743822
-0.001970962436114526
-0.0018734483715903971
-0.001787404050436328
-0.0017126315854512075
-0.001648950581965264
-0.0015962337347284472
-0.0015544583201767548
-0.001523756812571067
-0.001504417227680771
-0.0014967943103054576
-0.001501395198781813
0.004282407753702311
-0.003883278294783306
-0.012635564439775357
-0.016780831584171672
-0.017862780217662112
-0.017512427058588048
-0.0165810409927674
-0.015464570039496348
-0.014335760371071302
-0.013265196410801552
-0.012277359902953505
-0.011376348398300498
-0.01055767383516018
-0.009813689788486138
-0.009136057919645113
-0.008516823021288963
-0.00794883156860307
-0.007425843985799721
-0.006942509383930637
-0.006494284276531939
-0.0060773341749253695
-0.005688435971079112
-0.005324888664361482
-0.004984434944693278
-0.004665193765663683
-0.0043656029983414335
-0.0040843708746977625
-0.0038204348639871988
-0.0035729267003733467
-0.003341142407050343
-0.0031245162978947305
-0.0029225980626871734
-0.002735032149043082
-0.002561538743354602
-0.0024018957291706694
-0.0022559210745754094
-0.002123455187937509
-0.0020043429142499736
-0.0018984150746069461
-0.0018054698684727977
-0.0017252552082718947
-0.0016574543530319952
-0.0016016792755830372
-0.0015574788868432526
-0.0015243704488403925
-0.0015018928144619886
-0.0014896285792600217
-0.0014869940103463125
-0.0014926225530201703
-0.0016263093228661499
-0.020581293440899227
-0.026752359600453746
-0.026287297524132995
-0.024051982890872944
-0.021579522911164543
-0.019316927982821766
-0.017352122940072184
-0.015669044985095568
-0.01422640897485046
-0.012982128220573874
-0.01189988797445321
-0.010950075703248283
-0.010109043244641278
-0.009358025317337273
-0.008682128267551395
-0.008069493196912539
-0.00751063529318069
-0.006997932200343809
-0.006525230380516639
-0.0060875422854072825
-0.005680812608115954
-0.005301736907143029
-0.0049476199717631425
-0.004616264438164763
-0.004305882524971216
-0.00401502550844994
-0.003742526851311892
-0.0034874558517180576
-0.00324907937888623
-0.003026829772911341
-0.0028202773554621974
-0.002629106257878891
-0.0024530924470181487
-0.002292082933112366
-0.0021459751895619578
-0.002014695811915948
-0.0018981774048062172
-0.0017963326342041869
-0.0017090243670843386
-0.0016360309487340186
-0.0015770061695504628
-0.001531434818486721
-0.0014985877725259833
-0.0014774864302976726
-0.0014668935099906438
-0.0014653350665328607
-0.0014709990920288157
-0.0014806470645736952
-0.04946154307620915
-0.050351352739970295
-0.04132112257562762
-0.033836745225075245
-0.02817740256115027
-0.02397266369023368
-0.02077166654375978
-0.018269532030279603
-0.01626317966069299
-0.014617775723979293
-0.01324155674565397
-0.012070552112006264
-0.011059095057165194
-0.010173886118518188
-0.009390182566404753
-0.008689294746161869
-0.008056902228796625
-0.0074818967606114645
-0.006955571328538246
-0.006471041470233127
-0.006022825475203095
-0.005606535251558242
-0.00521864554136825
-0.004856319438933901
-0.0045172749198641865
-0.0041996816045286045
-0.003902080045012829
-0.003623317933786091
-0.00336249909931155
-0.003118942181923004
-0.0028921466050726707
-0.002681763959501385
-0.0024875732576108284
-0.0023094587278852524
-0.0021473889247003858
-0.0020013959347698063
-0.001871553363693143
-0.0017579515682955293
-0.0016606682322507366
-0.0015797318169436525
-0.0015150745931782894
-0.001466470803683645
-0.0014334539996415513
-0.0014152059318540827
-0.0014104084578491632
-0.0014170523052062234
-0.0014322049733575676
-0.0014517243151007109
-0.0014693664654961136

SCALARS STRAIN_XY float 1
LOOKUP_TABLE default
2.3235572157442874e-06
0.2348651079032536
-1.2068483182470224e-05
2.340554918767168e-06
4.6469859925624135e-06
9.293457263193083e-06
1.3938895252252337e-05
1.85827737284594e-05
2.3224554952738785e-05
2.7863685857942855e-05
3.249959422502169e-05
3.7131684884395e-05
4.175933592953651e-05
4.6381894955316305e-05
5.099867533697733e-05
5.560895255163345e-05
6.021196056771316e-05
6.480688830012848e-05
6.939287616891665e-05
7.396901277667567e-05
7.853433173166113e-05
8.308780866028709e-05
8.762835842046623e-05
9.21548325726329e-05
9.666601715918599e-05
0.00010116063083109861
0.00010563732338630949
0.00011009467478262369
0.00011453119470206108
0.0001189453227339321
0.0001233354292708988
0.00012769981722271506
0.00013203672462280824
0.0001363443282639265
0.0001406207484968558
0.00014486405529179347
0.00014907227572358295
0.00015324340305522544
0.00015737540756466384
0.00016146624930946096
0.00016551389302665864
0.00016951632538830808
0.00017347157485003706
0.00017737773432791037
0.0001812329870249929
0.00018503563567617842
0.00018878413556644436
0.00019247713172387826
0.00019611350066861544
0.00019969239724099141
0.0002032133070374864
0.0002066761050730781
0.0002100811214306164
0.00021342921472256027
0.00021672185439314262
0.0002199612130469042
0.00022315027026104106
0.00022629292962828007
0.00022939415112438466
0.0002324601014367933
0.0002354983254383436
0.0002385179427656925
0.00024152987445363872
0.0002445471057828663
0.00024758499308868975
0.00025066162429687733
0.00025379824554755404
0.0002570197696625809
0.00026035538654967105
0.00026383930138990097
0.0002675116339621586
0.00027141952242010214
0.0002756184881197443
0.0002801741359102494
0.0002851642884840744
0.000290681686398897
0.0002968374309939015
0.0003037654110273902
0.0003116280436446517
0.0003206237885334251
0.00033099707973904824
0.00034305159218839254
0.00035716816645647853
0.00037382933176749455
0.00039365331944479776
0.0004174419597585133
0.0004462492729768175
0.0004814815573331299
0.0005250465480123312
0.000579581062738671
0.0006488079733965313
0.0007381136739475491
0.0008555165043033219
0.0010133615267730323
0.0012314401084553284
0.0015431065537898636
0.002008280619321151
0.0027440807856771166
0.004011359707038364
0.006489755115007045
0.012657096977544482
0.032189663355376305
0.14104312032222738
0.15082576289866342
0.04756024914523173
0.02161254011679574
0.012051618373921949
0.007741641086875126
0.005412757505910193
0.004010034805628976
0.00309936249975884
0.002475544512583139
0.0020303189892689477
0.0017019959851997946
0.0014532813129521371
0.0012605428386492923
0.0011082169033000688
0.000985716427092137
0.0008856379960420768
0.0008026792410266714
0.00073296215308985
0.0006735972591320194
0.0006223954608309545
0.0005776730339995539
0.0005381169177190726
0.0005026899196368673
0.00047056289850397337
0.00044106552589995296
0.00041365006955043637
0.00038786445695021543
0.0003633320637617399
0.00033973646152618553
0.0003168098971103872
0.00029432465194806356
0.0002720867005103489
0.00024993129359918154
0.00022772026115858157
0.0002053409840932774
0.00018270714704438085
0.00015976158010014285
0.00013648176330496864
0.00011288896112468527
8.906257305188459e-05
6.5162308522132e-05
4.1462552543419795e-05
1.840643064743297e-05
-3.3071086650016124e-06
-2.2579031490138624e-05
-3.76658964658938e-05
-4.578188992823695e-05
-4.267322205966928e-05
-2.487319086469375e-05
-2.486690688358051e-05
-4.258329501066749e-05
-4.540889674176096e-05
-3.6736768275758e-05
-2.082425256527687e-05
-5.221576412917095e-07
2.232001293128727e-05
4.6471991353463915e-05
7.108977856301602e-05
9.557925726080829e-05
0.00011951441679675101
0.0001425866698988032
0.0001645723755595574
0.000185311346392103
0.00020469216133861545
0.00022264179216235913
0.00023911802012771544
0.00025410369218553663
0.0002676022144224022
0.0002796338974244139
0.0002902329055866071
0.0002994446504830939
0.00030732352533263674
0.0003139309142916047
0.0003193334337615594
0.00032360137764692043
0.00032680734747547735
0.0003290250534718764
0.0003303282754081871
0.0003307899732748476
0.0003304815381548476
0.00032947217353462843
0.0003278283969740947
0.00032561365174094137
0.00032288801776914067
0.00031970801126290915
0.00031612646238116104
0.00031219246067443196
0.00030795135844430277
0.0003034448227343667
0.00029871092729288895
0.0002937842766373433
0.00028869615507126634
0.00028347469429512717
0.000278145054039447
0.0002727296108918642
0.0002672481511801217
0.00026171806445879353
0.0002561545347516958
0.0002505707272281166
0.00024497796850586617
0.00023938591918787333
0.00023380273765105652
0.00022823523434517545
0.0002226890162232431
0.00021716862112930446
0.00021167764208718243
0.00020621884168492421
0.0002007942568048593
0.00019540529405082108
0.00019005281630346538
0.0001847372208811926
0.00017945850979605993
0.00017421635263670243
0.00016901014259418368
0.00016383904615191458
0.00015870204695256351
0.00015359798432412752
0.00014852558695621632
0.0001434835021512093
0.000138470321079609
0.00013348460045226052
0.00012852488094639014
0.00012358970274350956
0.00011867761850847813
0.00011378720406396425
0.00010891706703641812
0.00010406585373334831
9.92322544437485e-05
9.441500735807296e-05
8.96129013066016e-05
8.482477744442551e-05
8.004953003903914e-05
7.528610650531231e-05
7.05335067406887e-05
6.579078192503474e-05
6.105703284320363e-05
5.633140777705492e-05
5.161310007906206e-05
4.690134546547764e-05
4.2195419068136175e-05
3.7494632299406305e-05
3.279832955782602e-05
2.810588480262055e-05
2.3416698048617235e-05
1.8730191757909687e-05
1.4045807180118608e-05
9.363000651685383e-06
4.681239843318252e-06
4.611597386516841e-06
9.0605473354044e-06
1.3322756169165118e-05
1.739731503358488e-05
2.128338550733133e-05
2.4980206026037344e-05
2.8487096892071406e-05
3.1803463948043564e-05
3.4928800983657915e-05
3.786269094652184e-05
4.060480604595185e-05
4.315490682649248e-05
4.5512840286199285e-05
4.7678537120399156e-05
4.965200817252935e-05
5.1433340156559204e-05
5.3022690725934574e-05
5.442028296431811e-05
5.5626399354968825e-05
5.664137529604041e-05
5.7465592222638584e-05
5.809947039303598e-05
5.8543461399329644e-05
5.879804045094694e-05
5.886369849306128e-05
5.874093420865645e-05
5.84302459564201e-05
5.793212370941436e-05
5.724704103360345e-05
5.637544717052023e-05
5.5317759288797674e-05
5.407435495485835e-05
5.264556488204786e-05
5.103166603181997e-05
4.923287513158847e-05
4.7249342670308e-05
4.508114744883329e-05
4.272829175655524e-05
4.019069725003099e-05
3.746820160022146e-05
3.456055599415642e-05
3.1467423567077546e-05
2.8188378825677596e-05
2.4722908147589706e-05
2.1070411423407265e-05
1.723020490751459e-05
1.3201525337902531e-05
8.983535382256491e-06
4.5753304596107824e-06
9.15040862059513e-06
1.7966578271244593e-05
2.6402334528830007e-05
3.4459489300253665e-05
4.213971952460316e-05
4.944455354599642e-05
5.637536023889167e-05
6.293334078977253e-05
6.911952301719149e-05
7.493475811132244e-05
8.037971966218249e-05
8.545490483291562e-05
9.016063752959047e-05
9.44970734239603e-05
9.846420667947164e-05
0.00010206187822392465
0.00010528978542012624
0.00010814749298837523
0.00011063444503561781
0.00011274997804805453
0.00011449333470953116
0.00011586367841781575
0.00011686010836309269
0.00011748167504738172
0.00011772739613474803
0.00011759627250457205
0.00011708730439680126
0.00011619950754820918
0.00011493192920181139
0.00011328366388868583
0.00011125386887317346
0.00010884177914860516
0.00010604672188158082
0.00010286813018517416
9.930555610587755e-05
9.535868270316161e-05
9.102733509291916e-05
8.6311490328006e-05
8.121128597549099e-05
7.572702724500946e-05
6.985919252433526e-05
6.36084371675727e-05
5.697559537881647e-05
4.9961680035515155e-05
4.2567880287558424e-05
3.4795556774602776e-05
2.6646234310812034e-05
1.812159188563367e-05
9.223449840056741e-06
1.829980621442795e-05
3.593118312600341e-05
5.280179965388987e-05
6.891529058300483e-05
8.427501888075284e-05
9.888404850522114e-05
0.00011274512272668735
0.00012586064777175832
0.00013823268155571666
0.00014986292725949202
0.00016075273148546954
0.00017090308670458798
0.00018031463770668
0.00018898769175240693
0.00019692223212591786
0.00020411793478436469
0.0002105741878000722
0.00021629011330187575
0.00022126459162541412
0.0002254962873866062
0.00022898367720419754
0.00023172507880914184
0.00023371868127647355
0.0002349625761400853
0.00023545478915631968
0.00023519331247301434
0.0002341761369871187
0.0002324012846735557
0.00022986684066722551
0.00022657098488526595
0.00022251202297668415
0.00021768841638075687
0.00021209881127715047
0.00020574206620216362
0.0001986172780959472
0.00019072380653867294
0.00018206129592363007
0.00017262969530429384
0.00016242927563991927
0.00015146064415533234
0.00013972475551521368
0.00012722291950734155
0.00011395680492304328
9.99284393156663e-05
8.514020431071856e-05
6.959482615659374e-05
5.329536120168843e-05
3.6245175996263423e-05
1.8447921740549766e-05
2.7447174448802514e-05
5.389182739062859e-05
7.919550672080833e-05
0.00010336369201430218
0.00012640145040720974
0.00014831339596244053
0.0001691036573344129
0.00018877585344195813
0.00020733307679504653
0.0002247778841023007
0.00024111229375789467
0.0002563377897742414
0.00027045533172137537
0.0002834653702205592
0.0002953678675357563
0.00030616232280455957
0.00031584780145388347
0.0003244229683536659
0.0003318861242738169
0.0003382352452148685
0.0003434680241994337
0.00034758191513356573
0.00035057417834966076
0.0003524419274525403
0.00035318217712582145
0.0003527918915522954
0.00035126803310514543
0.0003486076109900371
0.0003448077295181706
0.00033986563568788597
0.0003337787657608504
0.0003265447905066443
0.0003181616587909497
0.0003086276391696674
0.0002979413591416291
0.0002861018416991934
0.0002731085387935317
0.00025896136132702585
0.0002436607052563322
0.00022720747337762193
0.0002096030923501302
0.00019084952449299752
0.00017094927388250358
0.00014990538627207561
0.00012772144234818317
0.00010440154383845046
7.995029199725501e-05
5.437275801845054e-05
2.767444494555793e-05
3.6591480387815345e-05
7.184649639813134e-05
0.00010558052861164846
0.00013780093418441774
0.00016851451153154784
0.00019772744643797857
0.00022544526929357822
0.0002516728230444465
0.00027641424138991066
0.0002996729367178985
0.00032145159722829497
0.0003417521926668554
0.0003605759880769277
0.00037792356495419677
0.00039379484919183083
0.00040818914520568406
0.00042110517562621297
0.000432541125954089
0.00044249469359997073
0.00045096314074094535
0.00045794335043602974
0.000463431885471266
0.00046742504943164676
0.0004699189494973277
0.00047090956049583577
0.00047039278975935517
0.0004683645423338989
0.00046482078611492783
0.0004597576164858119
0.0004531713200367493
0.00044505843694625513
0.00043541582159728476
0.0004242407009967808
0.0004115307305531668
0.0003972840467514893
0.00038149931624759104
0.0003641757808759971
0.0003453132980492657
0.00032491237600201783
0.0003029742033003324
0.0002795006720250348
0.0002544943940100408
0.00022795870949554597
0.0001998976875552949
0.00017031611763995702
0.00013921949158501867
0.00010661397544398099
7.250637052497177e-05
3.6904063052400904e-05
4.5731669199799985e-05
8.979313427853741e-05
0.0001319538805921172
0.00017222318644644075
0.00021060961749319596
0.0002471209598417512
0.0002817641671683524
0.0003145453212902716
0.0003454696056072737
0.0003745412907631418
0.0004017637318218248
0.0004271393762298459
0.0004506697818082439
0.0004723556440013321
0.0004921968316068948
0.0005101924302085559
0.0005263407925453212
0.0005406395950627862
0.0005530858999096
0.0005636762216685298
0.0005724065981303483
0.0005792726644429647
0.0005842697300059707
0.0005873928574952614
0.0005886369434279781
0.0005879967997058921
0.0005854672355851132
0.0005810431395405491
0.0005747195605012023
0.0005664917879374953
0.0005563554302832063
0.0005443064911665463
0.000530341442914084
0.0005144572967829553
0.0004966516693468703
0.00047692284443745514
0.0004552698300232527
0.00043169240937085407
0.00040619118580070834
0.00037876762032190703
0.0003494240613954869
0.00031816376604898444
0.000284990911544436
0.00024991059677514915
0.00021292883256407436
0.0001740525200376597
0.00013328941625767587
9.064808631426002e-05
4.6137841136772995e-05
5.486665689258263e-05
0.00010772963030303284
0.00015831250124864749
0.00020662652340053267
0.00025268207428064127
0.00029648857571140663
0.00033805443118795075
0.0003773869795153928
0.00041449246397368134
0.0004493760162103122
0.00048204165399906573
0.0005124922919725328
0.0005407297644024478
0.0005667548590859717
0.0005905673613966211
0.0006121661075538243
0.0006315490461782369
0.0006487133072259343
0.0006636552774101911
0.0006763706812487613
0.0006868546669082654
0.0006951018960538735
0.000701106636939508
0.0007048628600006546
0.0007063643352580584
0.0007056047308588997
0.0007025777121029697
0.0006972770403233519
0.000689696671001383
0.0006798308505059913
0.0006676742108437939
0.0006532218618029995
0.0006364694798576265
0.0006174133931822201
0.0005960506621016104
0.0005723791542629475
0.0005463976137926596
0.0005181057236567921
0.00048750416039949895
0.0004545946404007628
0.0004193799567478451
0.0003818640057818845
0.0003420518023488084
0.0002999494827555238
0.0002555642944229164
0.00020890457121780504
0.00015997969346021046
0.00010880003162883067
5.5376872835299906e-05
6.399532306639033e-05
0.00012565380530232817
0.0001846532335726403
0.0002410069016008931
0.00029472705187505444
0.0003458247838505346
0.0003943099820739593
0.00044019126342625947
0.00048347594259751103
0.0005241700148352346
0.0005622781549341482
0.0005978037313976725
0.0006307488346735113
0.0006611143183432588
0.0006888998521452083
0.0007141039857183062
0.0007367242219620262
0.000756757098941685
0.0007741982792955349
0.000789042646130611
0.00080128440444166
0.0008109171871240051
0.0008179341646917249
0.0008223281578572106
0.0008240917521585844
0.0008232174138608772
0.000819697606385783
0.0008135249065431283
0.0008046921198580081
0.0007931923942930963
0.0007790193316639105
0.0007621670960437643
0.0007426305184350945
0.0007204051969569303
0.000695487591774957
0.0006678751139567729
0.0006375662073928035
0.0006045604228772095
0.0005688584833948296
0.0005304623396012453
0.0004893752144397023
0.0004456016357923809
0.00039914745601110635
0.00035001985715144013
0.000298227340707391
0.00024377970063121923
0.0001866879784355735
0.00012696439919795965
6.462228733833397e-05
7.31165037123338e-05
0.0001435633981830553
0.00021097280622589532
0.00027536013655171665
0.0003367395578969812
0.00039512389549017923
0.0004505245505138089
0.0005029514416093339
0.0005524129673717404
0.0005989159886986561
0.0006424658297824459
0.0006830662964901202
0.0007207197108444197
0.0007554269603048946
0.000787187560538527
0.0008159997303872069
0.000841860477758194
0.0008647656951946692
0.0008847102639246152
0.0009016881652265663
0.0009156925980011166
0.0009267161014895331
0.0009347506821314466
0.000939787943594117
0.0009418192190639441
0.0009408357049259242
0.0009368285949899469
0.0009297892144547459
0.0009197091528174162
0.0009065803949513396
0.0008903954495689814
0.0008711474742816305
0.0008488303964512278
0.0008234390289960092
0.0007949691802811576
0.0007634177571732015
0.0007287828602872137
0.0006910638703977456
0.0006502615249261989
0.0006063779833512806
0.000559416880320851
0.0005093833651945712
0.00045628412668713425
0.0004001274012326306
0.0003409229636715527
0.0002786820988354699
0.0002134175526048443
0.00014514346104560483
7.387525628010927e-05
8.222898405713108e-05
0.0001614560525736719
0.0002372678150388552
0.0003096818800599199
0.00037871441175629794
0.00044438001510460623
0.0005066916474411043
0.0005656605550048432
0.0006212962332894922
0.0006736064098716299
0.0007225970483106248
0.0007682723716685991
0.0008106349041667182
0.0008496855294711225
0.0008854235641080899
0.0009178468445300569
0.0009469518263731103
0.0009727336944920228
0.0009951864824039869
0.001014303199832367
0.0010300759670948123
0.001042496155140793
0.0010515545301158502
0.001057241401373532
0.0010595467719203278
0.0010584604903304262
0.001053972403205039
0.0010460725072878319
0.0010347511003674925
0.0010199989301152845
0.0010018073400125393
0.0009801684115007259
0.0009550751014721359
0.000926521374188527
0.0008945023266637708
0.0008590143064985956
0.0008200550210891167
0.0007776236370589107
0.0007317208686967724
0.000682349054100917
0.00062951221765295
0.0005732161173694905
0.0005134682756144371
0.00045027799159697013
0.0003836563340341992
0.0003136161123294956
0.00024017182461105735
0.00016333958099667978
8.313700049994432e-05
9.133149147505515e-05
0.00017932930364050748
0.0002635347048147163
0.00034396759804872223
0.000420646219431553
0.0004935870130402531
0.0005628045353161526
0.000628311387559255
0.0006901181751071683
0.0007482334916634747
0.0008026639271616065
0.0008534140974899573
0.0009004866943855272
0.0009438825537804174
0.0009836007408924319
0.0010196386503844579
0.001051992119942502
0.001080655555679988
0.0011056220678323792
0.0011268836152739659
0.0011444311574622112
0.0011582548124839942
0.001168344019952805
0.0011746877075825002
0.0011772744603256724
0.0011760926910233116
0.0011711308115656682
0.0011623774036044199
0.0011498213878868846
0.0011334521912945705
0.0011132599106757346
0.001089235472550354
0.0010613707877397127
0.0010296588999300083
0.0009940941271308623
0.0009546721949317827
0.0009113903603726881
0.0008642475251683934
0.0008132443369389675
0.0007583832769991194
0.0006996687331730089
0.0006371070560008962
0.0005707065966279457
0.0005004777245842251
0.0004264328236052717
0.00034858626360884104
0.0002669543469140945
0.00018155522680918246
9.240879661237544e-05
0.00010042268849297376
0.00019718056511836002
0.0002897697515061304
0.0003782125489341648
0.00046252934901930276
0.0005427384991338879
0.0006188562006240739
0.0006908964383142702
0.0007588709396442184
0.0008227891616731653
0.0008826583041102176
0.0009384833464678999
0.0009902671074091263
0.0010380103243501915
0.001081711751397041
0.001121368273722223
0.0011569750365377218
0.001188525586885869
0.0012160120265365948
0.0012394251743658713
0.0012587547366729734
0.0012739894839836063
0.001285117432972327
0.0012921260322267258
0.0012950023506527741
0.00129373326739185
0.0012883056621800781
0.001278706605127078
0.0012649235449377905
0.0012469444946059394
0.001224758213620114
0.0011983543857129741
0.0011677237911481564
0.0011328584724992208
0.0010937518928142986
0.001050399084984499
0.0010027967910446467
0.0009509435900368901
0.0008948400129626943
0.0008344886432368193
0.0007698942009424781
0.0007010636090743483
0.0006280060398548004
0.000550732939106291
0.00046925802659220084
0.0003835972701791701
0.00029376883162851586
0.0001997929818368105
0.00010169198337489638
0.00010950116590313641
0.00021500711660810135
0.0003159690448584218
0.0004124117626931323
0.0005043579072236959
0.0005918277975220376
0.0006748393278069309
0.000753407895180136
0.0008275463600165289
0.0008972650369927782
0.000962571714657745
0.0010234717013959393
0.0010799678956067704
0.001132060877918284
0.0011797490232800523
0.0012230286308195781
0.0012618940694111291
0.001296337936982972
0.0013263512316711301
0.001351923533031818
0.0013730431916280095
0.0013896975254052424
0.0014018730213774533
0.0014095555412553251
0.0014127305297270687
0.0014113832241948177
0.0014054988648447009
0.001395062903978339
0.0013800612135878576
0.001360480290166055
0.0013363074557621313
0.0013075310542744467
0.0012741406419369272
0.001236127170909762
0.0011934831648087174
0.0011462028849258954
0.0010942824857848032
0.0010377201585635154
0.000976516260789706
0.0009106734305777686
0.0008401966835494545
0.0007650934904329665
0.0006853738332102677
0.000601050237572176
0.000512137779327515
0.0004186540623323798
0.00032061916546172187
0.00021805555611598137
0.000110987967781917
0.00011856543602895009
0.00023280609121517637
0.00034212847162318205
0.0004465600207687048
0.0005461257169690481
0.0006408479228764419
0.0007307462749311378
0.0008158376107328946
0.0008961359321619233
0.0009716524019573458
0.0010423953713900591
0.0011083704366023905
0.0011695805211660026
0.0012260259824240505
0.0012777047392066865
0.0013246124185735675
0.0013667425193091276
0.0014040865899890842
0.0014366344195503311
0.001464374238402677
0.0014872929282490066
0.0015053762389111158
0.0015186090105718808
0.0015269753999654356
0.001530459109165494
0.0015290436157126552
0.0015227124029142391
0.0015114491892148085
0.0014952381555839445
0.0014740641699056978
0.0014479130073542512
0.0014167715657323887
0.0013806280747067357
0.0013394722978156692
0.0012932957260506361
0.0012420917617063099
0.0011858558910680106
0.0011245858443801882
0.0010582817413894996
0.0009869462205968071
0.0009105845501857779
0.0008292047184383922
0.0007428175012947347
0.0006514365045559578
0.0005550781781061831
0.00045376179942108186
0.0003475094235549925
0.00023634579675002598
0.00012029823082249091
0.00012761392615590061
0.00025057446358373037
0.000368243699446269
0.00048065183695927827
0.0005878262963339154
0.0006897915583125025
0.0007865690513831902
0.00087817708038751
0.0009646307940529009
0.001045942188854343
0.0011221201465443364
0.001193170502626295
0.0012590961430296033
0.001319897126270786
0.0013755708284244883
0.001426112108307731
0.001471513490366616
0.0015117653628720085
0.0015468561891646693
0.0015767727298170997
0.0016015002737315154
0.0016210228763454126
0.00163532360325358
0.0016443847776954623
0.0016481882304964501
0.001646715551158806
0.0016399483389068492
0.0016278684525647957
0.0016104582582071036
0.0015877008735680764
0.001559580408193928
0.001526082198314127
0.0014871930353624885
0.001442901387017692
0.0013931976095373222
0.0013380741500356175
0.001277525737225782
0.0012115495589887226
0.0011401454249497789
0.0010633159120722602
0.0009810664910694933
0.0008934056312517868
0.0008003448812419212
0.0007018989227892125
0.0005980855947745334
0.0004889258843452926
0.0003744438820083018
0.00025466669745244364
0.0001296243328426372
0.0001366449721897367
0.00026830903843211296
0.0003943101615843658
0.0005146814395046717
0.0006294528390703991
0.0007386510352775932
0.0008422992979328359
0.0009404174233172413
0.0010330217080311566
0.0011201249620976794
0.001201736558322064
0.0012778625148637812
0.0013485056079663438
0.0014136655118203167
0.0014733389625981586
0.0015275199437950193
0.0015761998901164809
0.0016193679072963318
0.0016570110053836795
0.0016891143431910782
0.0017156614817804838
0.0017366346450333192
0.001752014985508643
0.0017617828539774893
0.0017659180711696032
0.0017644002003906478
0.0017572088198044011
0.0017443237932618927
0.0017257255386339265
0.0017013952926471232
0.0016713153712318851
0.0016354694243866374
0.0015938426845045761
0.0015464222070442624
0.0014931971023126045
0.0014341587569936531
0.001369301043901483
0.0012986205182511368
0.0012221165985367155
0.0011397917298963667
0.0010516515276100535
0.0009577048981468939
0.0008579641349603095
0.0007524449859929727
0.0006411666896619095
0.0005241519759211499
0.0004014270288444366
0.0002730214070708059
0.0001389679184087278
0.00014565681257994179
0.00028600643968362816
0.0004203230426088056
0.0005486427545920991
0.0006709981969962864
0.0007874183157766113
0.00089792826959606
0.0010025493666125374
0.0011012990467847983
0.001194190906409709
0.0012812347615276387
0.0013624367467911513
0.0014377994463998234
0.0015073220537525356
0.0015710005565413576
0.0016288279441334375
0.001680794434220645
0.0017268877158790885
0.0017670932063726386
0.0018013943192167758
0.001829772741222535
0.0018522087164530854
0.0018686813352130627
0.0018791688263846695
0.0018836488516113525
0.001882098799983245
0.0018744960820179513
0.001860818421843713
0.0018410441465774863
0.0018151524719399181
0.0017831237831711921
0.0017449399103000585
0.001700584396754412
0.001650042760228676
0.0015933027446020653
0.0015303545615401037
0.0014611911202355166
0.0013858082435316832
0.001304204868439518
0.001216383228807072
0.0011223490176289208
0.0010221115262228908
0.0009156837572227294
0.0008030825080657666
0.0006843284214165246
0.0005594459987474099
0.0004284635730974484
0.00029141323688564036
0.00014833072058378916
0.00015464758257377476
0.0003036631003218715
0.00044627726526635936
0.0005825293914890617
0.0007124548645295325
0.0008360849772722223
0.0009534468217023417
0.0010645632331561794
0.0011694527835064417
0.0012681298195973412
0.0013606045431643343
0.0014468831284462635
0.0015269678737195869
0.0016008573830434414
0.0016685467746075378
0.0017300279122203222
0.0017852896566369347
0.001834318133618229
0.0018770970158362155
0.0019136078159600611
0.0019438301884983078
0.0019677422382056164
0.0019853208330960492
0.0019965419203344936
0.002001380843476508
0.0019998126597186583
0.001991812455983566
0.001977355662795166
0.0019564183649941613
0.0019289776084170929
0.0018950117016796053
0.00185450051218633
0.0018074257554444029
0.0017537712766519942
0.0016935233234012248
0.0016266708081593695
0.001553205558985693
0.0014731225566949613
0.0013864201564120493
0.0012931002911710232
0.0011931686548974363
0.00108663486180266
0.0009735125788900012
0.0008538196279568311
0.0007275780531883491
0.000594814150149503
0.0004555584517413891
0.0003098456665072691
0.00015771456452950972
0.0001636153088631076
0.00032127525309050275
0.00047216747872280695
0.0006163346296489958
0.0007538149657879134
0.0008846422007392496
0.0010088453996943136
0.0011264489337861616
0.0012374724868731701
0.0013419311106288023
0.0014398353237299877
0.0015311912509325953
0.001616000797851569
0.0016942618573410617
0.0017659685435113537
0.0018311114495799807
0.0018896779259598429
0.0019416523752136539
0.0019870165607583923
0.0020257499264678125
0.0020578299246016285
0.0020832323497566585
0.0021019316768098872
0.0021139014010937984
0.0021191143792676503
0.0021175431695734104
0.0021091603703563555
0.0020939389558831123
0.0020718526085988787
0.0020428760470542207
0.0020069853487542644
0.001964158267162175
0.0019143745420475144
0.0018576162022462261
0.0017938678597466118
0.0017231169938274338
0.0016453542237315766
0.0015605735680761512
0.0014687726888995556
0.001369953117905387
0.0012641204621035573
0.0011512845856793685
0.0010314597645376122
0.0009046648096055487
0.0007709231546108031
0.0006302629037076013
0.0004827168340379995
0.00032832234805757476
0.00016712137025348683
0.00017255790468234666
0.0003388389221795629
0.0004979880483890753
0.0006500514080436948
0.00079507024459885
0.0009330807623255111
0.001064114033215935
0.0011881959643961215
0.0013053473215552391
0.0014155838037689383
0.0015189161650278615
0.0016153503777931455
0.0017048878339453455
0.0017875255786017341
0.001863256572447125
0.0019320699784124984
0.0019939514687822846
0.00204888354908378
0.0020968458954000457
0.0021378157020665034
0.0021717680370252346
0.0021986762024326922
0.0022185120984353213
0.002231246588318969
0.0022368498635241263
0.0022352918072708894
0.002226542355749428
0.00221057185602197
0.0021873514199068356
0.0021568532732108014
0.002119051099718605
0.0020739203793246896
0.0020214387196393346
0.0019615861802710355
0.001894345588821289
0.0018197028474034593
0.0017376472282244482
0.0016481716564587523
0.0015512729782862777
0.0014469522115795885
0.0013352147763109334
0.001216070701319738
0.0010895348036416563
0.0009556268361562426
0.0008143715988752076
0.0006657990087975407
0.0005099441228812451
0.0003468471083608593
0.00017655315437820063
0.00018147316546457404
0.000356349916108778
0.0005237330476339785
0.0006836723171049219
0.000836212057877983
0.0009813910291587846
0.0011192423351107372
0.0012497934086699303
0.0013730660550262952
0.0014890765496122782
0.0015978357853851377
0.001699349464204969
0.001793618327182167
0.0018806384190145353
0.001960401381525756
0.002032894771854532
0.002098102401027757
0.002156004688975144
0.002206579032378364
0.002249800182113404
0.0022856406274171515
0.0023140709842746077
0.0023350603858935948
0.0023485768734727297
0.0023545877857973907
0.0023530601464890055
0.0023439610479778494
0.00232725803149042
0.002302919462492392
0.0022709149011352348
0.0022312154673063134
0.002183794199869804
0.002128626409615919
0.002065690025295275
0.0019949659319404844
0.0019164383004118823
0.0018300949067985295
0.0017359274399572633
0.0016339317950672116
0.0015241083506312147
0.0014064622258790904
0.0012810035150319088
0.001147747494377016
0.0010067147975827417
0.0008579315541639154
0.0007014294855418046
0.0005372459526726825
0.000365423948830379
0.00018601203078461026
0.0001903587651365668
0.00037380382196045003
0.0005493962516600615
0.0007171895937108097
0.0008772313729324965
0.0010295629599371137
0.0011742195060505112
0.0013112299472630706
0.0014406170715761668
0.0015623976439864684
0.0016765825833042203
0.001783177185052942
0.0018821813847820779
0.0019735900563074282
0.00205739333962518
0.0021335769935275084
0.0022021227682872957
0.0022630087941463706
0.002316209981742978
0.0023616984310318445
0.002399443845681193
0.0024294139503601153
0.0024515749087444805
0.002465891740470405
0.002472328735640794
0.002470849865824798
0.002461419190772196
0.002444001260318851
0.0024185615111395053
0.0023850666581249347
0.0023434850802273033
0.002293787200605857
0.00223594586082837
0.002169936688737273
0.002095738459380714
0.002013333448121879
0.0019227077746997168
0.001823851736606541
0.001716760129695738
0.0016014325534263185
0.0014778736976065465
0.0013460936069256135
0.0012061079189640278
0.0010579380707865793
0.0009016114686091758
0.0007371616144524751
0.0005646281831580557
0.0003840570426513201
0.0001955002098930625
0.0001992122531617735
0.00039119600119907894
0.0005749711338639552
0.0007505951195986293
0.0009181187691857939
0.0010775861109532103
0.001229034345564206
0.0013724938742900594
0.0015079883944710826
0.0016355350557519799
0.0017551446706433604
0.001866821973033228
0.001970565918392342
0.0020663700196312806
0.0021542227128517055
0.002234107747561609
0.0023060045963235187
0.0023698888792309525
0.0024257327990753197
0.0024735055835453656
0.0025131739313033474
0.002544702459271575
0.0025680541489419006
0.0025831907899883655
0.0025900734198831543
0.002588662758607807
0.0025789196378810386
0.002560805424611845
0.002534282438492297
0.0024993143637958015
0.0024558666555240527
0.0024039069400312307
0.0023434054101773016
0.002274335214905998
0.0021966728429046456
0.002110398499683308
0.002015496477026979
0.0019119555133296773
0.0017997691427877327
0.0016789360308632206
0.0015494602928141088
0.0014113517914223217
0.001264626409376357
0.0011093062910594864
0.000945420047800738
0.000773002919966459
0.0005920968886168887
0.0004027507288462129
0.0002050199963973265
0.0002080310524469886
0.00040852158731435884
0.0006004508650684914
0.000783880423749217
0.0009588644449882167
0.0011254496483146803
0.001283675270361495
0.001433573122144871
0.001575167717379422
0.0017084764646933537
0.0018335099165930901
0.0019502720681089936
0.002058760698216533
0.0021589677473887736
0.0022508797249650714
0.0023344781404092685
0.0024097399529984243
0.002476638034973555
0.00253514164372598
0.0025852168991464253
0.0026268272628429123
0.002659934016493448
0.0026844967371545403
0.002700473767877243
0.002707822682467942
0.0027065007436813393
0.0026964653545112904
0.002677674502570504
0.0026500871977940266
0.002613663903883734
0.002568366963986768
0.0025141610211052434
0.002451013433652005
0.002378894686387578
0.0022977787967186636
0.0022076437159780915
0.0021084717248774365
0.0020002498218253395
0.001882970102202619
0.0017566301260511508
0.0016212332709319988
0.001476789065947226
0.001323313502152923
0.0011608293137767567
0.000989366223844157
0.0008089611470197267
0.0006196583417110157
0.00042150950273289745
0.00021457378519312842
0.0002168124582481723
0.00042577548555361444
0.0006258283160174849
0.0008170366892729652
0.0009994582301889876
0.001173142367168034
0.0013381303408617207
0.0014944552956764334
0.0016421424462237932
0.0017812093107786864
0.001911666003805712
0.0020335155797291393
0.0021467544203349065
0.0022513726584892924
0.002347354631251297
0.002434679355913405
0.0025133210230429137
0.0025832495011754997
0.0026444308484204204
0.002696827826891568
0.0027404004165335616
0.0027751063255547215
0.002800901495321806
0.0028177405981718584
0.0028255775271599504
0.002824365877266699
0.002814059418032311
0.0027946125579547676
0.0027659808012706066
0.0027281211979464093
0.002680992787802594
0.0026245570397026574
0.0025587782866579034
0.0024836241574959783
0.0023990660054548085
0.002305079333682125
0.0022016442171278183
0.0020887457197554804
0.0019663743053411897
0.0018345262393987816
0.0016932039789810949
0.0015424165462500916
0.0013821798808199004
0.0012125171649539634
0.001033459114769708
0.0008450442296573102
0.0006473189912317712
0.0004403380022617309
0.00022416405522407423
0.0002255536382218537
0.0004429523750517639
0.0006510960636121332
0.0008500547654249346
0.0010398896052575268
0.0012206527188938776
0.0013923872970559303
0.0015551277169639777
0.001708899752795312
0.0018537208562176555
0.0019896004981971305
0.0021165405634090972
0.002234535788862624
0.0023435742386870295
0.00244363780748863
0.002534702745231099
0.0026167401972019833
0.002689716753299154
0.0027535950015790123
0.002808334081755015
0.002853890235083867
0.002890217347820745
0.002917267486154118
0.0029349914212222217
0.0029433391434495193
0.0029422603660216873
0.002931705017834463
0.0029116237266624267
0.002881968293619308
0.0028426921602274224
0.0027937508695269897
0.0027351025226762804
0.002666708232396009
0.0025885325744050003
0.0025005440376788535
0.0024027154739260648
0.002295024546141111
0.0021774541754717713
0.00204999298489128
0.001912635737349233
0.0017653837651930293
0.0016082453866776425
0.001441236304375093
0.001264379979239727
0.0010777079730168726
0.0008812602505995915
0.0006750854328791411
0.0004592409896228
0.00023379336094969672
0.0002342516337770495
0.0004600467136737785
0.0006762464013648217
0.0008829251854107212
0.0010801477277875282
0.0012679688472606032
0.0014464336048738424
0.0016155774820604818
0.0017754266416474263
0.0019259982619379556
0.0020673009341222737
0.0021993351134282357
0.0023220936147363425
0.0024355621438054698
0.0025397198557922107
0.0026345399333693176
0.0027199901774569435
0.0027960336043509892
0.002862629043857867
0.0029197317338924833
0.002967293907849833
0.0030052653719235267
0.0030335940703721254
0.003052226637517197
0.0030611089359898758
0.0030601865814076645
0.0030494054542387072
0.0030287122000925426
0.002998054720048493
0.0029573826529065705
0.0029066478513878335
0.0028458048543425485
0.0027748113569217026
0.0026936286804310483
0.0026022222432590114
0.0025005620337814616
0.00238862308554888
0.0022663859543682885
0.002133837196066357
0.0019909698428099976
0.0018377838748586117
0.0016742866835362524
0.001500493520068924
0.00131642792373865
0.0011221221215740318
0.0009176173905610097
0.0007029643721279122
0.0004782233274618908
0.00024346432107880123
0.00024290336290488934
0.00047705274592885205
0.0007012713546289406
0.0009156381907391431
0.0011202214673363686
0.0013150786346717847
0.0015002565143258373
0.0016757915311003124
0.001841710031827315
0.0019980286801939973
0.0021447549167601387
0.002281887473568056
0.002409416933101427
0.002527326321847323
0.002635591729339859
0.002734182944285124
0.0028230641001861234
0.0029021943237725334
0.002971528380483035
0.0030310173122263806
0.0030806090636195105
0.003120249093881644
0.003149880972516006
0.0031694469578009143
0.0031788885579405735
0.003178147075490967
0.003167164136317513
0.0031458822049006963
0.0031142450882369332
0.0030721984308773598
0.0030196902038302498
0.002956671190082083
0.0028830954693960797
0.002798920904793223
0.0027041096327482528
0.002598628558603877
0.0024824498580495735
0.0023555514847361514
0.0022179176831827463
0.0020695395051211762
0.0019104153262958778
0.0017405513595303845
0.0015599621585764
0.0013686711059043843
0.0011667108762110634
0.0009541238659963036
0.0007309625781339313
0.0004972899489752436
0.0002531796041879142
0.00025150562469261617
0.0004939645143706151
0.0007261627012210004
0.0009481837629347623
0.0011600994496230865
0.0013619697597587743
0.001553843130906507
0.001735756733446503
0.0019077368552559149
0.002069799365246927
0.0022219502437509364
0.0023641861680130383
0.0024964951414850334
0.0026188571561897023
0.0027312448781423027
0.00283362434665263
0.002925955679284886
0.003008193775259571
0.003080289011165971
0.003142187923969031
0.0031938338774168407
0.003235167709067399
0.0032661283562280263
0.00328665346012863
0.003296679948582515
0.0032961445982629956
0.003284984578445005
0.003263137978693653
0.0032305443234842413
0.0031871450770658005
0.0031328841420974474
0.003067708355628196
0.002991567985879795
0.0029044172330394136
0.0028062147368442814
0.0026969240931573046
0.002576514381027295
0.0024449607008539265
0.002302244723275171
0.0021483552472636447
0.001983288764668689
0.0018070500270876422
0.0016196526095044739
0.001421119463608067
0.0012114834521189666
0.0009907878538431003
0.0007590868275427209
0.0005164458210919487
0.00026294191082704144
0.00026005510571425194
0.0005107758749027247
0.0007509119980889656
0.0009805516635080225
0.0011997701112114734
0.0014086297676533244
0.0016071805018015306
0.0017954599896474188
0.0019734941737326595
0.002141297804242437
0.002298875048343141
0.002446220154768586
0.0025833181611496503
0.0027101456322672357
0.0028266714182408337
0.0029328574226238913
0.003028659371468012
0.0031140275755872637
0.0031889076794961446
0.0032532413917560343
0.003306967192754362
0.003350021017213989
0.003382336909944328
0.003403847654509684
0.0034144853755599947
0.003414182116544262
0.003402870395354418
0.003380483741164453
0.003346957216283142
0.003302227927232171
0.0032462355294953227
0.0031789227304492296
0.003100235794872175
0.0030101250571357707
0.002908545443737698
0.00279545700920264
0.002670825487581907
0.0025346228608281174
0.002386827944225567
0.002227426987792047
0.0020564142911878025
0.0018737928281605254
0.0016795748749388606
0.001473782635277976
0.0012564488530759643
0.0010276174016529693
0.0007873438369254138
0.0005356958998415373
0.00027275395162990046
0.0002685483885382922
0.0005274805164638408
0.0007755106147623314
0.0010127314831910872
0.0012392217659665805
0.0014550461544982074
0.0016602557186879974
0.0018548883521892212
0.0020389693167427447
0.0022125118706417535
0.0023755179665377324
0.002527979004180836
0.0026698766242739813
0.0028011835304020405
0.0029218643269621203
0.003031876362134478
0.003131170566180508
0.0032196922766957736
0.0032973820438684798
0.003364176410242836
0.003420008660945162
0.0034648095417804115
0.003498507943998752
0.00352103155583372
0.0035323074821376754
0.003532262834527844
0.0035208252954075925
0.003497923660025992
0.0034634883613561263
0.0034174519830386663
0.003359749765887321
0.003290320113532863
0.0032091051026734707
0.0031160510030815436
0.0030111088120243767
0.0028942348070703505
0.0027653911203781023
0.0026245463365240362
0.002471676114704058
0.002306763834765191
0.002129801264996789
0.0019407892479307853
0.0017397383986067494
0.0015266698078510998
0.001301615741120865
0.0010646203213944827
0.0008157401824736565
0.0005550450769417625
0.0002826184209149263
0.0002769819626251002
0.0005440719856347753
0.0007999497743910178
0.0010447127015102975
0.0012784426846176866
0.0015012064678040504
0.0017130560390286598
0.0019140291672116172
0.002104150042456232
0.0022834300027825827
0.002451868330945184
0.0026094531053544867
0.0027561620898092776
0.002891963647651097
0.0030168176670581914
0.003130676485491979
0.0032334858027341373
0.003325185573491707
0.003405710872176504
0.0034749927241172762
0.003532958899132854
0.0035795346650305815
0.0036146435001769284
0.0036382077657668987
0.003650149339792852
0.003650390215943544
0.0036388530717381684
0.0036154618110856296
0.0035801420871680034
0.0035328218120625476
0.0034734316598015735
0.003401905569668462
0.0033181812564091473
0.00322220073370022
0.0031139108566747287
0.0029932638885590834
0.002860218095523559
0.0027147383727007535
0.002556796902992764
0.0023863738487738817
0.0022034580749080712
0.0020080478996519213
0.0018001518680274553
0.0015797895401278295
0.0013469922845803506
0.001101804065074874
0.0008442822054672838
0.0005744981165616836
0.0002925379652485849
0.00028535223785564057
0.0005605437167072735
0.0008242206032352262
0.0010764847578954018
0.0013174211889659948
0.001547098424501625
0.001765569027982139
0.0019728702395715447
0.0021690247245461647
0.0023540414104002982
0.0025279163943689453
0.002690633903629003
0.002842167291232267
0.0029824800518714056
0.0031115268428707488
0.0032292544972693515
0.0033356030175037965
0.0034305065399750645
0.0035138942626334324
0.003585691329605345
0.003645819668792849
0.0036941987802268095
0.0037307464747490804
0.0037553795642750187
0.0037680145064311055
0.0037685680077489403
0.0037569575907986374
0.0037331021316409085
0.0036969223747677638
0.0036483414332748043
0.00358728528233232
0.0035136832541367014
0.003427468542398282
0.003328578724053066
0.0032169563053005
0.003092549298255587
0.002955311833461649
0.002805204812262152
0.002642196601574054
0.002466263771940924
0.0022773918778959956
0.002075576277634217
0.0018608229868055104
0.0016331495588828293
0.0013925859820723696
0.0011391755801483106
0.0008729759018958894
0.0005940595811140259
0.00030251514635820653
0.00029365556100741097
0.0005768890678525818
0.0008483141895786472
0.0011080371356365637
0.0013561457623995077
0.0015927100487098111
0.0018177827232983557
0.002031400023935037
0.0022335825677688437
0.0024243363122656847
0.0026036535864175647
0.002771514172508649
0.002927886419644421
0.0030727283714593323
0.0032059888919122592
0.003327608774770119
0.0034375218242784222
0.0035356558965463636
0.0036219338932864664
0.0036962747017170172
0.003758594076592958
0.003808805462438669
0.00384682075607784
0.0038725510114565598
0.003885907090484586
0.003886800265176682
0.0038751427777173886
0.003850848366186488
0.003813832764567593
0.0037640141862819165
0.0037013138008691326
0.0036256562135591475
0.0035369699573374325
0.0034351880067149954
0.0033202483217734113
0.003192094430171266
0.0030506760536653243
0.002895949784339935
0.0027278798141458505
0.0025464387195482385
0.0023516083010599043
0.0021433804752064023
0.0019217582140683698
0.0016867565249517047
0.0014384034599853046
0.0011767411425586682
0.0009018267945051783
0.0006137337448404168
0.0003125523977281497
0.00030188823551574595
0.0005931013640662619
0.0008722216531126259
0.0011393594601265544
0.001394605178530517
0.0016380298314071506
0.001869685825746148
0.002089607844777075
0.0022978138554923255
0.0024943062083913614
0.002679072806796967
0.0028520883238104533
0.0030133154460280642
0.003162706124554382
0.003300202815563702
0.003425739694612129
0.0035392438310922203
0.0036406363115399354
0.0037298333029254227
0.0038067470495370404
0.0038712867995063793
0.003923359659430137
0.003962871377819643
0.003989727060246695
0.004003831821003834
0.004005091377830283
0.0039934125977544865
0.0039687040033372645
0.003930876249582216
0.0038798425824613236
0.003815519290423175
0.003737826160383151
0.003646686949541844
0.0035420298839498043
0.00342378819403788
0.0032919006963756936
0.00314631242968777
0.002986975351682186
0.002813849101516608
0.002626901830773798
0.0024261111036073535
0.0022114648642998502
0.0019829624678476265
0.0017406157663245048
0.0014844502407678761
0.001214506165121032
0.0009308397854094763
0.0006335244938709961
0.0003226519742027256
0.00031004654485511374
0.0006091739476198899
0.0008959342259381997
0.0011704416129748596
0.0014327886500021259
0.0016830469144884508
0.0019212679179533287
0.002147484148540435
0.0023617102327389006
0.0025639441906165628
0.002754168759290798
0.00293235276018472
0.003098452486862746
0.0032524130918613614
0.00339416995291536
0.003523650001245826
0.0036407729970723834
0.0037454527401918347
0.003837598206230197
0.003917114601996896
0.003983904336151922
0.004037867904113146
0.004078904688710305
0.004106913680488933
0.004121794123749856
0.004123446096343186
0.004111771032903999
0.004086672202575803
0.004048055153345831
0.003995828135870294
0.0039299025201134374
0.0038501932182655185
0.0037566191272352945
0.00364910360355003
0.0035275749827221037
0.0033919671541048357
0.0032422202009318446
0.0030782811136292887
0.0029001045826309024
0.0027076538747993206
0.002500901795165933
0.002279831733083715
0.002044438789020997
0.001794730975100578
0.0015307304791856158
0.0012524749787805045
0.000960018987292699
0.0006534352113469755
0.0003328158938324943
0.000318126779936867
0.0006251002368410363
0.000919443346466875
0.0012012738637408038
0.0014706859996709842
0.0017277513018856272
0.0019725197148116602
0.002205020791524015
0.002425265028670187
0.0026332452958008346
0.0028289383308607863
0.0030123062745435747
0.003183298217665831
0.003341851737604984
0.0034878944021271008
0.0036213452215622666
0.003742116033158549
0.003850112804515138
0.003945236846173483
0.004027385926649474
0.0040964552863694825
0.004152338550035661
0.0041949285398514835
0.00422411799474065
0.004239800203117261
0.004241869558920253
0.004230222052470867
0.004204755709198538
0.0041653709904605485
0.0041119711715005836
0.0040444627120626575
0.003962755635324888
0.003866763930613082
0.0037564059948516637
0.0036316051268678318
0.003492290087527883
0.0033383957372595807
0.003169863760776548
0.002986643486813878
0.002788692808401716
0.0025759792066223364
0.0023484808779657973
0.0021061879622921165
0.0018491038650221836
0.001577246663573506
0.0012906505841770999
0.0009893675311101746
0.0006734686460985739
0.0003430458711557449
0.00032612527093867083
0.000640873794096386
0.0009427407675954291
0.001231847021197885
0.0015082878566429758
0.001772134100774314
0.0020234333489510536
0.0022622113674560795
0.0024884736228711346
0.0027022069062917486
0.0029033810207630406
0.0030919505014203597
0.003267856339497166
0.003431027683569454
0.0035813834940597866
0.003718834130048365
0.003843282850771179
0.003954627217707951
0.004052760386800469
0.004137572284005242
0.004208950660990751
0.00426678203126013
0.004310952490247544
0.004341348425960734
0.004357857129452747
0.004360367316781744
0.0043487695761469936
0.004322956755530627
0.004282824307429711
0.004228270608149676
0.00415919726963182
0.0040755094619178145
0.003977116264119118
0.0038639310611913724
0.00373587200290898
0.003592862540188202
0.003434832052366943
0.003261716577191709
0.003073459653099131
0.002870013280934669
0.0026513390094762834
0.002417409146096672
0.0021682080905440215
0.0019037337861674275
0.0016239992789946478
0.0013290343708388663
0.0010188873481178917
0.0006936267633214643
0.00035334324109276283
0.00033403842402945916
0.000656488403951605
0.0009658186806962843
0.001262152606279765
0.0015455858799129918
0.0018161877962035167
0.0020740026951973634
0.0023190515791779998
0.0025513338602770053
0.0027708292028412185
0.0029774994250752473
0.0031712904257742425
0.003352134103936366
0.0035199502415952377
0.003674648323312324
0.0038161292692703297
0.0039442870627564575
0.004059010256887374
0.004160183349584623
0.004247688020004969
0.004321404223720404
0.0043812111478652715
0.004426988031145829
0.004458614856979959
0.0044759729310547836
0.004478945357206943
0.004467417427737541
0.00444127694607277
0.00440041450102191
0.004344723712813414
0.004274101471605951
0.00418844818928088
0.004087668085049734
0.003971669524752808
0.003840365432743631
0.003693673793903174
0.0035315182616603713
0.0033538288859070176
0.0031605429723848277
0.0029516060825043877
0.0027269731796007446
0.002486609924386096
0.0022304941187660243
0.001958617293269793
0.0016709864290958554
0.0013676258011972031
0.0010485789239326748
0.0007139105755842312
0.00036370887254655315
0.00034186276349224
0.0006719381625882592
0.0009886698571361374
0.0012921830490701391
0.0015825730126429738
0.0018599065628576161
0.0021242237383538587
0.00237553965933629
0.002613846520120755
0.00283911567572831
0.0030512997826391275
0.003250334955336942
0.00343614290259292
0.003608633010420803
0.003767704342234779
0.0039132475308266135
0.0040451465412219
0.00416328028815266
0.004267524096667197
0.004357750999179344
0.004433832866906295
0.004495641378078896
0.004543048829438845
0.004575928801289375
0.004594156689709972
0.004597610122429374
0.004586169277243979
0.004559717123794937
0.004518139610953098
0.004461325823020612
0.004389168128464627
0.004301562344971643
0.0041984079442767275
0.0040796083194805655
0.0039450711364738544
0.0037947087896334497
0.003628438980153581
0.003446185433254312
0.003247878768046719
0.0030334575310514422
0.002802869401240693
0.002556072571016532
0.0022930373037174934
0.0020137476640620933
0.001718203413381636
0.0014064220565594976
0.0010784410222785534
0.0007343199524690869
0.00037414307079758347
0.0003495949797829856
0.000687217579652899
0.0010112878092001787
0.0013219319124792017
0.001619243770514367
0.0019032866181423191
0.002174094989189912
0.0024316768456016935
0.0026760158449402605
0.0029070737004944225
0.0031247925890569572
0.0033290975632239705
0.003519898927781817
0.0036970945432585056
0.00386057202392015
0.004010210802249559
0.004145884037092096
0.004267460348056917
0.004374805364257661
0.004467783080933041
0.004546257022770339
0.00461009121775624
0.004659150990012906
0.004693303584247854
0.004712418638132598
0.0047163685220716345
0.004705028568415204
0.004678277214218207
0.00463599608313936
0.004578070033054604
0.004504387196447079
0.00441483904063672
0.004309320474486122
0.004187730027392533
0.00404997012515268
0.003895947485703266
0.003725573655808445
0.0035387657075097723
0.0033354471105389583
0.0031155487939576454
0.002879010406992233
0.0026257817853745924
0.0023558246254729576
0.0020691143640469423
0.001765642256619293
0.0014454176421621057
0.001108470376057491
0.0007548534071094015
0.00038464546774136243
0.0003572319841598781
0.0007023216938535359
0.0010336669725287684
0.001351394145568674
0.0016555945679712636
0.0019463266212603747
0.0022236179541142986
0.002487467916585495
0.0027378501363785612
0.0029747151854448983
0.0031979932861305738
0.00340759700825205
0.0036034239116735645
0.003785359093091689
0.003953277600668659
0.004107046685693061
0.0042465278664439166
0.004371578785671293
0.004482054849423822
0.004577810641194557
0.004658701111355079
0.004724582547485312
0.00477531333638509
0.00481075453318669
0.004830770257031214
0.004835227936185682
0.00482399842825304
0.004796956043284839
0.004753978499139611
0.0046949468393946425
0.004619745344543402
0.004528261467130312
0.0044203858209286295
0.00429601225331161
0.004155038028609892
0.0039973641485205325
0.0038228958335699836
0.003631543187226749
0.003423222061512632
0.0031978551398711974
0.0029553732496082064
0.0026957169123831837
0.0024188381370029988
0.0021247024540924087
0.0018132911870925583
0.0014846039484018858
0.0011386613433279624
0.0007755078578564056
0.00039521489900840034
0.0003647709705246749
0.0007172462037649541
0.0010558029124407287
0.0013805663698558956
0.0016916240866756693
0.0019890281235639407
0.0022727976646995662
0.0025429217953889527
0.002799362425338403
0.0030420572989264816
0.0032709230349936003
0.0034858581412184897
0.0036867459519574486
0.0038734574432994218
0.004045853884890371
0.004203789294571936
0.004347112668849795
0.00447566996943255
0.004589305853361758
0.0046878651413799766
0.004771194025991965
0.004839141027032257
0.00489155770832983
0.004928299174175477
0.004949224368719751
0.004954196205110006
0.004943081554111661
0.004915751124199896
0.004872079266646956
0.004811943740037183
0.004735225468973203
0.004641808331523611
0.004531579009271758
0.004404426932706762
0.004260244353179732
0.0040989265707795375
0.0039203723452622685
0.003724484514618931
0.0035111708429964583
0.0032803451164630792
0.003031928501526393
0.002765851177337131
0.002482054248108656
0.0021804919373965004
0.001861134060515135
0.0015239687654199363
0.0011690055258424814
0.0007962783633269077
0.0004058492670021008
0.00037220948524541164
0.000731987615493146
0.0010776925567964057
0.001409447202356695
0.001727333691071642
0.0020313960761830785
0.002321643274073193
0.002598052228679426
0.0028605712250565074
0.0031091232853763806
0.003343609582120044
0.003563912806267777
0.0037699004328285435
0.003961427831855935
0.004138341179925342
0.004300480134671936
0.004447680243120089
0.004579775062919789
0.004696597983986528
0.004797983746197387
0.004883769656521597
0.004953796516113884
0.005007909274333089
0.005045957432275705
0.005067795223226534
0.005073281601350177
0.005062280073021341
0.005034658407483017
0.004990288265007192
0.004929044781538938
0.0048508061489885845
0.004755453229937201
0.004642869244647407
0.004512939566955754
0.004365551663915779
0.00420059521202909
0.004017962420520549
0.0038175485894328953
0.00359925292732588
0.0033629796500329046
0.003108639378239686
0.0028361508475550634
0.0025454429402204104
0.0022364570425470465
0.0019091497265899537
0.0015634957483475764
0.0011994913478778346
0.0008171578291299997
0.0004165453888980708
0.0003795455058077102
0.0007465434090526135
0.0010993344584382392
0.0014380376196772016
0.0017627278966566018
0.002073439401767241
0.0023701687281424966
0.0026528785502196728
0.002921501376767277
0.0031759433802892034
0.003416088228532954
0.003641800847531962
0.0038529310510388437
0.004049316978124495
0.0042307882888061865
0.004397169076533591
0.004548280465880961
0.004683942873526026
0.00480397792026821
0.00490820999116931
0.0049964674496631445
0.005068583519511893
0.005124396855623159
0.005163751830918217
0.005186498571622955
0.0051924927775025
0.005181595366732017
0.005153671987362496
0.005108592438721471
0.005046230046727773
0.0049664610370581674
0.004869163949472899
0.004754219135484461
0.004621508380003636
0.004470914685677341
0.004302322256400426
0.004115616713949166
0.003910685578877804
0.0036874190437267695
0.0034457110631682664
0.003185460781973959
0.002906574317515731
0.0026089669089021106
0.002292565439702965
0.0019573113354584004
0.001603163830728116
0.001230103593239551
0.0008381366846773042
0.00042729882871578306
0.00038677752921834063
0.0007609122255648471
0.0011207290906659617
0.0014663413680590098
0.00179781489734826
0.0021151716381666574
0.002418393520771389
0.0027074265390301666
0.0029821849989281612
0.0032425558355558826
0.003488402913785049
0.0037195712323661034
0.003935890957725785
0.0041371812220036275
0.004323253629485269
0.004493915426175887
0.004648972298402998
0.004788230777671598
0.004911500240163957
0.005018594499947404
0.005109333004894634
0.005183541653313639
0.005241053257185824
0.005281707684643366
0.005305351719845364
0.005311838682753867
0.005301027854513252
0.005272783756294919
0.005226975330670847
0.005163475074953627
0.00508215817560026
0.004982901691837516
0.004865583835229892
0.004730083390070916
0.004576279317309251
0.0044040505822842135
0.00421327624383766
0.004003835839440417
0.0037756100978165175
0.0035284820070725087
0.003262338262571829
0.002977071114620089
0.0026725806313991907
0.0023487773873885898
0.00200558558167363
0.0016429465839463697
0.0012608228985586112
0.0008592025286097149
0.0004381037126149345
0.00039390467127514706
0.0007750940776958815
0.0011418791796975192
0.0014943654250167693
0.0018326071593012805
0.002156611663047925
0.002466343543384153
0.002761729383881667
0.0030426625525574735
0.003309008068167779
0.003560607427736423
0.0037972833038057985
0.0040188440278279
0.004225087786035586
0.004415806465600969
0.004590789101419662
0.004749824886946696
0.004892705725729529
0.005019228313185242
0.00512919575038473
0.005222418702864273
0.00529871612753402
0.005357915599464691
0.005399853277620381
0.005424373554452272
0.005431328438723487
0.005420576724082166
0.0053919829978504585
0.005345416545407211
0.005280750205543361
0.005197859231424379
0.005096620210449876
0.0049769100944804245
0.004838605389711148
0.004681581553002079
0.00450571263881025
0.00431087123800189
0.004096928746780942
0.0038637560007616367
0.0036112243057559723
0.0033392068931144825
0.0030475808233438595
0.0027362293571540075
0.002405044807938128
0.0020539318838424248
0.0016828115209264194
0.0012916252013175367
0.0008803397415800551
0.00044895252666449226
0.00040092677792008535
0.0007890905861088482
0.0011627900787274104
0.001522120519151987
0.001867122089757589
0.0021977845099102056
0.002514052041104331
0.0028158287675514593
0.003102984037050338
0.0033753579471030304
0.0036327667648682616
0.0038750081763803956
0.004101866270115662
0.0043131161719596744
0.004508528262338496
0.004687871921149223
0.004850918761547779
0.004997445329072758
0.005127235257508078
0.005240080886869114
0.005335784361619078
0.005414158238435746
0.005475025642395243
0.0055182200182535834
0.0055435845296245845
0.00555097116331521
0.00554023959904254
0.0055112559063836
0.005463891131263027
0.005398019833788986
0.005313518637974302
0.0052102648520111206
0.005088135215472439
0.00494700482720406
0.004786746304866002
0.004607229224153575
0.004408319882690415
0.004189881430473746
0.0039517744055311
0.003693857710052595
0.003415990058648233
0.003118031926413689
0.0027998480200667752
0.002461310290425095
0.002102301498755399
0.0017227193429031062
0.0013224811414717652
0.0009015290654520447
0.0004598358965081928
0.00040784455011880216
0.0008029052451908325
0.0011834701889452959
0.0015496217157799919
0.0019013827908717362
0.002238722287641076
0.0025615606894894005
0.002869776086389997
0.0031632103329864714
0.0034416752353011726
0.0037049586378075927
0.0039528302911013
0.0041850473922149245
0.0044013597041170915
0.004601514177394461
0.004785259014809307
0.004952347137627683
0.005102539030643005
0.005235604960081325
0.005351326574574933
0.005449497913748186
0.005529925861419316
0.005592430090819139
0.005636842557527
0.005663006602102977
0.0056707757287383365
0.005660012128864855
0.0056305850197752305
0.005582368868146892
0.005515241567188772
0.005429082634173438
0.005323771492598661
0.005199185900337883
0.005055200582033431
0.004891686120790023
0.004708508161015118
0.0045055269710483625
0.004282597411063072
0.00403956934854946
0.0037762885604299967
0.0034925981574421283
0.003188340562713443
0.002863360072317356
0.002517506020866145
0.0021506365697061547
0.0017626231288358774
0.001353355416102403
0.0009227471483164718
0.0004707423485131035
0.00041465968395168473
0.0008165437218279892
0.001203931433783334
0.001576889077353344
0.0019354189102038788
0.002279465217822102
0.0026089208082497595
0.002923633823260524
0.003223414711005651
0.0035080432060805578
0.0037772751689576223
0.0040308491473349806
0.0042684925364555315
0.00448992723305347
0.004694874697418777
0.004883060359184399
0.005054217323954918
0.00520808935899969
0.005344433156220019
0.005463019888886866
0.005563636094811281
0.005646083932390633
0.005710180867206011
0.005755758855559817
0.005782663097621765
0.00579075043688565
0.005779887484713142
0.005749948549100298
0.005700813445812858
0.0056323652679758085
0.005544488187373631
0.005437065357395854
0.005309976983958353
0.005163098627045615
0.004996299791865971
0.004809442865098601
0.004602382448365888
0.004374965137884629
0.004127029796186343
0.0038584083587724083
0.003568927215467227
0.0032584092028999367
0.0029266762408256264
0.002573552640689203
0.0021988691097367674
0.0018024674678816521
0.0013842060872104045
0.0009439660551937568
0.0004816580521895819
0.0004213750278619921
0.0008300141916916248
0.001224189793813446
0.0016039484092933431
0.001969267601699576
0.0023200628065524753
0.002656194731164463
0.0029774770948707008
0.003283684528837677
0.0035745604562925914
0.0038498247817977393
0.004109181231474857
0.004352324203992841
0.004578945013613361
0.004788737430529849
0.004981402448998085
0.005156652239248299
0.005314213263889922
0.005453828562658775
0.005575259230237245
0.005678285130019944
0.005762704901857318
0.005828335333827345
0.005875010177058632
0.005902578488720278
0.00591090259176022
0.005899855741212545
0.005869319586241845
0.005819181514978761
0.005749331966007992
0.005659661786444309
0.005550059712219474
0.005420410041749285
0.005270590569762923
0.005100470843927257
0.004909910803071127
0.004698759852322404
0.004466856427341043
0.004214028096967359
0.00394009225091288
0.0036448574164669734
0.0033281252453899457
0.002989693209020705
0.0026293580359236235
0.002246919921884416
0.0018421875364928453
0.0014149838436664786
0.000965152744949932
0.0004925665440666249
0.0004279947594170441
0.000843327718376391
0.0012442659111442378
0.001630832103824309
0.0020029746134546944
0.002360575170519824
0.0027034573548337937
0.0030313953982268327
0.0033441231422634554
0.003641342941936715
0.003922734316435167
0.00418796216479253
0.0044366843864102334
0.004668558772757181
0.004883249065549211
0.0050804301069968805
0.005259792037958705
0.005421043528832298
0.005563914054791563
0.00568815525076663
0.005793541401860197
0.005879869141443089
0.005946956441866935
0.005994640991750344
0.006022778059406181
0.006031237944563894
0.006019903120573461
0.005988665167252244
0.005937421590974629
0.005866072623964186
0.0057745180894714365
0.005662654413997131
0.005530371862257438
0.005377552065402913
0.005204065908288619
0.005009771837432425
0.00479451464771416
0.004558124802852004
0.004300418342122941
0.004021197423576955
0.0037202515519465795
0.0033973595373478216
0.0030522922285091125
0.0026848160613615613
0.0022946974601057157
0.0018817081230601829
0.0014456312193603105
0.0009862685145992645
0.0005034484334902056
0.00043452458434617425
0.0008564986817037601
0.0012641857738255324
0.0016575800968495757
0.0020365955217908627
0.0024010745408726275
0.002750797893043888
0.003085494585181481
0.0034048520599991583
0.0037085262659199147
0.003996151397424597
0.004267349095557982
0.004521736925840875
0.004758935983145723
0.004978577508332194
0.0051803084378424236
0.005363795843387614
0.005528730252871761
0.005674827874672633
0.00580183177443791
0.005909512076145179
0.005997665277060749
0.006066112779424121
0.0061146987504488715
0.006143287426963129
0.006151759982275851
0.006140011071240237
0.006107945165648554
0.00605547278666152
0.0059825067345326
0.005888958408959005
0.005774734306411872
0.005639732774140066
0.005483841094462399
0.005306932967622496
0.005108866456992184
0.004889482456788802
0.004648603739645651
0.00438603463924897
0.0041015614216659
0.0037949533977229555
0.0034659648276030297
0.0031143376674638013
0.002739805206023377
0.0023420966363826845
0.0019209426045519729
0.0014760817708369955
0.0010072684130716103
0.0005142810912671381
0.00044097196122117044
0.0008695452628564027
0.0012839814929927473
0.001684240955991012
0.002070197135013302
0.0024416469729510726
0.0027983218685334876
0.00313989909931206
0.003466013377675492
0.0037762682524519198
0.004070247086015638
0.004347523363687683
0.004607670126627633
0.00485026835922292
0.005074914204900027
0.005281224928116002
0.005468843583031929
0.005637442389286512
0.0057867248510583835
0.005916426686239928
0.006026315657523845
0.006116190416305178
0.006185878483686874
0.006235233500946541
0.006264131885163615
0.0062724690250771375
0.006260155148413493
0.006227110985731421
0.006173263348039637
0.0060985407267679925
0.006002869015736462
0.005886167446072732
0.005748344816988549
0.005589296098221674
0.005408899473957174
0.00520701389324707
0.004983477188352875
0.004738104819934641
0.004470689306479703
0.00418100039459679
0.003868786026533705
0.0035337741612482265
0.003175675505231984
0.002794187208745691
0.002388997581781571
0.001959791881551154
0.0015062592192241209
0.001028100627570111
0.0005250383226690358
0.00044734635583759674
0.0008824899956071941
0.0013036921881162677
0.0017108731216110284
0.002103859094928745
0.0024823942954922684
0.0028461533801153738
0.00319475451578613
0.0035277725323159537
0.0038447518481759257
0.004145218853646715
0.004428693469626155
0.004694699643528921
0.0049427745929086775
0.0051724766598295335
0.005383391691893474
0.005575137916709189
0.005747369323418711
0.005899777606136747
0.006032092758707919
0.006144082437561288
0.006235550229525683
0.006306332974583606
0.006356297300319447
0.006385335526081309
0.006393361091630301
0.0063803036583001405
0.0063461040214702336
0.006290708962425867
0.006214066156270681
0.006116119241216356
0.005996803143876656
0.005856039745574915
0.005693733966437797
0.0055097703373851725
0.005304010125068981
0.005076289071348911
0.0048264158068844765
0.004554170997675022
0.004259307283660002
0.003941550069479549
0.003600599228893331
0.0032361317857638183
0.002847805635576628
0.002435264371768775
0.0019981432802481103
0.0015360765629725825
0.0010487058468304222
0.0005356900268779496
0.00045365953020676253
0.0008953603948817501
0.0013233649990073149
0.001737546327310352
0.0021376757101672916
0.0025234363398749515
0.002894437690578927
0.0032502304324271147
0.0035903214259956073
0.003914188396691998
0.004221293918848457
0.004511098382933648
0.004783071673446521
0.005036703346010918
0.005271511156306946
0.0054870478573563475
0.0056829062422824594
0.005858722464558402
0.006014177715156277
0.006148998374764236
0.00626295478889663
0.006355858834364236
0.006427560457760884
0.006477943371289263
0.00650692008953746
0.00651442648403408
0.0065004160218657125
0.006464853841593843
0.0064077108053434695
0.00632895765123595
0.006228559356151769
0.006106469805793019
0.005962626857625802
0.005796947872837549
0.005609325786110009
0.005399625776777106
0.0051676826017503785
0.004913298649269426
0.004636242772821875
0.004336249966163497
0.004013021942910311
0.003666228687306705
0.003295511046039923
0.0029004844339871327
0.002480743729066509
0.0020358694324646154
0.0015654351699261604
0.0010690166070086993
0.0005462018457133011
0.00045992587224399917
0.0009081896764833175
0.0013430562474391061
0.001764343232215887
0.002171758062602308
0.0025649134983731503
0.0029433441899844592
0.0033065237695836525
0.0036538819762533814
0.003984821340923289
0.004298732995928728
0.004595011230224044
0.004873066479447935
0.005132336515774855
0.005372295681107281
0.005592462084414912
0.005792402756228082
0.005971736817539597
0.006130136774637696
0.006267328094525043
0.00638308724723069
0.006477238421856241
0.006549649133528762
0.006600224939886851
0.006628903479878406
0.006635648036179442
0.006620440807119515
0.006583276056183751
0.006524153288351486
0.006443070583902338
0.0063400182028208185
0.006214972557265802
0.006067890636247325
0.005898704955945605
0.005707319101138059
0.005493603917942375
0.005257394415376121
0.004998487432838539
0.004716640132225364
0.004411569376605556
0.004082952061811973
0.003730426472508125
0.0033535947397872468
0.0029520264826910225
0.0025252637206901463
0.0020728271476404547
0.001594223859487487
0.001088956627478349
0.0005565348052817831
0.0004661627735869367
0.0009210175849462265
0.0013628327764259318
0.0017913613046247334
0.00220623643726775
0.002606989670886295
0.002993069800202447
0.0033638625476921924
0.003718710161429689
0.004056930416920901
0.00437783451082932
0.004680743406497073
0.0049650022773187474
0.005229992788346571
0.005475143053074366
0.005699935195862482
0.005903910536437962
0.0060866724879253264
0.006247887321685963
0.006387282999749028
0.0065046463086961825
0.006599818548283398
0.0066726900352574725
0.00672319367962404
0.006751297879134671
0.00675699896016993
0.006740313371593476
0.006701269814438776
0.006639901466126058
0.0065562384346354585
0.00645030055675766
0.0063220906359326146
0.0061715881997787825
0.005998743845443605
0.005803474232425415
0.005585657777427644
0.005345131103843076
0.00508168629932132
0.004795069038130817
0.00448497763025249
0.00415106306582802
0.0037929301312573105
0.0034101396813612517
0.0030022121600743468
0.0025686324695637364
0.0021088562939369504
0.0016223179882415562
0.0011084401456751547
0.0005666449551813835
0.0004723910647601026
0.0009338913505048119
0.001382773501760165
0.001818715005668381
0.0022412631375155756
0.0026498556726159694
0.003043842900401411
0.003422510225163683
0.0037851006417651822
0.00413083641339998
0.0044589393474733785
0.004768649158452515
0.005059239515683878
0.005330031491902032
0.005580404246951609
0.005809802894496979
0.006017743601756553
0.0062038160596201986
0.006367683530449364
0.006509080732445299
0.006627809853019806
0.006723735000446068
0.006796775405311456
0.006846897673525892
0.006874107373610772
0.0068784402155128155
0.006859953048846623
0.006818714877546067
0.006754798057360484
0.006668269813976446
0.006559184193929923
0.006427574538653114
0.006273446554426604
0.006096772037851833
0.005897483307682055
0.0056754683891857005
0.005430566996356995
0.005162567359789344
0.004871203953342423
0.004556156180386267
0.004217048089791814
0.003853449202399689
0.0034648765398682946
0.003050797959005258
0.0026106369053367773
0.0021437787091725113
0.001649578555201564
0.001127371262083815
0.0005764830109033781
0.00047863551917409763
0.0009468668012615478
0.0014029712186858223
0.0018465383330993623
0.002277015761320028
0.0026937331912752494
0.003095927870225612
0.0034827706959865146
0.0038533920523190768
0.004206906583792136
0.004542436196744576
0.0048591306928642275
0.005156185580519668
0.0054328567562277885
0.005688471894973207
0.00592243852524918
0.0061342488861175215
0.006323481764758471
0.00648980159137183
0.006632955123245465
0.006752766082285755
0.0068491281224909994
0.006921996498768512
0.006971378789668609
0.00699732499766112
0.00699991731504776
0.0069792598046675425
0.006935468204942785
0.006868660030757673
0.0067789451068502316
0.006666416640012746
0.00653114291116369
0.006373159648654869
0.006192463130016673
0.005989004050561991
0.005762682193456631
0.005513341936539906
0.005240768635782017
0.00494468593314501
0.0046247540471656134
0.00428056911713981
0.003911663685710776
0.0035175084193460326
0.003097515181008287
0.002651041583631497
0.0021773971662297498
0.001675851345969065
0.001145643308660682
0.0005859940062347413
0.0004849254402735925
0.0009600096630668353
0.0014235347170755142
0.0018749877997516762
0.00231370103243958
0.002738879402533312
0.0031496303684495908
0.0035449940668474678
0.003923973081957327
0.004285560812146427
0.004628767589958893
0.004952643867181361
0.005256299952986793
0.005538921977728151
0.0057997839353563785
0.006038255823447108
0.006253808043630654
0.006446012341719237
0.006614539653565982
0.006759155279652429
0.0068797118404914925
0.0069761404695289075
0.007048440684630147
0.007096669348159279
0.007120929083813871
0.007121356470193851
0.007098110280396891
0.007051359986974065
0.006981274704835866
0.006888012702967294
0.0067717115802859995
0.006632479172273276
0.006470385233331016
0.00628545392500246
0.0060776571318574835
0.005846908624406982
0.005593059091182573
0.005315892069390704
0.005015120814555435
0.004690386163561877
0.00434125546176628
0.003967222642637991
0.0035677095670823278
0.0031420687484857712
0.00268958760797941
0.0022094944218196133
0.0017009661384808084
0.001163138256413343
0.0005951169637641307
0.000491295349826476
0.000973397087892458
0.001444591271842377
0.0019042459395439415
0.0023515593026071646
0.0027855923775804148
0.0032053034909566847
0.00360958335846126
0.003997289474373111
0.004367278650970946
0.004718436709114732
0.005049704522719495
0.005360099845148791
0.005648734577169967
0.005914827358626473
0.006157711566695451
0.006376838973249033
0.006571779446866405
0.006742217179373622
0.006887943973411831
0.007008850149819029
0.007104913626591436
0.00717618769085393
0.007222787937869152
0.007244878792722148
0.007242659966372161
0.007216353132885961
0.007166189052556116
0.007092395308974597
0.006995184778832486
0.006874744912323455
0.006731227869969547
0.006564741538402835
0.006375341432710013
0.006163023485694141
0.005927717724012127
0.005669282836720663
0.005387501652379778
0.005082077555625841
0.00475263189218314
0.0043987024317937995
0.004019742980760327
0.003615124258976893
0.003184136179781749
0.0027259916940527706
0.002239832382012502
0.0017247359965998077
0.0011797261803554449
0.0006037845929003083
0.0004977858000141389
0.0009871194619963941
0.0014662895923419905
0.00193452545716008
0.0023908698692610697
0.002834217448207471
0.0032633549841497578
0.003677002306170102
0.004073852112984611
0.0044526073682407685
0.004812015076931436
0.005150895522212262
0.005468166330067803
0.0057628610204260855
0.00603414197780025
0.006281308016699738
0.0065037969161311215
0.0067011834476846666
0.006873173521761505
0.007019595129062528
0.007140386765015355
0.007235584000702039
0.007305304813256419
0.0073497342198610705
0.007369108680085001
0.007363700647988858
0.007333803573634862
0.007279717577501454
0.007201735953659055
0.007100132600229153
0.006975150429408605
0.0068269907743190306
0.006655803785706821
0.006461679797249736
0.006244641632920017
0.0060046378323806715
0.005741536779589496
0.005455121734527613
0.005145086787226277
0.0048110337760295385
0.004452470237401307
0.004068808481772573
0.0036593659181086147
0.0032233667784042075
0.002759945421496296
0.002268151422731013
0.0017469566815971616
0.0011952648027446222
0.000611923026238359
0.0005044443380220198
0.001001282558773603
0.001488803336427924
0.0019660741673122872
0.0024319572893381214
0.0028851547344616035
0.0033242557300017794
0.0037477844719257525
0.004154246382255977
0.0045421711624007155
0.0049101512402450476
0.005256874552003743
0.005581150969244858
0.005881932047911348
0.006158324114568264
0.006409594996388601
0.006635174933287302
0.006834652377494643
0.0070077654881286755
0.007154390171131675
0.007274525506819507
0.007368277358701131
0.007435840879252198
0.007477482531699525
0.007493522141163889
0.007484315381722562
0.007450237004320848
0.0073916650184586985
0.007308965961045549
0.007202481320271431
0.0070725151311624435
0.006919322722284377
0.006743100568861626
0.006543977195079015
0.006322005066100866
0.006077153416850667
0.005809301978410342
0.005518235582676639
0.00520363965043949
0.004865096596221058
0.00450208321407411
0.004113969141244095
0.0037000165303106847
0.0032593810944956947
0.002791114724548016
0.002294169908339555
0.0017674062154853787
0.0012095991382951587
0.0006194516065930189
0.0005113266596594446
0.0010160101187620951
0.001512335323068742
0.001999180907691661
0.002475198915553395
0.0029388680900168385
0.00338854976886821
0.003822543924954097
0.00423914303422962
0.004636681728082959
0.005013580569616455
0.005368382742938355
0.005699782919079799
0.006006648023635847
0.006288030047909288
0.006543171394183228
0.006771503513138849
0.006972639772787309
0.007146363596763378
0.007292612934396064
0.007411462088502241
0.007503101843985338
0.007567818725893377
0.007605974083379319
0.007617983557773295
0.007604297358159123
0.007565381643393654
0.007501701200028882
0.007413703513679287
0.00730180425796817
0.007166374169998102
0.0070077272431812165
0.006826110145558284
0.0066216927625050714
0.006394559764966362
0.006144703116160027
0.005872015449278706
0.005576284274509652
0.0052571870043469915
0.004914286820473152
0.00454702944245941
0.004154740897296644
0.0037366264285035866
0.0032917707236246596
0.0028191396786289846
0.002317583956447322
0.0017858446340807688
0.00122256126780948
0.0006262827384890257
0.0005184979986592175
0.0010314469620522904
0.0015371226139767047
0.0020341826589329315
0.002521033940301287
0.002995895783755087
0.0034568661883840335
0.003901987803450885
0.004329310831521133
0.004736950380934829
0.005123136304373638
0.005486254150383341
0.005824876465492401
0.00613778426594816
0.006423979010076075
0.006682685817427564
0.006913348984923268
0.007115621040885228
0.007289346662858631
0.007434542779159781
0.0075513760959552145
0.007640139161696452
0.0077012259184610354
0.007735107512563483
0.007742308958976485
0.0077233870864298615
0.007678910039981279
0.007609438489782877
0.007515508590631104
0.007397616656710793
0.007256205458395643
0.007091652010891264
0.00690425670530237
0.006694233628670138
0.006461701928000385
0.006206678091923573
0.005929069050275765
0.0056286660247609754
0.005305139101502487
0.004958032537442508
0.004586760856212874
0.004190605834424432
0.0037687145255417553
0.0033200985149729467
0.0028436346460906925
0.0023380675020131247
0.001802013971564348
0.0012339702693957566
0.0006323218193098612
0.0005260348116535307
0.0010477627682713708
0.0015634426824940317
0.002071473168859611
0.0025699743078706483
0.003056863316574704
0.0035299332844152542
0.003986931136532451
0.004425631287238829
0.004843901976415127
0.005239761973283796
0.005611426109078443
0.005957338887506491
0.006276196154116648
0.0065669554326608925
0.006828836026329943
0.0070613103206468575
0.007264087915158868
0.0074370942676639795
0.007580445480587117
0.007694420721359091
0.0077794335749274135
0.007836003402295122
0.007864727545841277
0.007866254996971078
0.007841261936333471
0.007790429378908698
0.007714423009371918
0.007613875177982871
0.00748936894242519
0.0073414239837176765
0.007170484191040827
0.006976906697295865
0.006760952150787508
0.0065227760252388745
0.006262420797522927
0.005979808857604962
0.005674736056249741
0.005346865841520332
0.004995723983752115
0.004620693939566156
0.004221012957797893
0.0037957690833038404
0.0033438992678484214
0.0028641888500993418
0.002355272718614715
0.0018156385220411686
0.001243632339081785
0.0006374672667455172
0.0005340268363046019
0.001065156698558084
0.0015916209505222045
0.002111513461507758
0.0026226179532077565
0.0031224988750702676
0.003608595497114675
0.004078314386728704
0.0045291158784753205
0.004958590882632341
0.00536452531255488
0.005744950436990831
0.006098178479825606
0.006422823710938885
0.006717810035833355
0.00698236666251259
0.007216013790997955
0.007418540444296962
0.007589976565342743
0.007730561377385786
0.007840709783933586
0.007920978305693549
0.00797203174870667
0.007994611496251386
0.00798950603639978
0.007957524089931639
0.007899470496395222
0.007816124851554251
0.007708222765964806
0.007576439528465956
0.007421375905149685
0.0072435457786411694
0.007043365329100354
0.006821143472490104
0.006577073299245728
0.006311224294140938
0.006023535163154431
0.005713807143448407
0.005381697726641016
0.005026714782237568
0.0046482111265768455
0.004245379642280278
0.0038172491134293163
0.0033626810020197795
0.0028803674511323207
0.002368830859181076
0.0018264254270052849
0.001251341134985512
0.0006416106603978067
0.0005425796233049229
0.0010838630860266762
0.0016220400569561533
0.002154844720716753
0.0026796649521809435
0.0031936520550220338
0.0036938337465408644
0.004177224270985325
0.004640926172759824
0.0050822192879219075
0.005498633778955209
0.005888005396193691
0.006248512462273759
0.006578695232527215
0.006877459208465081
0.007144064635265512
0.007378104793855367
0.007579475827667492
0.007748340765877826
0.007885090170755449
0.007990301500155644
0.008064698886197263
0.008109114628761127
0.008124453318724772
0.008111659161931073
0.008071686782978232
0.008005475552818248
0.007913927305237767
0.007797887180195778
0.007658127250240565
0.007495332542418021
0.007310089054794688
0.007102873377141994
0.006874043553501907
0.006623830865422925
0.006352332264798699
0.006059503241565678
0.00574515097199893
0.0054089276565779665
0.005050324021448616
0.004668663023816688
0.0042630938687155395
0.003832586512154096
0.0033759268932860576
0.0028917132054756822
0.002378353582466436
0.0018340656406603817
0.001256878381280413
0.0006446370164640558
0.0005518176739801872
0.0011041584907191815
0.001655151330991117
0.0022021041822597176
0.0027419373336089736
0.0032713166560838225
0.0037867899441010877
0.004284918534936399
0.00476239737446793
0.005216158134141113
0.005643451707388364
0.006041908216556202
0.006409574358028802
0.006744929360121776
0.007046881934954091
0.0073147513353963856
0.0075482359919143704
0.007747373247414896
0.007912493498148598
0.008044171660776256
0.008143178393109601
0.008210432962463071
0.00824695913117307
0.00825384494914122
0.008232206929905866
0.008183158749787423
0.008107784350195213
0.00800711513621466
0.007882110841355622
0.00773364355841985
0.007562484409130321
0.0073692923304951585
0.007154604485194199
0.006918827849420078
0.006662231589023515
0.006384939899398728
0.006086925053414072
0.005768000473007406
0.005427813712737262
0.005065839317054066
0.004681371587112765
0.004273517367470059
0.003841189037931625
0.0033830979708882325
0.0028977487893342146
0.002383434834861614
0.0018382353275183394
0.0012600147698742792
0.0006464252153196848
0.0005618883569647182
0.001126370508500285
0.0016914890908530378
0.002254044860115212
0.0028104035203034283
0.0033566585659912107
0.003888796645785092
0.004402855493337521
0.004895065866984155
0.005361970957328099
0.005800519075575716
0.006208127833348537
0.0065827202156773235
0.006922734749138182
0.007227113272509189
0.007495270600866133
0.0077270506720375776
0.007922673656953205
0.008082678105787805
0.008207861597636396
0.008299222661323186
0.008357906019693079
0.008385152538851193
0.008382254675635553
0.008350517730905421
0.00829122683819089
0.008205619341709741
0.008094862033165895
0.007960032608330087
0.007802104656652292
0.007621935495410043
0.007420256191299324
0.007197663166371604
0.006954610853552395
0.00669140494358364
0.006408195845988479
0.006104972068918413
0.005781553305118259
0.005437583093192311
0.00507252100486702
0.004685634390322491
0.0042759897952650006
0.003842444245517329
0.0033836366774715465
0.002897979875498946
0.002383653359733423
0.0018385977485784744
0.001260511198916403
0.0006468486023659681
0.000572966834128219
0.0011508888501674808
0.001731688587268021
0.0023115601889124593
0.0028862086526471875
0.003451050032692554
0.0040014130495530376
0.004532729310005701
0.005040701389114666
0.005521440873727246
0.005971571693382222
0.006388297259644293
0.006769432759105493
0.007113406166875225
0.007419233053818003
0.007686471048766325
0.007915159967216506
0.008105753263867643
0.008259045762623984
0.0083761017153417
0.00845818626957473
0.008506702485617912
0.008523135201666199
0.008509002340770205
0.008465813698273317
0.008395036839851266
0.008298069463195556
0.008176217410006542
0.008030677436590944
0.007862523839237218
0.007672698065493255
0.007462000508587419
0.007231083767198804
0.006980446747527208
0.006710429082951552
0.006421205444683692
0.006112779412731417
0.005784976669515246
0.0054374373689083655
0.0050696076220932695
0.004680730129435012
0.0042698340755531194
0.0038357244936458035
0.003376971395149503
0.0028918990517866894
0.0023785759082146085
0.0018348056935869606
0.0012581203879266367
0.0006457757827846577
0.0005852623036069482
0.001178179380625255
0.001776508681595096
0.002375715010208862
0.002970712427994543
0.0035561119852252077
0.004126468832460345
0.004676512172039071
0.005201344527599433
0.005696600847833355
0.006158562400634837
0.0065842246758341105
0.00697132214255633
0.00731831541537023
0.007624348064219438
0.007889181002244144
0.008113112257680966
0.008296889194755436
0.008441619121397598
0.008548682916160566
0.008619654989820952
0.008656231687161009
0.008660169202562046
0.008633231260632118
0.008577146201578012
0.008493572692076956
0.00838407302675595
0.008250092859784897
0.00809294617792794
0.007913804366665805
0.0077136883056732886
0.007493462540262424
0.007253830697703023
0.00699533144230699
0.006718334385045793
0.006423035479296152
0.0061094515432023044
0.005777413651535168
0.005426559237246276
0.005056322837003635
0.004665925507751051
0.004254363034561448
0.0038203931450099815
0.0033625220426388713
0.002878990671702386
0.0023677612262890113
0.0018265045174166716
0.001252588909557678
0.0006430716308625795
0.0005990259753144711
0.0012088020478777939
0.0018268607203712484
0.002447784799923247
0.0030655365960274017
0.0036737665341132486
0.004266117684138121
0.004836504709283179
0.00537935020862787
0.005889767183726857
0.00636368249065461
0.006797901825425473
0.007190121423596485
0.0075388948958939606
0.00784356539648498
0.008104173766739303
0.008321352689207667
0.008496215557164788
0.008630247041912342
0.00872520050142303
0.008783005627180734
0.008805688203896156
0.008795302625437207
0.008753876884584955
0.008683369113734851
0.008585634357722971
0.008462400059471048
0.008315248684835908
0.008145605960591301
0.007954733311997364
0.007743723235244776
0.0075134965042908675
0.007264800277056616
0.0069982063239371894
0.006714108747580549
0.006412720695508994
0.0060940696871132904
0.005757991285887304
0.005404120949390134
0.00503188398645299
0.004640483646680377
0.004228887464075792
0.003795812076646893
0.003339706848267565
0.002858736727894773
0.002350764893228413
0.001813335838686314
0.0012436596778253317
0.0006385985342733103
0.000614561344669029
0.0012434339665989835
0.0018838455837139334
0.0025293056773952605
0.0031726249301693987
0.0038063023915687055
0.0044229028321219055
0.0050153962056311285
0.00557743779104497
0.006103575835134323
0.006589382012128525
0.007031507594256442
0.007427674088452352
0.007776610864720174
0.008077953994872517
0.008332120438467733
0.008540170319064566
0.008703667834936313
0.008824548804788168
0.008905000323255585
0.008947355738646245
0.008954006301773565
0.008927329415518742
0.008869632422455087
0.008783110247073622
0.00866981488707555
0.008531634649587116
0.008370281084413372
0.008187281720311163
0.007983976917258412
0.007761519375556386
0.0075208750695984206
0.007262824587017547
0.006987964045884504
0.006696704931475811
0.0063892723408427166
0.006065701250942218
0.005725830538572951
0.005369294582464268
0.004995512374327632
0.004603674160971266
0.004192725737567626
0.0037613506158399868
0.0033079504020366024
0.002830623838329077
0.0023271450862359933
0.0017949419585544524
0.001231074932285553
0.0006322178933165223
0.0006322375430513338
0.0012828993940969258
0.0019488016076514014
0.00262213862491964
0.003294319412451341
0.003956456741590925
0.004599837377461002
0.005216336312062947
0.005798748137527676
0.006341020546299925
0.006838386744356689
0.00728740363019445
0.007685909899931981
0.008032922427016309
0.00832849053902518
0.00857352675793377
0.008769629939733459
0.008918913296478148
0.009023846139352754
0.009087114798523171
0.009111505324589292
0.009099808371342555
0.009054745099295769
0.008978911951384533
0.008874741628460664
0.008744477416432334
0.008590158081484611
0.00841361076447475
0.008216449600360526
0.008000078112956693
0.0077656937557917805
0.007514293266116662
0.007246677760929382
0.006963456727997058
0.006665050252695731
0.006351688977337483
0.0060234114193764565
0.005680058385083758
0.005321264312731722
0.004946445470563665
0.004554785025890851
0.004145215097774074
0.0037163960110891125
0.003266693086937028
0.002794151434020592
0.0022964693461209884
0.0017709710578412974
0.0012145797576092465
0.0006237918948495402
0.0006525068482622076
0.0013282090124251689
0.002023367103961171
0.0027285525844068514
0.003433457612793206
0.004127518109921291
0.00480050286150821
0.005443020041430713
0.006046907560613851
0.006605490881506165
0.007113708352812637
0.007568117410917674
0.007966803896925029
0.008309221023013624
0.008595984770128157
0.008828649765773688
0.009009485173199772
0.009141264909317631
0.009227081431943063
0.009270187931638474
0.009273870289799813
0.009241347672210687
0.009175699028215578
0.009079811900451096
0.008956349637163213
0.00880773316690911
0.008636133799115958
0.008443473941622232
0.008231433097912633
0.008001456969592313
0.00775476791259358
0.007492375363319176
0.007215085158859685
0.006923506926003409
0.006618058913453434
0.006298969799008458
0.0059662771278294335
0.005619822138694247
0.005259240821362754
0.004883951128330399
0.004493136346045146
0.004085724720898465
0.0036603655396144075
0.0032154019858454397
0.0027488412363834147
0.0022583224197808838
0.001741083231999091
0.0011939261788397049
0.0006131855807739728
0.0006759278805759106
0.0013806119085512103
0.0021095626673383883
0.0028513328379888847
0.0035934979367521214
0.004323456091154143
0.005029170138668715
0.005699787690040564
0.006326097633859329
0.0069008066725240735
0.007418642316103008
0.007876306126380767
0.008272311446750974
0.008606743526169441
0.008880978127036115
0.009097389218211516
0.009259069040350315
0.009369576216041703
0.009432720711069431
0.009452388905844683
0.009432407987950336
0.009376446241796565
0.009287944356724143
0.009170072314094085
0.009025706468752698
0.00885742187419658
0.008667495531210712
0.008457916937392118
0.008230402996026953
0.007986414958855131
0.007727175605449305
0.007453685296361645
0.007166735882413122
0.006866921718885699
0.0065546472338812445
0.006230130648343879
0.0058934035544576935
0.005544306141643557
0.005182477926444995
0.004807343904616068
0.004418096110084785
0.004013670644710532
0.0035927203423550824
0.0031535833562378046
0.0026942481129206275
0.0022123152585739048
0.001704957427303616
0.0011688778754400386
0.0006002692321108172
0.0007031966612681129
0.0014416650794678576
0.002209900585830954
0.002993923548430727
0.003778681728295541
0.004549085443963513
0.005290947258483697
0.005991740790721317
0.006641128242208971
0.007231243002463028
0.007756745392786479
0.008214691899790405
0.00860426971525069
0.00892645006212664
0.009183608176268315
0.009379147961735113
0.00951715800346778
0.009602114854217414
0.00963864053656549
0.009631314512668188
0.009584535948684386
0.009502429607623625
0.009388787688029337
0.009247039927532202
0.009080244915066926
0.008891096499246937
0.008681940229704116
0.008454795787356556
0.008211382272432649
0.007953143991481337
0.0076812750096316995
0.007396741221183806
0.007100299057582665
0.006792510217486392
0.006473751989633264
0.006144222864741977
0.005803943214891416
0.00545275087274269
0.005090291481836484
0.004716003524969287
0.0043290979812765085
0.00392853262451498
0.003512981064780124
0.003080796761592064
0.002629972403518893
0.0021580952590949942
0.001662299349769275
0.0011392155634202539
0.0005849210926432702
0.000735188684377247
0.00151332742542315
0.002327531793221066
0.0031606168708015747
0.0039942443772170155
0.004810274108333568
0.005591959491914378
0.006324873903950007
0.006997508465681979
0.007601536089899219
0.008131780280616785
0.008585954966670722
0.008964252657416044
0.009268855281033272
0.009503429893046977
0.009672654912789708
0.00978180563515571
0.009836413067235705
0.009841998895891046
0.009803881807244785
0.009727046015945123
0.009616060993562048
0.009475041240557341
0.009307635851008966
0.009117039054469478
0.008906014524707101
0.008676927795960215
0.008431782501833796
0.008172257299088714
0.007899741251798015
0.0076153661491565605
0.007320034742871739
0.007014444251200347
0.006699104718794924
0.006374351973524928
0.006040355008044118
0.005697117655671768
0.0053444744442496805
0.00498208051257254
0.004609395474656941
0.004225661129659525
0.0038298729518033425
0.0034207453674226507
0.0029966709469584907
0.002555673818102955
0.002095357846977647
0.0016128504333022264
0.0011047431065661362
0.000567030462063578
0.0007730166333280719
0.0015980884253923022
0.002466445451121402
0.003356806155905584
0.004246691901222427
0.005114207116600544
0.0059395665162429445
0.006706219384421452
0.0074015052207910825
0.008016854656275885
0.008547609192598088
0.008992566170563099
0.009353362572078583
0.009633799183230235
0.009839183605960755
0.009975744214278687
0.010050142858501865
0.010069094892026675
0.010039091816265971
0.009966214030215997
0.009856017675395401
0.009713479065979136
0.009542981508929294
0.009348331539831972
0.00913279410234899
0.008899138601694778
0.008649689866536275
0.008386379782840014
0.008110796715363827
0.007824230845000196
0.007527714276897468
0.007222055272014194
0.006907866275972369
0.006585585608816863
0.006255492774389304
0.00591771737779348
0.005572241626780994
0.005218896355872832
0.004857350465366922
0.004487093623918165
0.004107412055685711
0.0037173572345902406
0.0033157073541415227
0.002900921548230212
0.0024710870224138315
0.00202385952847442
0.0015563979790112759
0.0010652944380124818
0.0005465011992310254
0.0008181106672845162
0.0016991466595440985
0.002631743269989023
0.0035893282131090887
0.004544165339230549
0.005469721001097216
0.006342620400669657
0.0071439971629395915
0.007860171875861438
0.00848271256377589
0.009008009671313294
0.009436533233887379
0.009771936463934233
0.010020141004757122
0.010188498774652721
0.01028508498938066
0.010318143527326629
0.010295682035708215
0.010225199854223599
0.01011352515562211
0.009966736378069024
0.009790144934949091
0.00958831969179122
0.009365137682102453
0.00912384933013799
0.008867149727398493
0.008597250156862857
0.008315946086974002
0.008024679341324947
0.0077245931876652185
0.007416579779114779
0.007101319808079876
0.006779314470971465
0.0064509099459015284
0.006116314599017347
0.0057756090899946655
0.005428749466866473
0.005075563242115416
0.004715738339145487
0.004348804702289072
0.003974108286109834
0.003590777094868769
0.003197678948648114
0.00279337073151506
0.002376039055163287
0.0019434325729927038
0.0014927866182015137
0.001020741406295822
0.0005232556939871458
0.000872331824763678
0.0018206611330002231
0.002830021443794517
0.0038669305399361142
0.004896923149571963
0.005887725640357666
0.006811764063619996
0.00764775224887021
0.008381316514993492
0.009004785313861868
0.009516374314019166
0.009919026574458367
0.010219140251871539
0.010425357738568647
0.010547523447569929
0.010595858556096377
0.010580357513053584
0.010510384148232244
0.01039443215495403
0.010240011515805725
0.010053625194943627
0.009840806070179398
0.009606190566429973
0.009353611585948635
0.009086198543321572
0.008806476435263721
0.008516458957843503
0.008217732878681966
0.007911532359624829
0.007598802878026528
0.0072802549581200415
0.006956408213993293
0.00662762631033445
0.006294143430602583
0.005956082750188052
0.005613467276015721
0.00526622325530493
0.0049141761892674
0.004557039322481249
0.004194394323695949
0.0038256637378807634
0.003450074685171195
0.0030666132299016213
0.0026739688717151433
0.0022704687601165507
0.0018540015478790417
0.001421931313885183
0.0009710027116138498
0.0004972393946256481
0.0009381349408952855
0.0019681108090996435
0.0030699098420746695
0.004200915594395199
0.005317982040768304
0.006381731277076752
0.007359760754362593
0.008228446021611463
0.008973359405066356
0.009588573557417823
0.010075240452606715
0.010439840201975359
0.0106924191406082
0.010845028768013965
0.010910472399383503
0.010901384960173732
0.010829619121466183
0.01070588467905037
0.010539580578200258
0.010338762855330669
0.010110201099657212
0.00985948689594815
0.009591167873750972
0.009308889463549547
0.009015533000786918
0.00871334357207107
0.008404044273424754
0.008088935687890042
0.007768980695630701
0.007444875453432975
0.007117107712489468
0.00678600372191987
0.006451764887433292
0.006114495185373242
0.00577422011499143
0.005430897733303158
0.005084422073613232
0.004734619010055091
0.004381234401096917
0.004023914127813943
0.0036621754415789576
0.0032953688593476416
0.0029226297120029388
0.0025428183977174723
0.0021544484738447167
0.0017556020110059412
0.0013438322081466558
0.0009160541764167696
0.0004684260226619219
0.001018807147391082
0.0021488181100579318
0.003362844655700692
0.004606038156192704
0.005823969256259803
0.006968494826434135
0.008001826078139707
0.00889843831289161
0.009644997457364496
0.01023882887716196
0.010685575922288748
0.010996632571547593
0.01118677010894864
0.011272191830493189
0.011269094306574662
0.011192709493124287
0.01105674735447637
0.010873141140076065
0.010652002539327021
0.010401709768998985
0.010129070375664573
0.009839517867227143
0.009537315419721165
0.009225750502398239
0.008907311707957027
0.008583844004536295
0.008256681692860812
0.00792676011248769
0.00759470802808615
0.0072609229554927435
0.00692563167697674
0.006588937991717281
0.006250859444429241
0.005911354429795929
0.005570340716319094
0.005227706088371892
0.004883311477857366
0.004536986648966096
0.004188518209086722
0.003837629441621998
0.0034839511879823926
0.0031269827465733313
0.0027660415188204
0.002400199952751314
0.0020282082858729955
0.0016484017844407839
0.0012585917568929406
0.0008559407117722795
0.00043682367488037666
0.0011188244512317508
0.002372726193025504
0.0037241934479875782
0.005101767274601932
0.006436252952501886
0.007668785354058058
0.008755896308362376
0.009671247376991612
0.01040454439548183
0.010958618677291462
0.011345723881755032
0.011583884108493966
0.011693805991953299
0.011696566314356407
0.011612072280767258
0.011458173974410957
0.01125026696934385
0.011001228536884886
0.01072155852666462
0.010419629432871627
0.010101980682622413
0.00977361642708588
0.009438283685047677
0.0090987195369156
0.008756863540572146
0.00841403591312831
0.008071084324209082
0.007728503136771592
0.007386529137242803
0.007045217565044309
0.006704501800798124
0.006364239533584198
0.0060242476743049
0.005684327752537743
0.005344283044763087
0.0050039282367967675
0.004663092020119219
0.004321612654050677
0.003979326183850024
0.0036360466762771215
0.0032915375038947425
0.002945472363365509
0.0025973843478359904
0.0022466010349891374
0.001892163281500131
0.0015327253909477034
0.0011664347840296962
0.0007907905140648874
0.00040248211638180265
0.0012443976230257225
0.0026535782790022416
0.0041749215668431955
0.005714076077190516
0.0071824270015707625
0.008508230540289374
0.009642694073825245
0.010560890778858995
0.011258741872491054
0.011747857557038888
0.012049887382846444
0.012191508652471289
0.012200596106145684
0.012103662406594648
0.01192439559582631
0.011683018413195037
0.011396195790499386
0.01107726663849673
0.010736638087006561
0.010382236126617247
0.010019949537425063
0.009654033861733372
0.009287461350193746
0.008922214189331382
0.00855952445464081
0.008200067066155059
0.007844112902306424
0.00749164903509042
0.007142472331298166
0.006796261741203874
0.006452633643336869
0.006111183719079399
0.005771518029342115
0.005433275264584342
0.005096141531801629
0.004759858514667453
0.004424225380935204
0.004089094399442106
0.003754359851493444
0.003419939458250143
0.003085747170294667
0.0027516557436966516
0.002417447025225311
0.0020827472799025415
0.0017469442808044078
0.0014090824393786505
0.0010677323521524895
0.0007208322797285782
0.00036550172523361346
0.0014043305830432201
0.003010750607628329
0.004744105300258844
0.006477995861741817
0.008098218113947592
0.009518116491949738
0.010685316038688192
0.01158047215126537
0.012210732343359842
0.012601076706618447
0.012786023748439262
0.012803077000884636
0.012688305256914514
0.012473834934734487
0.012186776465908267
0.011849086915781168
0.011477963666728777
0.011086484417046696
0.010684315091436414
0.010278386080628116
0.009873489416667519
0.00947278100239754
0.009078189304171327
0.008690740225966623
0.008310810925379983
0.00793832552451254
0.007572904483987911
0.00721397768970343
0.006860869499366498
0.006512862325579766
0.0061692438784436004
0.005829341967616142
0.00549254975200103
0.0051583434917889665
0.004826294167081635
0.004496073747401019
0.004167456399884084
0.0038403144888156243
0.003514608825673199
0.003190372254082363
0.002867685262977482
0.002546641857385429
0.002227303300445238
0.0019096364940865418
0.0015934326796796516
0.0012782009935190797
0.0009630307079474265
0.0006464165942965117
0.00032604478747691457
0.0016114120050723518
0.0034721787860071546
0.005472793342892968
0.007441266099668983
0.00922981951833228
0.010735815637751236
0.011907816757406792
0.012739460712173953
0.013256749349766159
0.013504158156822238
0.013533042743877455
0.013393671890938333
0.013130724337187621
0.012781405272438942
0.012375235795257969
0.011934746134103433
0.011476549442267059
0.011012485845227057
0.010550677083922252
0.010096425949901441
0.00965294715659501
0.009221942175052136
0.008804040927505752
0.008399135306613417
0.008006627610246245
0.007625613571625819
0.007255015971006515
0.00689368141450486
0.006540449971686707
0.006194205007186343
0.0058539086715614225
0.005518627051751837
0.005187547837227302
0.004859992457514714
0.0045354239261008455
0.004213451033900459
0.003893829034740906
0.003576456529245764
0.00326136786353777
0.0029487199970280598
0.0026387724263144674
0.0023318583092087064
0.002028344281414504
0.0017285754037294349
0.0014328000361947674
0.0011410672329702498
0.000853087038141187
0.0005680431859767521
0.00028435020500819363
0.0018847518509215455
0.004079172164583658
0.0064200507680738095
0.008669509662436958
0.010636443713709115
0.012204096832517247
0.013331817249992717
0.014038788805387115
0.014380939082178495
0.014429772230204363
0.014257304097641449
0.013927524539753947
0.013492906105144684
0.012994066958144201
0.012461043369636313
0.011915160216356552
0.011370939208562914
0.010837786013457168
0.010321371312453878
0.009824708584432226
0.009348968488624973
0.008894080020998243
0.008459166354261471
0.00804285615709166
0.007643503048685177
0.007259338362860371
0.006888576154571793
0.0065294844452988
0.0061804329228318244
0.005839924471560801
0.005506615800275394
0.005179330872945975
0.0048570696855915335
0.004539014053088972
0.004224531385188343
0.003913176875645921
0.0036046940566231145
0.003299013254342467
0.002996247108725883
0.0026966819857481145
0.0024007638048306745
0.002109076467228674
0.001822310538774713
0.0015412187715094228
0.001266552945114685
0.0009989729582230295
0.0007389143743002091
0.000486396502261649
0.00024075323991286368
0.002253867718390548
0.004894603587431198
0.007672580045425245
0.010253371206291356
0.01239230014879654
0.01396770424720263
0.014969412043978433
0.015462480657087788
0.015547664803350222
0.015331421384579588
0.014908658825511928
0.014355818237051218
0.01373029768562986
0.013072905069576438
0.012411260263787874
0.01176309243466997
0.011139013381482307
0.010544679220190006
0.009982397830293477
0.009452286528501247
0.008953086277297462
0.008482723342589552
0.008038689942057559
0.00761829757847661
0.007218842186412097
0.006837709056557589
0.006472437255642741
0.006120757308555713
0.005780611678183875
0.005450164598082008
0.00512780572282516
0.004812150592826622
0.004502039868731655
0.004196538533270469
0.00389493568302475
0.0035967450654768446
0.0033017061079339965
0.0030097848061168553
0.0027211734859240444
0.002436288140374235
0.0021557618074674184
0.0018804323001358064
0.001611322403444873
0.001349609981838626
0.0010965833628072685
0.0008535725727609189
0.000621838677436079
0.00040239315833333344
0.0001957127941581288
0.0027661797615137207
0.006017373542948401
0.009360213509176249
0.012317655460541935
0.01458570040951035
0.01606386718571154
0.016809490415219147
0.016964169239080576
0.01669088926138454
0.016136486702990754
0.015416765197387966
0.014615406112960638
0.013788983448629541
0.01297347118933502
0.012190170869855327
0.011450402711936439
0.010758950118752011
0.010116474389222904
0.009521154205374083
0.008969771245693231
0.00845841288201335
0.007982916114201627
0.007539139709190262
0.0071231240857440176
0.006731179087297062
0.006359926407248945
0.006006314355050932
0.005667616561746663
0.00534142216984905
0.00502562236932938
0.004718396371732478
0.004418198746216934
0.0041237492620463945
0.003834025845490391
0.003548260862952568
0.003265940613671095
0.002986807603636149
0.0027108648473293806
0.002438381102060086
0.0021698956170043138
0.0019062207637426526
0.0016484409357796215
0.0013979064294887267
0.001156221348591835
0.000925223672798986
0.0007069508139703334
0.0005035717616896085
0.00031724630310583923
0.00014985010300974655
0.003501575227462514
0.0076089927807428265
0.011680831768069014
0.015030650913462743
0.017309312397518165
0.018500214056643233
0.018793166408112877
0.018447096478121455
0.017701245156017675
0.01673974787965672
0.015689191388948948
0.014629643116141303
0.01360785725964593
0.012648410852220668
0.011761870697005586
0.010950358826894893
0.010211175710569217
0.009539082119680214
0.008927694965540522
0.008370314446329047
0.007860393889153314
0.007391789326010187
0.006958876081535059
0.006556587238454273
0.006180408087364822
0.005826347520978298
0.005490899079434328
0.005170999213154587
0.004863987157408586
0.0045675688773856304
0.004279786379487685
0.003998992998024406
0.003723834866580969
0.003453238545438997
0.003186404615302396
0.002922806901072786
0.0026621968096197657
0.002404612017228358
0.002150388411781015
0.0019001738129594131
0.0016549416814663764
0.001416003051994963
0.0011850157015200619
0.000963991401800729
0.000755304198555129
0.0005617011753269591
0.00038630382537251096
0.0002325538444407499
0.00010400490326263612
0.004602636086836864
0.00994467182923317
0.014938934774592516
0.01860532335799936
0.02062710989243355
0.021208380494140575
0.020773594305531176
0.01973833012281262
0.018413987123617304
0.017000660265475434
0.015613791927580695
0.014312914146327252
0.013123599287564444
0.012052052948788
0.01109414657139618
0.010240754728096893
0.009480790570699879
0.008802860679284583
0.00819611375292148
0.0076506298209221835
0.007157554937825952
0.0067091006606009446
0.006298476697421812
0.005919795205346551
0.005567967806361485
0.0052386063675001066
0.004927932903021584
0.0046327008024753535
0.0043501279057825415
0.004077841110652139
0.0038138318417046124
0.003556421618589267
0.0033042370037272284
0.003056193310141911
0.002811486553233905
0.00256959319559083
0.0023302772212561856
0.002093603943706515
0.001859959661985891
0.0016300758219457007
0.0014050557967887484
0.0011864020835752193
0.0009760423768979676
0.000776355982613372
0.000590208664461217
0.00042101183478081283
0.0002728177929833958
0.00015041935339550616
5.931854349390531e-05
0.00634341670193328
0.013514446249704562
0.019597306905704395
0.023263590261572917
0.024485271368215183
0.023957041494889475
0.02245976661708167
0.020564883170996792
0.01860558692532309
0.01674989729940697
0.015068541804792307
0.01358040790200428
0.012279040211043327
0.011147044136398498
0.010163510406404702
0.009307623602748644
0.008560256013835407
0.007904532761949162
0.007325894771105901
0.006811935203340211
0.006352150232502324
0.005937673553404799
0.005561026619638018
0.005215897403574338
0.004896950934953723
0.004599670417692964
0.0043202258973278895
0.004055366948702829
0.0038023359859081785
0.0035587992054366135
0.0033227926772444183
0.003092681608475298
0.002867131280525126
0.002645088583839411
0.0024257734357331223
0.0022086796513118012
0.001993585022085867
0.0017805703987107402
0.0015700474085691418
0.001362793986309993
0.0011599961101766282
0.0009632931617147844
0.000774823892725443
0.0005972722401407227
0.0004339217989031835
0.0002887502758080196
0.00016662183830580546
7.361450136396386e-05
1.735847347757169e-05
0.009297520857025496
0.019229925194404016
0.02630416242749005
0.029073337608378533
0.02850821250846411
0.026214016002626295
0.023365773076222604
0.020552032190158956
0.01801210616528194
0.015811789553703937
0.013941489304725302
0.012363763929618368
0.011034664434985297
0.009912494110888015
0.008960831411158554
0.008149068551608088
0.007451965576482478
0.006848889958188442
0.0063230264653940105
0.005860666333460843
0.00545060698838859
0.005083661083551003
0.0047522617098078035
0.004450147792432552
0.004172114548137887
0.003913816017263955
0.003671609055170555
0.003442430344235456
0.003223699842668404
0.003013245611466181
0.0028092461966665316
0.0026101877441391114
0.002414833840249195
0.002222206747661451
0.0020315792741582156
0.0018424769926153883
0.0016546909222146383
0.0014683010563012744
0.0012837112093938424
0.0011016954201837903
0.0009234553820767211
0.0007506868586369952
0.0005856508690260664
0.0004312441296218661
0.0002910689002589145
0.00016953187437304673
7.20816504415217e-05
5.783834164094226e-06
-1.969594897052729e-05
0.014826940783627965
0.028786614781106903
0.03568331057864228
0.035433998493374586
0.031601028355942334
0.027031839321912984
0.022825102741322406
0.01927764115176589
0.01638328861558805
0.014046617773011139
0.012160615427818725
0.010631080442538063
0.009381617110147358
0.00835226578370897
0.007496538224290111
0.006778476218022231
0.006170191402308234
0.005649937703879129
0.005200643268937835
0.004808805368068325
0.004463661258193932
0.004156565311722885
0.0038805193595053966
0.0036298168049823387
0.0033997714997847095
0.0031865101304835997
0.0029868125597390383
0.0027979887251558394
0.002617783744547436
0.0024443051211820582
0.0022759676175688054
0.002111452639588493
0.0019496799671801096
0.0017897904738909814
0.0016311391622790133
0.0014732984536094673
0.0013160722381229117
0.0011595217208022202
0.0010040045481692905
0.0008502289539402685
0.0006993244440741397
0.0005529293298285609
0.0004132923750013173
0.00028338023501317533
0.0001669764435170834
6.87678908592726e-05
-5.492241170856893e-06
-4.834200148219614e-05
-4.8789484806799344e-05
0.0263623847163268
0.04505963841591357
0.046997026442779144
0.03966315618293585
0.0316939628719954
0.025154447656302273
0.02016279040840732
0.016409793022064037
0.01357476053841368
0.01140775272057544
0.00972787673917909
0.0084067113698192
0.007352992227995264
0.0065012664870677805
0.005804007006740178
0.005226234335464222
0.004741852369949104
0.004331134281317789
0.0039789794005444384
0.0036736900432112335
0.00340610243717894
0.0031689615985738273
0.0029564663308575267
0.0027639343453960546
0.002587553260184991
0.0024241937674752273
0.002271268385897418
0.0021266240929948554
0.0019884605234892494
0.0018552678101604048
0.0017257798649286255
0.001598940168285809
0.0014738781082365426
0.0013498946946143425
0.0012264571530784252
0.0011032025408097973
0.0009799511779945008
0.0008567314011080768
0.0007338179431908565
0.0006117871129397989
0.0004915927353374566
0.00037466708252077707
0.000263049606203547
0.00015954056295072738
6.786183712448324e-05
-7.219137355227168e-06
-5.984845451810494e-05
-8.286126179182784e-05
-6.569029775947699e-05
0.0546107641454715
0.06892701017662414
0.051823081576384045
0.03662400219431664
0.026361524578498226
0.01960245548803209
0.015059268743846513
0.011907583638961383
0.009652991673344616
0.007994866935542938
0.006745416013433689
0.005783624084156017
0.005029175056477278
0.004427301835636971
0.003939738124456277
0.0035391558111525223
0.0032056511998193454
0.0029244689281769792
0.002684493315465525
0.0024772271865358686
0.002296087323888779
0.0021359098416569994
0.001992597396868828
0.0018628639331734614
0.0017440476028371399
0.0016339720981743688
0.0015308428839953953
0.0014331689853709084
0.0013397038032123276
0.0012494003753615313
0.0011613778745197118
0.0010748971338766233
0.0009893437504212427
0.0009042179297811259
0.0008191307782935281
0.0007338072811756274
0.0006480967930358739
0.0005619925793466096
0.00047566287060825385
0.00038949712666570824
0.0003041728552542755
0.00022075038976435146
0.00014080509704493538
6.660672000959045e-05
1.347665559717215e-06
-5.061270508469051e-05
-8.362423510244188e-05
-9.10413313931352e-05
-6.503022043713447e-05
0.11290029350654468
0.06504755933632107
0.036184512722466707
0.022292257341461785
0.014896868156999393
0.01062166240010537
0.00795178759318281
0.006183579214001658
0.004956984434054776
0.004074118618132325
0.003419180223998633
0.0029208985957528966
0.0025335271518702185
0.0022266483683009014
0.001979419384319961
0.0017771821857274633
0.001609391691436049
0.001468308186607592
0.0013481486412020571
0.0012445220356972486
0.0011540452674919793
0.0010740766799607337
0.0010025278902786178
0.0009377287801376061
0.0008783292456093772
0.0008232268003673243
0.0007715126618628304
0.000722431269308918
0.0006753497341168424
0.0006297347836421163
0.0005851355014460935
0.0005411707041935998
0.0004975202024045527
0.0004539195236221427
0.0004101579748282541
0.0003660802253944023
0.0003215919457611044
0.0002766704964444061
0.00023138230846739272
0.00018590955611692828
0.00014059019597945088
9.597774316048857e-05
5.2930709407830734e-05
1.2746789367509836e-05
-2.2637391169311183e-05
-5.0363068684000645e-05
-6.63233208238051e-05
-6.517327214453084e-05
-4.2226431068631554e-05

