# vtk DataFile Version 2.0
mesh vtk view
ASCII
DATASET UNSTRUCTURED_GRID
POINTS 231 double
0.0 -0.410268825184008 0.0
200.0 0.0 0.0
199.87350508973196 99.90574110441302 0.0
0.0 99.59109049571128 0.0
10.007051381812255 -0.4091642231587105 0.0
20.014017880954494 -0.405859115072738 0.0
30.020814887111143 -0.4003795635103393 0.0
40.027358378856775 -0.3927688853490593 0.0
50.033565325453814 -0.3830874119525487 0.0
60.03935420674125 -0.3714120284864554 0.0
70.04464566569537 -0.3578353500681468 0.0
80.04936327247022 -0.342464327735152 0.0
90.05343431624792 -0.325417994373479 0.0
100.05679043831957 -0.30682394733494217 0.0
110.0593677550877 -0.28681300247365865 0.0
120.06110587454022 -0.26551110126876515 0.0
130.0619446958886 -0.24302711205056454 0.0
140.0618173401109 -0.21943220138777467 0.0
150.06063313828503 -0.19472920312894604 0.0
160.05824776435324 -0.1687565125348049 0.0
170.0543217112057 -0.14116250726193166 0.0
180.04812566069484 -0.11006554893696546 0.0
190.03530584085857 -0.07587438095156902 0.0
200.01682153975042 9.955706988882284 0.0
200.005625714103 19.936957845338654 0.0
199.99369100727571 29.926852568510427 0.0
199.97943193254235 39.9200961199899 0.0
199.9640810625214 49.915432821920525 0.0
199.94772991849183 59.91220665037948 0.0
199.93041315374128 69.90999799834233 0.0
199.91213655110704 79.90842568059402 0.0
199.89303176162855 89.90710714018064 0.0
189.87297187486823 99.88618359633557 0.0
179.87240089903815 99.86620756924715 0.0
169.8721090858916 99.84545014386963 0.0
159.87246721774008 99.82390824061825 0.0
149.87375866341964 99.8018035556805 0.0
139.87615216868846 99.77946705511668 0.0
129.87971436615265 99.75726217648803 0.0
119.8844358648196 99.73553885042891 0.0
109.8902582996177 99.71461110212297 0.0
99.89709619350793 99.6947502274861 0.0
89.90485191166829 99.67618643425136 0.0
79.9134244942849 99.65911387981686 0.0
69.92271409644809 99.64369618012385 0.0
59.93262371323372 99.63007107957107 0.0
49.94305944555498 99.61835392191601 0.0
39.95393010534783 99.60864001388971 0.0
29.965146609180128 99.60100612706985 0.0
19.976621379313173 99.59551139416591 0.0
9.988267836926607 99.59219781074249 0.0
0.0 89.58881986767028 0.0
0.0 79.58715606576874 0.0
0.0 69.58599938791112 0.0
0.0 59.58527879549063 0.0
0.0 49.58495199062664 0.0
0.0 39.58500526498788 0.0
0.0 29.58545322310774 0.0
0.0 19.58633850800817 0.0
0.0 9.58773165507273 0.0
10.004936807357486 9.588848882113517 0.0
10.002980069878193 19.58746565540289 0.0
10.001141657238893 29.586587676239574 0.0
9.999382337624583 39.586144407151785 0.0
9.997662829811036 49.58609312757742 0.0
9.995943573910505 59.58641911362275 0.0
9.994184648155967 69.58713595384174 0.0
9.992345846870002 79.58828586736341 0.0
9.990386906508219 89.58993988916387 0.0
20.009805841625766 9.592191834091565 0.0
20.00590907156088 19.59083836997054 0.0
20.002248803342486 29.589982348089716 0.0
19.99874681092108 39.589553217193696 0.0
19.995324694896677 49.58950800961726 0.0
19.991903393874278 59.589831626489946 0.0
19.98840300873556 69.59053728047341 0.0
19.984742967360987 79.5916669405874 0.0
19.98084250494121 89.5932916235002 0.0
30.014539494701975 9.597734349612029 0.0
30.008735957070048 19.596430491811176 0.0
30.003286815406536 29.595611194790308 0.0
29.99807535531805 39.59520585721968 0.0
29.992984399836004 49.59517105152508 0.0
29.98789550618906 59.59549099968292 0.0
29.98268868214974 69.59617823537928 0.0
29.977242653944256 79.59727426598604 0.0
29.97143565191469 89.59885005169892 0.0
40.01907050405025 9.605432929751787 0.0
40.01140971741473 19.604198513753715 0.0
40.00422083979621 29.603430886112466 0.0
39.99734949969062 39.60305931091254 0.0
39.99064028427311 49.60303961701119 0.0
39.98393555464201 59.60335497057675 0.0
39.97707504119644 69.60401685557066 0.0
39.969896236649184 79.60506604523036 0.0
39.96223554774997 89.60657336227251 0.0
50.02333215962451 9.615226953387223 0.0
50.01387939616633 19.614081778728572 0.0
50.00501566164758 29.61338096872471 0.0
49.99655015617966 39.61305348427129 0.0
49.98828999312624 49.613054032290876 0.0
49.9800385827659 59.61336426756142 0.0
49.97159511478203 69.61399418723687 0.0
49.96275510119246 79.61498349036083 0.0
49.953311938322265 89.61640271500282 0.0
60.02725853655213 9.627039107926782 0.0
60.01609408879495 19.626002882162588 0.0
60.00563556489615 29.625384201054636 0.0
59.99565742703622 39.62511141348679 0.0
59.98593028546862 49.625137616937224 0.0
59.97621887440444 59.625442448681476 0.0
59.966281489203446 69.62603396101176 0.0
59.9558707058828 79.62695039553127 0.0
59.94473533437661 89.62826176741774 0.0
70.03078473106584 9.64077618498819 0.0
70.01800290829988 19.639868426970175 0.0
70.00604419589865 29.639347185396595 0.0
69.99465048275475 39.63913965988312 0.0
69.98355696342702 49.63919674780071 0.0
69.97248991176428 59.639495605405344 0.0
69.96116627384946 69.64004198783849 0.0
69.94929459719475 79.64087233803731 0.0
69.93657721629418 89.64205580039642 0.0
80.03384703756606 9.656330461713956 0.0
80.01955487838174 19.655570351222114 0.0
80.00620446128332 29.655161484980017 0.0
79.99350762102381 39.65502901057773 0.0
79.98116508019024 49.655120978797676 0.0
79.96886460564839 59.65541185227246 0.0
79.95628122609142 69.65590510978139 0.0
79.94307842592673 79.65663528952689 0.0
79.92891014553 89.65767021122858 0.0
90.03638293726814 9.673581982090878 0.0
90.02069868285997 19.672988143656383 0.0
90.00607852072184 29.672705491606738 0.0
89.99220670700713 39.672655644422825 0.0
89.97874970937845 49.67278323753246 0.0
89.96535606846477 59.67306048578027 0.0
89.95165820279288 69.67348948181386 0.0
89.93727396954498 79.67410335176004 0.0
89.92180762808616 89.6749680796284 0.0
100.0383306539355 9.692402179055877 0.0
100.0213821468768 19.69199238985525 0.0
100.00562799151882 29.691847396243627 0.0
99.99072634630816 39.691882944612445 0.0
99.97630774476704 49.692040078702455 0.0
99.96197936013525 59.6922906285655 0.0
99.94733019735102 69.69263789947979 0.0
99.93193316425399 79.69311529254566 0.0
99.91534345948578 89.6937864945134 0.0
110.03962783738643 9.71265947784081 0.0
110.02155125109952 19.71245026194151 0.0
110.00481460835168 29.71244969718959 0.0
109.98904841015175 39.712564070323644 0.0
109.97384147385463 49.7127318215048 0.0
109.95875482498643 59.71292902800299 0.0
109.9433332969642 69.7131658362764 0.0
109.92710812256132 79.71347960718107 0.0
109.90959012176602 89.71393144444431 0.0
120.0402085878994 9.734227833094835 0.0
120.02114840250537 19.734233868447927 0.0
120.0036019076738 29.73437564997308 0.0
119.98716303107146 39.7345451019661 0.0
119.97136505224782 49.73468192497067 0.0
119.95571376111168 59.734776371112055 0.0
119.93970984661419 69.73485582909657 0.0
119.92285099429655 79.73496809478667 0.0
119.90461561211858 89.73517147985288 0.0
130.03999738081356 9.757000076266099 0.0
130.02010973803092 19.757232666184287 0.0
130.00195935815898 29.757497925175155 0.0
129.98507820477937 39.757667437214266 0.0
129.9689154101704 49.757693886302704 0.0
129.95290698850815 59.757600780950966 0.0
129.9365126558837 69.75744998201942 0.0
129.91921322361566 79.75730861249838 0.0
129.90047790963118 89.75723129953238 0.0
140.03889706917334 9.78090868658375 0.0
140.0183618148647 19.781372902567135 0.0
139.99987289731354 29.781707640668515 0.0
139.98283788326148 39.781765866477784 0.0
139.9665693472376 49.78154097480891 0.0
139.95041556613285 59.78112634403872 0.0
139.93380885887703 69.78064079967406 0.0
139.91624309099925 79.78017918020123 0.0
139.89721631845325 89.77978812773667 0.0
150.03676514553644 9.80596685430617 0.0
150.01582190054808 19.80664293817607 0.0
149.99737149459241 29.806921187469502 0.0
149.98055633636193 39.80664839037329 0.0
149.9644658784378 49.80594095201859 0.0
149.94835966628816 59.805012929550806 0.0
149.9316790760973 69.80406288170246 0.0
149.91397978028164 79.80320819436348 0.0
149.89483944922276 89.80247626908292 0.0
160.03336646078435 9.832322897629872 0.0
160.012416631254 19.83314972941285 0.0
159.99460107051237 29.833042949657507 0.0
159.97847227802424 39.832039530259074 0.0
159.96282728162942 49.83049458442024 0.0
159.9468906350671 59.82883010848762 0.0
159.9302053238972 69.82729247687321 0.0
159.9124419378029 79.82598925721453 0.0
159.8933112387589 89.82490788648987 0.0
170.0282772033475 9.86053509037 0.0
170.00822015784166 19.86105214877989 0.0
169.99197466529228 29.85988489098195 0.0
169.97703351125733 39.857373196203376 0.0
169.96192141533757 49.85460218785779 0.0
169.94615094423003 59.85203958054745 0.0
169.92943958215068 69.84986970470301 0.0
169.911610771633 79.84812173610995 0.0
169.89253923746355 89.84671951689546 0.0
180.02085240640776 9.891277052496624 0.0
180.00384528808993 19.890849367482737 0.0
179.99063345368205 29.886317956765943 0.0
179.9767133011963 39.88156219665741 0.0
179.96195019667923 49.87740900134285 0.0
179.94618456480225 59.87402727470646 0.0
179.92935519945797 69.87135846766807 0.0
179.9114095253669 79.86928550306052 0.0
179.89237282964825 89.8676527340794 0.0
190.01058349417852 9.929863461343606 0.0
190.00335611282634 19.91881275679435 0.0
189.99127626266468 29.909744934231306 0.0
189.97772271532622 39.902957844624304 0.0
189.96282282960345 49.897937394680525 0.0
189.94684142698534 59.89421368097341 0.0
189.9297914772679 69.8914415892969 0.0
189.91167961249786 79.88934217587632 0.0
189.89261593526248 89.88767148277718 0.0

CELLS 200 1000
4 0 4 60 59
4 59 60 61 58
4 58 61 62 57
4 57 62 63 56
4 56 63 64 55
4 55 64 65 54
4 54 65 66 53
4 53 66 67 52
4 52 67 68 51
4 51 68 50 3
4 4 5 69 60
4 60 69 70 61
4 61 70 71 62
4 62 71 72 63
4 63 72 73 64
4 64 73 74 65
4 65 74 75 66
4 66 75 76 67
4 67 76 77 68
4 68 77 49 50
4 5 6 78 69
4 69 78 79 70
4 70 79 80 71
4 71 80 81 72
4 72 81 82 73
4 73 82 83 74
4 74 83 84 75
4 75 84 85 76
4 76 85 86 77
4 77 86 48 49
4 6 7 87 78
4 78 87 88 79
4 79 88 89 80
4 80 89 90 81
4 81 90 91 82
4 82 91 92 83
4 83 92 93 84
4 84 93 94 85
4 85 94 95 86
4 86 95 47 48
4 7 8 96 87
4 87 96 97 88
4 88 97 98 89
4 89 98 99 90
4 90 99 100 91
4 91 100 101 92
4 92 101 102 93
4 93 102 103 94
4 94 103 104 95
4 95 104 46 47
4 8 9 105 96
4 96 105 106 97
4 97 106 107 98
4 98 107 108 99
4 99 108 109 100
4 100 109 110 101
4 101 110 111 102
4 102 111 112 103
4 103 112 113 104
4 104 113 45 46
4 9 10 114 105
4 105 114 115 106
4 106 115 116 107
4 107 116 117 108
4 108 117 118 109
4 109 118 119 110
4 110 119 120 111
4 111 120 121 112
4 112 121 122 113
4 113 122 44 45
4 10 11 123 114
4 114 123 124 115
4 115 124 125 116
4 116 125 126 117
4 117 126 127 118
4 118 127 128 119
4 119 128 129 120
4 120 129 130 121
4 121 130 131 122
4 122 131 43 44
4 11 12 132 123
4 123 132 133 124
4 124 133 134 125
4 125 134 135 126
4 126 135 136 127
4 127 136 137 128
4 128 137 138 129
4 129 138 139 130
4 130 139 140 131
4 131 140 42 43
4 12 13 141 132
4 132 141 142 133
4 133 142 143 134
4 134 143 144 135
4 135 144 145 136
4 136 145 146 137
4 137 146 147 138
4 138 147 148 139
4 139 148 149 140
4 140 149 41 42
4 13 14 150 141
4 141 150 151 142
4 142 151 152 143
4 143 152 153 144
4 144 153 154 145
4 145 154 155 146
4 146 155 156 147
4 147 156 157 148
4 148 157 158 149
4 149 158 40 41
4 14 15 159 150
4 150 159 160 151
4 151 160 161 152
4 152 161 162 153
4 153 162 163 154
4 154 163 164 155
4 155 164 165 156
4 156 165 166 157
4 157 166 167 158
4 158 167 39 40
4 15 16 168 159
4 159 168 169 160
4 160 169 170 161
4 161 170 171 162
4 162 171 172 163
4 163 172 173 164
4 164 173 174 165
4 165 174 175 166
4 166 175 176 167
4 167 176 38 39
4 16 17 177 168
4 168 177 178 169
4 169 178 179 170
4 170 179 180 171
4 171 180 181 172
4 172 181 182 173
4 173 182 183 174
4 174 183 184 175
4 175 184 185 176
4 176 185 37 38
4 17 18 186 177
4 177 186 187 178
4 178 187 188 179
4 179 188 189 180
4 180 189 190 181
4 181 190 191 182
4 182 191 192 183
4 183 192 193 184
4 184 193 194 185
4 185 194 36 37
4 18 19 195 186
4 186 195 196 187
4 187 196 197 188
4 188 197 198 189
4 189 198 199 190
4 190 199 200 191
4 191 200 201 192
4 192 201 202 193
4 193 202 203 194
4 194 203 35 36
4 19 20 204 195
4 195 204 205 196
4 196 205 206 197
4 197 206 207 198
4 198 207 208 199
4 199 208 209 200
4 200 209 210 201
4 201 210 211 202
4 202 211 212 203
4 203 212 34 35
4 20 21 213 204
4 204 213 214 205
4 205 214 215 206
4 206 215 216 207
4 207 216 217 208
4 208 217 218 209
4 209 218 219 210
4 210 219 220 211
4 211 220 221 212
4 212 221 33 34
4 21 22 222 213
4 213 222 223 214
4 214 223 224 215
4 215 224 225 216
4 216 225 226 217
4 217 226 227 218
4 218 227 228 219
4 219 228 229 220
4 220 229 230 221
4 221 230 32 33
4 22 1 23 222
4 222 23 24 223
4 223 24 25 224
4 224 25 26 225
4 225 26 27 226
4 226 27 28 227
4 227 28 29 228
4 228 29 30 229
4 229 30 31 230
4 230 31 2 32

CELL_TYPES 200
9
9
9
9
9
9
9
9
9
9
9
9
9
9
9
9
9
9
9
9
9
9
9
9
9
9
9
9
9
9
9
9
9
9
9
9
9
9
9
9
9
9
9
9
9
9
9
9
9
9
9
9
9
9
9
9
9
9
9
9
9
9
9
9
9
9
9
9
9
9
9
9
9
9
9
9
9
9
9
9
9
9
9
9
9
9
9
9
9
9
9
9
9
9
9
9
9
9
9
9
9
9
9
9
9
9
9
9
9
9
9
9
9
9
9
9
9
9
9
9
9
9
9
9
9
9
9
9
9
9
9
9
9
9
9
9
9
9
9
9
9
9
9
9
9
9
9
9
9
9
9
9
9
9
9
9
9
9
9
9
9
9
9
9
9
9
9
9
9
9
9
9
9
9
9
9
9
9
9
9
9
9
9
9
9
9
9
9
9
9
9
9
9
9
9
9
9
9
9
9

CELL_DATA 200
SCALARS STRESS_EQV float 1
LOOKUP_TABLE default
125.93922136958643
83.49523624463384
44.37150820927165
10.68958530400204
31.131283458113227
66.02498252049583
101.77944036083271
138.90222323453
178.2122558957665
220.58630068910227
124.35344037364946
82.43448780494445
44.238181913186615
14.334424450409644
33.135584368800885
66.75976206646467
101.7588375850814
138.26940780406176
177.05436385031692
218.98633738330324
121.18758440248897
80.3289092527871
44.018008016623796
19.726784259424488
36.82211140296464
68.21235633205849
101.73138958168721
137.01543843982097
174.7418719786347
215.7828903049444
116.45386815209244
77.21294420789053
43.80506653194445
25.841707156813023
41.754596031737066
70.35157339620366
101.72474059745112
135.16465211974725
171.28191667512027
210.9684719860217
110.17261155909898
73.14564616712998
43.74202467278003
32.330490287138794
47.55690135074526
73.13636535235685
101.7802853322271
132.75598095081796
166.68672522897143
204.53088603411317
102.37462055841185
68.22248610244023
44.01843209426273
39.075967248895346
53.962620220725654
76.52012849608825
101.95190329807383
129.84544256728094
160.97584610078843
196.45257029764554
93.10440608365992
62.597824070396896
44.86308318826377
46.04650050644297
60.799447874261965
80.45324800988898
102.30211542020596
126.50837085640352
154.17978255911942
186.71080525502188
82.42466303923962
56.52844318227604
46.528825661171
53.254303700502795
67.96235050457747
84.88256127782607
102.89355889064873
122.83959817481478
146.34549219676006
175.28025415755664
70.4240165775954
50.45807258973767
49.273704042863265
60.74753379220286
75.3934163790807
89.74671774733866
103.7731361944662
118.94820973769785
137.54398428763238
162.1404135292654
57.23670613041846
45.16837065778523
53.349771132072185
68.616681597823
83.06962902065894
94.96637328588244
104.94614149892176
114.9413969824078
127.87937996800511
147.29222267637286
43.11421409170055
41.96205469795133
59.01375004188339
77.0093821076899
90.99509861206981
100.42764068151854
106.33861090714458
110.89043602461281
117.4967672215728
130.79035720873932
28.779590971809185
42.57378150331484
66.56863096244616
86.15080177421336
99.1922635890933
105.95602848612286
107.74882529125837
106.77387789285596
106.58277842668426
112.80048868585087
17.778625919906226
48.40079111747388
76.43877995501065
96.36609969012974
107.68183060283954
111.27697716437419
108.79393083048643
102.40433640671593
95.34958072545334
93.69396282383306
22.117697916264277
59.91769007586729
89.28667244868589
108.09068790721209
116.43389550194553
115.95455105964615
108.87065071292245
97.36985588033222
83.99778315008669
74.19727097518594
40.22285119457365
77.49719358697627
106.1782194232712
121.84607825367527
125.22514385322694
119.31523309615787
107.16221319658801
91.06639445013353
72.67901711963012
55.62736427071759
65.24462641647403
102.84025692687025
128.88751649636222
137.92854033750282
133.3897379495035
120.29020870559641
102.80798660446978
82.92022513381954
61.54399637713692
40.24016904645988
100.01589659217363
140.7964692357302
159.56878845097754
156.09232896486512
138.65149092780823
117.55641570464508
95.24275564788474
72.8785057802966
51.01823754725549
31.179742050776188
152.45959617568926
201.95890301987433
203.73204971934737
168.81784070808453
137.67728136620033
109.67216075989836
84.58184313057444
61.89569631093605
42.275145753782546
29.431782380125245
280.12490876321687
337.7652166441168
227.55582511285706
167.97270180613035
126.5125360338403
95.67497348331064
71.17020386842172
51.27619275416917
36.62391111615033
30.638933570227778
834.515596454209
356.3498529133576
213.07133022805994
148.2350865340848
105.590499253375
75.82979074881199
54.145326609933214
39.25454618636764
31.27287242201349
30.005362478146672

SCALARS STRESS_XX float 1
LOOKUP_TABLE default
125.75811962788472
82.49026581850295
41.71072218856699
2.708835733829186
-35.223904740054046
-72.79860942443696
-110.73164019678941
-149.74465664171572
-190.56203688740797
-233.90615015735074
124.15559381491462
81.24424166511332
40.816112567423495
2.1648944609623344
-35.41440377995904
-72.63094303549335
-110.20105747093564
-148.84830727431404
-189.30057254226938
-232.28461308375302
120.95519038764404
78.75438765715306
39.02642177368763
1.0744129891884868
-35.79915622713552
-72.29936752471028
-109.14250646527701
-147.05611288172608
-186.7754737007303
-229.03685068564883
116.1668279439254
75.02520863715625
36.340529521978624
-0.5680964997405202
-36.38597087964201
-71.81167601087218
-107.56146159572071
-144.3692334096247
-182.98229721220142
-224.1528851719664
109.80685519542965
70.0636619801909
32.75627879462719
-2.7715398339625055
-37.18718935617109
-71.180110795629
-105.4666471363655
-140.78977971302845
-177.91421294977278
-217.6163708610878
101.89953485431248
63.879113803796805
28.269801586023593
-5.548888394815426
-38.2200567942298
-70.421570299489
-102.87032307054841
-136.3212198246277
-171.56208737651713
-209.40335915866928
92.47841801444909
56.48271062793438
22.874422723112055
-8.917713563911706
-39.50644384908941
-69.55695890979479
-99.7879746408585
-130.9687960458785
-163.91514016473684
-199.48157886494744
81.58680720153183
47.88546714433668
16.55891460187884
-12.900192344179349
-41.07097137539591
-68.60854004631014
-96.23652036256154
-124.73971895759745
-154.962788338247
-187.81151219618977
69.27591805986269
38.093885097244005
9.304747357762576
-17.52184632370269
-42.9359336290476
-67.59341486067203
-92.22957729117789
-117.64269358596046
-144.69861882581148
-174.35152067038243
55.598421441184385
27.101141978880754
1.0818353695774052
-22.80764138000532
-45.11035323804023
-66.51020673139247
-87.76762365279644
-109.68610278999437
-133.12785192307234
-159.07067374546247
40.593563871349716
14.870573595924053
-8.15765731799218
-28.77272442634587
-47.568675245799476
-65.31476561477845
-82.8203777093953
-100.87421002990386
-120.28016250645067
-141.9746192870378
24.25730755802547
1.3061943945781684
-18.487207926416083
-35.40161959130826
-50.21160072918224
-63.879498308701756
-77.29944634608869
-91.20172660640894
-106.23033628716793
-123.15112082715903
6.48587677433047
-13.799590151709854
-30.010494223344768
-42.60232916772541
-52.79562322915318
-61.932115420153124
-71.0232422384605
-80.6508128874669
-91.12964668955213
-102.84107743615924
-13.034591568388345
-30.85179408723795
-42.84821300076334
-50.09774816795409
-54.8138706749821
-58.975312556496114
-63.69064358344182
-69.20168013813687
-75.25079683413132
-81.5344040578384
-35.04242227327285
-50.61515000796324
-57.01922111788687
-57.19275134887195
-55.29479099340827
-54.23147104997123
-54.90292230727877
-56.88304807176807
-59.04276331231413
-60.07451418703377
-61.250838141170576
-74.32826322188689
-72.10261340067211
-62.16379274765369
-52.623039095856136
-46.69857577834806
-44.34859698861976
-43.87710832249132
-43.17879659158364
-39.727430382110676
-95.43084951574825
-104.18987202895119
-85.34930539879768
-61.569045718498515
-44.40963778901048
-35.826723033237286
-32.155263176042084
-30.681068130055557
-28.547746218566015
-22.13954366233032
-148.67535553177157
-138.69018288570823
-89.51267078951312
-47.83599917180713
-30.35839647406543
-22.37896602795561
-19.4131276182615
-18.223136624421638
-16.13354407868332
-9.077675470090085
-244.52693297621207
-171.39775445763115
-51.06967731683842
-25.415364928802063
-13.494766703006732
-9.606836220645345
-8.276000127244606
-7.900861263035438
-6.798307148806624
-1.8125535312052286
-492.43127735206696
-15.628080100226171
-19.357151522369158
-4.069981494586671
-2.6887670384412417
-1.7290377234009746
-1.5727895841242052
-1.5678258998993257
-1.3395366881084723
0.08539272872853054

SCALARS STRESS_YY float 1
LOOKUP_TABLE default
-0.3571739030028951
-1.9301383491794084
-4.749735774552292
-8.463970797222764
-12.721704879483575
-17.16923655354941
-21.44839764468292
-25.196525783029667
-28.0483218753155
-29.639257119679463
-0.35608377710970984
-1.9246552882616932
-4.737695114873864
-8.445785496435594
-12.699868305118805
-17.147380536789413
-21.430159011241386
-25.184416932129682
-28.042788155255614
-29.638152458141477
-0.3537343669008095
-1.9129334340238664
-4.712130452300562
-8.40736338170227
-12.653860858300357
-17.101358419772335
-21.391684744404838
-25.15876352125206
-28.03098458967363
-29.635776179602388
-0.3498015249972397
-1.8935570955325929
-4.670335250968483
-8.345056633949753
-12.579616088558522
-17.027184928007436
-21.329514405255715
-25.117033198140625
-28.011578122347842
-29.631817702007666
-0.3438441347458294
-1.8646943753595764
-4.609024183732718
-8.25473513339657
-12.472804169934054
-16.920753706977653
-21.240043930853062
-25.056452180437002
-27.98300169273228
-29.62588691786008
-0.33538595276728245
-1.8245976940836002
-4.525622934397251
-8.133989951626782
-12.331728213896525
-16.78091445047626
-21.12217003521298
-24.975756521553926
-27.94422452122886
-29.61765755895059
-0.32407237170358627
-1.772535891552895
-4.420629312587192
-7.98613331816211
-12.162566996421248
-16.61505816750086
-20.98213617561538
-24.878462520598454
-27.89623604410099
-29.60715564553442
-0.30994694888416063
-1.7104157575917753
-4.301690772524064
-7.827063007318229
-11.988330983650906
-16.44864175541046
-20.841831965536013
-24.77854234114476
-27.84468701404124
-29.595291210566586
-0.2939054668757528
-1.6454820821075806
-4.190375833137926
-7.6965862900479
-11.863463994084473
-16.340548674056908
-20.75209802459316
-24.709566754145033
-27.80422335990197
-29.584757736501672
-0.2784413485622217
-1.5947136291828645
-4.1332740405406705
-7.676659491889494
-11.896780812537015
-16.406487897666217
-20.81251264515751
-24.738152060703598
-27.804927620592306
-29.581402347133135
-0.26875380577528674
-1.5922644519714906
-4.220389872650452
-7.920823488354171
-12.286367307084221
-16.852430683374827
-21.19789304354239
-24.981267517802213
-27.90054159952969
-29.59602242319773
-0.2752345603234492
-1.7023516502873925
-4.618002508538844
-8.702370768485906
-13.371799096685484
-18.01788153311444
-22.18802153382933
-25.623185565546013
-28.17617654548574
-29.646073229124532
-0.31537258123694345
-2.0482993426333183
-5.6295375582982
-10.499646355391537
-15.708198478332397
-20.423519587011782
-24.186749907647982
-26.92035864084317
-28.749026517409195
-29.755956633818016
-0.43661413603027643
-2.864629898786136
-7.839940575151382
-14.141009484108825
-20.17222418930505
-24.793082196084363
-27.699517094803802
-29.167939176114043
-29.75060027002685
-29.95340810878365
-0.6760724094860677
-4.729850734697308
-12.379974947359662
-21.126606383589188
-28.03674602963652
-31.994244199862894
-33.19168277643388
-32.59262781424128
-31.27537864190686
-30.25934334283395
-1.5703665023386577
-8.747712074550243
-21.993431766560953
-33.91432465510212
-41.0156366701858
-42.63176294788443
-40.755671620307815
-37.13746977952178
-33.28861148692943
-30.669824960568327
-2.3335980738657796
-20.271810185953782
-41.542664455927365
-57.22648372899272
-59.97269912548266
-56.207192370665275
-49.54006549824849
-42.16222981453528
-35.49845130156685
-31.130748520315926
-17.140776620056755
-44.8293390107546
-89.37520000070512
-92.09415575297581
-82.72240896910381
-69.80056493088838
-57.21250279245189
-46.13343451237001
-37.19144641944537
-31.498281234598508
-6.349228096924733
-177.08434857607287
-159.64494205839975
-129.58699208024703
-100.77654790774008
-77.7773792430019
-59.860517033740884
-46.41725446377892
-36.92979415250202
-31.395181991675372
-567.3315934156054
-318.0556704759259
-207.7054025866594
-143.550243802033
-102.56664692617393
-73.54437721985539
-52.81683011820908
-39.07056090327741
-31.829000070538847
-29.938004679190083

SCALARS STRESS_XY float 1
LOOKUP_TABLE default
0.4233734433283794
1.1354090603056093
1.6704785725589915
2.03003569236463
2.21357104985935
2.2192074295364823
2.044572388652945
1.6877615509807533
1.1482213190825532
0.4273694933507847
1.2688667880556148
3.403259152831463
5.008048247480631
6.087512612057713
6.63974310533082
6.658571034086091
6.13629716024585
5.066673132146995
3.4476503863905665
1.2833783814225435
2.110402481495295
5.66182747120021
8.335099867631648
10.136977105173315
11.062935847820661
11.10087008091393
10.235995685379974
8.456094870979562
5.756404387955084
2.1433922015414835
2.9447013632168373
7.903727972065837
11.643528682040266
14.172413607492532
15.48097990717688
15.548341054977211
14.349685116211784
11.864078824091212
8.081837483111611
3.010705989732063
3.7675906509431836
10.12002011868018
14.923955429029679
18.18714604946785
19.89161884212415
20.003574527830626
18.484133523597503
15.299836530434884
10.432681605108158
3.8894427229250903
4.573823150370274
12.300184133411179
18.166094397449758
22.174413663286085
24.292930876401314
24.469516808209264
22.6464537763845
18.773218177817167
12.818775393464314
4.784589623393879
5.357173090863887
14.432965312579125
21.360366032474303
26.12913008962092
28.6844062769089
28.949308240975842
26.842738128066127
22.292799625595688
15.249564262203373
5.701548940975047
6.111036974737581
16.508758739462397
24.50168763552825
30.051697695096742
33.069163457231
33.445861342291714
31.07507058910959
25.86156505570244
17.730398208907616
6.644760302247788
6.829893518460655
18.52460157935288
27.596919807758265
33.955209344637915
37.45797628202001
37.96096050989255
35.33589546347485
29.468687035367704
20.255165634752988
7.614690824602104
7.512159762228343
20.49347977024545
30.67828893389261
37.87794381919863
41.87582392230896
42.49325637594198
39.598152096435015
33.07536302343789
22.793326145822682
8.602206150787556
8.165294964647954
22.460831712114892
33.826479394799264
41.903617538426715
46.37104161563437
47.03332345521533
43.79859984351961
36.592278111552375
25.269311235862194
9.579222128475346
8.814678725407235
24.53364441178089
37.2095587930082
46.191747961255174
51.024552045503356
51.550683300871555
47.81010502229524
39.846527203325856
27.53344689922947
10.485055637514924
9.519594082789817
26.933733827559664
41.148150338074124
51.018080244692364
55.9481171528886
55.96049304778329
51.39598224907748
42.53836540404898
29.327530537355226
11.20995311580335
10.405005827209301
30.102432088580656
46.226267046112966
56.81043631675568
61.24021190519629
60.041244899593416
54.13950292228223
44.19546742064639
30.25779960133475
11.581631972191545
11.735140112785151
34.93304176090843
53.46417944838082
64.12854597707602
66.80331734769454
63.262773842433674
55.34751314649066
44.155391015206405
29.80283599136167
11.367261357349616
14.1293585220606
43.30168399469702
64.58915780155183
73.29849189691342
71.87888643899343
64.45244430651064
54.00344477059779
41.63674748830298
27.40125024187971
10.308534537990296
19.264683564197284
59.63580394554116
81.64463424150325
83.31181853739541
73.75333034954943
61.618254409359814
48.907999712950655
35.99017127721004
22.665300074255075
8.208003887428367
33.63615098122103
92.66454062913459
105.68272695544725
85.89773562993251
67.58136900811623
52.33580779260631
39.21998557596152
27.150178719785497
15.745082378871778
5.086422328455396
82.03411512846
167.03407289776533
103.02111394095422
68.48260108700667
48.39888580085794
35.39907282689141
25.224524360285724
16.114166753089272
7.7962442410625625
1.495202963789028
370.3306640247677
100.91608850325544
44.36118098928914
25.394556310332174
17.30110615163175
12.457302750601686
8.615778996721284
4.939919913531606
1.384324002859052
-0.7009216416979438

SCALARS STRAIN_EQV float 1
LOOKUP_TABLE default
0.0007201260063763645
0.00048117983807333977
0.0002641149995426706
7.631011975294254e-05
0.00015310471263772806
0.00034068348695027783
0.0005350539060447904
0.0007388589442367278
0.0009574827489003287
0.001196689149785378
0.0007114518976665716
0.0004792431836576002
0.00027894791416821117
0.00014602920227632595
0.00020647708120221097
0.00036668966940447175
0.0005470666971970307
0.0007412748501648255
0.0009530064780422519
0.001187755772742584
0.0006941605697095216
0.00047562010896116876
0.00030657422955617555
0.00022869729001584853
0.0002846047245015813
0.00041389859924970975
0.0005704742831718375
0.000746256181988986
0.0009441741898128787
0.001169881954244689
0.000668373804237145
0.00047081463793051707
0.00034409957526551225
0.0003141670882059484
0.00037216616621910256
0.0004761695181860649
0.000604224583773765
0.0007541013787199318
0.0009312398359758626
0.0011430532196869583
0.0006342955058148182
0.00046558941156286146
0.0003888729538508185
0.0004005316277994936
0.0004637919201363871
0.0005485634411020975
0.0006470889755451938
0.0007652512131263136
0.0009146178386667665
0.0011072482350236409
0.0005922414629946495
0.00046096804857971097
0.00043890078697386893
0.0004871871317154459
0.0005574247467361959
0.0006277837504903899
0.0006978689672343878
0.0007802644094438738
0.0008949213396889086
0.0010624432040982274
0.0005426896701713344
0.0004582323181274486
0.0004928437436628979
0.0005739117125831433
0.0006521698026747115
0.0007117604245316678
0.0007554875510494686
0.0007997556281766542
0.0008730042516311281
0.0010086257365184538
0.0004863714847502105
0.00045891776309338664
0.000549939701095449
0.0006607282708698977
0.0007476498346035012
0.0007991802011861568
0.0008189572938792778
0.0008242668754355371
0.0008499854882051466
0.0009458279509070393
0.0004244579062815459
0.00046482641258416426
0.0006100196189710323
0.0007479831499710427
0.0008438282556099
0.0008891402154448822
0.0008872347761267791
0.0008540352403687261
0.0008272066764731374
0.0008741944435319574
0.00035899522083212307
0.00047809982712235683
0.0006736856217073623
0.0008365643149290972
0.00094101805505919
0.0009808919290423494
0.0009589590892690687
0.0008886162249412672
0.0008060335666107196
0.0007941076701902507
0.00029404173164704843
0.0005014273324240037
0.0007427062924452073
0.000928270522101847
0.0010399828352737515
0.001073595935868986
0.0010320467567871043
0.0009263278856114667
0.0007873740061039602
0.0007063980915987001
0.00023867977882789575
0.0005385044911435014
0.0008207166906564604
0.0010263552312277336
0.0011420464542237086
0.001165964216352237
0.0011030836448030048
0.0009635045655303426
0.0007708095729522926
0.0006126610059907844
0.000212386840613646
0.000594949706267738
0.0009143818545293748
0.0011362284137281951
0.0012489942724041607
0.0012555575068575835
0.001166415646256363
0.0009936172550871207
0.000753413641446206
0.0005156707429684791
0.00023947327592773406
0.0006801616773661043
0.0010353518613394393
0.001266042362680325
0.001362198741171516
0.0013372323503698076
0.0012128695400718571
0.0010064783107851841
0.0007287076215976173
0.000419801660449609
0.0003241335664217732
0.0008114884915075758
0.001203351293621623
0.0014262573405527936
0.0014792097501444
0.0014000636172470915
0.0012281778983972017
0.0009882196573480708
0.000686642874879909
0.0003312154675616918
0.000461828292420437
0.001024433033952767
0.0014512324586334413
0.0016228194698903518
0.0015853109483330826
0.0014213795967719304
0.0011927139774744766
0.0009233186322488434
0.000615809584602199
0.00025734943486051205
0.0006809509983118294
0.0014011075928340821
0.0018185707639953423
0.0018377560009268483
0.001628880634536353
0.001364397788324667
0.0010850907951750258
0.0008005847349970374
0.0005090780272004233
0.00020513764135270154
0.0010653764603578786
0.002117500864299079
0.0023361015148606864
0.001913174000360384
0.0015209847409359076
0.0011864503978003828
0.0008934847234817613
0.0006235227873315911
0.00037403535269461184
0.00017822754933246126
0.002259630647839514
0.0037066689247944136
0.002361395606629493
0.0016263411711720398
0.0011789436160191905
0.0008731506275446362
0.0006309723828372372
0.00042086026320960565
0.00024786081073254645
0.0001738080539615767
0.008308981532210174
0.0028172273608108272
0.0014647980880325695
0.000975255205881867
0.0006872907771367649
0.0004942342237681447
0.00034965069197998515
0.00024136984242377658
0.00017801051252021107
0.00017210921169170726

SCALARS STRAIN_XX float 1
LOOKUP_TABLE default
0.0005994094619803604
0.00039584386416062934
0.00020608635711509167
2.6199743318631897e-05
-0.0001477416291896403
-0.0003196798160084079
-0.0004935888998764003
-0.0006734752530157902
-0.0008633623365169232
-0.0010672628347993167
0.0005917766736255278
0.0003899017995725699
0.00020180739026348513
2.3580969879933718e-05
-0.0001486830820917611
-0.0003189157498016802
-0.0004910909761772665
-0.0006692259508891011
-0.000857364059290643
-0.0010595429655836492
0.0005765329653748633
0.00037802693185895686
0.0001932448801092706
1.8327823357858268e-05
-0.00015058753401855427
-0.0003174091392675496
-0.0004861107166648734
-0.0006607320043795853
-0.0008453583275530381
-0.0010440811645065716
0.0005537250592722594
0.0003602384879937239
0.0001803892388323725
1.0408438997442374e-05
-0.0001534985598591319
-0.00031520335706966535
-0.00047867962781898254
-0.0006480029164487539
-0.0008273260782467936
-0.0010208304063347804
0.0005234301131423609
0.0003365667196383789
0.00016322503226313804
-2.260820949601778e-07
-0.00015748173323853738
-0.0003123631527253637
-0.0004688449173294476
-0.0006310530975880203
-0.0008032372494817673
-0.0009897134675152094
0.0004857629153272652
0.0003070534811564019
0.0001417297959732128
-1.3641293860850421e-05
-0.0001626218403983045
-0.0003089708025277707
-0.0004566666998044196
-0.0006099010484405471
-0.0007730499680214838
-0.0009506168198295979
0.0004408826757005299
0.00027175070224831827
0.00011587252569650395
-2.991566461389624e-05
-0.0001690133178108114
-0.00030511423673580717
-0.0004422089033471687
-0.000584566206733719
-0.000736711344143731
-0.000903386750009148
0.0003889956652126838
0.00023071383021115222
8.561177408005611e-05
-4.9129816913163495e-05
-0.0001767372483371005
-0.0003008594679382128
-0.0004255176943520698
-0.0005550609523096175
-0.0006941621029695876
-0.0008478336480795372
0.00033034717554253183
0.0001839852104016167
5.089319706046711e-05
-7.13427278475566e-05
-0.00018581424052857012
-0.00029619539903920594
-0.0004065780235383912
-0.0005213739836052028
-0.000645348691033542
-0.0007837550029396994
0.0002651919385057615
0.00013155903560243382
1.1646741918837269e-05
-9.654449403657993e-05
-0.0001961162646185858
-0.0002909336463102982
-0.0003852356879994975
-0.0004834405362379151
-0.000590248694325128
-0.0007109943379567073
0.00019372501251074077
7.331438507178403e-05
-3.221394600008348e-05
-0.0001245659651199476
-0.00020721035254505564
-0.0002845403023298322
-0.000361071776214411
-0.0004410971035668054
-0.0005289189703743136
-0.0006295615804161074
0.00011594349982348671
8.895097329395278e-06
-8.077746237427746e-05
-0.00015490398684622812
-0.00021809003346321917
-0.00027587427334654284
-0.0003332257106663096
-0.0003940289303322798
-0.00046158189536741733
-0.0005398472221978473
3.1380712981612675e-05
-6.249357794590885e-05
-0.00013406069918622078
-0.00018636878985926763
-0.00022672341776811184
-0.0002628207331259011
-0.0003001981655663651
-0.0003417480692189936
-0.00038877365685146235
-0.0004429600559380919
-6.138337573094454e-05
-0.0001424117439078025
-0.00019171920290934942
-0.0002163391192295151
-0.00022931922234529253
-0.00024187426396089654
-0.00025976096639122176
-0.0002836964771905678
-0.000311586184500107
-0.0003411894256282848
-0.00016580627799115451
-0.0002335919012643482
-0.00025206585421551516
-0.00023914748210613105
-0.000219250784779182
-0.00020796843078103085
-0.00020928412852883613
-0.00021965467091937356
-0.0002320089921927851
-0.00023851871849475507
-0.00028920293902570866
-0.00034019770589183477
-0.00030878467103670005
-0.0002427241219593809
-0.0001861327571175944
-0.00015538140002641044
-0.00014713916835199133
-0.0001505797299773768
-0.000153302641909033
-0.0001409828006910625
-0.00045076553405415496
-0.00046428654603612593
-0.00034114393394448406
-0.00020325860041871865
-0.0001172316527504819
-8.227785500437021e-05
-7.527162648390514e-05
-7.984539186313769e-05
-8.015836804309024e-05
-5.6506650717266967e-05
-0.0006810423773673945
-0.000589983338153139
-0.00028580407042514485
-8.307108463488145e-05
-1.4571435782196034e-05
3.1200971392264694e-06
-2.5381033178684294e-06
-1.4281443977807312e-05
-1.8382698858411192e-05
6.2702730348924984e-06
-0.0011544366081153662
-0.0005379043782263196
7.681683630635712e-06
8.26111545603784e-05
9.410235288832142e-05
7.647475680735852e-05
5.465700235185661e-05
3.531825100005527e-05
2.5659642483424026e-05
4.070407869546499e-05
-0.0014533897691662722
0.00042538233884204473
0.00023421729205346884
0.00020619809028611538
0.00014837250689141027
0.0001073362226626253
7.550840168992759e-05
5.3930758086582e-05
4.363825397699691e-05
4.7452067966006e-05

SCALARS STRAIN_YY float 1
LOOKUP_TABLE default
-0.0001993207303819279
-0.00013881869556802567
-8.816320998466382e-05
-4.4561364711363793e-05
-5.22769673936066e-06
3.263954550721329e-05
7.187163628694093e-05
0.00011532957575588823
0.0001658911918929959
0.00022642748777260135
-0.00019679728445729308
-0.0001368345477988052
-8.670005839106487e-05
-4.36200031835865e-05
-4.8243574177729565e-06
3.2480146023444734e-05
7.112471406746368e-05
0.00011397868794473312
0.0001639352418271109
0.00022388461837855728
-0.0001917568914039207
-0.00013286610171849705
-8.376595065532136e-05
-4.172342699111653e-05
-4.000663349264938e-06
3.217825173039077e-05
6.964448756731703e-05
0.0001112845415700836
0.00016002343681698755
0.00021879230736505592
-0.00018421359403091725
-0.0001269136949799722
-7.934623806295921e-05
-3.8845641852549434e-05
-2.724979515603132e-06
3.17650864551447e-05
6.745603772062916e-05
0.00010726101822397874
0.0001541551426556126
0.0002111363543082917
-0.00017419098261541727
-0.00011897953728010752
-7.342188659980806e-05
-3.4952985658042585e-05
-9.572937257028291e-07
3.1279442169428184e-05
6.459023630546457e-05
0.0001019246434517257
0.00014632708847948928
0.00020089293079189954
-0.00016172491645090672
-0.00010907002499684071
-6.59745593227859e-05
-3.0013603720655674e-05
1.3375739438062362e-06
3.075335118264341e-05
6.107160275270473e-05
9.528688581225339e-05
0.00013652983006200853
0.00018802595696862032
-0.0001468664300784371
-9.719919237510116e-05
-5.6996137196257957e-05
-2.401565639081546e-05
4.164568922753603e-06
3.0184467965387735e-05
5.6894740266037747e-05
8.733923892638787e-05
0.00012474171528696273
0.00017248459704713448
-0.0001296837777399508
-8.339342816772802e-05
-4.6505393291162295e-05
-1.699999777970973e-05
7.4528074772844954e-06
2.948655457081853e-05
5.198199882909191e-05
7.802649959458285e-05
0.00011091920541704894
0.00015420241816274313
-0.0001102617067934783
-6.769744840094336e-05
-3.457591648190275e-05
-9.116080967742912e-06
1.0978067159529703e-05
2.8406086809356496e-05
4.611267848331213e-05
6.720248632962819e-05
9.498248025055153e-05
0.00013310116230821206
-8.869485916263367e-05
-5.018138324863579e-05
-2.1382284345243877e-05
-7.149420785130395e-07
1.4236360742934592e-05
2.638990630330143e-05
3.8813348382215826e-05
5.456315171425974e-05
7.679649292391226e-05
0.0001091043808993785
-6.506966611105093e-05
-3.095025589822109e-05
-7.277918846252535e-06
7.496074153999846e-06
1.6244264400140998e-05
2.238781890239079e-05
2.9203960002657445e-05
3.9558199009838424e-05
5.61519620361859e-05
8.216953305487974e-05
-3.942926692605646e-05
-1.0159027621419944e-05
7.060838605611741e-06
1.419125569831342e-05
1.5228710209260268e-05
1.458263289884354e-05
1.5813313144666385e-05
2.1301829593185426e-05
3.276111632990325e-05
5.235141258970455e-05
-1.1693866270314282e-05
1.193126384490921e-05
2.035202635907417e-05
1.6948201285513567e-05
8.163605653753112e-06
6.704048399405749e-08
-3.567047471219123e-06
-1.4551923237099418e-06
6.303604238776239e-06
1.991237581006923e-05
1.8403814673989896e-05
3.4840295952392325e-05
2.999985578619295e-05
1.1386892434838217e-05
-9.922127936004554e-06
-2.5386805011622104e-05
-3.181716529651428e-05
-3.014945109775652e-05
-2.3418272927445277e-05
-1.4509784617604618e-05
5.184727114616178e-05
5.701499413300268e-05
3.064937153115718e-05
-1.0728563992673523e-05
-4.6616500008627576e-05
-6.71326607303447e-05
-7.177961150015184e-05
-6.58153426217039e-05
-5.6148889280205685e-05
-4.9689303148156214e-05
8.877338135356017e-05
7.514578470796396e-05
8.573479312670718e-06
-6.381082403988762e-05
-0.00011261920842168226
-0.00012962491876680748
-0.00012438397435268235
-0.00010789535253856973
-9.066480291288967e-05
-8.361796635462763e-05
0.00013885039174443402
6.719451230285771e-05
-6.37018746396387e-05
-0.00017575570781851527
-0.0002157977078814724
-0.0002113541608080808
-0.0001853753745245457
-0.0001525594158648426
-0.0001241795002354289
-0.00011345094815117581
0.0001520099557401327
4.468673054900535e-06
-0.00028493342209602764
-0.00036337274298228316
-0.00034621018158410583
-0.0002972166959126811
-0.00024193414608774094
-0.00019104666393481365
-0.00015174941368323747
-0.0001357268968069942
0.00035402218945345364
-0.0005739194743097837
-0.000679961659732586
-0.0005771424840654397
-0.0004586822614083231
-0.00035527201566756643
-0.00027204493805595316
-0.00020861890593798678
-0.00016517310853998018
-0.00014665256822084596
-0.0019277584375686826
-0.0014899924002040538
-0.0009586549646870362
-0.0006771769043277115
-0.0004841873990642301
-0.0003474942608149194
-0.00024903718835927666
-0.0001835865636014792
-0.0001494616807783955
-0.00014269611561747858

SCALARS STRAIN_XY float 1
LOOKUP_TABLE default
5.3627302821594725e-06
1.4381848097204386e-05
2.1159395252413893e-05
2.5713785436618647e-05
2.803856663155177e-05
2.8109960774128778e-05
2.5897916922937303e-05
2.1378312979089542e-05
1.4544136708379007e-05
5.413346915776607e-06
1.6072312648704457e-05
4.310794926919853e-05
6.343527780142133e-05
7.710849308606438e-05
8.410341266752372e-05
8.434189976509049e-05
7.772643069644744e-05
6.417785967386194e-05
4.3670238227613845e-05
1.6256126164685553e-05
2.673176476560707e-05
7.171648130186933e-05
0.00010557793165666754
0.000128401709998862
0.0001401305207390617
0.0001406110210249098
0.00012965594534814634
0.0001071105350324078
7.29144555807644e-05
2.7149634552858792e-05
3.7299550600746606e-05
0.00010011388764616727
0.0001474846966391767
0.00017951723902823874
0.00019609241215757384
0.00019694565336304468
0.0001817626781386826
0.00015027833177182204
0.00010236994145274708
3.81356092032728e-05
4.772281491194699e-05
0.00012818692150328229
0.00018903676876770928
0.00023037051662659278
0.0002519605053335726
0.0002533786106858546
0.0002341323579655684
0.00019379792938550855
0.00013214730033137
4.926627449038448e-05
5.793509323802348e-05
0.00015580233235654162
0.00023010386236769695
0.00028087590640162377
0.00030771045776775
0.000309947212903984
0.000286855081167537
0.00023779409691901746
0.00016237115498388133
6.0604801896322474e-05
6.785752581760923e-05
0.00018281756062600227
0.0002705646364113412
0.0003309689811351983
0.00036333581284084607
0.00036669123771902734
0.0003400080162888376
0.00028237546192421206
0.00019316114732124273
7.221961991901726e-05
7.740646834667603e-05
0.00020911094403319036
0.0003103547100500245
0.0003806548374712254
0.00041887607045825934
0.0004236475770023618
0.0003936175607953882
0.0003275798240388976
0.0002245850439794965
8.4166963828472e-05
8.65119845671683e-05
0.0002346449533384698
0.0003495609842316047
0.00043009931836541365
0.00047446769957225354
0.00048083883312530565
0.0004475880092040148
0.0003732700357813243
0.00025656543137353785
9.645275044495999e-05
9.515402365489235e-05
0.00025958407708977574
0.0003885916598293064
0.000479787288376516
0.0005304271030159135
0.0005382479140952651
0.0005015765932215102
0.00041895459829687995
0.000288715464513754
0.00010896127790997572
0.00010342706955220743
0.0002845038683534553
0.0004284687390007907
0.0005307791554867384
0.0005873665271313687
0.0005957554304327276
0.0005547822646845817
0.00046350218941299676
0.00032007794232092115
0.00012133681362735439
0.00011165259718849165
0.00031075949588255797
0.00047132107804477054
0.000585095474175899
0.0006463109925763759
0.0006529753218110397
0.0006055946636157397
0.0005047226779087942
0.00034875699405690665
0.00013281070474185572
0.00012058152504867102
0.00034116062848242243
0.0005212099042822722
0.00064622901643277
0.0007086761506032557
0.0007088329119385884
0.0006510157751549814
0.0005388192951179538
0.00037148205347316623
0.00014199273946684243
0.00013179674047798448
0.00038129747312202165
0.000585532715917431
0.0007195988600122386
0.000775709350799153
0.00076052243539485
0.000685767037015575
0.0005598092539948543
0.00038326546161690685
0.0001467006716477596
0.0001486451080952786
0.00044248519563817347
0.0006772129396794904
0.0008122949157096295
0.0008461753530707977
0.0008013284686708266
0.0007010684998555484
0.0005593016195259478
0.0003775025892239145
0.00014398531052642848
0.00017897187461276762
0.0005484879972661623
0.0008181293321529899
0.0009284475640275701
0.0009104658948939168
0.0008163976278824682
0.0006840436337609054
0.0005273988015185044
0.00034708250306380965
0.00013057477081454376
0.00024401932514649897
0.0007553868499768548
0.0010341653670590412
0.0010552830348070086
0.0009342088510942929
0.0007804978891852244
0.000619501329697375
0.00045587550284466056
0.0002870938009405643
0.00010396804924075933
0.0004260579124287997
0.0011737508479690382
0.0013386478747689987
0.001088037984645812
0.0008560306741028055
0.00066292023203968
0.0004967864839621793
0.00034390226378394964
0.00019943771013237587
6.442801616043502e-05
0.0010390987916271601
0.0021157649233716942
0.0013049341099187536
0.000867446280435418
0.000613052553477534
0.00044838825580729123
0.00031951064189695254
0.00020411277887246414
9.875242705345913e-05
1.893923754132769e-05
0.004690855077647058
0.001278270454374569
0.0005619082925309958
0.00032166437993087424
0.0002191473445873355
0.00015779250150762137
0.00010913320062513627
6.257231890473367e-05
1.7534770702881328e-05
-8.878340794840622e-06

