# vtk DataFile Version 2.0
mesh vtk view
ASCII
DATASET UNSTRUCTURED_GRID
POINTS 12 double
0.0 0.0 0.0
2.0 0.0 0.0
4.0 0.0 0.0
6.0 0.0 0.0
0.0 1.5 0.0
2.0 1.5 0.0
4.0 1.5 0.0
6.0 1.5 0.0
0.0 3.0 0.0
2.0 3.0 0.0
4.0 3.0 0.0
6.0 3.0 0.0

CELLS 12 48
3 0 5 4
3 0 1 5
3 1 6 5
3 1 2 6
3 2 7 6
3 2 3 7
3 4 9 8
3 4 5 9
3 5 10 9
3 5 6 10
3 6 11 10
3 6 7 11

CELL_TYPES 12
5
5
5
5
5
5
5
5
5
5
5
5

POINT_DATA 12
SCALARS STRESS_VM float 1
LOOKUP_TABLE default
24978.445852197947
21227.361884632624
13767.539093206527
10823.225139021239
19804.85510219644
16467.324601662272
12274.04607404048
10626.20057691834
35138.334791823785
20785.384265267858
13935.097797407127
10767.823201023293

SCALARS STRESS_XX float 1
LOOKUP_TABLE default
-15053.561106036925
-15802.391133862273
-7657.684543404758
-5950.034632558624
10112.887120754236
-2133.3336976499468
-2060.044713778006
-1964.4637130109131
30599.64218714517
16139.14106589716
7653.96708291594
2586.705849679877

SCALARS STRESS_YY float 1
LOOKUP_TABLE default
-2138.863476389601
-135.50479681960437
1602.216234214069
2579.0328165595693
2685.5158575039386
585.1635130731565
1660.939088202913
2133.9019927236222
10097.881921757908
4022.442767056144
2094.176511314136
959.3784956636126

SCALARS STRESS_XY float 1
LOOKUP_TABLE default
-5930.3724045633735
-3632.2086050295406
-4449.903227334201
-4462.53087516372
-8090.334413848713
-5489.29286630538
-5431.9205693492195
-5425.802948578453
-12979.327464716704
-7398.770896846921
-6555.357962852143
-5923.15872318748

SCALARS STRAIN_VM float 1
LOOKUP_TABLE default
2.2368108659515438e-07
1.6531615426548858e-07
1.295784903008493e-07
1.1407219228787424e-07
2.143507636305509e-07
1.6772925510083393e-07
1.3755357556167245e-07
1.292014742193844e-07
3.2861212161274887e-07
2.0390220278912788e-07
1.5728575028977655e-07
1.3736965204765034e-07

SCALARS STRAIN_XX float 1
LOOKUP_TABLE default
-7.173868079414178e-08
-7.878837275455902e-08
-4.093207950347701e-08
-3.400557731011641e-08
4.613333443888967e-08
-1.1632188284820447e-08
-1.3040773064424837e-08
-1.334325685304854e-08
1.363367057648253e-07
7.405867476384315e-08
3.4814444170911376e-08
1.1350554730554424e-08

SCALARS STRAIN_YY float 1
LOOKUP_TABLE default
1.4144058443012918e-08
2.5396421386774732e-08
2.0646260667688198e-08
2.271272122651958e-08
-3.2586844617247967e-09
6.445818166488195e-09
1.1703769218748276e-08
1.3910875090086117e-08
0.0
-6.517368923449593e-09
-2.1581631302406215e-09
5.288278263462651e-10

SCALARS STRAIN_XY float 1
LOOKUP_TABLE default
-7.887395298069286e-08
-4.830837444689289e-08
-5.918371292354487e-08
-5.935166063967748e-08
-1.0760144770418789e-07
-7.300759512186156e-08
-7.224454357234463e-08
-7.216317921609343e-08
-1.7262505528073217e-07
-9.840365292806407e-08
-8.71862609059335e-08
-7.877801101839349e-08

