# vtk DataFile Version 2.0
mesh vtk view
ASCII
DATASET UNSTRUCTURED_GRID
POINTS 2541 double
0.0 0.0 0.0
199.6796687961033 -0.9966163863322854 -0.0012845123452768145
200.3203312038967 99.00338361366771 0.0012845123452711984
0.0 100.0 0.0
0.0 0.0 100.0
199.6796687961033 -0.9966163863322829 100.00128451234528
200.3203312038967 99.00338361366772 99.99871548765474
0.0 100.0 100.0
9.96424877502385 -0.01933151422995148 -0.025656591235357806
19.936173204323087 -0.03230273135578828 -0.03347219235212658
29.91080291293227 -0.05221062317218323 -0.03755744176433772
39.88628184640642 -0.07778222449846472 -0.0386094293932771
49.862715129967626 -0.10897978935526244 -0.03805485124444416
59.840241404450445 -0.14536338299567858 -0.03654007817730148
69.81902190404399 -0.18651803144976817 -0.034476304888676035
79.79917649258738 -0.2320365925506269 -0.03210445882814054
89.78079122385127 -0.2815351551827809 -0.02956794487939641
99.76392464777963 -0.3346486037917754 -0.02695017445200208
109.74861540746687 -0.39102509386752393 -0.024299557653603747
119.7348877089794 -0.4503201850298629 -0.021645329094732716
129.7227542710238 -0.5121921279934992 -0.019007775221148278
139.71221586728612 -0.5762993007500992 -0.01640473328035575
149.7032561093237 -0.6423025022583067 -0.01385491114954573
159.69582913514336 -0.7098804919214999 -0.01137708745032267
169.68984118943075 -0.7787763869210398 -0.008975583261074867
179.68512915857505 -0.8489471846317825 -0.0066135590927341005
189.68155982089394 -0.9208332520201389 -0.00399871295675215
199.75159730147575 9.00528514567249 0.0005364032768110622
199.8179215799678 19.008353941100815 0.0017098004112855564
199.88058195102727 29.011082996132462 0.0017348680531726812
199.94086816004545 39.01288663528443 0.0010474672926700345
199.99999999999895 49.01351389821369 2.0860970091823644e-14
200.05913183995247 59.01288663525175 -0.0010474672926351991
200.11941804897089 69.01108299610621 -0.001734868053158796
200.18207842003093 79.00835394107736 -0.0017098004112940253
200.2484026985236 89.00528514565623 -0.0005364032768266515
190.3184401791225 99.07916674797893 0.003998712956717973
180.31487084145778 99.15105281536643 0.006613559092672988
170.31015881061853 99.22122361307633 0.008975583260985466
160.30417086492238 99.29011950807507 0.011377087450199021
150.29674389075873 99.35769749773749 0.013854911149386672
140.2877841328127 99.42370069924499 0.016404733280160507
130.2772457290918 99.48780787200096 0.019007775220917587
120.26511229115276 99.54967981496468 0.021645329094492082
110.2513845926817 99.60897490612736 0.024299557653365268
100.23607535238543 99.66535139620346 0.026950174451769005
90.21920877633023 99.71846484481284 0.029567944879171675
80.2008235076106 99.7679634074454 0.03210445882792926
70.18097809615152 99.81348196854675 0.03447630488849049
60.15975859570191 99.85463661700159 0.03654007817716411
50.137284870165374 99.89102021064278 0.038054851244369275
40.113718153707154 99.92221777550023 0.038609429393271166
30.089197087161878 99.94778937682705 0.03755744176440058
20.06382679574276 99.96769726864383 0.03347219235223783
10.035751225007058 99.98066848576988 0.025656591235485738
0.0 90.00000000007105 0.0
0.0 80.00000000014211 0.0
0.0 70.00000000021316 0.0
0.0 60.00000000025813 0.0
0.0 50.00000000025813 0.0
0.0 40.00000000025814 0.0
0.0 30.00000000021316 0.0
0.0 20.00000000014211 0.0
0.0 10.00000000007105 0.0
9.96424877502385 -0.01933151422995144 100.02565659123536
19.936173204323087 -0.03230273135578816 100.03347219235212
29.91080291293227 -0.052210623172183 100.03755744176433
39.88628184640642 -0.07778222449846454 100.03860942939328
49.862715129967626 -0.10897978935526215 100.03805485124444
59.840241404450445 -0.14536338299567825 100.0365400781773
69.81902190404399 -0.18651803144976803 100.03447630488867
79.79917649258738 -0.2320365925506264 100.03210445882814
89.78079122385127 -0.28153515518278005 100.0295679448794
99.76392464777963 -0.33464860379177425 100.026950174452
109.74861540746687 -0.39102509386752277 100.0242995576536
119.7348877089794 -0.4503201850298612 100.02164532909474
129.7227542710238 -0.5121921279934971 100.01900777522116
139.71221586728612 -0.5762993007500972 100.01640473328035
149.7032561093237 -0.6423025022583057 100.01385491114955
159.69582913514336 -0.7098804919214988 100.01137708745033
169.68984118943075 -0.778776386921038 100.00897558326108
179.68512915857505 -0.8489471846317808 100.00661355909274
189.68155982089394 -0.9208332520201373 100.00399871295676
199.75159730147575 9.005285145672492 99.99946359672319
199.8179215799678 19.008353941100818 99.99829019958872
199.88058195102724 29.011082996132462 99.99826513194682
199.94086816004543 39.01288663528443 99.99895253270734
199.99999999999895 49.01351389821369 99.99999999999999
200.05913183995244 59.01288663525176 100.00104746729264
200.11941804897089 69.01108299610623 100.00173486805316
200.18207842003093 79.00835394107737 100.00170980041129
200.24840269852356 89.00528514565625 100.00053640327683
190.3184401791225 99.07916674797895 99.99600128704328
180.31487084145778 99.15105281536644 99.99338644090733
170.31015881061853 99.22122361307633 99.99102441673901
160.30417086492236 99.29011950807507 99.9886229125498
150.29674389075873 99.35769749773749 99.9861450888506
140.28778413281267 99.42370069924499 99.98359526671983
130.2772457290918 99.48780787200096 99.98099222477909
120.26511229115276 99.54967981496468 99.9783546709055
110.2513845926817 99.60897490612736 99.97570044234664
100.23607535238543 99.66535139620346 99.97304982554823
90.21920877633023 99.71846484481284 99.97043205512082
80.2008235076106 99.7679634074454 99.96789554117207
70.18097809615152 99.81348196854675 99.96552369511151
60.15975859570191 99.85463661700159 99.96345992182283
50.137284870165374 99.89102021064278 99.96194514875563
40.113718153707154 99.92221777550023 99.96139057060672
30.08919708716188 99.94778937682705 99.9624425582356
20.06382679574276 99.96769726864383 99.96652780764776
10.035751225007058 99.98066848576988 99.97434340876451
0.0 90.00000000007105 100.0
0.0 80.00000000014211 100.0
0.0 70.00000000021316 100.0
0.0 60.00000000025813 100.0
0.0 50.00000000025813 100.0
0.0 40.00000000025814 100.0
0.0 30.00000000021316 100.0
0.0 20.00000000014211 100.0
0.0 10.00000000007105 100.0
0.0 0.0 10.0
0.0 0.0 20.0
0.0 0.0 30.0
0.0 0.0 40.0
0.0 0.0 50.0
0.0 0.0 60.0
0.0 0.0 70.0
0.0 0.0 80.0
0.0 0.0 90.0
199.67755498118902 -0.9980119008744012 9.998678460188534
199.67639122999492 -0.9988685764040577 19.99871955178063
199.67575449157545 -0.9994773234814066 29.998970313148142
199.67543163495822 -0.9998653725570295 39.99942620678955
199.67533258033816 -0.999999999999998 50.0
199.67543163495822 -0.9998653725570268 60.00057379321045
199.67575449157547 -0.9994773234814042 70.00102968685187
199.67639122999492 -0.9988685764040551 80.00128044821938
199.67755498118902 -0.9980119008743987 90.00132153981147
200.32244501881098 99.0019880991256 10.001321539811466
200.32360877000505 99.00113142359594 20.00128044821937
200.32424550842453 99.0005226765186 30.00102968685186
200.32456836504178 99.00013462744297 40.00057379321045
200.32466741966184 99.0 50.0
200.32456836504178 99.00013462744297 59.99942620678955
200.32424550842453 99.0005226765186 69.99897031314813
200.32360877000505 99.00113142359595 79.99871955178064
200.32244501881095 99.0019880991256 89.99867846018854
0.0 100.0 10.0
0.0 100.0 20.0
0.0 100.0 30.0
0.0 100.0 40.0
0.0 100.0 50.0
0.0 100.0 60.0
0.0 100.0 70.0
0.0 100.0 80.0
0.0 100.0 90.0
9.975602546227718 9.990922242653237 -0.020243978389142585
9.982643567962482 19.995587133612716 -0.015459725021451133
9.988805402042408 29.99790752713342 -0.010348629822874777
9.994491003270484 39.99904003728342 -0.005181309417512969
10.00000000001541 49.999380005288444 1.2093450125430537e-13
10.005508996760362 59.99904003728174 0.005181309417761959
10.011194597988426 69.99790752713199 0.010348629823098216
10.017356432068361 79.9955871336114 0.015459725021633135
10.024397453803159 89.9909222426522 0.02024397838930343
19.952895985874328 9.975406695249733 -0.026986309621340066
19.967110419336887 19.9816696254676 -0.02040489743716211
19.97893347890629 29.985512921950587 -0.013748673544106853
19.98969814574785 39.98755552269417 -0.0069088682716436185
20.00000000003286 49.9881940649145 1.4676458703777989e-13
20.01030185431789 59.987555522690755 0.006908868271942262
20.021066521159465 69.9855129219477 0.013748673544364282
20.03288958072888 79.9816696254649 0.020404897437361076
20.047104014191493 89.9754066952477 0.026986309621493093
29.93263503398994 9.955302227837635 -0.029991479258371617
29.95207941805613 19.96127240032658 -0.022729911581636557
29.969273539412637 29.96555751241516 -0.01526926484388201
29.984973476469744 39.968023180343714 -0.007677634292208815
30.00000000004695 49.968822633691055 1.475046328822525e-13
30.015026523624204 59.968023180338584 0.0076776342925063985
30.030726460681336 69.96555751241078 0.01526926484413111
30.047920582037868 79.96127240032249 0.02272991158181581
30.067364966104126 89.95530222783451 0.02999147925848993
39.913267751645364 9.92935208883553 -0.030795882870930134
39.93758781696081 19.935045131212167 -0.02324374706257733
39.95968429047837 29.939203065389883 -0.015599864572714622
39.98023065027974 39.941717336421156 -0.00783325275017177
40.000000000056566 49.942552100360636 1.3432651956994746e-13
40.01976934983345 59.94171733641428 0.007833252750440316
40.04031570963489 69.93920306538398 0.015599864572930907
40.062412183152496 79.93504513120658 0.023243747062718353
40.08673224846804 89.92935208883114 0.030795882871001226
49.89468665113519 9.897829398545175 -0.030340153023810938
49.92367593851471 19.903198598240973 -0.022842621392126887
49.95041560722181 29.90712157544799 -0.015297849214625273
49.9756024501662 39.909511861626235 -0.007674538667520346
50.000000000066194 49.91031449552478 1.1561308067336644e-13
50.024397549966245 59.909511861617595 0.0076745386677488266
50.049584392910695 69.9071215754405 0.015297849214800228
50.07632406161788 79.90319859823383 0.022842621392224937
50.105313348997555 89.8978293985395 0.030340153023829634
59.87693935532761 9.86108404975743 -0.029134345515011466
59.9104055261754 19.866133769805224 -0.021898842178950294
59.94156602487543 29.86979462468487 -0.014641920468353945
59.971174946995774 39.87202078664413 -0.007337613803169793
60.00000000007578 49.8727680110882 9.517838875929975e-14
60.02882505315585 59.87202078663369 0.0073376138033549605
60.05843397527627 69.86979462467579 0.014641920468485897
60.089594473976376 79.86613376979643 0.02189884217900523
60.12306064482444 89.86108404975032 0.029134345514980117
69.86013501554993 9.819537825065915 -0.02749197571062518
69.8978475122128 19.82426125508854 -0.020644010267205998
69.9331979172074 29.827663495889716 -0.013787092024670041
69.96698893439968 39.82972249040019 -0.0069036143411019685
70.00000000009726 49.83041226407999 7.491924562808349e-14
70.03301106579492 59.82972249038801 0.006903614341244647
70.06680208298732 69.82766349587905 0.013787092024761284
70.10215248798205 79.82426125507813 0.020644010267222183
70.13986498464519 89.81953782505738 0.02749197571055209
79.84437542150243 9.77360109293605 -0.02560269890253899
79.8860682024037 19.77798969728988 -0.019213460665917028
79.92535365574548 29.78113708370374 -0.012822050805391672
79.96306712620868 39.783034546628784 -0.006416750488763396
80.00000000009848 49.78366882146852 5.586176202106124e-14
80.03693287398836 59.78303454661486 0.006416750488866967
80.07464634445165 69.78113708369156 0.012822050805447668
80.11393179779361 79.777989697278 0.019213460665903542
80.15562457869517 89.7736010929263 0.025602698902438437
89.82974138188503 9.723664416873987 -0.023580442119200656
89.87512395619373 19.727708636274897 -0.017688583402944734
89.91806720933405 29.73060164770104 -0.011798508655800309
89.95942560464495 39.732341213779335 -0.005902255269874
90.00000000009027 49.732921802889784 3.8603995099949366e-14
90.04057439553564 59.73234121376372 0.005902255269942706
90.08193279084658 69.73060164768737 0.011798508655825843
90.12487604398714 79.72770863626164 0.0176885834029075
90.17025861829613 89.7236644168631 0.023580442119082008
99.81629177525967 9.670098451059221 -0.021492168656408243
99.86505903322218 19.67378933473343 -0.01611703430825366
99.91136632528483 29.676425117836654 -0.010746278772200163
99.95607749317156 39.678007000458386 -0.0053743388841962
100.00000000008197 49.6785343193552 2.3736825878580775e-14
100.04392250699246 59.678007000441035 0.005374338884234489
100.08863367487929 69.67642511782152 0.010746278772199426
100.13494096694217 79.6737893347188 0.016117034308196866
100.183708224905 89.67009845104725 0.021492168656275686
109.80406723867208 9.613259353707898 -0.01937664186312323
109.85590679163008 19.616588658923508 -0.014526009383640402
109.90527378355402 29.61896160537842 -0.009681909592108153
109.95303421167341 39.62038260324342 -0.004840669318456814
110.00000000007368 49.620855615247564 1.0977416757103147e-14
110.04696578847413 59.62038260322437 0.004840669318469595
110.09472621659359 69.61896160536185 0.009681909592085548
110.14409320851777 79.61658865890745 0.014526009383567762
110.19593276147602 89.61325935369481 0.01937664186297983
119.79309468177232 9.5534945822933 -0.017256360423983867
119.8476926836419 19.556453875875135 -0.012930236682444711
119.89980949484303 29.55855495963218 -0.00861353995799801
119.95030669925988 39.55980797057522 -0.004304670203178001
120.00000000006548 49.56022397612193 7.636769380777101e-16
120.04969330087103 59.55980797055446 0.0043046702031697606
120.10019050528801 69.55855495961416 0.008613539957958
120.1523073164894 79.55645387585771 0.012930236682359687
120.20690531835932 89.5534945822791 0.01725636042383302
129.78339136612007 9.491147851675166 -0.015144751564265502
129.84043854982482 19.493726617026635 -0.011336281224140127
129.89499401888884 29.495541283276452 -0.007543113716824126
129.94790737957345 39.496613771652065 -0.003766426257825603
130.00000000005718 49.49696786767907 -7.239414765721083e-15
130.05209262054095 59.49661377162967 0.00376642625780145
130.1050059812257 69.4955412832571 0.0075431137167716765
130.15956145028989 79.49372661700801 0.011336281224048663
130.2166086339951 89.49114785166013 0.01514475156411624
139.77496830606336 9.426562106196382 -0.013049596592362614
139.8341681058114 19.428745004790343 -0.009743621244352607
139.890853384235 29.43025019819417 -0.006466320384480697
139.94585276952637 39.43112242284755 -0.003222442796097844
140.00000000004886 49.43140699813192 -1.3160669975887875e-14
140.05414723057123 59.43112242282363 0.003222442796062771
140.10914661586273 69.43025019817374 0.006466320384422906
140.16583189428678 79.42874500477092 0.00974362124426567
140.22503169403518 89.42656210618101 0.013049596592230742
149.76783351970064 9.360077784012816 -0.010972650325816208
149.82891355113134 19.361841967937877 -0.008142334836681465
149.8874239303313 29.36300498649139 -0.005370409788978908
149.94416546431205 39.36365130039065 -0.0026644504924988625
150.00000000004053 49.363856990495336 -1.6685830044846047e-14
150.05583453576898 59.36365130036527 0.002664450492457942
150.11257606975 69.36300498646993 0.005370409788920101
150.17108644895026 79.36184196791773 0.008142334836601005
150.23216648038135 89.36007778399723 0.010972650325703508
159.76199691417767 9.29201919302268 -0.008903469542846649
159.82472166920775 19.293335084063617 -0.006507110479540442
159.88475227024276 29.29412333540166 -0.004230293727534009
159.9428716167365 39.294525297002295 -0.002077813251889967
160.0000000000322 49.29464710407341 -1.728497600701297e-14
160.05712838332786 59.2945252969754 0.002077813251848092
160.11524772982185 69.2941233353792 0.004230293727477306
160.17527833085725 79.29333508404271 0.006507110479467932
160.23800308588773 89.29201919300691 0.00890346954275226
169.75748001529385 9.222649484820224 -0.006806130870393913
169.8216502946927 19.223501557617617 -0.004788197233597433
169.88287728213362 29.223925984998317 -0.003006086826632115
169.94198497143844 39.224116470040066 -0.0014402710669497423
170.00000000002385 49.224171348895716 -1.4993125394592576e-14
170.05801502860936 59.22411647001171 0.0014402710669135631
170.11712271791433 69.22392598497487 0.0030060868265818913
170.1783497053557 79.22350155759605 0.004788197233534733
170.24251998475486 89.22264948480426 0.006806130870317329
179.75432770573656 9.15206159088031 -0.004585964745056567
179.81972673493547 19.1525342433128 -0.002913586411501363
179.88176457530292 29.152788609700448 -0.0016429039313168876
179.94146851074996 39.15294897350608 -0.0007223351615398003
180.00000000001555 49.15300648972882 -8.313667134308786e-15
180.05853148928117 59.152948973476285 0.0007223351615162431
180.1182354247284 69.15278860967605 0.001642903931278965
180.1802732650963 79.15253424329059 0.0029135864114508696
180.24567229429573 89.15206159086426 0.004585964744997418
189.75258079497976 9.079904328825672 -0.002163727049248126
189.81875272992139 19.08057517880012 -0.0008044995845053876
189.8811775100747 29.081335167256533 -8.143693805307835e-05
189.9411842008773 39.08191604117814 9.914755120504266e-05
190.0000000000073 49.08213103323145 3.1922497166266357e-15
190.05881579913714 59.08191604114689 -9.914755120563725e-05
190.11882248994 69.0813351672312 8.143693803453365e-05
190.18124727009385 79.08057517877728 0.0008044995844707425
190.247419205036 89.07990432880948 0.0021637270492087823
9.970251792548428 -0.022902288871898713 9.984702496301665
9.969779802425219 -0.025466777575499772 19.99021513791123
9.969337824546686 -0.026856453812654644 29.994051358403464
9.968985998784422 -0.027595772741186023 39.99717632254876
9.96886794920585 -0.0278268085895898 50.0
9.968985998784422 -0.027595772741186016 60.00282367745124
9.969337824546686 -0.026856453812654578 70.00594864159653
9.969779802425219 -0.025466777575499734 80.00978486208876
9.970251792548428 -0.02290228887189867 90.01529750369833
19.940300574342835 -0.038698928614232735 9.975096867329047
19.94140924298222 -0.042615780751691056 19.983275962098375
19.941245796485386 -0.04508960775399103 29.98967034420151
19.941013029435343 -0.046393897937068336 39.99506137216177
19.940913337850468 -0.04680544929594568 50.0
19.941013029435343 -0.04639389793706832 60.00493862783823
19.941245796485386 -0.04508960775399098 70.01032965579849
19.94140924298222 -0.04261578075169095 80.01672403790162
19.940300574342835 -0.03869892861423263 90.02490313267096
29.91282513434346 -0.059145728118632224 9.97098281885878
29.913908943007282 -0.06400814792111167 19.97932279041329
29.91424334462012 -0.06709417251448366 29.98689408865484
29.914249097213897 -0.06880962617990713 39.99365540850375
29.914229350098257 -0.06935501423573572 50.0
29.9142490972139 -0.06880962617990719 60.00634459149625
29.914243344620125 -0.06709417251448345 70.01310591134516
29.913908943007282 -0.06400814792111155 80.02067720958671
29.91282513434346 -0.05914572811863208 90.02901718114123
39.886863601450514 -0.08486800674019825 9.96955978653389
39.88756272923999 -0.09000259153658705 19.977748918347427
39.88798659608599 -0.09341877074450051 29.985559001207555
39.88816435801514 -0.09534982287471713 39.992922314940465
39.88820609562489 -0.09597490235093813 50.0
39.88816435801514 -0.09534982287471706 60.007077685059535
39.88798659608599 -0.09341877074450036 70.01444099879245
39.88756272923999 -0.0900025915365869 80.02225108165257
39.886863601450514 -0.08486800674019805 90.03044021346611
49.862360502486005 -0.11591539213786328 9.969743324398046
49.86263740593169 -0.12105481386939093 19.97757977117342
49.86296492656011 -0.1245555667800444 29.9852580214206
49.86317272034565 -0.12657530184561797 39.99270673331353
49.86324025355369 -0.1272336785160313 50.0
49.86317272034565 -0.12657530184561783 60.00729326668647
49.86296492656011 -0.124555566780044 70.01474197857941
49.86263740593169 -0.12105481386939096 80.02242022882658
49.862360502486005 -0.1159153921378631 90.03025667560196
59.839301930938745 -0.15199823071989632 9.97083095553134
59.83923332571809 -0.156980393390091 19.978239619875303
59.83940394534377 -0.16042699702929514 29.985587673444016
59.83956669408447 -0.16244086140119776 39.99283186300034
59.839628104410075 -0.16310235655071997 50.0
59.83956669408447 -0.16244086140119773 60.00716813699966
59.83940394534377 -0.16042699702929505 70.01441232655598
59.83923332571809 -0.15698039339009068 80.02176038012469
59.839301930938745 -0.15199823071989632 90.02916904446866
69.81772426670139 -0.19276439275970408 9.972431256989484
69.81740194744657 -0.1974977675835828 19.97936437460522
69.81742162466728 -0.20080506644432988 29.986281152497703
69.81751444259989 -0.20275422330627182 39.99315688340229
69.8175569591854 -0.2033974709136664 50.0
69.81751444259989 -0.20275422330627144 60.00684311659771
69.81742162466728 -0.20080506644432944 70.0137188475023
69.81740194744657 -0.19749776758358248 80.02063562539477
69.81772426670139 -0.1927643927597036 90.02756874301052
79.79766599647817 -0.237846687293143 9.974311985267569
79.79716838769366 -0.24227721890681153 19.98074180780367
79.79706603647709 -0.24539406628072435 29.98717254211682
79.79709154890787 -0.2472415765130325 39.99359187059981
79.7971131433829 -0.24785327507537236 50.0
79.79709154890787 -0.24724157651303208 60.00640812940019
79.79706603647709 -0.24539406628072394 70.01282745788318
79.79716838769366 -0.24227721890681111 80.01925819219633
79.79766599647817 -0.2378466872931422 90.02568801473244
89.77915892400236 -0.2868837896295606 9.976338828730293
89.77854542402808 -0.29098044646400123 19.982249037110968
89.77835286992797 -0.2938761030474897 29.98816551868234
89.77832358393312 -0.29559935013476885 39.99408339816415
89.77832707855869 -0.2961711775507174 50.0
89.77832358393312 -0.29559935013476885 60.00591660183585
89.77835286992797 -0.2938761030474894 70.01183448131766
89.77854542402808 -0.2909804464640001 80.01775096288902
89.77915892400236 -0.2868837896295601 90.02366117126971
99.76222659308554 -0.3395237594021035 9.978434868911375
99.76153890871511 -0.34326957145545356 19.983816681578425
99.76128278532497 -0.34592619210617764 29.98920568004546
99.76121220343924 -0.34751163589833706 39.994601281709066
99.76120154147661 -0.34803856378840875 50.0
99.76121220343924 -0.34751163589833606 60.005398718290934
99.76128278532497 -0.34592619210617764 70.01079431995454
99.76153890871511 -0.3432695714554531 80.01618331842157
99.76222659308554 -0.33952375940210267 90.02156513108862
109.74688550053844 -0.39542269348882536 9.980556429633259
109.7461508262956 -0.3988097025300539 19.985405923658675
109.74585020282633 -0.4012178069104122 29.99026289310784
109.74574906861837 -0.40265787069934683 39.99512885205165
109.74572764884398 -0.4031370241648884 50.0
109.74574906861837 -0.4026578706993463 60.00487114794835
109.74585020282633 -0.40121780691041253 70.00973710689216
109.7461508262956 -0.3988097025300537 80.01459407634133
109.74688550053844 -0.3954226934888239 90.01944357036675
119.73314613646164 -0.4542419174685793 9.982677942697574
119.73238010601875 -0.45726852642474153 19.986994718427816
119.73204642218283 -0.45942443730476334 29.991320422601472
119.73192157704601 -0.46071564813842103 39.99565697222428
119.7318916576933 -0.4611456369621194 50.0
119.73192157704601 -0.460715648138421 60.004343027775725
119.73204642218283 -0.45942443730476334 70.00867957739852
119.73238010601875 -0.45726852642474025 80.01300528157219
119.73314613646164 -0.45424191746857756 90.01732205730242
129.7210125407183 -0.5156456408784557 9.984782752416764
129.7202212108216 -0.5183157084234865 19.9885697468249
129.71985895918317 -0.5202202880794545 29.992368762829575
129.7197133921171 -0.5213622813836905 39.996180639572955
129.71967603701668 -0.5217428301912759 50.0
129.7197133921171 -0.5213622813836902 60.003819360427045
129.71985895918317 -0.5202202880794541 70.00763123717043
129.7202212108216 -0.5183157084234853 80.0114302531751
129.7210125407183 -0.5156456408784539 90.01521724758324
139.71047897994453 -0.5793006601270266 9.986857985976181
139.70965970729975 -0.5816239080090315 19.990122338209016
139.70926741403957 -0.5832822255720335 29.9934026246991
139.70910099382894 -0.5842773986837833 39.99669731997913
139.7090563268181 -0.5846092186810017 50.0
139.70910099382894 -0.5842773986837826 60.00330268002087
139.70926741403957 -0.5832822255720326 70.0065973753009
139.70965970729975 -0.5816239080090303 80.00987766179098
139.71047897994453 -0.5793006601270253 90.01314201402383
149.701521725459 -0.6448811567325571 9.98889285186642
149.700663407974 -0.6468744232355453 19.991647579068637
149.7002352984829 -0.6482961281501936 29.994420054374924
149.70004618102612 -0.6491499102315875 39.997206334728254
149.69999390764633 -0.6494348242113132 50.0
149.70004618102612 -0.649149910231587 60.00279366527175
149.7002352984829 -0.6482961281501926 70.00557994562507
149.700663407974 -0.6468744232355434 80.00835242093136
149.701521725459 -0.644881156732555 90.01110714813358
159.69408319841196 -0.7120861587374678 9.990881641296237
159.69316764948178 -0.7137747185360925 19.99314598673664
159.69269692377134 -0.7149749943321984 29.99542262863796
159.69248375610343 -0.7156969080097316 39.99770827085433
159.6924237483091 -0.7159382841589181 50.0
159.69248375610343 -0.7156969080097301 60.002291729145675
159.69269692377134 -0.7149749943321968 70.00457737136205
159.69316764948178 -0.7137747185360918 80.00685401326336
159.69408319841196 -0.712086158737468 90.00911835870376
169.68804927960525 -0.7806852327435204 9.992832175420398
169.68705770146758 -0.7821019247343323 19.99462753075392
169.68654283869589 -0.7831036429241038 29.996413069690263
169.686306249613 -0.7837091874572913 39.998202594931925
169.686238890582 -0.7839125570197157 50.0
169.686306249613 -0.7837091874572911 60.00179740506808
169.68654283869589 -0.7831036429241014 70.00358693030974
169.68705770146758 -0.7821019247343319 80.00537246924608
169.68804927960525 -0.7806852327435186 90.00716782457961
179.68323038819898 -0.8506427891040029 9.994791220830308
179.68216837346176 -0.851827357727162 19.9961029279589
179.68161400760408 -0.8526646821311995 29.997383522454232
179.68135590349996 -0.853176303483382 39.99868080805992
179.68128129343515 -0.853349429959189 50.0
179.68135590349996 -0.8531763034833793 60.001319191940084
179.68161400760408 -0.8526646821311974 70.00261647754577
179.68216837346176 -0.8518273577271602 80.0038970720411
179.68323038819898 -0.8506427891040012 90.00520877916969
189.67953093675249 -0.922341825513032 9.996806758768342
189.67841598594455 -0.9233520431192583 19.997538548282037
189.6778277974005 -0.9240660005180484 29.998287040435272
189.6775449662423 -0.9245089038489805 39.99911356297864
189.67746095940566 -0.9246602627534658 50.0
189.6775449662423 -0.9245089038489799 60.00088643702136
189.6778277974005 -0.9240660005180475 70.00171295956473
189.67841598594455 -0.923352043119256 80.00246145171796
189.67953093675249 -0.9223418255130299 90.00319324123166
199.74941638651924 9.004012853708577 9.999898402085137
199.74815410653056 9.00307460953743 19.99953439321932
199.7474468970181 9.002361181694107 29.99949705231193
199.7470892720933 9.001903920682844 39.99969037877214
199.74698005690792 9.001745523274897 50.0
199.7470892720933 9.001903920682844 60.00030962122787
199.7474468970181 9.002361181694111 70.00050294768808
199.74815410653056 9.003074609537434 80.00046560678068
199.74941638651924 9.00401285370858 90.00010159791486
199.81590418058346 19.007402298446028 10.000788099734768
199.8147472741871 19.006347232658452 20.00017793826386
199.81408355035643 19.005500085567505 29.999919762176972
199.81374358503797 19.00495565377725 39.999900840908545
199.81363925679463 19.00476812387002 50.0
199.81374358503797 19.00495565377725 60.000099159091455
199.81408355035643 19.00550008556751 70.00008023782303
199.8147472741871 19.006347232658452 79.99982206173614
199.81590418058346 19.007402298446028 89.99921190026524
199.87907786868246 29.010511019486845 10.000995311420358
199.87819694851527 29.009387649394384 20.000431381115835
199.87768744628 29.008419261017437 30.000127791991606
199.8774236061621 29.007788309548772 40.00001577565389
199.87734215530793 29.007570942150373 50.0
199.8774236061621 29.007788309548776 59.99998422434611
199.87768744628 29.008419261017437 69.9998722080084
199.87819694851527 29.009387649394387 79.99956861888417
199.87907786868246 29.01051101948685 89.99900468857965
199.94007458561262 39.01257920920024 10.000642676266269
199.93960082051794 39.01144485604851 20.000319385908462
199.93932516874497 39.010400098013896 30.00012623825901
199.93918174346894 39.009708641892345 40.000036418411575
199.93913730682348 39.00946963543983 50.0
199.93918174346894 39.009708641892345 59.999963581588425
199.93932516874497 39.010400098013896 69.99987376174099
199.93960082051794 39.01144485604851 79.99968061409155
199.94007458561262 39.01257920920024 89.99935732373373
199.99999999999895 49.01329936642398 10.000000000000014
199.99999999999895 49.01216623645398 20.000000000000007
199.99999999999892 49.01109699872561 30.000000000000004
199.99999999999892 49.010384168665844 40.0
199.99999999999892 49.01013738881777 50.0
199.99999999999892 49.010384168665844 60.0
199.99999999999892 49.01109699872561 70.0
199.99999999999895 49.01216623645398 80.0
199.99999999999895 49.013299366423986 89.99999999999999
200.05992541438525 59.01257920916757 9.999357323733753
200.0603991794799 59.01144485601584 19.99968061409155
200.06067483125287 59.010400097981226 29.999873761740993
200.0608182565289 59.009708641859675 39.999963581588425
200.06086269317433 59.00946963540716 50.0
200.0608182565289 59.009708641859675 60.000036418411575
200.06067483125287 59.010400097981226 70.00012623825901
200.0603991794799 59.01144485601585 80.00031938590845
200.05992541438525 59.01257920916757 90.00064267626625
200.12092213131567 69.01051101946061 9.999004688579648
200.12180305148286 69.00938764936815 19.999568618884165
200.12231255371813 69.00841926099119 29.99987220800839
200.122576393836 69.00778830952252 39.99998422434611
200.12265784469017 69.00757094212413 50.0
200.122576393836 69.00778830952254 60.00001577565389
200.12231255371813 69.0084192609912 70.00012779199162
200.12180305148286 69.00938764936815 80.00043138111583
200.12092213131564 69.01051101946061 90.00099531142035
200.18409581941526 79.00740229842258 9.999211900265223
200.1852527258116 79.00634723263501 19.999822061736133
200.1859164496423 79.00550008554406 30.000080237823024
200.18625641496075 79.0049556537538 40.000099159091455
200.1863607432041 79.00476812384657 50.0
200.18625641496075 79.0049556537538 59.99990084090855
200.1859164496423 79.00550008554406 69.99991976217697
200.1852527258116 79.00634723263501 80.00017793826387
200.18409581941526 79.00740229842259 90.00078809973478
200.2505836134801 89.00401285369233 10.000101597914853
200.25184589346878 89.00307460952118 20.000465606780672
200.25255310298124 89.00236118167786 30.000502947688066
200.25291072790606 89.00190392066659 40.00030962122786
200.25301994309143 89.00174552325865 50.0
200.25291072790606 89.00190392066659 59.99969037877214
200.25255310298124 89.00236118167786 69.99949705231194
200.25184589346878 89.00307460952118 79.99953439321934
200.2505836134801 89.00401285369233 89.99989840208515
190.32046906326391 99.07765817448605 10.003193241231633
190.32158401407187 99.07664795687982 20.002461451717945
190.32217220261592 99.07593399948104 30.00171295956472
190.32245503377413 99.0754910961501 40.00088643702135
190.32253904061076 99.07533973724561 50.0
190.32245503377413 99.0754910961501 59.99911356297865
190.32217220261592 99.07593399948104 69.99828704043529
190.32158401407187 99.07664795687982 79.99753854828205
190.32046906326391 99.07765817448605 89.99680675876837
180.31676961183385 99.14935721089422 10.005208779169642
180.31783162657106 99.14817264227106 20.003897072041063
180.31838599242872 99.14733531786703 30.002616477545743
180.31864409653284 99.14682369651486 40.00131919194007
180.31871870659768 99.14665057003904 50.0
180.31864409653284 99.14682369651486 59.99868080805993
180.31838599242872 99.14733531786703 69.99738352245426
180.31783162657106 99.14817264227106 79.99610292795893
180.31676961183382 99.14935721089422 89.99479122083035
170.31195072044403 99.21931476725386 10.007167824579529
170.3129422985817 99.21789807526307 20.005372469246023
170.3134571613534 99.2168963570733 30.0035869303097
170.31369375043627 99.21629081254011 40.00179740506806
170.3137611094673 99.2160874429777 50.0
170.31369375043627 99.21629081254012 59.99820259493194
170.3134571613534 99.2168963570733 69.9964130696903
170.3129422985817 99.21789807526307 79.99462753075397
170.31195072044403 99.21931476725386 89.99283217542047
160.30591680165378 99.28791384125911 10.009118358703663
160.30683235058396 99.2862252814605 20.006854013263286
160.3073030762944 99.28502500566441 30.00457737136199
160.3075162439623 99.28430309198689 40.00229172914565
160.30757625175664 99.2840617158377 50.0
160.3075162439623 99.28430309198689 59.99770827085435
160.3073030762944 99.28502500566441 69.99542262863801
160.30683235058396 99.2862252814605 79.9931459867367
160.30591680165378 99.28791384125911 89.99088164129634
150.29847827462342 99.35511884326327 10.011107148133453
150.29933659210843 99.3531255767603 20.00835242093127
150.2997647015995 99.35170387184567 30.005579945625012
150.2999538190563 99.35085008976428 40.00279366527172
150.3000060924361 99.35056517578455 50.0
150.2999538190563 99.35085008976428 59.99720633472828
150.2997647015995 99.35170387184567 69.99442005437498
150.29933659210843 99.3531255767603 79.99164757906873
150.29847827462342 99.35511884326327 89.98889285186655
140.28952102015427 99.4206993398681 10.013142014023664
140.29034029279907 99.41837609198612 20.00987766179087
140.29073258605925 99.41671777442313 30.006597375300824
140.29089900626988 99.4157226013114 40.00330268002083
140.29094367328074 99.41539078131419 50.0
140.29089900626988 99.4157226013114 59.99669731997917
140.29073258605925 99.41671777442313 69.99340262469917
140.29034029279907 99.41837609198612 79.99012233820913
140.28952102015427 99.4206993398681 89.98685798597633
130.27898745939729 99.48435435911604 10.015217247583053
130.27977878929397 99.48168429157104 20.011430253174964
130.28014104093242 99.4797797119151 30.007631237170333
130.2802866079985 99.47863771861087 40.003819360426995
130.2803239630989 99.47825716980329 50.0
130.2802866079985 99.47863771861087 59.996180639573
130.28014104093242 99.4797797119151 69.99236876282967
130.27977878929397 99.48168429157104 79.98856974682504
130.27898745939729 99.48435435911604 89.98478275241695
120.26685386367052 99.54575808252599 10.017322057302234
120.26761989411341 99.54273147356987 20.013005281572042
120.26795357794933 99.54057556268987 30.008679577398432
120.26807842308615 99.53928435185622 40.004343027775676
120.26810834243886 99.53885436303253 50.0
120.26807842308615 99.53928435185622 59.995656972224324
120.26795357794933 99.54057556268987 69.99132042260156
120.26761989411341 99.54273147356987 79.98699471842795
120.26685386367052 99.545758082526 89.98267794269776
110.25311449961013 99.6045773065061 10.019443570366551
110.25384917385297 99.6011902974649 20.014594076341183
110.25414979732224 99.59878219308456 30.009737106892068
110.25425093153021 99.59734212929564 40.0048711479483
110.2542723513046 99.5968629758301 50.0
110.25425093153021 99.59734212929564 59.99512885205169
110.25414979732224 99.59878219308456 69.99026289310792
110.25384917385297 99.6011902974649 79.98540592365882
110.25311449961013 99.6045773065061 89.98055642963345
100.23777340707953 99.66047624059318 10.021565131088439
100.23846109144996 99.65673042853986 20.016183318421437
100.23871721484011 99.65407380788916 30.01079431995445
100.23878779672583 99.65248836409701 40.005398718290884
100.23879845868846 99.65196143620695 50.0
100.23878779672583 99.65248836409701 59.99460128170911
100.23871721484011 99.65407380788916 69.98920568004554
100.23846109144996 99.65673042853986 79.98381668157856
100.23777340707953 99.66047624059318 89.97843486891156
90.22084107617916 99.71311621036611 10.023661171269527
90.22145457615345 99.70901955353169 20.017750962888897
90.22164713025356 99.70612389694823 30.01183448131757
90.22167641624841 99.70440064986096 40.0059166018358
90.22167292162285 99.70382882244502 50.0
90.22167641624841 99.70440064986096 59.99408339816419
90.22164713025356 99.70612389694823 69.98816551868242
90.22145457615345 99.70901955353169 79.9822490371111
90.22084107617916 99.71311621036611 89.97633882873048
80.20233400371981 99.76215331270292 10.025688014732264
80.20283161250434 99.75772278108929 20.019258192196208
80.20293396372092 99.75460593371538 30.0128274578831
80.20290845129014 99.75275842348309 40.00640812940016
80.20288685681511 99.75214672492075 50.0
80.20290845129014 99.75275842348309 59.99359187059984
80.20293396372092 99.75460593371538 69.9871725421169
80.20283161250434 99.75772278108929 79.9807418078038
80.20233400371981 99.76215331270292 89.97431198526773
70.18227573349414 99.80723560723685 10.027568743010372
70.18259805274897 99.802502232413 20.020635625394675
70.18257837552828 99.79919493355227 30.013718847502233
70.18248555759568 99.79724577669033 40.00684311659767
70.18244304101016 99.79660252908293 50.0
70.18248555759568 99.79724577669033 59.99315688340232
70.18257837552828 99.79919493355227 69.98628115249777
70.18259805274897 99.802502232413 79.97936437460532
70.18227573349412 99.80723560723686 89.97243125698962
60.16069806921364 99.8480017692774 10.029169044468558
60.16076667443431 99.84301960660723 20.021760380124626
60.16059605480865 99.83957300296802 30.014412326555945
60.16043330606795 99.83755913859613 40.007168136999645
60.160371895742344 99.8368976434466 50.0
60.16043330606795 99.83755913859613 59.992831863000355
60.16059605480865 99.83957300296802 69.98558767344406
60.160766674434306 99.84301960660723 79.97823961987537
60.16069806921364 99.8480017692774 89.97083095553144
50.137639497647044 99.88408460786019 10.030256675601906
50.13736259420138 99.87894518612868 20.022420228826554
50.13703507357297 99.87544443321802 30.014741978579398
50.13682727978742 99.87342469815243 40.00729326668647
50.13675974657938 99.87276632148202 50.0
50.13682727978742 99.87342469815243 59.99270673331353
50.13703507357297 99.87544443321802 69.9852580214206
50.13736259420138 99.87894518612868 79.97757977117344
50.137639497647044 99.88408460786019 89.9697433243981
40.11313639866311 99.9151319932585 10.030440213466123
40.112437270873656 99.9099974084621 20.022251081652605
40.112013404027664 99.90658122925419 30.014440998792477
40.111835642098505 99.90465017712397 40.00707768505955
40.11179390448875 99.90402509764775 50.0
40.111835642098505 99.90465017712397 59.99292231494045
40.112013404027664 99.90658122925419 69.98555900120752
40.112437270873656 99.9099974084621 79.9777489183474
40.11313639866311 99.9151319932585 89.96955978653388
30.087174865750743 99.9408542718806 10.029017181141297
30.086091057086932 99.9359918520781 20.02067720958679
30.085756655474086 99.93290582748472 30.01310591134522
30.085750902880303 99.93119037381928 40.00634459149629
30.085770649995943 99.93064498576345 50.0
30.085750902880303 99.93119037381928 59.99365540850371
30.085756655474082 99.93290582748472 69.98689408865478
30.086091057086932 99.9359918520781 79.9793227904132
30.087174865750743 99.9408542718806 89.9709828188587
20.059699425723057 99.96130107138536 10.02490313267108
20.058590757083664 99.95738421924788 20.016724037901735
20.05875420358049 99.95491039224557 30.010329655798564
20.058986970630528 99.95360610206248 40.004938627838264
20.059086662215403 99.9531945507036 50.0
20.058986970630528 99.95360610206248 59.995061372161736
20.05875420358049 99.95491039224557 69.98967034420143
20.058590757083664 99.95738421924788 79.98327596209826
20.059699425723057 99.96130107138536 89.97509686732892
10.02974820748248 99.97709771112791 10.015297503698465
10.030220197605685 99.97453322242428 20.00978486208886
10.030662175484219 99.97314354618712 30.00594864159659
10.031014001246486 99.97240422725858 40.00282367745127
10.031132050825057 99.97217319141018 50.0
10.031014001246486 99.97240422725858 59.99717632254873
10.030662175484219 99.97314354618712 69.99405135840341
10.030220197605685 99.97453322242428 79.99021513791114
10.02974820748248 99.97709771112791 89.98470249630154
0.0 90.00000000007105 10.0
0.0 90.00000000007105 20.0
0.0 90.00000000007105 30.0
0.0 90.00000000007105 40.0
0.0 90.00000000007105 50.0
0.0 90.00000000007105 60.0
0.0 90.00000000007105 70.0
0.0 90.00000000007105 80.0
0.0 90.00000000007105 90.0
0.0 80.00000000014211 10.0
0.0 80.00000000014211 20.0
0.0 80.00000000014211 30.0
0.0 80.00000000014211 40.0
0.0 80.00000000014211 50.0
0.0 80.00000000014211 60.0
0.0 80.00000000014211 70.0
0.0 80.00000000014211 80.0
0.0 80.00000000014211 90.0
0.0 70.00000000021316 10.0
0.0 70.00000000021316 20.0
0.0 70.00000000021316 30.0
0.0 70.00000000021316 40.0
0.0 70.00000000021316 50.0
0.0 70.00000000021316 60.0
0.0 70.00000000021316 70.0
0.0 70.00000000021316 80.0
0.0 70.00000000021316 90.0
0.0 60.00000000025813 10.0
0.0 60.00000000025813 20.0
0.0 60.00000000025813 30.0
0.0 60.00000000025813 40.0
0.0 60.00000000025813 50.0
0.0 60.00000000025813 60.0
0.0 60.00000000025813 70.0
0.0 60.00000000025813 80.0
0.0 60.00000000025813 90.0
0.0 50.00000000025813 10.0
0.0 50.00000000025813 20.0
0.0 50.00000000025813 30.0
0.0 50.00000000025813 40.0
0.0 50.00000000025813 50.0
0.0 50.00000000025813 60.0
0.0 50.00000000025813 70.0
0.0 50.00000000025813 80.0
0.0 50.00000000025813 90.0
0.0 40.00000000025814 10.0
0.0 40.00000000025814 20.0
0.0 40.00000000025814 30.0
0.0 40.00000000025814 40.0
0.0 40.00000000025814 50.0
0.0 40.00000000025814 60.0
0.0 40.00000000025814 70.0
0.0 40.00000000025814 80.0
0.0 40.00000000025814 90.0
0.0 30.00000000021316 10.0
0.0 30.00000000021316 20.0
0.0 30.00000000021316 30.0
0.0 30.00000000021316 40.0
0.0 30.00000000021316 50.0
0.0 30.00000000021316 60.0
0.0 30.00000000021316 70.0
0.0 30.00000000021316 80.0
0.0 30.00000000021316 90.0
0.0 20.00000000014211 10.0
0.0 20.00000000014211 20.0
0.0 20.00000000014211 30.0
0.0 20.00000000014211 40.0
0.0 20.00000000014211 50.0
0.0 20.00000000014211 60.0
0.0 20.00000000014211 70.0
0.0 20.00000000014211 80.0
0.0 20.00000000014211 90.0
0.0 10.00000000007105 10.0
0.0 10.00000000007105 20.0
0.0 10.00000000007105 30.0
0.0 10.00000000007105 40.0
0.0 10.00000000007105 50.0
0.0 10.00000000007105 60.0
0.0 10.00000000007105 70.0
0.0 10.00000000007105 80.0
0.0 10.00000000007105 90.0
9.975602546227718 9.990922242653237 100.02024397838915
9.982643567962482 19.995587133612716 100.01545972502146
9.988805402042408 29.99790752713342 100.01034862982287
9.994491003270484 39.99904003728342 100.00518130941751
10.00000000001541 49.999380005288444 99.99999999999987
10.005508996760362 59.99904003728174 99.99481869058224
10.011194597988426 69.99790752713199 99.9896513701769
10.017356432068361 79.9955871336114 99.98454027497837
10.024397453803159 89.9909222426522 99.9797560216107
19.952895985874328 9.975406695249733 100.02698630962134
19.967110419336887 19.9816696254676 100.02040489743716
19.97893347890629 29.985512921950587 100.0137486735441
19.98969814574785 39.98755552269417 100.00690886827164
20.00000000003286 49.9881940649145 99.99999999999986
20.01030185431789 59.987555522690755 99.99309113172806
20.021066521159465 69.9855129219477 99.98625132645563
20.03288958072888 79.9816696254649 99.97959510256264
20.047104014191493 89.9754066952477 99.97301369037851
29.93263503398994 9.955302227837635 100.02999147925837
29.95207941805613 19.96127240032658 100.02272991158164
29.969273539412637 29.96555751241516 100.01526926484388
29.984973476469744 39.968023180343714 100.00767763429221
30.00000000004695 49.968822633691055 99.99999999999986
30.015026523624204 59.968023180338584 99.9923223657075
30.030726460681336 69.96555751241078 99.98473073515586
30.047920582037868 79.96127240032249 99.97727008841818
30.067364966104126 89.95530222783451 99.97000852074152
39.913267751645364 9.92935208883553 100.03079588287093
39.93758781696081 19.935045131212167 100.02324374706258
39.95968429047837 29.939203065389883 100.01559986457272
39.98023065027974 39.941717336421156 100.00783325275017
40.000000000056566 49.942552100360636 99.99999999999987
40.01976934983345 59.94171733641428 99.99216674724956
40.04031570963489 69.93920306538398 99.98440013542707
40.062412183152496 79.93504513120658 99.97675625293728
40.08673224846804 89.92935208883114 99.969204117129
49.89468665113519 9.897829398545175 100.03034015302381
49.92367593851471 19.903198598240973 100.02284262139213
49.95041560722181 29.90712157544799 100.01529784921462
49.9756024501662 39.909511861626235 100.00767453866752
50.000000000066194 49.91031449552478 99.99999999999989
50.024397549966245 59.909511861617595 99.99232546133226
50.049584392910695 69.9071215754405 99.9847021507852
50.07632406161788 79.90319859823383 99.97715737860777
50.105313348997555 89.8978293985395 99.96965984697617
59.87693935532761 9.86108404975743 100.02913434551502
59.9104055261754 19.866133769805224 100.02189884217896
59.94156602487543 29.86979462468487 100.01464192046835
59.971174946995774 39.87202078664413 100.00733761380317
60.00000000007578 49.8727680110882 99.9999999999999
60.02882505315585 59.87202078663369 99.99266238619664
60.05843397527627 69.86979462467579 99.98535807953151
60.089594473976376 79.86613376979645 99.97810115782099
60.12306064482444 89.86108404975032 99.97086565448502
69.86013501554993 9.819537825065916 100.02749197571063
69.8978475122128 19.82426125508854 100.0206440102672
69.9331979172074 29.827663495889716 100.01378709202467
69.96698893439968 39.82972249040019 100.0069036143411
70.00000000009726 49.83041226407999 99.99999999999993
70.03301106579492 59.82972249038801 99.99309638565876
70.06680208298732 69.82766349587905 99.98621290797524
70.10215248798205 79.82426125507813 99.97935598973278
70.13986498464519 89.81953782505738 99.97250802428945
79.84437542150243 9.77360109293605 100.02560269890255
79.8860682024037 19.77798969728988 100.01921346066592
79.92535365574548 29.781137083703744 100.0128220508054
79.96306712620868 39.783034546628784 100.00641675048877
80.00000000009848 49.78366882146852 99.99999999999994
80.03693287398836 59.78303454661486 99.99358324951113
80.07464634445165 69.78113708369156 99.98717794919455
80.11393179779361 79.77798969727802 99.98078653933409
80.15562457869517 89.7736010929263 99.97439730109755
89.82974138188503 9.723664416873987 100.0235804421192
89.87512395619373 19.727708636274897 100.01768858340294
89.91806720933405 29.730601647701043 100.0117985086558
89.95942560464495 39.732341213779335 100.00590225526987
90.00000000009027 49.732921802889784 99.99999999999996
90.04057439553564 59.73234121376372 99.99409774473006
90.08193279084658 69.73060164768737 99.98820149134417
90.12487604398714 79.72770863626164 99.98231141659708
90.17025861829613 89.7236644168631 99.97641955788092
99.81629177525967 9.670098451059223 100.02149216865641
99.86505903322218 19.673789334733435 100.01611703430825
99.91136632528483 29.676425117836654 100.0107462787722
99.95607749317156 39.678007000458386 100.0053743388842
100.00000000008197 49.6785343193552 99.99999999999997
100.04392250699246 59.678007000441035 99.99462566111576
100.08863367487929 69.67642511782152 99.9892537212278
100.13494096694217 79.6737893347188 99.9838829656918
100.183708224905 89.67009845104725 99.97850783134372
109.80406723867208 9.6132593537079 100.01937664186312
109.85590679163008 19.616588658923508 100.01452600938364
109.90527378355402 29.618961605378423 100.0096819095921
109.95303421167341 39.62038260324342 100.00484066931845
110.00000000007368 49.620855615247564 99.99999999999999
110.04696578847413 59.62038260322437 99.99515933068153
110.09472621659359 69.61896160536186 99.99031809040791
110.14409320851777 79.61658865890745 99.98547399061643
110.19593276147602 89.61325935369481 99.98062335813702
119.79309468177232 9.553494582293302 100.01725636042399
119.8476926836419 19.556453875875135 100.01293023668245
119.89980949484303 29.55855495963218 100.00861353995799
119.95030669925988 39.55980797057522 100.00430467020318
120.00000000006548 49.56022397612193 100.0
120.04969330087103 59.55980797055446 99.99569532979683
120.10019050528801 69.55855495961416 99.99138646004204
120.1523073164894 79.55645387585771 99.98706976331763
120.20690531835932 89.5534945822791 99.98274363957617
129.78339136612007 9.491147851675166 100.01514475156426
129.84043854982482 19.493726617026635 100.01133628122415
129.89499401888884 29.495541283276452 100.00754311371682
129.94790737957345 39.496613771652065 100.00376642625783
130.00000000005716 49.49696786767907 100.0
130.05209262054095 59.49661377162967 99.9962335737422
130.1050059812257 69.4955412832571 99.99245688628322
130.15956145028989 79.49372661700801 99.98866371877595
130.2166086339951 89.49114785166013 99.98485524843588
139.77496830606336 9.426562106196384 100.01304959659237
139.8341681058114 19.428745004790343 100.00974362124435
139.890853384235 29.43025019819417 100.00646632038448
139.94585276952637 39.43112242284755 100.0032224427961
140.00000000004886 49.43140699813192 100.00000000000001
140.05414723057123 59.431122422823634 99.99677755720394
140.10914661586273 69.43025019817374 99.99353367961558
140.16583189428678 79.42874500477092 99.99025637875573
140.22503169403518 89.42656210618101 99.98695040340776
149.76783351970064 9.360077784012818 100.01097265032581
149.82891355113134 19.361841967937877 100.00814233483668
149.8874239303313 29.363004986491394 100.00537040978898
149.94416546431205 39.36365130039066 100.0026644504925
150.00000000004053 49.363856990495336 100.00000000000001
150.05583453576898 59.36365130036527 99.99733554950754
150.11257606975 69.36300498646993 99.99462959021108
150.17108644895026 79.36184196791773 99.9918576651634
150.23216648038135 89.36007778399723 99.9890273496743
159.76199691417767 9.292019193022682 100.00890346954284
159.82472166920775 19.293335084063617 100.00650711047955
159.88475227024276 29.29412333540166 100.00423029372753
159.9428716167365 39.294525297002295 100.00207781325189
160.0000000000322 49.29464710407341 100.00000000000001
160.05712838332786 59.2945252969754 99.99792218674816
160.11524772982185 69.29412333537921 99.99576970627253
160.17527833085725 79.29333508404271 99.99349288952052
160.23800308588773 89.29201919300691 99.99109653045724
169.75748001529385 9.222649484820225 100.0068061308704
169.8216502946927 19.22350155761762 100.0047881972336
169.88287728213362 29.223925984998317 100.00300608682663
169.94198497143844 39.224116470040066 100.00144027106695
170.00000000002385 49.224171348895716 100.00000000000001
170.05801502860936 59.22411647001171 99.99855972893309
170.11712271791433 69.22392598497487 99.99699391317341
170.1783497053557 79.22350155759605 99.99521180276646
170.24251998475486 89.22264948480426 99.99319386912968
179.75432770573656 9.152061590880312 100.00458596474506
179.81972673493547 19.1525342433128 100.00291358641151
179.88176457530292 29.152788609700448 100.00164290393131
179.94146851074993 39.15294897350608 100.00072233516154
180.00000000001555 49.153006489728824 100.00000000000001
180.05853148928117 59.152948973476285 99.99927766483849
180.1182354247284 69.15278860967605 99.99835709606872
180.1802732650963 79.15253424329059 99.99708641358855
180.24567229429573 89.15206159086426 99.99541403525501
189.75258079497976 9.079904328825673 100.00216372704925
189.81875272992139 19.080575178800125 100.0008044995845
189.8811775100747 29.081335167256533 100.00008143693806
189.9411842008773 39.08191604117815 99.9999008524488
190.0000000000073 49.082131033231455 100.0
190.05881579913714 59.0819160411469 100.00009914755121
190.11882248994 69.08133516723122 99.99991856306197
190.18124727009382 79.08057517877728 99.99919550041552
190.24741920503598 89.07990432880948 99.99783627295079
9.98148149075549 9.987377313208006 9.987841865715373
9.981948647365401 9.985592372124906 19.99221282370163
9.982075955409751 9.984552924700244 29.99523375364061
9.982052491229659 9.984027527174302 39.99772589363178
9.98203859566467 9.983864782560042 50.0
9.982052491229659 9.984027527174302 60.00227410636822
9.982075955409751 9.984552924700244 70.0047662463594
9.981948647365401 9.985592372124906 80.00778717629836
9.98148149075549 9.987377313208006 90.01215813428463
9.987005444557774 19.992082817265526 9.990802773964047
9.987432857827706 19.990431773029478 19.994112748314045
9.987595760100128 19.989517698165745 29.996410647460607
9.987619014209164 19.989048582828037 39.998288047642156
9.98762206743947 19.98890536883032 50.0
9.987619014209164 19.989048582828037 60.001711952357844
9.987595760100128 19.989517698165745 70.0035893525394
9.987432857827706 19.990431773029478 80.00588725168595
9.987005444557774 19.992082817265526 90.00919722603595
9.991744260057645 29.994386008624254 9.99380827733736
9.992034109260254 29.992809486387234 19.996042562825156
9.992159819309846 29.991949010536786 29.997591129604796
9.992186955610327 29.99151216587547 39.99885382673951
9.992193128740979 29.991377618425823 50.0
9.992186955610327 29.99151216587547 60.00114617326049
9.992159819309846 29.991949010536786 70.0024088703952
9.992034109260254 29.992809486387234 80.00395743717485
9.991744260057645 29.994386008624254 90.00619172266263
9.995966333906726 39.99549857308075 9.996891407443428
9.996111377935266 39.993946032190834 19.998008366084743
9.996175493004792 39.99311730451841 29.99878919775344
9.996190923383635 39.99269896710404 39.999424426422244
9.996194681075337 39.992570595665164 50.0
9.996190923383635 39.99269896710404 60.000575573577756
9.996175493004792 39.99311730451841 70.00121080224656
9.996111377935266 39.993946032190834 80.00199163391525
9.995966333906726 39.99549857308075 90.00310859255657
10.000000000015374 49.995832407573246 10.000000000000073
10.00000000001537 49.99428473669186 20.000000000000046
10.000000000015369 49.993465414975354 30.00000000000003
10.000000000015369 49.99305372786155 40.000000000000014
10.000000000015369 49.99292739175596 50.0
10.000000000015369 49.99305372786155 59.999999999999986
10.000000000015369 49.993465414975354 69.99999999999997
10.00000000001537 49.99428473669186 79.99999999999996
10.000000000015374 49.995832407573246 89.99999999999993
10.004033666124048 59.99549857307906 10.003108592556721
10.0038886220955 59.99394603218914 20.001991633915353
10.003824507025973 59.99311730451671 30.00121080224662
10.003809076647128 59.99269896710235 40.000575573577784
10.003805318955425 59.992570595663466 50.0
10.003809076647128 59.99269896710235 59.999424426422216
10.003824507025973 59.99311730451671 69.99878919775338
10.0038886220955 59.99394603218914 79.99800836608465
10.004033666124048 59.99549857307906 89.99689140744329
10.008255739973128 69.99438600862281 10.006191722662779
10.007965890770512 69.99280948638578 20.003957437174932
10.007840180720919 69.99194901053534 30.002408870395257
10.007813044420436 69.99151216587401 40.00114617326051
10.007806871289786 69.99137761842437 50.0
10.007813044420436 69.99151216587401 59.99885382673949
10.007840180720919 69.99194901053534 69.99759112960474
10.007965890770512 69.99280948638578 79.99604256282507
10.008255739973128 69.99438600862281 89.99380827733722
10.012994555473027 79.99208281726419 10.009197226036079
10.012567142203087 79.99043177302813 20.005887251686037
10.012404239930664 79.98951769816439 30.003589352539443
10.012380985821627 79.98904858282667 40.001711952357866
10.012377932591324 79.98890536882895 50.0
10.012380985821627 79.98904858282667 59.998288047642134
10.012404239930664 79.98951769816439 69.99641064746055
10.012567142203087 79.99043177302813 79.99411274831397
10.012994555473027 79.99208281726419 89.99080277396392
10.018518509275367 89.98737731320696 10.012158134284753
10.018051352665452 89.98559237212383 20.00778717629845
10.017924044621102 89.98455292469916 30.00476624635944
10.017947508801196 89.98402752717321 40.00227410636825
10.017961404366185 89.98386478255895 50.0
10.017947508801196 89.98402752717321 59.99772589363175
10.017924044621102 89.98455292469916 69.99523375364056
10.018051352665452 89.98559237212383 79.99221282370155
10.018518509275367 89.98737731320696 89.98784186571525
19.957025233376992 9.970013541737618 9.979918038829616
19.95872984575137 9.9664905338096 19.98644539893624
19.959098416491067 9.964411337101597 29.991587899879534
19.959184302983246 9.96330289537552 39.99596243417065
19.959191119681186 9.962957095432804 50.0
19.959184302983246 9.96330289537552 60.00403756582935
19.959098416491067 9.964411337101597 70.00841210012047
19.95872984575137 9.9664905338096 80.01355460106376
19.957025233376992 9.970013541737618 90.02008196117039
19.970260431004366 19.976578977950375 9.98472870034584
19.971763119234343 19.97345346821889 19.989709207349602
19.97220864431979 19.971629603251888 29.99361309192667
19.972371229019917 19.970666813392562 39.99693519834315
19.972408049907894 19.970365437903798 50.0
19.972371229019917 19.970666813392562 60.00306480165685
19.97220864431979 19.971629603251888 70.00638690807332
19.971763119234343 19.97345346821889 80.0102907926504
19.970260431004366 19.976578977950375 90.01527129965416
19.981051825630107 29.98043953973649 9.989701535650003
19.9820764331028 29.977481554058336 19.99305596944819
19.9824100481744 29.975803753522953 29.995696516628794
19.982543096846886 29.974922582094578 39.997936790863335
19.98257618344815 29.974647737285654 50.0
19.982543096846886 29.974922582094578 60.002063209136665
19.9824100481744 29.975803753522953 70.0043034833712
19.9820764331028 29.977481554058336 80.00694403055181
19.981051825630107 29.98043953973649 90.01029846435
19.990764702376048 39.98245821795287 9.994815811930566
19.99128094339964 39.97956656878987 19.99650179366868
19.99145315405193 39.977960503644745 29.99783244409172
19.991524700561893 39.97712518070883 39.99896166085109
19.991543013521888 39.976865065902494 50.0
19.991524700561893 39.97712518070883 60.00103833914891
19.99145315405193 39.977960503644745 70.00216755590827
19.99128094339964 39.97956656878987 80.00349820633132
19.990764702376048 39.98245821795287 90.00518418806944
20.000000000032834 49.983085525144354 10.00000000000011
20.000000000032824 49.980210104099875 20.000000000000075
20.00000000003282 49.978625530278414 30.000000000000046
20.00000000003282 49.97780483133545 40.00000000000002
20.00000000003282 49.97754969215572 50.0
20.00000000003282 49.97780483133545 59.99999999999998
20.00000000003282 49.978625530278414 69.99999999999996
20.000000000032824 49.980210104099875 79.99999999999993
20.000000000032834 49.983085525144354 89.99999999999989
20.00923529768965 59.98245821794944 10.00518418806966
20.00871905666603 59.979566568786446 20.00349820633147
20.00854684601374 59.97796050364131 30.002167555908375
20.00847529950377 59.97712518070539 40.001038339148955
20.008456986543774 59.97686506589906 50.0
20.00847529950377 59.97712518070539 59.998961660851045
20.00854684601374 59.97796050364131 69.99783244409163
20.00871905666603 59.979566568786446 79.99650179366853
20.00923529768965 59.98245821794944 89.99481581193034
20.018948174435614 69.98043953973361 10.010298464350196
20.017923566962903 69.97748155405543 20.006944030551946
20.017589951891296 69.97580375352004 30.00430348337129
20.01745690321881 69.97492258209166 40.00206320913671
20.017423816617548 69.97464773728274 50.0
20.01745690321881 69.97492258209166 59.99793679086329
20.017589951891296 69.97580375352004 69.99569651662871
20.017923566962903 69.97748155405543 79.99305596944805
20.018948174435614 69.98043953973361 89.9897015356498
20.029739569061398 79.97657897794765 10.015271299654323
20.02823688083141 79.97345346821615 20.010290792650515
20.027791355745958 79.97162960324913 30.006386908073406
20.02762877104583 79.9706668133898 40.00306480165688
20.027591950157852 79.97036543790104 50.0
20.02762877104583 79.9706668133898 59.99693519834312
20.027791355745958 79.97162960324913 69.99361309192659
20.02823688083141 79.97345346821615 79.98970920734948
20.029739569061398 79.97657897794765 89.98472870034567
20.042974766688857 89.97001354173555 10.020081961170524
20.04127015431448 89.96649053380752 20.01355460106387
20.040901583574783 89.96441133709949 30.008412100120538
20.0408156970826 89.9633028953734 40.004037565829385
20.04080888038466 89.96295709543068 50.0
20.0408156970826 89.9633028953734 59.995962434170615
20.040901583574783 89.96441133709949 69.99158789987946
20.04127015431448 89.96649053380752 79.98644539893613
20.042974766688857 89.97001354173555 89.97991803882948
29.93460072185794 9.948957692492542 9.97663231646885
29.93599450582244 9.944550262675007 19.98324144570239
29.936624171547184 9.941757192463546 29.989324023028797
29.93683935427616 9.94022930562256 39.99481507675227
29.93689215312614 9.939743391033828 50.0
29.93683935427616 9.94022930562256 60.00518492324773
29.936624171547184 9.941757192463546 70.0106759769712
29.93599450582244 9.944550262675007 80.01675855429761
29.93460072185794 9.948957692492543 90.02336768353115
29.95365254565131 19.95522140778003 9.982245621527218
29.954885448242827 19.95118312747546 19.987252697757576
29.95552842663658 19.94864973302855 29.991873785728057
29.9557890561216 19.947272642220018 39.99605058719508
29.955861526089066 19.946835840060476 50.0
29.9557890561216 19.947272642220018 60.00394941280492
29.95552842663658 19.94864973302855 70.00812621427194
29.954885448242823 19.95118312747546 80.01274730224242
29.95365254565131 19.95522140778003 90.01775437847279
29.970335820667877 29.959553881336475 9.988029367438827
29.971211162061465 29.955730729368515 19.991399347950995
29.971691572676175 29.953378295391367 29.99451879039303
29.971900409119172 29.952109055467076 39.99733704284046
29.971960406209888 29.95170731233252 50.0
29.971900409119172 29.952109055467076 60.00266295715954
29.971691572676175 29.953378295391367 70.00548120960697
29.971211162061465 29.955730729368515 80.008600652049
29.970335820667877 29.959553881336475 90.01197063256117
29.985507054536832 39.96200367581754 9.993972336343276
29.985952805238952 39.9582679895623 19.995665625386355
29.98620305917679 39.95601196406971 29.997238045086462
29.986314800847417 39.95480473455904 39.998658635702846
29.98634747316699 39.954423637582586 50.0
29.986314800847417 39.95480473455904 60.001341364297154
29.98620305917679 39.95601196406971 70.00276195491354
29.985952805238952 39.9582679895623 80.00433437461365
29.985507054536832 39.96200367581754 90.00602766365672
30.00000000004694 49.962792463616104 10.000000000000115
30.000000000046928 49.95908041051086 20.000000000000085
30.000000000046924 49.95685345285153 30.000000000000053
30.00000000004692 49.95566642704874 40.00000000000003
30.00000000004692 49.9552921576509 50.0
30.00000000004692 49.95566642704874 59.99999999999997
30.000000000046924 49.95685345285153 69.99999999999994
30.000000000046928 49.95908041051086 79.99999999999991
30.00000000004694 49.962792463616104 89.99999999999989
30.014492945557098 59.96200367581241 10.006027663656958
30.014047194854964 59.958267989557164 20.004334374613812
30.013796940917114 59.95601196406457 30.002761954913645
30.01368519924648 59.954804734553896 40.001341364297204
30.013652526926908 59.95442363757744 50.0
30.01368519924648 59.954804734553896 59.998658635702796
30.013796940917114 59.95601196406457 69.99723804508635
30.014047194854964 59.958267989557164 79.99566562538618
30.014492945557098 59.96200367581241 89.99397233634303
30.029664179426092 69.9595538813321 10.011970632561372
30.028788838032494 69.95573072936412 20.00860065204915
30.028308427417777 69.95337829538697 30.005481209607066
30.028099590974776 69.95210905546267 40.00266295715958
30.02803959388406 69.95170731232811 50.0
30.028099590974776 69.95210905546267 59.997337042840414
30.028308427417777 69.95337829538697 69.99451879039293
30.028788838032494 69.95573072936412 79.99139934795085
30.029664179426092 69.9595538813321 89.98802936743863
30.046347454442706 79.95522140777592 10.017754378472931
30.04511455185119 79.95118312747132 20.012747302242538
30.044471573457436 79.94864973302441 30.008126214272018
30.044210943972413 79.94727264221586 40.003949412804964
30.044138474004946 79.94683584005632 50.0
30.044210943972413 79.94727264221586 59.996050587195036
30.044471573457436 79.94864973302441 69.99187378572798
30.04511455185119 79.95118312747132 79.98725269775746
30.046347454442706 79.95522140777592 89.98224562152707
30.065399278236168 89.9489576924894 10.023367683531259
30.064005494271683 89.94455026267184 20.016758554297702
30.063375828546942 89.94175719246037 30.01067597697127
30.063160645817963 89.94022930561937 40.00518492324776
30.063107846967977 89.93974339103063 50.0
30.063160645817963 89.94022930561937 59.99481507675224
30.063375828546942 89.94175719246037 69.98932402302873
30.064005494271683 89.94455026267184 79.98324144570229
30.065399278236168 89.9489576924894 89.97663231646874
39.91382866947937 9.922677665575428 9.975540302054558
39.914601099494455 9.917858477751267 19.98200297631317
39.915142758771545 9.914684598508051 29.988264053844528
39.91541582209323 9.91289729719971 39.99423058281394
39.9154940701371 9.912321990293927 50.0
39.91541582209323 9.91289729719971 60.00576941718606
39.915142758771545 9.914684598508051 70.01173594615547
39.914601099494455 9.917858477751269 80.01799702368683
39.91382866947937 9.922677665575428 90.02445969794545
39.93804975703634 19.928580294893376 9.981475517037161
39.938751359227695 19.92404311753709 19.98634091768627
39.9392686849464 19.921084733202175 29.991077908769395
39.93954629173825 19.91942728540039 39.995609717250574
39.939629399938156 19.918894956287872 50.0
39.93954629173825 19.91942728540039 60.004390282749426
39.9392686849464 19.921084733202175 70.0089220912306
39.938751359227695 19.92404311753709 80.01365908231374
39.93804975703634 19.92858029489338 90.01852448296283
39.960001335312484 29.932788406619466 9.987534019177334
39.96051253379573 29.92843288570266 19.99079755398356
39.96090241100473 29.92563700246437 29.99398700344233
39.961117462375974 29.92408037638009 39.99704075173399
39.96118320862163 29.923581686809257 50.0
39.961117462375974 29.92408037638009 60.00295924826601
39.96090241100473 29.92563700246437 70.00601299655767
39.96051253379573 29.92843288570266 80.00920244601645
39.960001335312484 29.932788406619466 90.01246598082267
39.98038898421747 39.93529557296068 9.993729075312283
39.98065467457259 39.93102781830661 19.995366586371464
39.98086051559212 39.9283260258503 29.996972065336564
39.98097569591344 39.92683166973839 39.99850996885422
39.98101125105159 39.9263540308196 50.0
39.98097569591344 39.92683166973839 60.00149003114578
39.98086051559212 39.9283260258503 70.00302793466344
39.98065467457259 39.93102781830661 80.00463341362854
39.98038898421747 39.93529557296068 90.00627092468771
40.000000000056566 49.93612296856166 10.000000000000108
40.00000000005656 49.93187954658364 20.000000000000078
40.00000000005656 49.92920753012474 30.000000000000053
40.00000000005655 49.92773385615846 40.00000000000003
40.00000000005655 49.92726333705175 50.0
40.00000000005655 49.92773385615846 59.99999999999997
40.00000000005656 49.92920753012474 69.99999999999994
40.00000000005656 49.93187954658364 79.99999999999991
40.000000000056566 49.93612296856166 89.99999999999989
40.01961101589572 59.935295572953805 10.006270924687934
40.019345325540584 59.931027818299725 20.004633413628696
40.019139484521055 59.92832602584342 30.00302793466354
40.01902430419973 59.9268316697315 40.00149003114583
40.01898874906158 59.92635403081271 50.0
40.01902430419973 59.9268316697315 59.99850996885417
40.019139484521055 59.92832602584342 69.99697206533646
40.019345325540584 59.931027818299725 79.9953665863713
40.01961101589572 59.935295572953805 89.99372907531206
40.039998664800784 69.93278840661355 10.012465980822842
40.039487466317546 69.92843288569674 20.009202446016573
40.039097589108536 69.92563700245844 30.006012996557754
40.03888253773729 69.92408037637415 40.00295924826605
40.03881679149164 69.92358168680332 50.0
40.03888253773729 69.92408037637415 59.99704075173394
40.039097589108536 69.92563700245844 69.99398700344224
40.039487466317546 69.92843288569674 79.99079755398343
40.039998664800784 69.93278840661355 89.98753401917716
40.061950243076986 79.92858029488778 10.018524482962956
40.061248640885644 79.92404311753148 20.013659082313822
40.06073131516694 79.92108473319657 30.00892209123067
40.060453708375086 79.91942728539476 40.00439028274946
40.06037060017519 79.91889495628224 50.0
40.060453708375086 79.91942728539476 59.99560971725054
40.06073131516694 79.92108473319657 69.99107790876933
40.061248640885644 79.92404311753148 79.98634091768618
40.061950243076986 79.92858029488778 89.98147551703704
40.086171330634066 89.92267766557103 10.024459697945508
40.085398900619005 89.91785847774686 20.01799702368689
40.08485724134192 89.91468459850364 30.011735946155515
40.084584178020236 89.91289729719529 40.00576941718609
40.084505929976366 89.9123219902895 50.0
40.084584178020236 89.91289729719529 59.99423058281391
40.08485724134192 89.91468459850364 69.98826405384449
40.085398900619005 89.91785847774686 79.98200297631311
40.086171330634066 89.92267766557103 89.9755403020545
49.89433915701016 9.89115634188872 9.975719214427407
49.89456612302564 9.886235937933385 19.981907513771795
49.89488968548314 9.88290977085144 29.98805313332551
49.895112460355115 9.880999944032991 39.99407373801222
49.89518803677323 9.880378527447073 50.0
49.895112460355115 9.880999944032991 60.00592626198778
49.89488968548314 9.88290977085144 70.01194686667449
49.89456612302564 9.886235937933385 80.0180924862282
49.89433915701016 9.89115634188872 90.0242807855726
49.92342314532399 19.896675352718017 9.981669186479461
49.92363258397023 19.8919451225125 19.986306533985367
49.92392202816375 19.88877772029094 29.99094041439669
49.92412451511095 19.886967483239783 39.995500634099926
49.92419423273451 19.886379565858448 50.0
49.92412451511095 19.886967483239783 60.004499365900074
49.92392202816375 19.88877772029094 70.00905958560331
49.92363258397023 19.8919451225125 80.01369346601463
49.92342314532399 19.896675352718017 90.01833081352054
49.95024485107489 29.900639083571296 9.987694226655103
49.95040836346849 29.896043769737673 19.990795951395125
49.95062598764245 29.893000670251283 29.993905980547904
49.95077837953422 29.891271057605802 39.99697218303221
49.950831016338086 29.890710492881972 50.0
49.95077837953422 29.891271057605802 60.00302781696779
49.95062598764245 29.893000670251283 70.00609401945209
49.95040836346849 29.896043769737673 80.00920404860487
49.95024485107489 29.900639083571296 90.01230577334489
49.975515605641085 39.90302820052312 9.993817920133921
49.97560370374243 39.89850309708185 19.995372125188123
49.975719939867446 39.89553635157229 29.996934946541607
49.975801254450886 39.89385830595108 39.99847695882361
49.97582937762795 39.89331550876857 50.0
49.975801254450886 39.89385830595108 60.00152304117639
49.975719939867446 39.89553635157229 70.00306505345839
49.97560370374243 39.89850309708185 80.00462787481187
49.975515605641085 39.90302820052312 90.00618207986608
50.000000000066194 49.90382644832303 10.000000000000094
50.000000000066194 49.89932244988169 20.00000000000007
50.000000000066194 49.896380777118395 30.000000000000046
50.00000000006619 49.89472036736891 40.00000000000002
50.00000000006619 49.894183687902135 50.0
50.00000000006619 49.89472036736891 59.99999999999998
50.000000000066194 49.896380777118395 69.99999999999996
50.000000000066194 49.89932244988169 79.99999999999993
50.000000000066194 49.90382644832303 89.9999999999999
50.02448439449136 59.90302820051448 10.006182079866262
50.024396296390016 59.89850309707321 20.004627874812016
50.024280060265 59.89553635156365 30.003065053458485
50.02419874568156 59.89385830594244 40.00152304117644
50.02417062250449 59.893315508759926 50.0
50.02419874568156 59.89385830594244 59.99847695882356
50.024280060265 59.89553635156365 69.99693494654151
50.024396296390016 59.89850309707321 79.99537212518798
50.02448439449136 59.90302820051448 89.99381792013374
50.04975514905762 69.9006390835638 10.012305773345037
50.04959163666402 69.89604376973018 20.009204048604982
50.04937401249006 69.89300067024378 30.006094019452167
50.04922162059829 69.8912710575983 40.00302781696782
50.049168983794424 69.89071049287446 50.0
50.04922162059829 69.8912710575983 59.99697218303217
50.04937401249006 69.89300067024378 69.99390598054784
50.04959163666402 69.89604376973018 79.99079595139501
50.04975514905762 69.9006390835638 89.98769422665497
50.07657685480863 79.89667535271087 10.01833081352062
50.0763674161624 79.89194512250536 20.013693466014697
50.076077971968886 79.88877772028378 30.009059585603353
50.0758754850217 79.88696748323262 40.004499365900095
50.07580576739814 79.88637956585129 50.0
50.0758754850217 79.88696748323262 59.995500634099905
50.076077971968886 79.88877772028378 69.99094041439665
50.0763674161624 79.89194512250536 79.9863065339853
50.07657685480863 79.89667535271087 89.98166918647938
50.105660843122614 89.89115634188306 10.024280785572612
50.10543387710715 89.88623593792772 20.018092486228223
50.105110314649664 89.88290977084577 30.011946866674506
50.1048875397777 89.88099994402732 40.005926261987796
50.10481196335958 89.8803785274414 50.0
50.1048875397777 89.88099994402732 59.994073738012204
50.105110314649664 89.88290977084577 69.9880531333255
50.10543387710715 89.88623593792772 79.98190751377177
50.105660843122614 89.89115634188306 89.97571921442739
59.87602469345371 9.854617536717582 9.976616222267698
59.87583877021338 9.849778693983787 19.982474571973206
59.87593453252368 9.846453027042182 29.98835190574242
59.87606053720554 9.844517246990208 39.9941936839542
59.87611164317885 9.843882745959299 50.0
59.87606053720554 9.844517246990208 60.0058063160458
59.87593453252368 9.846453027042182 70.01164809425758
59.87583877021338 9.849778693983787 80.0175254280268
59.87602469345371 9.854617536717582 90.0233837777323
59.90970466809796 19.85976989447967 9.982386681025787
59.909542125318225 19.855054749948362 19.986769422205164
59.909604896202005 19.851837270777438 29.99118971826669
59.909701123010805 19.84997235110963 39.99560311145475
59.909741251828386 19.84936212832137 50.0
59.909701123010805 19.84997235110963 60.00439688854525
59.909604896202005 19.851837270777438 70.0088102817333
59.909542125318225 19.855054749948362 80.01323057779483
59.90970466809796 19.85976989447967 90.01761331897421
59.94109034629068 29.863462966331394 9.988201463405456
59.94098433589093 29.85884000520767 19.9911269661608
59.94102953762552 29.855709441796684 29.994086320816162
59.941096927247 29.853902609213705 39.997047069660624
59.94112509746544 29.853312482551782 50.0
59.941096927247 29.853902609213705 60.002952930339376
59.94102953762552 29.855709441796684 70.00591367918383
59.94098433589093 29.85884000520767 80.0088730338392
59.94109034629068 29.863462966331394 90.01179853659454
59.97093425522103 39.86569097889656 9.994080698221955
59.970883003897285 39.861118828429575 19.99554504082271
59.970907897586834 39.858043602278876 29.997029740718254
59.97094316765061 39.85627484469213 39.9985165252388
59.97095781049658 39.85569799820483 50.0
59.97094316765061 39.85627484469213 60.0014834747612
59.970907897586834 39.858043602278876 70.00297025928174
59.970883003897285 39.861118828429575 80.0044549591773
59.97093425522103 39.86569097889656 90.00591930177805
60.00000000007579 49.866436099693864 10.000000000000076
60.00000000007579 49.86187965995752 20.000000000000057
60.00000000007579 49.85882306218291 30.00000000000004
60.00000000007579 49.857067524622835 40.00000000000002
60.00000000007579 49.856495310223174 50.0
60.00000000007579 49.857067524622835 59.99999999999998
60.00000000007579 49.85882306218291 69.99999999999996
60.00000000007579 49.86187965995752 79.99999999999994
60.00000000007579 49.866436099693864 89.99999999999993
60.0290657449306 59.86569097888612 10.005919301778194
60.029116996254345 59.86111882841914 20.004454959177405
60.029092102564796 59.85804360226844 30.00297025928182
60.02905683250102 59.85627484468169 40.00148347476124
60.02904218965505 59.855697998194394 50.0
60.02905683250102 59.85627484468169 59.99851652523876
60.029092102564796 59.85804360226844 69.99702974071818
60.029116996254345 59.86111882841914 79.99554504082259
60.0290657449306 59.86569097888612 89.99408069822181
60.058909653861036 69.86346296632232 10.01179853659465
60.059015664260784 69.8588400051986 20.00887303383928
60.058970462526204 69.85570944178761 30.00591367918389
60.05890307290472 69.85390260920462 40.002952930339404
60.05887490268629 69.8533124825427 50.0
60.05890307290472 69.85390260920462 59.997047069660596
60.058970462526204 69.85570944178761 69.99408632081611
60.059015664260784 69.8588400051986 79.99112696616072
60.058909653861036 69.86346296632232 89.98820146340535
60.09029533205384 79.8597698944709 10.017613318974258
60.09045787483358 79.8550547499396 20.01323057779487
60.09039510394981 79.85183727076867 30.008810281733336
60.09029887714102 79.84997235110086 40.004396888545266
60.090258748323436 79.8493621283126 50.0
60.09029887714102 79.84997235110086 59.995603111454734
60.09039510394981 79.85183727076867 69.99118971826667
60.09045787483358 79.8550547499396 79.98676942220513
60.09029533205384 79.8597698944709 89.98238668102574
60.12397530669837 89.85461753671048 10.023383777732278
60.124161229938714 89.8497786939767 20.01752542802678
60.12406546762843 89.8464530270351 30.01164809425757
60.123939462946566 89.84451724698312 40.00580631604579
60.12388835697326 89.84388274595221 50.0
60.123939462946566 89.84451724698312 59.99419368395421
60.12406546762843 89.8464530270351 69.98835190574243
60.124161229938714 89.8497786939767 79.98247457197321
60.12397530669837 89.85461753671048 89.97661622226772
69.85887319790791 9.813398300486998 9.977917218597138
69.85839689221926 9.808756094376367 19.983408608063957
69.85830108748576 9.80552885353665 29.98893873344186
69.8583265331622 9.80363295346704 39.994472593663716
69.85834742026088 9.803008281406148 50.0
69.8583265331622 9.80363295346704 60.005527406336284
69.85830108748576 9.805528853536652 70.01106126655814
69.85839689221926 9.808756094376367 80.01659139193605
69.85887319790791 9.813398300486998 90.02208278140286
69.89687125672931 19.818192076262683 9.983393688357465
69.89644792008414 19.81362694493802 19.987499811037218
69.89632621813777 19.810469984899655 29.991652483497827
69.89632057898481 19.808621585623317 39.995824258921225
69.8963291068842 19.808013498098557 50.0
69.89632057898481 19.808621585623317 60.004175741078775
69.89632621813777 19.810469984899655 70.00834751650217
69.89644792008414 19.81362694493802 80.01250018896279
69.89687125672931 19.818192076262683 90.01660631164253
69.93253478994905 29.821618679357766 9.988893982660084
69.93223840940058 29.81711423639853 19.991632310831548
69.93214301708436 29.814014337331866 29.99440762007127
69.93213050815436 29.81220500318796 39.99720094824525
69.93213345429768 29.81161061238908 50.0
69.93213050815436 29.81220500318796 60.00279905175475
69.93214301708436 29.814014337331866 70.00559237992873
69.93223840940058 29.81711423639853 80.00836768916845
69.93253478994905 29.821618679357766 90.01110601733991
69.96665391278152 39.82368102868971 9.994434287108614
69.96650327699025 39.81921106099654 19.99580398612812
69.96645320898926 39.81614853105628 29.997194678135042
69.96644518841721 39.81436512955368 39.99859557685967
69.96644604416676 39.81377987731595 50.0
69.96644518841721 39.81436512955368 60.00140442314033
69.96645320898926 39.81614853105628 70.00280532186495
69.96650327699025 39.81921106099654 80.00419601387188
69.96665391278152 39.82368102868971 90.00556571289138
70.00000000009727 49.824370101190055 10.00000000000006
70.00000000009727 49.81991106913815 20.000000000000046
70.00000000009727 49.81686130879716 30.000000000000032
70.00000000009727 49.815087027338734 40.000000000000014
70.00000000009727 49.814504983986 50.0
70.00000000009727 49.815087027338734 59.999999999999986
70.00000000009727 49.81686130879716 69.99999999999997
70.00000000009727 49.81991106913815 79.99999999999996
70.00000000009727 49.824370101190055 89.99999999999994
70.0333460874131 59.823681028677534 10.0055657128915
70.03349672320437 59.819211060984365 20.004196013871965
70.03354679120534 59.81614853104411 30.00280532186502
70.0335548117774 59.81436512954151 40.00140442314036
70.03355395602786 59.81377987730378 50.0
70.0335548117774 59.81436512954151 59.99859557685964
70.03354679120534 59.81614853104411 69.99719467813499
70.03349672320437 59.819211060984365 79.99580398612804
70.0333460874131 59.823681028677534 89.9944342871085
70.06746521024569 69.82161867934711 10.011106017339989
70.06776159079415 69.81711423638788 20.00836768916851
70.06785698311037 69.81401433732123 30.005592379928764
70.06786949204039 69.81220500317731 40.00279905175477
70.06786654589705 69.81161061237844 50.0
70.06786949204039 69.81220500317731 59.99720094824523
70.06785698311037 69.81401433732123 69.99440762007123
70.06776159079415 69.81711423638788 79.99163231083149
70.06746521024569 69.82161867934711 89.98889398266002
70.10312874346558 79.81819207625229 10.016606311642548
70.10355208011076 79.81362694492763 20.012500188962793
70.10367378205713 79.81046998488927 30.00834751650218
70.10367942121009 79.80862158561294 40.00417574107878
70.1036708933107 79.80801349808817 50.0
70.10367942121009 79.80862158561294 59.99582425892122
70.10367378205713 79.81046998488927 69.99165248349782
70.10355208011076 79.81362694492763 79.98749981103721
70.10312874346558 79.81819207625229 89.98339368835745
70.14112680228723 89.81339830047848 10.022082781402803
70.1416031079759 89.80875609436787 20.016591391935997
70.14169891270942 89.80552885352816 30.011061266558112
70.14167346703297 89.80363295345856 40.00552740633627
70.14165257993429 89.80300828139767 50.0
70.14167346703297 89.80363295345856 59.99447259366373
70.14169891270942 89.80552885352816 69.98893873344188
70.1416031079759 89.80875609436788 79.983408608064
70.14112680228723 89.81339830047848 89.9779172185972
79.84290706428516 9.767859034457386 9.979437585365524
79.84223571696926 9.76348456350965 19.984537902701724
79.84199509629796 9.760418912966143 29.989678209446716
79.84193559275322 9.758606261995435 39.99483635599506
79.8419289761298 9.758006878152347 50.0
79.84193559275322 9.758606261995435 60.00516364400494
79.84199509629796 9.760418912966143 70.01032179055328
79.84223571696926 9.76348456350965 80.01546209729827
79.84290706428516 9.767859034457386 90.02056241463448
79.88492713726924 19.772296381560093 9.984554828425482
79.88432945986487 19.767968019094823 19.988368745478137
79.88407130221205 19.764945996316115 29.99222485673301
79.88398317685231 19.76316373822347 39.99610689244214
79.88396453899034 19.7625751233835 50.0
79.88398317685231 19.76316373822347 60.00389310755786
79.88407130221205 19.764945996316115 70.007775143267
79.88432945986487 19.767968019094823 80.01163125452186
79.88492713726924 19.772296381560093 90.01544517157451
79.9245781545815 29.77546216456028 9.989682447406684
79.92415407025901 29.77117263841338 19.99222498650758
79.92395508624489 29.768186327879555 29.994799169800775
79.92387867105008 29.76642891188854 39.99739462143597
79.9238603743286 29.765849111090024 50.0
79.92387867105008 29.76642891188854 60.00260537856403
79.92395508624489 29.768186327879555 70.00520083019923
79.92415407025901 29.77117263841338 80.00777501349242
79.9245781545815 29.775462164560285 90.01031755259332
79.96267558105961 39.77736341367538 9.994833603890502
79.96245802372898 39.77309654043264 19.996104969420955
79.9623525925603 39.770134229256236 29.997393809411076
79.962310026414 39.76839345503773 39.99869414481278
79.96229933184559 39.76781955129259 50.0
79.962310026414 39.76839345503773 60.00130585518722
79.9623525925603 39.770134229256236 70.00260619058892
79.96245802372898 39.77309654043264 80.00389503057905
79.96267558105961 39.77736341367538 90.0051663961095
80.00000000009848 49.77799780813022 10.000000000000044
80.00000000009848 49.77373821452528 20.000000000000036
80.00000000009848 49.77078420968763 30.00000000000002
80.00000000009848 49.76904934627587 40.000000000000014
80.00000000009848 49.76847752315453 50.0
80.00000000009848 49.76904934627587 59.999999999999986
80.00000000009848 49.77078420968763 69.99999999999997
80.00000000009848 49.77373821452528 79.99999999999997
80.00000000009848 49.77799780813022 89.99999999999996
80.03732441913743 59.77736341366146 10.005166396109582
80.03754197646806 59.77309654041872 20.00389503057911
80.03764740763675 59.77013422924232 30.002606190588967
80.03768997378305 59.76839345502382 40.00130585518724
80.03770066835148 59.76781955127868 50.0
80.03768997378305 59.76839345502382 59.99869414481276
80.03764740763675 59.77013422924232 69.99739380941104
80.03754197646806 59.77309654041873 79.99610496942088
80.03732441913743 59.77736341366146 89.99483360389041
80.07542184561565 69.77546216454812 10.010317552593362
80.07584592993814 69.77117263840121 20.007775013492456
80.07604491395226 69.7681863278674 30.00520083019925
80.07612132914707 69.76642891187639 40.00260537856404
80.07613962586855 69.76584911107787 50.0
80.07612132914707 69.76642891187639 59.99739462143596
80.07604491395226 69.7681863278674 69.99479916980076
80.07584592993814 69.77117263840121 79.99222498650755
80.07542184561565 69.77546216454812 89.98968244740664
80.11507286292807 79.77229638154824 10.015445171574505
80.11567054033247 79.76796801908299 20.011631254521852
80.1159286979853 79.76494599630429 30.007775143266983
80.11601682334503 79.76316373821165 40.00389310755786
80.116035461207 79.76257512337168 50.0
80.11601682334503 79.76316373821165 59.99610689244214
80.1159286979853 79.76494599630429 69.99222485673302
80.11567054033247 79.76796801908299 79.98836874547814
80.11507286292807 79.77229638154824 89.98455482842549
80.15709293591246 89.76785903444767 10.020562414634394
80.15776428322836 89.76348456349996 20.01546209729821
80.15800490389967 89.76041891295645 30.010321790553242
80.15806440744441 89.75860626198576 40.00516364400492
80.15807102406785 89.75800687814267 50.0
80.15806440744441 89.75860626198576 59.99483635599508
80.15800490389967 89.76041891295645 69.98967820944675
80.15776428322836 89.76348456349996 79.98453790270179
80.15709293591246 89.76785903444767 89.9794375853656
89.82815471189342 9.718359570008909 9.98107060658354
89.82735723527512 9.714296181795536 19.98576443296042
89.82701402561884 9.711432150021027 29.990492885566947
89.8268899007662 9.709730931535649 39.99524183012788
89.82686147133208 9.709166963519168 50.0
89.8268899007662 9.70973093153565 60.00475816987212
89.82701402561884 9.711432150021027 70.00950711443305
89.82735723527512 9.714296181795536 80.01423556703958
89.82815471189342 9.71835957000891 90.01892939341646
89.87388773729177 19.722438522217104 9.985793382170868
89.8731777820508 19.718401277368358 19.989304145852707
89.87282460286552 19.715563046412953 29.99284899167197
89.87267543737654 19.713880398753734 39.99641843583633
89.87263599463571 19.713323116901964 50.0
89.87267543737654 19.713880398753734 60.00358156416367
89.87282460286552 19.715563046412953 70.00715100832802
89.8731777820508 19.718401277368358 80.0106958541473
89.87388773729177 19.722438522217107 90.01420661782913
89.91722653396376 29.725345737539342 9.99051761071963
89.916720077377 29.72133291506073 19.9928578664626
89.91644932609017 29.71851599780191 29.995222483592777
89.91632614337168 29.716848348112098 39.99760624419167
89.91629180639835 29.716296438628515 50.0
89.91632614337168 29.716848348112098 60.00239375580833
89.91644932609017 29.71851599780191 70.00477751640722
89.916720077377 29.72133291506073 80.0071421335374
89.91722653396376 29.725345737539346 90.00948238928036
89.95900121577162 39.72708915224335 9.99525455526516
89.95874039211715 39.72309097837281 19.99642463167711
89.95859663030068 39.72028889056253 29.9976078951003
89.95852886754905 39.71863136883492 39.99880124616095
89.95850949849617 39.71808305450234 50.0
89.95852886754905 39.71863136883492 60.00119875383905
89.95859663030068 39.72028889056253 70.0023921048997
89.95874039211715 39.72309097837281 80.00357536832288
89.95900121577162 39.72708915224336 90.00474544473484
90.00000000009027 49.72767031650304 10.000000000000032
90.00000000009027 49.723676917989074 20.000000000000025
90.00000000009027 49.72088003038037 30.000000000000014
90.00000000009027 49.71922615080705 40.00000000000001
90.00000000009027 49.718679108707036 50.0
90.00000000009027 49.71922615080705 59.99999999999999
90.00000000009027 49.72088003038037 69.99999999999999
90.00000000009027 49.723676917989074 79.99999999999997
90.00000000009027 49.72767031650304 89.99999999999997
90.04099878440897 59.72708915222774 10.004745444734896
90.04125960806344 59.723090978357206 20.00357536832293
90.04140336987992 59.720288890546925 30.002392104899727
90.04147113263154 59.71863136881932 40.00119875383906
90.04149050168444 59.71808305448673 50.0
90.04147113263154 59.71863136881932 59.99880124616094
90.04140336987992 59.720288890546925 69.99760789510027
90.04125960806344 59.723090978357206 79.99642463167707
90.04099878440897 59.72708915222775 89.9952545552651
90.08277346621688 69.72534573752569 10.00948238928039
90.08327992280365 69.72133291504709 20.007142133537414
90.08355067409047 69.71851599778827 30.00477751640723
90.08367385680897 69.71684834809847 40.002393755808335
90.0837081937823 69.71629643861488 50.0
90.08367385680897 69.71684834809847 59.997606244191665
90.08355067409047 69.71851599778827 69.99522248359277
90.08327992280365 69.72133291504709 79.99285786646259
90.08277346621688 69.72534573752569 89.9905176107196
90.12611226288911 79.72243852220386 10.014206617829101
90.12682221813009 79.71840127735514 20.010695854147272
90.12717539731537 79.71556304639974 30.007151008328012
90.12732456280435 79.71388039874053 40.00358156416366
90.12736400554518 79.71332311688876 50.0
90.12732456280435 79.71388039874053 59.99641843583634
90.12717539731537 79.71556304639974 69.99284899167199
90.12682221813009 79.71840127735514 79.98930414585273
90.12611226288911 79.72243852220387 89.9857933821709
90.17184528828774 89.71835956999806 10.018929393416363
90.17264276490606 89.7142961817847 20.01423556703951
90.17298597456234 89.71143215001021 30.009507114433003
90.17311009941497 89.70973093152485 40.0047581698721
90.17313852884911 89.70916696350837 50.0
90.17311009941497 89.70973093152485 59.9952418301279
90.17298597456234 89.71143215001021 69.990492885567
90.17264276490606 89.7142961817847 79.9857644329605
90.17184528828774 89.71835956999806 89.98107060658363
99.8146411630343 9.665251976654574 9.982755706128414
99.8137648563691 9.661525053482276 19.987033843550783
99.81335195182385 9.658887303615062 29.99134008163864
99.81318146540706 9.657315328603772 39.99566526374248
99.81313693022561 9.656793257543907 50.0
99.81318146540706 9.657315328603772 60.00433473625752
99.81335195182385 9.658887303615062 70.00865991836136
99.8137648563691 9.661525053482277 80.01296615644922
99.8146411630343 9.665251976654574 90.01724429387158
99.86377067830551 19.668968611136723 9.987066455698415
99.86299085158889 19.665255431417037 19.990267096946823
99.86257417887572 19.662632020697703 29.99349389433198
99.86238224966273 19.661070821141493 39.99674148733847
99.86232786262201 19.66055270429156 50.0
99.86238224966273 19.661070821141493 60.00325851266153
99.86257417887572 19.662632020697703 70.00650610566802
99.86299085158889 19.665255431417037 80.00973290305318
99.86377067830551 19.668968611136723 90.01293354430159
99.91048954485994 29.67161599535086 9.991372710990978
99.90993174083373 29.667918110011552 19.993506267545662
99.90961334400228 29.665306749427995 29.99565757778011
99.90945776854522 29.66375406773392 39.99782447255198
99.90941206896282 29.663239029831978 50.0
99.90945776854522 29.66375406773392 60.00217552744802
99.90961334400228 29.665306749427998 70.00434242221989
99.90993174083373 29.667918110011552 80.00649373245435
99.91048954485994 29.67161599535086 90.00862728900903
99.95563477789696 39.673201895228665 9.9956843838761
99.95534692415728 39.66951357332205 19.996751070637607
99.95517776480253 39.66691107949388 29.99782717096261
99.95509263380794 39.66536421864403 39.99891129695878
99.95506715730542 39.66485123534656 50.0
99.95509263380794 39.66536421864403 60.00108870304122
99.95517776480253 39.66691107949388 70.00217282903739
99.95534692415728 39.66951357332205 80.00324892936239
99.95563477789696 39.673201895228665 90.0043156161239
100.00000000008198 49.67373014509821 10.00000000000002
100.00000000008198 49.670045001089285 20.000000000000014
100.00000000008198 49.667445677697536 30.00000000000001
100.00000000008198 49.66590094938929 40.00000000000001
100.00000000008198 49.665388695907275 50.0
100.00000000008198 49.6659009493893 59.99999999999999
100.00000000008198 49.667445677697536 69.99999999999999
100.00000000008198 49.67004500108929 79.99999999999999
100.00000000008198 49.67373014509821 89.99999999999999
100.04436522226707 59.67320189521132 10.00431561612393
100.04465307600674 59.66951357330471 20.003248929362414
100.0448222353615 59.66691107947654 30.002172829037406
100.0449073663561 59.6653642186267 40.001088703041226
100.04493284285861 59.66485123532922 50.0
100.0449073663561 59.6653642186267 59.998911296958774
100.0448222353615 59.66691107947654 69.9978271709626
100.04465307600674 59.66951357330471 79.99675107063759
100.04436522226707 59.67320189521132 89.99568438387607
100.08951045530418 69.67161599533574 10.008627289009022
100.09006825933041 69.66791810999645 20.006493732454338
100.09038665616185 69.6653067494129 30.00434242221989
100.09054223161891 69.66375406771883 40.00217552744802
100.09058793120131 69.66323902981689 50.0
100.09054223161891 69.66375406771883 59.99782447255198
100.09038665616185 69.6653067494129 69.99565757778011
100.09006825933041 69.66791810999645 79.99350626754565
100.08951045530418 69.67161599533576 89.99137271099097
100.13622932185883 79.66896861112211 10.01293354430154
100.13700914857546 79.66525543140244 20.00973290305314
100.13742582128863 79.66263202068312 30.006506105667995
100.13761775050163 79.66107082112693 40.00325851266152
100.13767213754234 79.660552704277 50.0
100.13761775050163 79.66107082112693 59.996741487338475
100.13742582128863 79.66263202068312 69.993493894332
100.13700914857546 79.66525543140244 79.99026709694685
100.13622932185883 79.66896861112211 89.98706645569845
100.18535883713038 89.66525197664264 10.017244293871478
100.18623514379557 89.66152505347037 20.012966156449135
100.18664804834083 89.65888730360317 30.008659918361307
100.18681853475763 89.65731532859189 40.00433473625749
100.18686306993908 89.65679325753203 50.0
100.18681853475763 89.65731532859189 59.99566526374251
100.18664804834083 89.65888730360317 69.9913400816387
100.18623514379557 89.66152505347037 79.98703384355086
100.18535883713038 89.66525197664264 89.98275570612851
109.80238562312341 9.608880860006636 9.984459173197903
109.80146136965723 9.605504023213173 19.988316714805975
109.80100194378102 9.60310685179961 29.992197050456888
109.80079894059568 9.601674831367305 39.99609407119623
109.80074284383409 9.601198612191116 50.0
109.80079894059568 9.601674831367307 60.00390592880377
109.80100194378102 9.60310685179961 70.0078029495431
109.80146136965723 9.605504023213173 80.01168328519402
109.80238562312341 9.608880860006638 90.0155408268021
109.85459210776087 19.612230287134096 9.988350906072757
109.85377008809388 19.60885992971129 19.99123737938061
109.85331201471774 19.606470075327177 29.99414378248108
109.85309096159554 19.60504390783476 39.997067237228904
109.85302618406327 19.604569892793624 50.0
109.85309096159554 19.60504390783476 60.002932762771096
109.85331201471774 19.606470075327177 70.00585621751893
109.85377008809388 19.60885992971129 80.0087626206194
109.85459210776087 19.612230287134096 90.01164909392725
109.904378085787 29.614613773320276 9.992233894218462
109.90378917117867 29.611253331624212 19.994157977321564
109.90344002219042 29.608869863489073 29.99609475715605
109.90326273688838 29.607448124285604 39.99804382949887
109.90320927952286 29.6069757171658 50.0
109.90326273688838 29.607448124285604 60.00195617050113
109.90344002219042 29.608869863489073 70.00390524284396
109.90378917117867 29.611253331624212 80.00584202267844
109.904378085787 29.61461377332028 90.00776610578154
109.95258164139229 39.61603956097199 9.996116745078208
109.95227734215182 39.6126857810894 19.997078638407515
109.9520918529266 39.61030750771644 29.99804708528328
109.95199517029558 39.60888885850153 39.99902169765507
109.95196556226517 39.60841751444097 50.0
109.95199517029558 39.60888885850153 60.00097830234493
109.9520918529266 39.61030750771644 70.00195291471672
109.95227734215182 39.6126857810894 80.00292136159248
109.95258164139229 39.61603956097199 90.00388325492179
110.00000000007368 49.61651401059047 10.000000000000009
110.00000000007368 49.61316252231105 20.000000000000007
110.00000000007368 49.61078616731143 30.000000000000004
110.00000000007368 49.60936868880723 40.0
110.00000000007368 49.60889772426107 50.0
110.00000000007368 49.60936868880723 60.0
110.00000000007368 49.61078616731143 70.0
110.00000000007368 49.61316252231105 79.99999999999999
110.00000000007368 49.61651401059047 89.99999999999999
110.04741835875525 59.61603956095295 10.003883254921803
110.04772265799572 59.61268578107037 20.00292136159249
110.04790814722094 59.61030750769741 30.001952914716725
110.04800482985196 59.6088888584825 40.00097830234493
110.04803443788236 59.608417514421944 50.0
110.04800482985196 59.6088888584825 59.99902169765506
110.04790814722094 59.610307507697414 69.99804708528328
110.04772265799572 59.61268578107037 79.9970786384075
110.04741835875525 59.61603956095295 89.9961167450782
110.09562191436062 69.61461377330373 10.00776610578152
110.09621082896895 69.61125333160767 20.005842022678422
110.0965599779572 69.60886986347253 30.00390524284394
110.09673726325926 69.60744812426908 40.001956170501124
110.09679072062477 69.60697571714927 50.0
110.09673726325926 69.60744812426908 59.99804382949887
110.0965599779572 69.60886986347253 69.99609475715606
110.09621082896895 69.61125333160767 79.99415797732158
110.09562191436062 69.61461377330373 89.99223389421847
110.14540789238698 79.61223028711807 10.011649093927184
110.14622991205398 79.60885992969527 20.008762620619347
110.1466879854301 79.60647007531118 30.005856217518893
110.14690903855232 79.60504390781877 40.00293276277108
110.1469738160846 79.60456989277763 50.0
110.14690903855232 79.60504390781877 59.99706723722892
110.1466879854301 79.60647007531118 69.9941437824811
110.14622991205397 79.60885992969527 79.99123737938065
110.14540789238698 79.61223028711807 89.98835090607281
110.19761437702469 89.60888085999359 10.015540826801981
110.19853863049086 89.60550402320015 20.01168328519394
110.19899805636709 89.6031068517866 30.007802949543052
110.19920105955241 89.6016748313543 40.00390592880374
110.19925715631402 89.60119861217812 50.0
110.19920105955241 89.6016748313543 59.99609407119626
110.19899805636709 89.6031068517866 69.99219705045695
110.19853863049086 89.60550402320015 79.98831671480606
110.19761437702469 89.60888085999359 89.98445917319802
119.79140165939035 9.549585737210204 9.986162369469735
119.79044820696465 9.546564499692188 19.989597433370417
119.78995691248319 9.54441500919943 29.993052043315952
119.78973056641831 9.543128680232163 39.99652184907218
119.78966601339684 9.542700489611128 50.0
119.78973056641831 9.543128680232163 60.003478150927826
119.78995691248319 9.54441500919943 70.00694795668404
119.79044820696464 9.54656449969219 80.01040256662958
119.79140165939035 9.549585737210206 90.01383763053026
119.84636621757207 19.55256211628897 9.989635035141768
119.84551895979484 19.549543740557027 19.99220529079283
119.84503377949426 19.547397620166034 29.99479128892334
119.84479283142211 19.546114196939815 39.99739162512199
119.84472082784765 19.545687135078722 50.0
119.84479283142211 19.546114196939815 60.002608374878015
119.84503377949426 19.547397620166038 70.00520871107666
119.84551895979484 19.549543740557027 80.00779470920718
119.84636621757207 19.55256211628897 90.01036496485823
119.898903970674 29.5546746780567 9.993094984149705
119.89829629035101 29.551663690844684 19.994807862956698
119.89792742782988 29.549520785514144 29.996530029748552
119.89773574581936 29.54823930169185 39.998262068907344
119.89767706270344 29.54781292171786 50.0
119.89773574581936 29.54823930169185 60.001737931092656
119.89792742782988 29.549520785514144 70.00346997025144
119.89829629035101 29.551663690844684 80.00519213704331
119.898903970674 29.5546746780567 90.0069050158503
119.94984851958984 39.555934610695466 9.996549153370928
119.949534196839 39.55292918051621 19.997405255267385
119.94933832638624 39.55078940131162 29.998265971190705
119.94923409795841 39.54950932468213 39.999131488373095
119.94920175432833 39.54908337460108 50.0
119.94923409795841 39.54950932468213 60.000868511626905
119.94933832638624 39.55078940131162 70.0017340288093
119.949534196839 39.55292918051621 80.00259474473262
119.94984851958984 39.555934610695466 90.00345084662906
120.00000000006548 49.5563530512431 10.0
120.00000000006548 49.55334964010813 20.0
120.00000000006548 49.55121107785817 30.0
120.00000000006548 49.549931573709785 40.0
120.00000000006548 49.5495057780561 50.0
120.00000000006548 49.549931573709785 60.0
120.00000000006548 49.55121107785817 70.0
120.00000000006548 49.55334964010813 80.0
120.00000000006548 49.55635305124311 90.0
120.05015148054107 59.55593461067471 10.003450846629065
120.05046580329191 59.55292918049546 20.00259474473261
120.05066167374467 59.55078940129088 30.00173402880929
120.0507659021725 59.549509324661386 40.000868511626905
120.05079824580258 59.54908337458034 50.0
120.0507659021725 59.549509324661386 59.999131488373095
120.05066167374467 59.55078940129088 69.9982659711907
120.05046580329191 59.55292918049546 79.9974052552674
120.05015148054107 59.55593461067472 89.99654915337094
120.10109602945704 69.5546746780387 10.006905015850263
120.10170370978003 69.55166369082669 20.005192137043277
120.10207257230115 69.54952078549616 30.00346997025143
120.10226425431168 69.54823930167387 40.00173793109265
120.1023229374276 69.54781292169989 50.0
120.10226425431168 69.54823930167387 59.99826206890735
120.10207257230115 69.54952078549616 69.99653002974857
120.10170370978003 69.55166369082669 79.99480786295672
120.10109602945704 69.5546746780387 89.99309498414974
120.15363378255921 79.55256211627157 10.010364964858162
120.15448104033644 79.54954374053965 20.00779470920712
120.15496622063704 79.54739762014867 30.005208711076623
120.15520716870918 79.54611419692246 40.002608374877994
120.15527917228364 79.54568713506137 50.0
120.15520716870918 79.54611419692246 59.997391625122006
120.15496622063704 79.54739762014867 69.99479128892338
120.15448104033644 79.54954374053965 79.99220529079288
120.15363378255921 79.55256211627157 89.98963503514183
120.2085983407413 89.54958573719604 10.013837630530142
120.209551793167 89.54656449967806 20.010402566629494
120.21004308764846 89.54441500918531 30.006947956683984
120.21026943371334 89.54312868021806 40.00347815092779
120.21033398673481 89.54270048959702 50.0
120.21026943371334 89.54312868021806 59.99652184907221
120.21004308764846 89.54441500918531 69.99305204331601
120.209551793167 89.54656449967806 79.9895974333705
120.2085983407413 89.54958573719604 89.98616236946985
129.78169795978624 9.487703441772915 9.987854958490072
129.780724932775 9.485037039150235 19.99086799511561
129.78020945833353 9.48313696498972 29.993899417235458
129.77996491031251 9.481998359071808 39.996945643491074
129.77989372011658 9.481619042142679 50.0
129.77996491031251 9.481998359071808 60.003054356508926
129.78020945833353 9.48313696498972 70.00610058276455
129.780724932775 9.485037039150237 80.00913200488439
129.78169795978624 9.487703441772917 90.01214504150992
129.8391067623241 19.490299203428236 9.990914274504746
129.8382433237029 19.487635029085666 19.993167400899406
129.83773932337417 19.485736555957285 29.99543394278743
129.83748416282933 19.48459920280927 39.997713318657496
129.83740694971792 19.484220366997594 50.0
129.83748416282933 19.48459920280927 60.002286681342504
129.83773932337417 19.485736555957285 70.00456605721257
129.8382433237029 19.48763502908567 80.00683259910059
129.8391067623241 19.490299203428236 90.00908572549525
129.89408147763382 29.492129653945767 9.993955078041232
129.89346152379224 29.489472926897253 19.995455303734353
129.8930795813014 29.487576240894022 29.996962858473076
129.89287819862338 29.486439311457218 39.998478849465364
129.89281596755322 29.486060542986298 50.0
129.89287819862338 29.486439311457218 60.001521150534636
129.8930795813014 29.487576240894022 70.00303714152693
129.89346152379224 29.489472926897253 80.00454469626564
129.89408147763382 29.49212965394577 90.00604492195876
129.94744441322555 39.493213904573835 9.996981932063491
129.9471233733087 39.49056342957834 19.99773120823908
129.94692073808895 39.48866893797416 29.998483953590412
129.94681158066342 39.487532352930096 39.99924069092279
129.9467774424836 39.48715357653992 50.0
129.94681158066342 39.487532352930096 60.00075930907721
129.94692073808895 39.48866893797416 70.00151604640959
129.9471233733087 39.49056342957834 80.00226879176093
129.94744441322555 39.493213904573835 90.00301806793651
130.00000000005716 49.49357246661111 9.999999999999995
130.00000000005716 49.49092438660428 19.999999999999996
130.00000000005716 49.489030807708076 29.999999999999996
130.00000000005716 49.487894410624314 40.0
130.00000000005716 49.48751563077987 50.0
130.00000000005716 49.487894410624314 60.0
130.00000000005716 49.489030807708076 70.0
130.00000000005716 49.49092438660428 80.0
130.00000000005716 49.49357246661111 90.0
130.05255558688881 59.493213904551446 10.00301806793649
130.05287662680567 59.490563429555955 20.002268791760905
130.05307926202542 59.488668937951786 30.001516046409577
130.05318841945095 59.48753235290772 40.0007593090772
130.05322255763076 59.48715357651755 50.0
130.05318841945095 59.48753235290772 59.99924069092279
130.05307926202542 59.488668937951786 69.99848395359042
130.05287662680567 59.490563429555955 79.99773120823909
130.05255558688881 59.49321390455145 89.9969819320635
130.1059185224807 69.49212965392643 10.006044921958726
130.10653847632227 69.48947292687792 20.004544696265615
130.1069204188131 69.4875762408747 30.003037141526903
130.10712180149116 69.4864393114379 40.00152115053462
130.1071840325613 69.48606054296698 50.0
130.10712180149116 69.4864393114379 59.99847884946537
130.1069204188131 69.4875762408747 69.9969628584731
130.10653847632227 69.48947292687792 79.99545530373439
130.1059185224807 69.49212965392643 89.99395507804127
130.16089323779062 79.49029920340963 10.009085725495181
130.1617566764118 79.48763502906708 20.006832599100537
130.16226067674057 79.48573655593871 30.004566057212532
130.16251583728538 79.4845992027907 40.00228668134249
130.16259305039682 79.48422036697903 50.0
130.16251583728538 79.4845992027907 59.99771331865751
130.16226067674054 79.48573655593871 69.99543394278747
130.1617566764118 79.48763502906708 79.99316740089947
130.16089323779062 79.49029920340963 89.99091427450482
130.21830204032892 89.48770344175792 10.01214504150981
130.21927506734016 89.48503703913526 20.0091320048843
130.21979054178163 89.48313696497476 30.006100582764482
130.22003508980265 89.48199835905686 40.0030543565089
130.2201062799986 89.48161904212773 50.0
130.22003508980265 89.48199835905686 59.9969456434911
130.21979054178163 89.48313696497476 69.99389941723551
130.21927506734016 89.48503703913526 79.99086799511569
130.21830204032892 89.48770344175792 89.98785495849019
139.77327886596672 9.423568995476879 9.989531816659978
139.77228857365566 9.421250861591215 19.992125266411612
139.77175125906268 9.419597325771733 29.994737461966423
139.77149073988954 9.418605281014049 39.99736472316663
139.7714138427214 9.418274516274561 50.0
139.77149073988954 9.41860528101405 60.00263527683337
139.77175125906268 9.419597325771733 70.00526253803358
139.77228857365566 9.421250861591217 80.0078747335884
139.77327886596672 9.42356899547688 90.01046818334002
139.83283008097388 19.42577369756144 9.99218990517253
139.8319533779113 19.423460191125617 19.99412505048353
139.8314345290467 19.421808036307443 29.99607277206281
139.8311684250751 19.420816286838694 39.99803286209597
139.83108726026165 19.42048555791102 50.0
139.8311684250751 19.420816286838694 60.00196713790403
139.8314345290467 19.421808036307443 70.00392722793718
139.8319533779113 19.42346019112562 80.00587494951647
139.83283008097388 19.42577369756144 90.00781009482748
139.88993046656827 29.42730517994747 9.994818253506992
139.8893001235739 29.42500208814343 19.996103504300315
139.88890862386586 29.42335147738597 29.997395357311813
139.88870048018973 29.42235903646344 39.99869520189835
139.8886358181005 29.422027848738267 50.0
139.88870048018973 29.422359036463444 60.00130479810165
139.88890862386586 29.42335147738597 70.00260464268818
139.8893001235739 29.42500208814343 80.00389649569969
139.88993046656827 29.427305179947474 90.00518174649301
139.9453823776417 39.42819901624544 9.99741822809871
139.9450554402929 39.425905066916044 19.99805889967195
139.94484799976425 39.42425652795113 29.99870258541967
139.94473559359727 39.423263599305216 39.99935005265893
139.94470030086535 39.42293200515655 50.0
139.94473559359727 39.423263599305216 60.00064994734107
139.94484799976425 39.42425652795113 70.00129741458032
139.9450554402929 39.425905066916044 80.00194110032805
139.9453823776417 39.42819901624545 90.00258177190129
140.00000000004886 49.42849198085798 9.99999999999999
140.00000000004886 49.426201629825115 19.999999999999993
140.00000000004886 49.4245539946529 29.999999999999993
140.00000000004886 49.42356094819609 40.0
140.00000000004886 49.42322920475128 50.0
140.00000000004886 49.42356094819609 60.0
140.00000000004886 49.4245539946529 70.0
140.00000000004886 49.426201629825115 80.00000000000001
140.00000000004886 49.42849198085798 90.00000000000001
140.0546176224559 59.428199016221534 10.002581771901262
140.0549445598047 59.425905066892135 20.00194110032803
140.05515200033335 59.42425652792723 30.001297414580314
140.05526440650033 59.42326359928131 40.00064994734106
140.05529969923225 59.422932005132644 50.0
140.05526440650033 59.42326359928131 59.99935005265894
140.05515200033335 59.42425652792723 69.9987025854197
140.0549445598047 59.425905066892135 79.99805889967197
140.0546176224559 59.428199016221534 89.99741822809874
140.11006953352947 69.42730517992706 10.005181746492962
140.11069987652385 69.42500208812302 20.00389649569965
140.11109137623185 69.42335147736557 30.002604642688162
140.111299519908 69.42235903644305 40.00130479810164
140.1113641819972 69.42202784871787 50.0
140.111299519908 69.42235903644305 59.99869520189836
140.11109137623185 69.42335147736559 69.99739535731183
140.11069987652385 69.42500208812302 79.99610350430035
140.11006953352947 69.42730517992706 89.99481825350703
140.1671699191243 79.42577369754203 10.0078100948274
140.16804662218686 79.42346019110623 20.00587494951642
140.16856547105147 79.42180803628807 30.003927227937154
140.16883157502306 79.42081628681932 40.00196713790402
140.16891273983651 79.42048555789165 50.0
140.16883157502306 79.42081628681932 59.99803286209598
140.16856547105147 79.42180803628807 69.99607277206285
140.16804662218686 79.42346019110623 79.99412505048358
140.1671699191243 79.42577369754203 89.9921899051726
140.22672113413182 89.42356899546154 10.010468183339917
140.22771142644288 89.4212508615759 20.00787473358831
140.22824874103586 89.41959732575643 30.005262538033524
140.228509260209 89.41860528099875 40.00263527683334
140.22858615737712 89.41827451625927 50.0
140.228509260209 89.41860528099875 59.99736472316666
140.22824874103586 89.41959732575643 69.99473746196648
140.22771142644285 89.4212508615759 79.99212526641169
140.22672113413182 89.42356899546154 89.98953181666008
149.76614462333535 9.357512115018489 9.991193273682821
149.7651331134703 9.355529356609583 19.993370869675665
149.76457291501453 9.354114609436625 29.995568036633458
149.76429736926215 9.35326440167604 39.99778022438038
149.76421538599195 9.35298053562719 50.0
149.76429736926215 9.353264401676041 60.00221977561962
149.76457291501453 9.354114609436627 70.00443196336654
149.7651331134703 9.355529356609583 80.00662913032433
149.76614462333535 9.357512115018489 90.00880672631718
149.8275593525157 19.359312226009667 9.993470432923948
149.82666717451124 19.35734005050237 19.99508477007874
149.82613482870977 19.355927261215225 29.996712131328533
149.82585991356333 19.355076378163577 39.998352406973616
149.82577574848239 19.354792029832897 50.0
149.82585991356333 19.355076378163577 60.001647593026384
149.82613482870977 19.355927261215225 70.00328786867146
149.82666717451124 19.35734005050237 80.00491522992127
149.8275593525157 19.359312226009667 90.00652956707606
149.8864798337929 29.360523137762232 9.995694929412704
149.88583704569848 29.358567968097812 19.996759938556778
149.8854374818347 29.357157053336504 29.99783218893795
149.8852245683377 29.35630408626967 39.99891332672531
149.88515831418465 29.35601858084733 50.0
149.8852245683377 29.356304086269674 60.00108667327469
149.8854374818347 29.357157053336504 70.00216781106205
149.88583704569848 29.358567968097812 80.00324006144322
149.8864798337929 29.360523137762232 90.0043050705873
149.9436809206684 39.361209375351436 9.997864746626185
149.94334671542174 39.35926917508646 19.99839309097162
149.94313527912198 39.35786069507747 29.99892479157499
149.94302074401344 39.357006194429 39.99946093579777
149.94298476713936 39.356719743442 50.0
149.94302074401344 39.357006194429 60.00053906420223
149.94313527912198 39.35786069507747 70.00107520842501
149.94334671542174 39.35926917508646 80.00160690902838
149.94368092066838 39.361209375351436 90.00213525337382
150.00000000004053 49.36143048026599 9.999999999999986
150.0000000000405 49.359496207929226 19.99999999999999
150.0000000000405 49.358088828624126 29.999999999999993
150.0000000000405 49.35723383285242 40.0
150.0000000000405 49.35694703580168 50.0
150.0000000000405 49.35723383285242 60.0
150.0000000000405 49.358088828624126 70.0
150.0000000000405 49.359496207929226 80.00000000000001
150.00000000004053 49.36143048026599 90.00000000000001
150.05631907941265 59.36120937532606 10.002135253373782
150.0566532846593 59.359269175061094 20.001606909028354
150.05686472095906 59.3578606950521 30.001075208424993
150.0569792560676 59.35700619440363 40.00053906420222
150.05701523294167 59.35671974341663 50.0
150.0569792560676 59.35700619440363 59.99946093579778
150.05686472095906 59.3578606950521 69.998924791575
150.0566532846593 59.359269175061094 79.99839309097165
150.05631907941265 59.36120937532606 89.99786474662622
150.11352016628837 69.36052313774078 10.004305070587248
150.11416295438278 69.35856796807637 20.003240061443186
150.11456251824654 69.35715705331506 30.002167811062026
150.11477543174357 69.35630408624824 40.001086673274685
150.1148416858966 69.3560185808259 50.0
150.11477543174357 69.35630408624824 59.998913326725315
150.11456251824654 69.35715705331508 69.99783218893798
150.11416295438278 69.35856796807637 79.9967599385568
150.11352016628837 69.36052313774078 89.99569492941275
150.1724406475659 79.35931222598954 10.006529567075988
150.17333282557036 79.35734005048225 20.004915229921213
150.17386517137183 79.35592726119512 30.003287868671435
150.17414008651826 79.35507637814347 40.00164759302637
150.1742242515992 79.3547920298128 50.0
150.17414008651826 79.35507637814348 59.99835240697363
150.17386517137183 79.35592726119512 69.99671213132856
150.17333282557036 79.35734005048225 79.99508477007879
150.1724406475659 79.35931222598954 89.99347043292401
150.23385537674667 89.35751211500292 10.008806726317088
150.2348668866117 89.35552935659403 20.006629130324264
150.2354270850675 89.35411460942109 30.004431963366496
150.23570263081987 89.35326440166051 40.0022197756196
150.23578461409008 89.35298053561166 50.0
150.23570263081987 89.35326440166051 59.9977802243804
150.2354270850675 89.35411460942109 69.9955680366335
150.23486688661168 89.35552935659403 79.99337086967573
150.23385537674667 89.35751211500292 89.99119327368291
159.76029264370374 9.289842811324792 9.992848795062109
159.75925102529115 9.288175130356429 19.99461305912255
159.75866653362527 9.286984841271359 29.996396684955066
159.75837754269057 9.28626663413577 39.998194748367936
159.75829139294547 9.286026025200451 50.0
159.75837754269057 9.28626663413577 60.00180525163207
159.75866653362527 9.286984841271359 70.00360331504494
159.75925102529115 9.288175130356429 80.00538694087746
159.76029264370374 9.289842811324792 90.0071512049379
159.82332882896858 19.29122605676968 9.994775133875223
159.8224147296179 19.28957845330905 19.99605939303169
159.8218692584081 19.288390123102108 29.99735939475641
159.82158762778258 19.287669112022762 39.99867521960929
159.82150147100225 19.287427056751206 50.0
159.82158762778258 19.287669112022762 60.00132478039071
159.8218692584081 19.288390123102108 70.00264060524358
159.8224147296179 19.28957845330905 80.00394060696831
159.82332882896858 19.29122605676968 90.00522486612478
159.88376700654163 29.292101872150905 9.996603880378169
159.88310602334892 29.290482256915478 19.997436752318308
159.88269854514073 29.28929558706323 29.99828009544104
159.88248236922905 29.288569832368857 39.9991361268417
159.882415243948 29.2883253955196 50.0
159.88248236922905 29.288569832368857 60.0008638731583
159.88269854514073 29.28929558706323 70.00171990455897
159.88310602334892 29.29048225691548 80.00256324768169
159.88376700654163 29.292101872150905 90.00339611962183
159.94236135713902 39.292574808664874 9.998332525686786
159.94201641102615 39.290979710422796 19.998740960734086
159.94180086091572 39.28979577632644 29.999154544474724
159.94168489855076 39.28906658074033 39.99957503658746
159.94164858893075 39.288820264432026 50.0
159.94168489855076 39.28906658074033 60.00042496341254
159.94180086091572 39.28979577632644 70.00084545552528
159.94201641102615 39.290979710422796 80.00125903926592
159.94236135713902 39.292574808664874 90.00166747431321
160.0000000000322 49.29272355886284 9.999999999999986
160.0000000000322 49.291138187698685 19.99999999999999
160.0000000000322 49.28995560726601 29.999999999999993
160.0000000000322 49.28922524729516 40.0
160.0000000000322 49.288978245470425 50.0
160.0000000000322 49.28922524729516 60.00000000000001
160.0000000000322 49.28995560726601 70.00000000000001
160.0000000000322 49.291138187698685 80.00000000000001
160.0000000000322 49.29272355886284 90.00000000000001
160.05763864292535 59.29257480863799 10.00166747431318
160.05798358903823 59.29097971039591 20.00125903926589
160.05819913914863 59.289795776299556 30.00084545552526
160.0583151015136 59.289066580713445 40.000424963412534
160.0583514111336 59.28882026440514 50.0
160.0583151015136 59.28906658071345 59.999575036587466
160.05819913914863 59.289795776299556 69.99915454447473
160.05798358903823 59.29097971039591 79.99874096073411
160.05763864292535 59.29257480863799 89.99833252568682
160.11623299352297 69.29210187212846 10.003396119621787
160.1168939767157 69.29048225689304 20.002563247681657
160.11730145492388 69.2892955870408 30.00171990455894
160.11751763083552 69.28856983234643 40.00086387315829
160.1175847561166 69.28832539549717 50.0
160.11751763083552 69.28856983234643 59.99913612684171
160.11730145492388 69.2892955870408 69.99828009544106
160.1168939767157 69.29048225689304 79.99743675231834
160.11623299352297 69.29210187212846 89.99660388037822
160.17667117109642 79.29122605674878 10.005224866124719
160.17758527044714 79.28957845328817 20.003940606968268
160.1781307416569 79.28839012308123 30.002640605243563
160.17841237228242 79.2876691120019 40.001324780390696
160.17849852906275 79.28742705673032 50.0
160.17841237228242 79.2876691120019 59.998675219609304
160.1781307416569 79.28839012308123 69.99735939475644
160.17758527044714 79.28957845328817 79.99605939303173
160.17667117109642 79.29122605674878 89.99477513387528
160.23970735636166 89.28984281130903 10.007151204937815
160.24074897477428 89.28817513034068 20.005386940877393
160.24133346644015 89.28698484125562 30.0036033150449
160.24162245737486 89.28626663412003 40.00180525163205
160.24170860711996 89.28602602518471 50.0
160.24162245737486 89.28626663412004 59.99819474836795
160.24133346644015 89.28698484125562 69.9963966849551
160.24074897477428 89.28817513034068 79.9946130591226
160.23970735636166 89.28984281130903 89.99284879506219
169.75572367879542 9.220809143458224 9.994525057076954
169.75464267369932 9.2194264354036 19.995867410533755
169.75403538354473 9.218435933948717 29.99723017922717
169.75373619342577 9.217831493887402 39.99861004234085
169.75364712865934 9.217627514217268 50.0
169.75373619342577 9.217831493887404 60.00138995765915
169.75403538354473 9.218435933948719 70.00276982077283
169.75464267369932 9.2194264354036 80.00413258946625
169.75572367879542 9.220809143458224 90.00547494292304
169.82018173863628 19.221788026022395 9.9961371624445
169.81923557076755 19.22043654675019 19.9970664198027
169.8186770593568 19.219444171494086 29.99802208483679
169.81839081068304 19.21883188670073 39.99900350413418
169.81830351675112 19.218624399726277 50.0
169.81839081068304 19.21883188670073 60.00099649586582
169.8186770593568 19.219444171494086 70.00197791516321
169.81923557076755 19.22043654675019 80.00293358019731
169.82018173863628 19.221788026022395 90.0038628375555
169.8818211158045 29.22236473305025 9.997572197485946
169.88113247156224 29.22105596217274 19.998148640331372
169.8807155631673 29.220062177143948 29.99874541530655
169.88049677499026 29.219439551478228 39.999365522179446
169.8804291367356 29.219227378482863 50.0
169.88049677499026 29.219439551478228 60.00063447782056
169.8807155631673 29.220062177143948 70.00125458469344
169.88113247156224 29.22105596217274 80.00185135966862
169.8818211158045 29.22236473305025 90.00242780251405
169.94143252123567 39.222673823776645 9.998836691575606
169.94107109499964 39.22140299363419 19.99911075454566
169.94085003471838 39.220410840349416 29.999395447344007
169.94073263782207 39.21978078686416 39.999693479017154
169.9406960805382 39.21956498931304 50.0
169.94073263782207 39.21978078686416 60.000306520982846
169.94085003471838 39.220410840349416 70.000604552656
169.94107109499964 39.22140299363419 80.00088924545435
169.94143252123567 39.22267382377665 90.0011633084244
170.00000000002385 49.22277294462681 9.999999999999988
170.00000000002385 49.22151717090176 19.999999999999993
170.00000000002385 49.22052621462227 29.999999999999993
170.00000000002385 49.219893600330025 40.0
170.00000000002385 49.21967647994484 50.0
170.00000000002385 49.219893600330025 60.00000000000001
170.00000000002385 49.220526214622275 70.0
170.00000000002385 49.22151717090177 80.00000000000001
170.00000000002385 49.22277294462681 90.00000000000001
170.05856747881214 59.222673823748295 10.001163308424365
170.05892890504816 59.22140299360584 20.000889245454317
170.05914996532942 59.22041084032107 30.00060455265598
170.0592673622257 59.21978078683581 40.00030652098284
170.0593039195096 59.2195649892847 50.0
170.0592673622257 59.21978078683581 59.99969347901716
170.05914996532942 59.22041084032107 69.99939544734403
170.05892890504816 59.22140299360584 79.99911075454568
170.05856747881214 59.2226738237483 89.99883669157563
170.11817888424343 69.22236473302681 10.002427802514013
170.1188675284857 69.22105596214931 20.001851359668596
170.11928443688063 69.22006217712052 30.001254584693427
170.11950322505766 69.2194395514548 40.00063447782055
170.11957086331233 69.21922737845944 50.0
170.11950322505766 69.2194395514548 59.99936552217945
170.11928443688063 69.22006217712052 69.99874541530657
170.1188675284857 69.22105596214931 79.99814864033141
170.1181788842434 69.22236473302682 89.99757219748598
170.1798182614121 79.22178802600084 10.00386283755545
170.18076442928083 79.22043654672864 20.002933580197265
170.1813229406916 79.21944417147253 30.001977915163184
170.18160918936536 79.21883188667918 40.000996495865806
170.1816964832973 79.21862439970474 50.0
170.18160918936536 79.21883188667918 59.99900350413419
170.1813229406916 79.21944417147255 69.99802208483682
170.18076442928083 79.22043654672864 79.99706641980274
170.1798182614121 79.22178802600084 89.99613716244455
170.24427632125332 89.22080914344227 10.005474942922985
170.24535732634942 89.21942643538766 20.004132589466202
170.245964616504 89.21843593393278 30.0027698207728
170.24626380662295 89.21783149387147 40.001389957659136
170.2463528713894 89.21762751420134 50.0
170.24626380662295 89.21783149387147 59.998610042340864
170.245964616504 89.21843593393278 69.9972301792272
170.24535732634942 89.21942643538766 79.99586741053379
170.24427632125332 89.22080914344228 89.99452505707701
179.7524639390267 9.150498514206925 9.996267257448949
179.75133735783797 9.149356389479884 19.997147428971896
179.7507116385404 9.148521723129454 29.99806479439269
179.75040417514026 9.148001622682294 39.999020092266655
179.75031247620566 9.147824084651297 50.0
179.75040417514026 9.148001622682294 60.00097990773335
179.7507116385404 9.148521723129456 70.00193520560731
179.75133735783797 9.149356389479886 80.0028525710281
179.7524639390267 9.150498514206927 90.00373274255105
179.81813356318114 19.15118740090849 9.9975945537414
179.8171411082572 19.150079850427222 19.998118259368034
179.81656776093232 19.149230677785063 29.998697777347225
179.8162758363025 19.14869124683559 39.999332753759695
179.8161869180081 19.14850603357006 50.0
179.8162758363025 19.14869124683559 60.00066724624031
179.81656776093232 19.149230677785063 70.00130222265278
179.8171411082572 19.150079850427222 80.00188174063197
179.81813356318114 19.15118740090849 90.0024054462586
179.8805993752093 29.151686151386798 9.998628776838224
179.87986858031084 29.15063634699425 19.998905210387537
179.8794375746207 29.149774012694166 29.999227024026755
179.87921380091942 29.149212523890522 39.999598653120835
179.87914480065234 29.149018307270005 50.0
179.87921380091942 29.149212523890522 60.000401346879165
179.8794375746207 29.149774012694166 70.00077297597325
179.87986858031084 29.15063634699425 80.00109478961247
179.8805993752093 29.151686151386798 90.00137122316178
179.94085409564164 39.15203083938008 9.999392576271198
179.94046731583734 39.151033112910135 19.99950752616619
179.94023725820836 39.15016556252654 29.999647097730406
179.9401166842026 39.14958819642374 39.99981490354116
179.9400792872491 39.14938712404729 50.0
179.9401166842026 39.14958819642375 60.00018509645885
179.94023725820836 39.15016556252654 70.0003529022696
179.94046731583734 39.151033112910135 80.00049247383382
179.94085409564164 39.15203083938008 90.00060742372881
180.00000000001552 49.152155767361066 9.999999999999993
180.00000000001552 49.15117852650951 19.999999999999993
180.00000000001552 49.15031004596422 29.999999999999996
180.00000000001552 49.14972712309157 40.0
180.00000000001552 49.14952354002029 50.0
180.00000000001552 49.14972712309158 60.0
180.00000000001552 49.15031004596422 70.0
180.00000000001552 49.15117852650951 80.0
180.00000000001552 49.15215576736107 90.00000000000001
180.05914590438945 59.152030839350296 10.000607423728784
180.05953268419375 59.15103311288035 20.000492473833795
180.05976274182274 59.15016556249676 30.000352902269583
180.0598833158285 59.149588196393964 40.00018509645884
180.059920712782 59.1493871240175 50.0
180.0598833158285 59.149588196393964 59.99981490354116
180.05976274182274 59.15016556249676 69.99964709773042
180.05953268419375 59.151033112880356 79.99950752616621
180.05914590438945 59.152030839350296 89.99939257627122
180.119400624822 69.15168615136241 10.001371223161746
180.12013141972045 69.15063634696986 20.00109478961244
180.12056242541058 69.14977401266978 30.00077297597323
180.12078619911188 69.14921252386614 40.00040134687916
180.12085519937895 69.14901830724563 50.0
180.12078619911188 69.14921252386614 59.99959865312084
180.12056242541058 69.14977401266978 69.99922702402677
180.12013141972045 69.15063634696986 79.99890521038756
180.119400624822 69.15168615136241 89.99862877683826
180.18186643685067 79.15118740088629 10.00240544625856
180.18285889177457 79.15007985040502 20.001881740631937
180.1834322390995 79.14923067776286 30.001302222652757
180.18372416372927 79.14869124681339 40.0006672462403
180.1838130820237 79.14850603354786 50.0
180.18372416372927 79.14869124681339 59.9993327537597
180.1834322390995 79.14923067776286 69.99869777734725
180.18285889177457 79.15007985040502 79.99811825936806
180.18186643685067 79.15118740088629 89.99759455374144
180.24753606100558 89.15049851419087 10.003732742551005
180.24866264219432 89.14935638946385 20.002852571028072
180.2492883614919 89.14852172311342 30.00193520560729
180.24959582489203 89.14800162266626 40.00097990773334
180.24968752382662 89.14782408463526 50.0
180.24959582489203 89.14800162266626 59.99902009226666
180.2492883614919 89.14852172311342 69.9980647943927
180.24866264219432 89.14935638946385 79.99714742897193
180.24753606100558 89.15049851419089 89.99626725744899
189.75056561350186 9.078557832773573 9.998099581715524
189.74938846686814 9.077568590270548 19.99842095725381
189.74873837797315 9.076825570590223 29.9988572492366
189.7484155391802 9.076352164756036 39.99939859140762
189.74831829113677 9.076188839021748 50.0
189.7484155391802 9.076352164756038 60.00060140859239
189.74873837797315 9.076825570590225 70.0011427507634
189.74938846686814 9.07756859027055 80.00157904274619
189.75056561350186 9.078557832773575 90.00190041828448
189.8169719297953 19.079551381236467 9.999171576667491
189.81591895332775 19.07857930273522 19.999191353601613
189.8153166995118 19.077784972361957 29.99935461906131
189.81500951043498 19.077268821939338 39.999643853206294
189.8149156993633 19.077090025053415 50.0
189.81500951043498 19.077268821939338 60.000356146793706
189.8153166995118 19.077784972361957 70.00064538093869
189.81591895332775 19.078579302735225 80.00080864639838
189.8169719297953 19.079551381236467 90.0008284233325
189.87985847909778 29.080678401096986 9.999789980341024
189.87906736465698 29.079751912773403 19.999690751514862
189.8786095320281 29.078909819721353 29.99970403559619
189.87837222215427 29.0783485291488 39.99982312558352
189.87829903223883 29.078153020290348 50.0
189.87837222215427 29.078348529148805 60.00017687441648
189.8786095320281 29.078909819721353 70.00029596440382
189.87906736465698 29.079751912773407 80.00030924848514
189.87985847909778 29.08067840109699 90.00021001965898
189.9404870353862 39.081520873270264 10.000005508508442
189.94006433747262 39.080642906964144 19.99992299310521
189.93981778524014 39.07977310997925 29.99989897958042
189.93968925134342 39.07917939246742 39.999933096462
189.93964941005223 39.07897133985529 50.0
189.93968925134342 39.07917939246742 60.000066903538006
189.93981778524014 39.07977310997925 70.00010102041958
189.94006433747262 39.080642906964144 80.0000770068948
189.9404870353862 39.081520873270264 89.99999449149156
190.0000000000073 49.08182797102742 10.000000000000002
190.00000000000728 49.08097058405533 20.0
190.00000000000728 49.08009237124824 30.0
190.00000000000728 49.07948719279723 40.0
190.00000000000728 49.07927455365747 50.0
190.00000000000728 49.07948719279724 60.0
190.00000000000728 49.08009237124824 70.0
190.00000000000728 49.080970584055336 80.0
190.0000000000073 49.08182797102742 90.0
190.05951296462823 59.08152087323902 9.999994491491556
190.05993566254182 59.0806429069329 20.00007700689479
190.06018221477427 59.07977310994801 30.000101020419578
190.060310748671 59.079179392436174 40.000066903538
190.06035058996218 59.078971339824044 50.0
190.060310748671 59.079179392436174 59.999933096462
190.06018221477427 59.07977310994801 69.99989897958042
190.0599356625418 59.08064290693291 79.99992299310522
190.05951296462823 59.08152087323902 90.00000550850845
190.1201415209169 69.08067840107167 10.00021001965896
190.1209326353577 69.0797519127481 20.000309248485127
190.12139046798657 69.07890981969604 30.0002959644038
190.1216277778604 69.07834852912349 40.00017687441648
190.1217009677758 69.07815302026503 50.0
190.1216277778604 69.07834852912349 59.999823125583525
190.12139046798657 69.07890981969604 69.9997040355962
190.1209326353577 69.0797519127481 79.99969075151488
190.1201415209169 69.08067840107168 89.99978998034103
190.18302807021993 79.07955138121363 10.000828423332484
190.18408104668745 79.0785793027124 20.00080864639837
190.1846833005034 79.07778497233913 30.00064538093868
190.18499048958023 79.0772688219165 40.0003561467937
190.1850843006519 79.07709002503059 50.0
190.18499048958023 79.0772688219165 59.9996438532063
190.1846833005034 79.07778497233913 69.99935461906132
190.18408104668745 79.0785793027124 79.99919135360163
190.18302807021993 79.07955138121363 89.99917157666752
190.24943438651388 89.07855783275738 10.001900418284448
190.25061153314763 89.07756859025436 20.001579042746172
190.2512616220426 89.07682557057403 30.00114275076339
190.25158446083557 89.07635216473984 40.00060140859238
190.251681708879 89.07618883900555 50.0
190.25158446083557 89.07635216473984 59.99939859140762
190.2512616220426 89.07682557057403 69.99885724923661
190.25061153314763 89.07756859025436 79.99842095725383
190.24943438651388 89.07855783275738 89.99809958171555

CELLS 2000 18000
8 0 8 156 63 120 327 1002 822
8 120 327 1002 822 121 328 1003 823
8 121 328 1003 823 122 329 1004 824
8 122 329 1004 824 123 330 1005 825
8 123 330 1005 825 124 331 1006 826
8 124 331 1006 826 125 332 1007 827
8 125 332 1007 827 126 333 1008 828
8 126 333 1008 828 127 334 1009 829
8 127 334 1009 829 128 335 1010 830
8 128 335 1010 830 4 64 831 119
8 63 156 157 62 822 1002 1011 813
8 822 1002 1011 813 823 1003 1012 814
8 823 1003 1012 814 824 1004 1013 815
8 824 1004 1013 815 825 1005 1014 816
8 825 1005 1014 816 826 1006 1015 817
8 826 1006 1015 817 827 1007 1016 818
8 827 1007 1016 818 828 1008 1017 819
8 828 1008 1017 819 829 1009 1018 820
8 829 1009 1018 820 830 1010 1019 821
8 830 1010 1019 821 119 831 832 118
8 62 157 158 61 813 1011 1020 804
8 813 1011 1020 804 814 1012 1021 805
8 814 1012 1021 805 815 1013 1022 806
8 815 1013 1022 806 816 1014 1023 807
8 816 1014 1023 807 817 1015 1024 808
8 817 1015 1024 808 818 1016 1025 809
8 818 1016 1025 809 819 1017 1026 810
8 819 1017 1026 810 820 1018 1027 811
8 820 1018 1027 811 821 1019 1028 812
8 821 1019 1028 812 118 832 833 117
8 61 158 159 60 804 1020 1029 795
8 804 1020 1029 795 805 1021 1030 796
8 805 1021 1030 796 806 1022 1031 797
8 806 1022 1031 797 807 1023 1032 798
8 807 1023 1032 798 808 1024 1033 799
8 808 1024 1033 799 809 1025 1034 800
8 809 1025 1034 800 810 1026 1035 801
8 810 1026 1035 801 811 1027 1036 802
8 811 1027 1036 802 812 1028 1037 803
8 812 1028 1037 803 117 833 834 116
8 60 159 160 59 795 1029 1038 786
8 795 1029 1038 786 796 1030 1039 787
8 796 1030 1039 787 797 1031 1040 788
8 797 1031 1040 788 798 1032 1041 789
8 798 1032 1041 789 799 1033 1042 790
8 799 1033 1042 790 800 1034 1043 791
8 800 1034 1043 791 801 1035 1044 792
8 801 1035 1044 792 802 1036 1045 793
8 802 1036 1045 793 803 1037 1046 794
8 803 1037 1046 794 116 834 835 115
8 59 160 161 58 786 1038 1047 777
8 786 1038 1047 777 787 1039 1048 778
8 787 1039 1048 778 788 1040 1049 779
8 788 1040 1049 779 789 1041 1050 780
8 789 1041 1050 780 790 1042 1051 781
8 790 1042 1051 781 791 1043 1052 782
8 791 1043 1052 782 792 1044 1053 783
8 792 1044 1053 783 793 1045 1054 784
8 793 1045 1054 784 794 1046 1055 785
8 794 1046 1055 785 115 835 836 114
8 58 161 162 57 777 1047 1056 768
8 777 1047 1056 768 778 1048 1057 769
8 778 1048 1057 769 779 1049 1058 770
8 779 1049 1058 770 780 1050 1059 771
8 780 1050 1059 771 781 1051 1060 772
8 781 1051 1060 772 782 1052 1061 773
8 782 1052 1061 773 783 1053 1062 774
8 783 1053 1062 774 784 1054 1063 775
8 784 1054 1063 775 785 1055 1064 776
8 785 1055 1064 776 114 836 837 113
8 57 162 163 56 768 1056 1065 759
8 768 1056 1065 759 769 1057 1066 760
8 769 1057 1066 760 770 1058 1067 761
8 770 1058 1067 761 771 1059 1068 762
8 771 1059 1068 762 772 1060 1069 763
8 772 1060 1069 763 773 1061 1070 764
8 773 1061 1070 764 774 1062 1071 765
8 774 1062 1071 765 775 1063 1072 766
8 775 1063 1072 766 776 1064 1073 767
8 776 1064 1073 767 113 837 838 112
8 56 163 164 55 759 1065 1074 750
8 759 1065 1074 750 760 1066 1075 751
8 760 1066 1075 751 761 1067 1076 752
8 761 1067 1076 752 762 1068 1077 753
8 762 1068 1077 753 763 1069 1078 754
8 763 1069 1078 754 764 1070 1079 755
8 764 1070 1079 755 765 1071 1080 756
8 765 1071 1080 756 766 1072 1081 757
8 766 1072 1081 757 767 1073 1082 758
8 767 1073 1082 758 112 838 839 111
8 55 164 54 3 750 1074 741 147
8 750 1074 741 147 751 1075 742 148
8 751 1075 742 148 752 1076 743 149
8 752 1076 743 149 753 1077 744 150
8 753 1077 744 150 754 1078 745 151
8 754 1078 745 151 755 1079 746 152
8 755 1079 746 152 756 1080 747 153
8 756 1080 747 153 757 1081 748 154
8 757 1081 748 154 758 1082 749 155
8 758 1082 749 155 111 839 110 7
8 8 9 165 156 327 336 1083 1002
8 327 336 1083 1002 328 337 1084 1003
8 328 337 1084 1003 329 338 1085 1004
8 329 338 1085 1004 330 339 1086 1005
8 330 339 1086 1005 331 340 1087 1006
8 331 340 1087 1006 332 341 1088 1007
8 332 341 1088 1007 333 342 1089 1008
8 333 342 1089 1008 334 343 1090 1009
8 334 343 1090 1009 335 344 1091 1010
8 335 344 1091 1010 64 65 840 831
8 156 165 166 157 1002 1083 1092 1011
8 1002 1083 1092 1011 1003 1084 1093 1012
8 1003 1084 1093 1012 1004 1085 1094 1013
8 1004 1085 1094 1013 1005 1086 1095 1014
8 1005 1086 1095 1014 1006 1087 1096 1015
8 1006 1087 1096 1015 1007 1088 1097 1016
8 1007 1088 1097 1016 1008 1089 1098 1017
8 1008 1089 1098 1017 1009 1090 1099 1018
8 1009 1090 1099 1018 1010 1091 1100 1019
8 1010 1091 1100 1019 831 840 841 832
8 157 166 167 158 1011 1092 1101 1020
8 1011 1092 1101 1020 1012 1093 1102 1021
8 1012 1093 1102 1021 1013 1094 1103 1022
8 1013 1094 1103 1022 1014 1095 1104 1023
8 1014 1095 1104 1023 1015 1096 1105 1024
8 1015 1096 1105 1024 1016 1097 1106 1025
8 1016 1097 1106 1025 1017 1098 1107 1026
8 1017 1098 1107 1026 1018 1099 1108 1027
8 1018 1099 1108 1027 1019 1100 1109 1028
8 1019 1100 1109 1028 832 841 842 833
8 158 167 168 159 1020 1101 1110 1029
8 1020 1101 1110 1029 1021 1102 1111 1030
8 1021 1102 1111 1030 1022 1103 1112 1031
8 1022 1103 1112 1031 1023 1104 1113 1032
8 1023 1104 1113 1032 1024 1105 1114 1033
8 1024 1105 1114 1033 1025 1106 1115 1034
8 1025 1106 1115 1034 1026 1107 1116 1035
8 1026 1107 1116 1035 1027 1108 1117 1036
8 1027 1108 1117 1036 1028 1109 1118 1037
8 1028 1109 1118 1037 833 842 843 834
8 159 168 169 160 1029 1110 1119 1038
8 1029 1110 1119 1038 1030 1111 1120 1039
8 1030 1111 1120 1039 1031 1112 1121 1040
8 1031 1112 1121 1040 1032 1113 1122 1041
8 1032 1113 1122 1041 1033 1114 1123 1042
8 1033 1114 1123 1042 1034 1115 1124 1043
8 1034 1115 1124 1043 1035 1116 1125 1044
8 1035 1116 1125 1044 1036 1117 1126 1045
8 1036 1117 1126 1045 1037 1118 1127 1046
8 1037 1118 1127 1046 834 843 844 835
8 160 169 170 161 1038 1119 1128 1047
8 1038 1119 1128 1047 1039 1120 1129 1048
8 1039 1120 1129 1048 1040 1121 1130 1049
8 1040 1121 1130 1049 1041 1122 1131 1050
8 1041 1122 1131 1050 1042 1123 1132 1051
8 1042 1123 1132 1051 1043 1124 1133 1052
8 1043 1124 1133 1052 1044 1125 1134 1053
8 1044 1125 1134 1053 1045 1126 1135 1054
8 1045 1126 1135 1054 1046 1127 1136 1055
8 1046 1127 1136 1055 835 844 845 836
8 161 170 171 162 1047 1128 1137 1056
8 1047 1128 1137 1056 1048 1129 1138 1057
8 1048 1129 1138 1057 1049 1130 1139 1058
8 1049 1130 1139 1058 1050 1131 1140 1059
8 1050 1131 1140 1059 1051 1132 1141 1060
8 1051 1132 1141 1060 1052 1133 1142 1061
8 1052 1133 1142 1061 1053 1134 1143 1062
8 1053 1134 1143 1062 1054 1135 1144 1063
8 1054 1135 1144 1063 1055 1136 1145 1064
8 1055 1136 1145 1064 836 845 846 837
8 162 171 172 163 1056 1137 1146 1065
8 1056 1137 1146 1065 1057 1138 1147 1066
8 1057 1138 1147 1066 1058 1139 1148 1067
8 1058 1139 1148 1067 1059 1140 1149 1068
8 1059 1140 1149 1068 1060 1141 1150 1069
8 1060 1141 1150 1069 1061 1142 1151 1070
8 1061 1142 1151 1070 1062 1143 1152 1071
8 1062 1143 1152 1071 1063 1144 1153 1072
8 1063 1144 1153 1072 1064 1145 1154 1073
8 1064 1145 1154 1073 837 846 847 838
8 163 172 173 164 1065 1146 1155 1074
8 1065 1146 1155 1074 1066 1147 1156 1075
8 1066 1147 1156 1075 1067 1148 1157 1076
8 1067 1148 1157 1076 1068 1149 1158 1077
8 1068 1149 1158 1077 1069 1150 1159 1078
8 1069 1150 1159 1078 1070 1151 1160 1079
8 1070 1151 1160 1079 1071 1152 1161 1080
8 1071 1152 1161 1080 1072 1153 1162 1081
8 1072 1153 1162 1081 1073 1154 1163 1082
8 1073 1154 1163 1082 838 847 848 839
8 164 173 53 54 1074 1155 732 741
8 1074 1155 732 741 1075 1156 733 742
8 1075 1156 733 742 1076 1157 734 743
8 1076 1157 734 743 1077 1158 735 744
8 1077 1158 735 744 1078 1159 736 745
8 1078 1159 736 745 1079 1160 737 746
8 1079 1160 737 746 1080 1161 738 747
8 1080 1161 738 747 1081 1162 739 748
8 1081 1162 739 748 1082 1163 740 749
8 1082 1163 740 749 839 848 109 110
8 9 10 174 165 336 345 1164 1083
8 336 345 1164 1083 337 346 1165 1084
8 337 346 1165 1084 338 347 1166 1085
8 338 347 1166 1085 339 348 1167 1086
8 339 348 1167 1086 340 349 1168 1087
8 340 349 1168 1087 341 350 1169 1088
8 341 350 1169 1088 342 351 1170 1089
8 342 351 1170 1089 343 352 1171 1090
8 343 352 1171 1090 344 353 1172 1091
8 344 353 1172 1091 65 66 849 840
8 165 174 175 166 1083 1164 1173 1092
8 1083 1164 1173 1092 1084 1165 1174 1093
8 1084 1165 1174 1093 1085 1166 1175 1094
8 1085 1166 1175 1094 1086 1167 1176 1095
8 1086 1167 1176 1095 1087 1168 1177 1096
8 1087 1168 1177 1096 1088 1169 1178 1097
8 1088 1169 1178 1097 1089 1170 1179 1098
8 1089 1170 1179 1098 1090 1171 1180 1099
8 1090 1171 1180 1099 1091 1172 1181 1100
8 1091 1172 1181 1100 840 849 850 841
8 166 175 176 167 1092 1173 1182 1101
8 1092 1173 1182 1101 1093 1174 1183 1102
8 1093 1174 1183 1102 1094 1175 1184 1103
8 1094 1175 1184 1103 1095 1176 1185 1104
8 1095 1176 1185 1104 1096 1177 1186 1105
8 1096 1177 1186 1105 1097 1178 1187 1106
8 1097 1178 1187 1106 1098 1179 1188 1107
8 1098 1179 1188 1107 1099 1180 1189 1108
8 1099 1180 1189 1108 1100 1181 1190 1109
8 1100 1181 1190 1109 841 850 851 842
8 167 176 177 168 1101 1182 1191 1110
8 1101 1182 1191 1110 1102 1183 1192 1111
8 1102 1183 1192 1111 1103 1184 1193 1112
8 1103 1184 1193 1112 1104 1185 1194 1113
8 1104 1185 1194 1113 1105 1186 1195 1114
8 1105 1186 1195 1114 1106 1187 1196 1115
8 1106 1187 1196 1115 1107 1188 1197 1116
8 1107 1188 1197 1116 1108 1189 1198 1117
8 1108 1189 1198 1117 1109 1190 1199 1118
8 1109 1190 1199 1118 842 851 852 843
8 168 177 178 169 1110 1191 1200 1119
8 1110 1191 1200 1119 1111 1192 1201 1120
8 1111 1192 1201 1120 1112 1193 1202 1121
8 1112 1193 1202 1121 1113 1194 1203 1122
8 1113 1194 1203 1122 1114 1195 1204 1123
8 1114 1195 1204 1123 1115 1196 1205 1124
8 1115 1196 1205 1124 1116 1197 1206 1125
8 1116 1197 1206 1125 1117 1198 1207 1126
8 1117 1198 1207 1126 1118 1199 1208 1127
8 1118 1199 1208 1127 843 852 853 844
8 169 178 179 170 1119 1200 1209 1128
8 1119 1200 1209 1128 1120 1201 1210 1129
8 1120 1201 1210 1129 1121 1202 1211 1130
8 1121 1202 1211 1130 1122 1203 1212 1131
8 1122 1203 1212 1131 1123 1204 1213 1132
8 1123 1204 1213 1132 1124 1205 1214 1133
8 1124 1205 1214 1133 1125 1206 1215 1134
8 1125 1206 1215 1134 1126 1207 1216 1135
8 1126 1207 1216 1135 1127 1208 1217 1136
8 1127 1208 1217 1136 844 853 854 845
8 170 179 180 171 1128 1209 1218 1137
8 1128 1209 1218 1137 1129 1210 1219 1138
8 1129 1210 1219 1138 1130 1211 1220 1139
8 1130 1211 1220 1139 1131 1212 1221 1140
8 1131 1212 1221 1140 1132 1213 1222 1141
8 1132 1213 1222 1141 1133 1214 1223 1142
8 1133 1214 1223 1142 1134 1215 1224 1143
8 1134 1215 1224 1143 1135 1216 1225 1144
8 1135 1216 1225 1144 1136 1217 1226 1145
8 1136 1217 1226 1145 845 854 855 846
8 171 180 181 172 1137 1218 1227 1146
8 1137 1218 1227 1146 1138 1219 1228 1147
8 1138 1219 1228 1147 1139 1220 1229 1148
8 1139 1220 1229 1148 1140 1221 1230 1149
8 1140 1221 1230 1149 1141 1222 1231 1150
8 1141 1222 1231 1150 1142 1223 1232 1151
8 1142 1223 1232 1151 1143 1224 1233 1152
8 1143 1224 1233 1152 1144 1225 1234 1153
8 1144 1225 1234 1153 1145 1226 1235 1154
8 1145 1226 1235 1154 846 855 856 847
8 172 181 182 173 1146 1227 1236 1155
8 1146 1227 1236 1155 1147 1228 1237 1156
8 1147 1228 1237 1156 1148 1229 1238 1157
8 1148 1229 1238 1157 1149 1230 1239 1158
8 1149 1230 1239 1158 1150 1231 1240 1159
8 1150 1231 1240 1159 1151 1232 1241 1160
8 1151 1232 1241 1160 1152 1233 1242 1161
8 1152 1233 1242 1161 1153 1234 1243 1162
8 1153 1234 1243 1162 1154 1235 1244 1163
8 1154 1235 1244 1163 847 856 857 848
8 173 182 52 53 1155 1236 723 732
8 1155 1236 723 732 1156 1237 724 733
8 1156 1237 724 733 1157 1238 725 734
8 1157 1238 725 734 1158 1239 726 735
8 1158 1239 726 735 1159 1240 727 736
8 1159 1240 727 736 1160 1241 728 737
8 1160 1241 728 737 1161 1242 729 738
8 1161 1242 729 738 1162 1243 730 739
8 1162 1243 730 739 1163 1244 731 740
8 1163 1244 731 740 848 857 108 109
8 10 11 183 174 345 354 1245 1164
8 345 354 1245 1164 346 355 1246 1165
8 346 355 1246 1165 347 356 1247 1166
8 347 356 1247 1166 348 357 1248 1167
8 348 357 1248 1167 349 358 1249 1168
8 349 358 1249 1168 350 359 1250 1169
8 350 359 1250 1169 351 360 1251 1170
8 351 360 1251 1170 352 361 1252 1171
8 352 361 1252 1171 353 362 1253 1172
8 353 362 1253 1172 66 67 858 849
8 174 183 184 175 1164 1245 1254 1173
8 1164 1245 1254 1173 1165 1246 1255 1174
8 1165 1246 1255 1174 1166 1247 1256 1175
8 1166 1247 1256 1175 1167 1248 1257 1176
8 1167 1248 1257 1176 1168 1249 1258 1177
8 1168 1249 1258 1177 1169 1250 1259 1178
8 1169 1250 1259 1178 1170 1251 1260 1179
8 1170 1251 1260 1179 1171 1252 1261 1180
8 1171 1252 1261 1180 1172 1253 1262 1181
8 1172 1253 1262 1181 849 858 859 850
8 175 184 185 176 1173 1254 1263 1182
8 1173 1254 1263 1182 1174 1255 1264 1183
8 1174 1255 1264 1183 1175 1256 1265 1184
8 1175 1256 1265 1184 1176 1257 1266 1185
8 1176 1257 1266 1185 1177 1258 1267 1186
8 1177 1258 1267 1186 1178 1259 1268 1187
8 1178 1259 1268 1187 1179 1260 1269 1188
8 1179 1260 1269 1188 1180 1261 1270 1189
8 1180 1261 1270 1189 1181 1262 1271 1190
8 1181 1262 1271 1190 850 859 860 851
8 176 185 186 177 1182 1263 1272 1191
8 1182 1263 1272 1191 1183 1264 1273 1192
8 1183 1264 1273 1192 1184 1265 1274 1193
8 1184 1265 1274 1193 1185 1266 1275 1194
8 1185 1266 1275 1194 1186 1267 1276 1195
8 1186 1267 1276 1195 1187 1268 1277 1196
8 1187 1268 1277 1196 1188 1269 1278 1197
8 1188 1269 1278 1197 1189 1270 1279 1198
8 1189 1270 1279 1198 1190 1271 1280 1199
8 1190 1271 1280 1199 851 860 861 852
8 177 186 187 178 1191 1272 1281 1200
8 1191 1272 1281 1200 1192 1273 1282 1201
8 1192 1273 1282 1201 1193 1274 1283 1202
8 1193 1274 1283 1202 1194 1275 1284 1203
8 1194 1275 1284 1203 1195 1276 1285 1204
8 1195 1276 1285 1204 1196 1277 1286 1205
8 1196 1277 1286 1205 1197 1278 1287 1206
8 1197 1278 1287 1206 1198 1279 1288 1207
8 1198 1279 1288 1207 1199 1280 1289 1208
8 1199 1280 1289 1208 852 861 862 853
8 178 187 188 179 1200 1281 1290 1209
8 1200 1281 1290 1209 1201 1282 1291 1210
8 1201 1282 1291 1210 1202 1283 1292 1211
8 1202 1283 1292 1211 1203 1284 1293 1212
8 1203 1284 1293 1212 1204 1285 1294 1213
8 1204 1285 1294 1213 1205 1286 1295 1214
8 1205 1286 1295 1214 1206 1287 1296 1215
8 1206 1287 1296 1215 1207 1288 1297 1216
8 1207 1288 1297 1216 1208 1289 1298 1217
8 1208 1289 1298 1217 853 862 863 854
8 179 188 189 180 1209 1290 1299 1218
8 1209 1290 1299 1218 1210 1291 1300 1219
8 1210 1291 1300 1219 1211 1292 1301 1220
8 1211 1292 1301 1220 1212 1293 1302 1221
8 1212 1293 1302 1221 1213 1294 1303 1222
8 1213 1294 1303 1222 1214 1295 1304 1223
8 1214 1295 1304 1223 1215 1296 1305 1224
8 1215 1296 1305 1224 1216 1297 1306 1225
8 1216 1297 1306 1225 1217 1298 1307 1226
8 1217 1298 1307 1226 854 863 864 855
8 180 189 190 181 1218 1299 1308 1227
8 1218 1299 1308 1227 1219 1300 1309 1228
8 1219 1300 1309 1228 1220 1301 1310 1229
8 1220 1301 1310 1229 1221 1302 1311 1230
8 1221 1302 1311 1230 1222 1303 1312 1231
8 1222 1303 1312 1231 1223 1304 1313 1232
8 1223 1304 1313 1232 1224 1305 1314 1233
8 1224 1305 1314 1233 1225 1306 1315 1234
8 1225 1306 1315 1234 1226 1307 1316 1235
8 1226 1307 1316 1235 855 864 865 856
8 181 190 191 182 1227 1308 1317 1236
8 1227 1308 1317 1236 1228 1309 1318 1237
8 1228 1309 1318 1237 1229 1310 1319 1238
8 1229 1310 1319 1238 1230 1311 1320 1239
8 1230 1311 1320 1239 1231 1312 1321 1240
8 1231 1312 1321 1240 1232 1313 1322 1241
8 1232 1313 1322 1241 1233 1314 1323 1242
8 1233 1314 1323 1242 1234 1315 1324 1243
8 1234 1315 1324 1243 1235 1316 1325 1244
8 1235 1316 1325 1244 856 865 866 857
8 182 191 51 52 1236 1317 714 723
8 1236 1317 714 723 1237 1318 715 724
8 1237 1318 715 724 1238 1319 716 725
8 1238 1319 716 725 1239 1320 717 726
8 1239 1320 717 726 1240 1321 718 727
8 1240 1321 718 727 1241 1322 719 728
8 1241 1322 719 728 1242 1323 720 729
8 1242 1323 720 729 1243 1324 721 730
8 1243 1324 721 730 1244 1325 722 731
8 1244 1325 722 731 857 866 107 108
8 11 12 192 183 354 363 1326 1245
8 354 363 1326 1245 355 364 1327 1246
8 355 364 1327 1246 356 365 1328 1247
8 356 365 1328 1247 357 366 1329 1248
8 357 366 1329 1248 358 367 1330 1249
8 358 367 1330 1249 359 368 1331 1250
8 359 368 1331 1250 360 369 1332 1251
8 360 369 1332 1251 361 370 1333 1252
8 361 370 1333 1252 362 371 1334 1253
8 362 371 1334 1253 67 68 867 858
8 183 192 193 184 1245 1326 1335 1254
8 1245 1326 1335 1254 1246 1327 1336 1255
8 1246 1327 1336 1255 1247 1328 1337 1256
8 1247 1328 1337 1256 1248 1329 1338 1257
8 1248 1329 1338 1257 1249 1330 1339 1258
8 1249 1330 1339 1258 1250 1331 1340 1259
8 1250 1331 1340 1259 1251 1332 1341 1260
8 1251 1332 1341 1260 1252 1333 1342 1261
8 1252 1333 1342 1261 1253 1334 1343 1262
8 1253 1334 1343 1262 858 867 868 859
8 184 193 194 185 1254 1335 1344 1263
8 1254 1335 1344 1263 1255 1336 1345 1264
8 1255 1336 1345 1264 1256 1337 1346 1265
8 1256 1337 1346 1265 1257 1338 1347 1266
8 1257 1338 1347 1266 1258 1339 1348 1267
8 1258 1339 1348 1267 1259 1340 1349 1268
8 1259 1340 1349 1268 1260 1341 1350 1269
8 1260 1341 1350 1269 1261 1342 1351 1270
8 1261 1342 1351 1270 1262 1343 1352 1271
8 1262 1343 1352 1271 859 868 869 860
8 185 194 195 186 1263 1344 1353 1272
8 1263 1344 1353 1272 1264 1345 1354 1273
8 1264 1345 1354 1273 1265 1346 1355 1274
8 1265 1346 1355 1274 1266 1347 1356 1275
8 1266 1347 1356 1275 1267 1348 1357 1276
8 1267 1348 1357 1276 1268 1349 1358 1277
8 1268 1349 1358 1277 1269 1350 1359 1278
8 1269 1350 1359 1278 1270 1351 1360 1279
8 1270 1351 1360 1279 1271 1352 1361 1280
8 1271 1352 1361 1280 860 869 870 861
8 186 195 196 187 1272 1353 1362 1281
8 1272 1353 1362 1281 1273 1354 1363 1282
8 1273 1354 1363 1282 1274 1355 1364 1283
8 1274 1355 1364 1283 1275 1356 1365 1284
8 1275 1356 1365 1284 1276 1357 1366 1285
8 1276 1357 1366 1285 1277 1358 1367 1286
8 1277 1358 1367 1286 1278 1359 1368 1287
8 1278 1359 1368 1287 1279 1360 1369 1288
8 1279 1360 1369 1288 1280 1361 1370 1289
8 1280 1361 1370 1289 861 870 871 862
8 187 196 197 188 1281 1362 1371 1290
8 1281 1362 1371 1290 1282 1363 1372 1291
8 1282 1363 1372 1291 1283 1364 1373 1292
8 1283 1364 1373 1292 1284 1365 1374 1293
8 1284 1365 1374 1293 1285 1366 1375 1294
8 1285 1366 1375 1294 1286 1367 1376 1295
8 1286 1367 1376 1295 1287 1368 1377 1296
8 1287 1368 1377 1296 1288 1369 1378 1297
8 1288 1369 1378 1297 1289 1370 1379 1298
8 1289 1370 1379 1298 862 871 872 863
8 188 197 198 189 1290 1371 1380 1299
8 1290 1371 1380 1299 1291 1372 1381 1300
8 1291 1372 1381 1300 1292 1373 1382 1301
8 1292 1373 1382 1301 1293 1374 1383 1302
8 1293 1374 1383 1302 1294 1375 1384 1303
8 1294 1375 1384 1303 1295 1376 1385 1304
8 1295 1376 1385 1304 1296 1377 1386 1305
8 1296 1377 1386 1305 1297 1378 1387 1306
8 1297 1378 1387 1306 1298 1379 1388 1307
8 1298 1379 1388 1307 863 872 873 864
8 189 198 199 190 1299 1380 1389 1308
8 1299 1380 1389 1308 1300 1381 1390 1309
8 1300 1381 1390 1309 1301 1382 1391 1310
8 1301 1382 1391 1310 1302 1383 1392 1311
8 1302 1383 1392 1311 1303 1384 1393 1312
8 1303 1384 1393 1312 1304 1385 1394 1313
8 1304 1385 1394 1313 1305 1386 1395 1314
8 1305 1386 1395 1314 1306 1387 1396 1315
8 1306 1387 1396 1315 1307 1388 1397 1316
8 1307 1388 1397 1316 864 873 874 865
8 190 199 200 191 1308 1389 1398 1317
8 1308 1389 1398 1317 1309 1390 1399 1318
8 1309 1390 1399 1318 1310 1391 1400 1319
8 1310 1391 1400 1319 1311 1392 1401 1320
8 1311 1392 1401 1320 1312 1393 1402 1321
8 1312 1393 1402 1321 1313 1394 1403 1322
8 1313 1394 1403 1322 1314 1395 1404 1323
8 1314 1395 1404 1323 1315 1396 1405 1324
8 1315 1396 1405 1324 1316 1397 1406 1325
8 1316 1397 1406 1325 865 874 875 866
8 191 200 50 51 1317 1398 705 714
8 1317 1398 705 714 1318 1399 706 715
8 1318 1399 706 715 1319 1400 707 716
8 1319 1400 707 716 1320 1401 708 717
8 1320 1401 708 717 1321 1402 709 718
8 1321 1402 709 718 1322 1403 710 719
8 1322 1403 710 719 1323 1404 711 720
8 1323 1404 711 720 1324 1405 712 721
8 1324 1405 712 721 1325 1406 713 722
8 1325 1406 713 722 866 875 106 107
8 12 13 201 192 363 372 1407 1326
8 363 372 1407 1326 364 373 1408 1327
8 364 373 1408 1327 365 374 1409 1328
8 365 374 1409 1328 366 375 1410 1329
8 366 375 1410 1329 367 376 1411 1330
8 367 376 1411 1330 368 377 1412 1331
8 368 377 1412 1331 369 378 1413 1332
8 369 378 1413 1332 370 379 1414 1333
8 370 379 1414 1333 371 380 1415 1334
8 371 380 1415 1334 68 69 876 867
8 192 201 202 193 1326 1407 1416 1335
8 1326 1407 1416 1335 1327 1408 1417 1336
8 1327 1408 1417 1336 1328 1409 1418 1337
8 1328 1409 1418 1337 1329 1410 1419 1338
8 1329 1410 1419 1338 1330 1411 1420 1339
8 1330 1411 1420 1339 1331 1412 1421 1340
8 1331 1412 1421 1340 1332 1413 1422 1341
8 1332 1413 1422 1341 1333 1414 1423 1342
8 1333 1414 1423 1342 1334 1415 1424 1343
8 1334 1415 1424 1343 867 876 877 868
8 193 202 203 194 1335 1416 1425 1344
8 1335 1416 1425 1344 1336 1417 1426 1345
8 1336 1417 1426 1345 1337 1418 1427 1346
8 1337 1418 1427 1346 1338 1419 1428 1347
8 1338 1419 1428 1347 1339 1420 1429 1348
8 1339 1420 1429 1348 1340 1421 1430 1349
8 1340 1421 1430 1349 1341 1422 1431 1350
8 1341 1422 1431 1350 1342 1423 1432 1351
8 1342 1423 1432 1351 1343 1424 1433 1352
8 1343 1424 1433 1352 868 877 878 869
8 194 203 204 195 1344 1425 1434 1353
8 1344 1425 1434 1353 1345 1426 1435 1354
8 1345 1426 1435 1354 1346 1427 1436 1355
8 1346 1427 1436 1355 1347 1428 1437 1356
8 1347 1428 1437 1356 1348 1429 1438 1357
8 1348 1429 1438 1357 1349 1430 1439 1358
8 1349 1430 1439 1358 1350 1431 1440 1359
8 1350 1431 1440 1359 1351 1432 1441 1360
8 1351 1432 1441 1360 1352 1433 1442 1361
8 1352 1433 1442 1361 869 878 879 870
8 195 204 205 196 1353 1434 1443 1362
8 1353 1434 1443 1362 1354 1435 1444 1363
8 1354 1435 1444 1363 1355 1436 1445 1364
8 1355 1436 1445 1364 1356 1437 1446 1365
8 1356 1437 1446 1365 1357 1438 1447 1366
8 1357 1438 1447 1366 1358 1439 1448 1367
8 1358 1439 1448 1367 1359 1440 1449 1368
8 1359 1440 1449 1368 1360 1441 1450 1369
8 1360 1441 1450 1369 1361 1442 1451 1370
8 1361 1442 1451 1370 870 879 880 871
8 196 205 206 197 1362 1443 1452 1371
8 1362 1443 1452 1371 1363 1444 1453 1372
8 1363 1444 1453 1372 1364 1445 1454 1373
8 1364 1445 1454 1373 1365 1446 1455 1374
8 1365 1446 1455 1374 1366 1447 1456 1375
8 1366 1447 1456 1375 1367 1448 1457 1376
8 1367 1448 1457 1376 1368 1449 1458 1377
8 1368 1449 1458 1377 1369 1450 1459 1378
8 1369 1450 1459 1378 1370 1451 1460 1379
8 1370 1451 1460 1379 871 880 881 872
8 197 206 207 198 1371 1452 1461 1380
8 1371 1452 1461 1380 1372 1453 1462 1381
8 1372 1453 1462 1381 1373 1454 1463 1382
8 1373 1454 1463 1382 1374 1455 1464 1383
8 1374 1455 1464 1383 1375 1456 1465 1384
8 1375 1456 1465 1384 1376 1457 1466 1385
8 1376 1457 1466 1385 1377 1458 1467 1386
8 1377 1458 1467 1386 1378 1459 1468 1387
8 1378 1459 1468 1387 1379 1460 1469 1388
8 1379 1460 1469 1388 872 881 882 873
8 198 207 208 199 1380 1461 1470 1389
8 1380 1461 1470 1389 1381 1462 1471 1390
8 1381 1462 1471 1390 1382 1463 1472 1391
8 1382 1463 1472 1391 1383 1464 1473 1392
8 1383 1464 1473 1392 1384 1465 1474 1393
8 1384 1465 1474 1393 1385 1466 1475 1394
8 1385 1466 1475 1394 1386 1467 1476 1395
8 1386 1467 1476 1395 1387 1468 1477 1396
8 1387 1468 1477 1396 1388 1469 1478 1397
8 1388 1469 1478 1397 873 882 883 874
8 199 208 209 200 1389 1470 1479 1398
8 1389 1470 1479 1398 1390 1471 1480 1399
8 1390 1471 1480 1399 1391 1472 1481 1400
8 1391 1472 1481 1400 1392 1473 1482 1401
8 1392 1473 1482 1401 1393 1474 1483 1402
8 1393 1474 1483 1402 1394 1475 1484 1403
8 1394 1475 1484 1403 1395 1476 1485 1404
8 1395 1476 1485 1404 1396 1477 1486 1405
8 1396 1477 1486 1405 1397 1478 1487 1406
8 1397 1478 1487 1406 874 883 884 875
8 200 209 49 50 1398 1479 696 705
8 1398 1479 696 705 1399 1480 697 706
8 1399 1480 697 706 1400 1481 698 707
8 1400 1481 698 707 1401 1482 699 708
8 1401 1482 699 708 1402 1483 700 709
8 1402 1483 700 709 1403 1484 701 710
8 1403 1484 701 710 1404 1485 702 711
8 1404 1485 702 711 1405 1486 703 712
8 1405 1486 703 712 1406 1487 704 713
8 1406 1487 704 713 875 884 105 106
8 13 14 210 201 372 381 1488 1407
8 372 381 1488 1407 373 382 1489 1408
8 373 382 1489 1408 374 383 1490 1409
8 374 383 1490 1409 375 384 1491 1410
8 375 384 1491 1410 376 385 1492 1411
8 376 385 1492 1411 377 386 1493 1412
8 377 386 1493 1412 378 387 1494 1413
8 378 387 1494 1413 379 388 1495 1414
8 379 388 1495 1414 380 389 1496 1415
8 380 389 1496 1415 69 70 885 876
8 201 210 211 202 1407 1488 1497 1416
8 1407 1488 1497 1416 1408 1489 1498 1417
8 1408 1489 1498 1417 1409 1490 1499 1418
8 1409 1490 1499 1418 1410 1491 1500 1419
8 1410 1491 1500 1419 1411 1492 1501 1420
8 1411 1492 1501 1420 1412 1493 1502 1421
8 1412 1493 1502 1421 1413 1494 1503 1422
8 1413 1494 1503 1422 1414 1495 1504 1423
8 1414 1495 1504 1423 1415 1496 1505 1424
8 1415 1496 1505 1424 876 885 886 877
8 202 211 212 203 1416 1497 1506 1425
8 1416 1497 1506 1425 1417 1498 1507 1426
8 1417 1498 1507 1426 1418 1499 1508 1427
8 1418 1499 1508 1427 1419 1500 1509 1428
8 1419 1500 1509 1428 1420 1501 1510 1429
8 1420 1501 1510 1429 1421 1502 1511 1430
8 1421 1502 1511 1430 1422 1503 1512 1431
8 1422 1503 1512 1431 1423 1504 1513 1432
8 1423 1504 1513 1432 1424 1505 1514 1433
8 1424 1505 1514 1433 877 886 887 878
8 203 212 213 204 1425 1506 1515 1434
8 1425 1506 1515 1434 1426 1507 1516 1435
8 1426 1507 1516 1435 1427 1508 1517 1436
8 1427 1508 1517 1436 1428 1509 1518 1437
8 1428 1509 1518 1437 1429 1510 1519 1438
8 1429 1510 1519 1438 1430 1511 1520 1439
8 1430 1511 1520 1439 1431 1512 1521 1440
8 1431 1512 1521 1440 1432 1513 1522 1441
8 1432 1513 1522 1441 1433 1514 1523 1442
8 1433 1514 1523 1442 878 887 888 879
8 204 213 214 205 1434 1515 1524 1443
8 1434 1515 1524 1443 1435 1516 1525 1444
8 1435 1516 1525 1444 1436 1517 1526 1445
8 1436 1517 1526 1445 1437 1518 1527 1446
8 1437 1518 1527 1446 1438 1519 1528 1447
8 1438 1519 1528 1447 1439 1520 1529 1448
8 1439 1520 1529 1448 1440 1521 1530 1449
8 1440 1521 1530 1449 1441 1522 1531 1450
8 1441 1522 1531 1450 1442 1523 1532 1451
8 1442 1523 1532 1451 879 888 889 880
8 205 214 215 206 1443 1524 1533 1452
8 1443 1524 1533 1452 1444 1525 1534 1453
8 1444 1525 1534 1453 1445 1526 1535 1454
8 1445 1526 1535 1454 1446 1527 1536 1455
8 1446 1527 1536 1455 1447 1528 1537 1456
8 1447 1528 1537 1456 1448 1529 1538 1457
8 1448 1529 1538 1457 1449 1530 1539 1458
8 1449 1530 1539 1458 1450 1531 1540 1459
8 1450 1531 1540 1459 1451 1532 1541 1460
8 1451 1532 1541 1460 880 889 890 881
8 206 215 216 207 1452 1533 1542 1461
8 1452 1533 1542 1461 1453 1534 1543 1462
8 1453 1534 1543 1462 1454 1535 1544 1463
8 1454 1535 1544 1463 1455 1536 1545 1464
8 1455 1536 1545 1464 1456 1537 1546 1465
8 1456 1537 1546 1465 1457 1538 1547 1466
8 1457 1538 1547 1466 1458 1539 1548 1467
8 1458 1539 1548 1467 1459 1540 1549 1468
8 1459 1540 1549 1468 1460 1541 1550 1469
8 1460 1541 1550 1469 881 890 891 882
8 207 216 217 208 1461 1542 1551 1470
8 1461 1542 1551 1470 1462 1543 1552 1471
8 1462 1543 1552 1471 1463 1544 1553 1472
8 1463 1544 1553 1472 1464 1545 1554 1473
8 1464 1545 1554 1473 1465 1546 1555 1474
8 1465 1546 1555 1474 1466 1547 1556 1475
8 1466 1547 1556 1475 1467 1548 1557 1476
8 1467 1548 1557 1476 1468 1549 1558 1477
8 1468 1549 1558 1477 1469 1550 1559 1478
8 1469 1550 1559 1478 882 891 892 883
8 208 217 218 209 1470 1551 1560 1479
8 1470 1551 1560 1479 1471 1552 1561 1480
8 1471 1552 1561 1480 1472 1553 1562 1481
8 1472 1553 1562 1481 1473 1554 1563 1482
8 1473 1554 1563 1482 1474 1555 1564 1483
8 1474 1555 1564 1483 1475 1556 1565 1484
8 1475 1556 1565 1484 1476 1557 1566 1485
8 1476 1557 1566 1485 1477 1558 1567 1486
8 1477 1558 1567 1486 1478 1559 1568 1487
8 1478 1559 1568 1487 883 892 893 884
8 209 218 48 49 1479 1560 687 696
8 1479 1560 687 696 1480 1561 688 697
8 1480 1561 688 697 1481 1562 689 698
8 1481 1562 689 698 1482 1563 690 699
8 1482 1563 690 699 1483 1564 691 700
8 1483 1564 691 700 1484 1565 692 701
8 1484 1565 692 701 1485 1566 693 702
8 1485 1566 693 702 1486 1567 694 703
8 1486 1567 694 703 1487 1568 695 704
8 1487 1568 695 704 884 893 104 105
8 14 15 219 210 381 390 1569 1488
8 381 390 1569 1488 382 391 1570 1489
8 382 391 1570 1489 383 392 1571 1490
8 383 392 1571 1490 384 393 1572 1491
8 384 393 1572 1491 385 394 1573 1492
8 385 394 1573 1492 386 395 1574 1493
8 386 395 1574 1493 387 396 1575 1494
8 387 396 1575 1494 388 397 1576 1495
8 388 397 1576 1495 389 398 1577 1496
8 389 398 1577 1496 70 71 894 885
8 210 219 220 211 1488 1569 1578 1497
8 1488 1569 1578 1497 1489 1570 1579 1498
8 1489 1570 1579 1498 1490 1571 1580 1499
8 1490 1571 1580 1499 1491 1572 1581 1500
8 1491 1572 1581 1500 1492 1573 1582 1501
8 1492 1573 1582 1501 1493 1574 1583 1502
8 1493 1574 1583 1502 1494 1575 1584 1503
8 1494 1575 1584 1503 1495 1576 1585 1504
8 1495 1576 1585 1504 1496 1577 1586 1505
8 1496 1577 1586 1505 885 894 895 886
8 211 220 221 212 1497 1578 1587 1506
8 1497 1578 1587 1506 1498 1579 1588 1507
8 1498 1579 1588 1507 1499 1580 1589 1508
8 1499 1580 1589 1508 1500 1581 1590 1509
8 1500 1581 1590 1509 1501 1582 1591 1510
8 1501 1582 1591 1510 1502 1583 1592 1511
8 1502 1583 1592 1511 1503 1584 1593 1512
8 1503 1584 1593 1512 1504 1585 1594 1513
8 1504 1585 1594 1513 1505 1586 1595 1514
8 1505 1586 1595 1514 886 895 896 887
8 212 221 222 213 1506 1587 1596 1515
8 1506 1587 1596 1515 1507 1588 1597 1516
8 1507 1588 1597 1516 1508 1589 1598 1517
8 1508 1589 1598 1517 1509 1590 1599 1518
8 1509 1590 1599 1518 1510 1591 1600 1519
8 1510 1591 1600 1519 1511 1592 1601 1520
8 1511 1592 1601 1520 1512 1593 1602 1521
8 1512 1593 1602 1521 1513 1594 1603 1522
8 1513 1594 1603 1522 1514 1595 1604 1523
8 1514 1595 1604 1523 887 896 897 888
8 213 222 223 214 1515 1596 1605 1524
8 1515 1596 1605 1524 1516 1597 1606 1525
8 1516 1597 1606 1525 1517 1598 1607 1526
8 1517 1598 1607 1526 1518 1599 1608 1527
8 1518 1599 1608 1527 1519 1600 1609 1528
8 1519 1600 1609 1528 1520 1601 1610 1529
8 1520 1601 1610 1529 1521 1602 1611 1530
8 1521 1602 1611 1530 1522 1603 1612 1531
8 1522 1603 1612 1531 1523 1604 1613 1532
8 1523 1604 1613 1532 888 897 898 889
8 214 223 224 215 1524 1605 1614 1533
8 1524 1605 1614 1533 1525 1606 1615 1534
8 1525 1606 1615 1534 1526 1607 1616 1535
8 1526 1607 1616 1535 1527 1608 1617 1536
8 1527 1608 1617 1536 1528 1609 1618 1537
8 1528 1609 1618 1537 1529 1610 1619 1538
8 1529 1610 1619 1538 1530 1611 1620 1539
8 1530 1611 1620 1539 1531 1612 1621 1540
8 1531 1612 1621 1540 1532 1613 1622 1541
8 1532 1613 1622 1541 889 898 899 890
8 215 224 225 216 1533 1614 1623 1542
8 1533 1614 1623 1542 1534 1615 1624 1543
8 1534 1615 1624 1543 1535 1616 1625 1544
8 1535 1616 1625 1544 1536 1617 1626 1545
8 1536 1617 1626 1545 1537 1618 1627 1546
8 1537 1618 1627 1546 1538 1619 1628 1547
8 1538 1619 1628 1547 1539 1620 1629 1548
8 1539 1620 1629 1548 1540 1621 1630 1549
8 1540 1621 1630 1549 1541 1622 1631 1550
8 1541 1622 1631 1550 890 899 900 891
8 216 225 226 217 1542 1623 1632 1551
8 1542 1623 1632 1551 1543 1624 1633 1552
8 1543 1624 1633 1552 1544 1625 1634 1553
8 1544 1625 1634 1553 1545 1626 1635 1554
8 1545 1626 1635 1554 1546 1627 1636 1555
8 1546 1627 1636 1555 1547 1628 1637 1556
8 1547 1628 1637 1556 1548 1629 1638 1557
8 1548 1629 1638 1557 1549 1630 1639 1558
8 1549 1630 1639 1558 1550 1631 1640 1559
8 1550 1631 1640 1559 891 900 901 892
8 217 226 227 218 1551 1632 1641 1560
8 1551 1632 1641 1560 1552 1633 1642 1561
8 1552 1633 1642 1561 1553 1634 1643 1562
8 1553 1634 1643 1562 1554 1635 1644 1563
8 1554 1635 1644 1563 1555 1636 1645 1564
8 1555 1636 1645 1564 1556 1637 1646 1565
8 1556 1637 1646 1565 1557 1638 1647 1566
8 1557 1638 1647 1566 1558 1639 1648 1567
8 1558 1639 1648 1567 1559 1640 1649 1568
8 1559 1640 1649 1568 892 901 902 893
8 218 227 47 48 1560 1641 678 687
8 1560 1641 678 687 1561 1642 679 688
8 1561 1642 679 688 1562 1643 680 689
8 1562 1643 680 689 1563 1644 681 690
8 1563 1644 681 690 1564 1645 682 691
8 1564 1645 682 691 1565 1646 683 692
8 1565 1646 683 692 1566 1647 684 693
8 1566 1647 684 693 1567 1648 685 694
8 1567 1648 685 694 1568 1649 686 695
8 1568 1649 686 695 893 902 103 104
8 15 16 228 219 390 399 1650 1569
8 390 399 1650 1569 391 400 1651 1570
8 391 400 1651 1570 392 401 1652 1571
8 392 401 1652 1571 393 402 1653 1572
8 393 402 1653 1572 394 403 1654 1573
8 394 403 1654 1573 395 404 1655 1574
8 395 404 1655 1574 396 405 1656 1575
8 396 405 1656 1575 397 406 1657 1576
8 397 406 1657 1576 398 407 1658 1577
8 398 407 1658 1577 71 72 903 894
8 219 228 229 220 1569 1650 1659 1578
8 1569 1650 1659 1578 1570 1651 1660 1579
8 1570 1651 1660 1579 1571 1652 1661 1580
8 1571 1652 1661 1580 1572 1653 1662 1581
8 1572 1653 1662 1581 1573 1654 1663 1582
8 1573 1654 1663 1582 1574 1655 1664 1583
8 1574 1655 1664 1583 1575 1656 1665 1584
8 1575 1656 1665 1584 1576 1657 1666 1585
8 1576 1657 1666 1585 1577 1658 1667 1586
8 1577 1658 1667 1586 894 903 904 895
8 220 229 230 221 1578 1659 1668 1587
8 1578 1659 1668 1587 1579 1660 1669 1588
8 1579 1660 1669 1588 1580 1661 1670 1589
8 1580 1661 1670 1589 1581 1662 1671 1590
8 1581 1662 1671 1590 1582 1663 1672 1591
8 1582 1663 1672 1591 1583 1664 1673 1592
8 1583 1664 1673 1592 1584 1665 1674 1593
8 1584 1665 1674 1593 1585 1666 1675 1594
8 1585 1666 1675 1594 1586 1667 1676 1595
8 1586 1667 1676 1595 895 904 905 896
8 221 230 231 222 1587 1668 1677 1596
8 1587 1668 1677 1596 1588 1669 1678 1597
8 1588 1669 1678 1597 1589 1670 1679 1598
8 1589 1670 1679 1598 1590 1671 1680 1599
8 1590 1671 1680 1599 1591 1672 1681 1600
8 1591 1672 1681 1600 1592 1673 1682 1601
8 1592 1673 1682 1601 1593 1674 1683 1602
8 1593 1674 1683 1602 1594 1675 1684 1603
8 1594 1675 1684 1603 1595 1676 1685 1604
8 1595 1676 1685 1604 896 905 906 897
8 222 231 232 223 1596 1677 1686 1605
8 1596 1677 1686 1605 1597 1678 1687 1606
8 1597 1678 1687 1606 1598 1679 1688 1607
8 1598 1679 1688 1607 1599 1680 1689 1608
8 1599 1680 1689 1608 1600 1681 1690 1609
8 1600 1681 1690 1609 1601 1682 1691 1610
8 1601 1682 1691 1610 1602 1683 1692 1611
8 1602 1683 1692 1611 1603 1684 1693 1612
8 1603 1684 1693 1612 1604 1685 1694 1613
8 1604 1685 1694 1613 897 906 907 898
8 223 232 233 224 1605 1686 1695 1614
8 1605 1686 1695 1614 1606 1687 1696 1615
8 1606 1687 1696 1615 1607 1688 1697 1616
8 1607 1688 1697 1616 1608 1689 1698 1617
8 1608 1689 1698 1617 1609 1690 1699 1618
8 1609 1690 1699 1618 1610 1691 1700 1619
8 1610 1691 1700 1619 1611 1692 1701 1620
8 1611 1692 1701 1620 1612 1693 1702 1621
8 1612 1693 1702 1621 1613 1694 1703 1622
8 1613 1694 1703 1622 898 907 908 899
8 224 233 234 225 1614 1695 1704 1623
8 1614 1695 1704 1623 1615 1696 1705 1624
8 1615 1696 1705 1624 1616 1697 1706 1625
8 1616 1697 1706 1625 1617 1698 1707 1626
8 1617 1698 1707 1626 1618 1699 1708 1627
8 1618 1699 1708 1627 1619 1700 1709 1628
8 1619 1700 1709 1628 1620 1701 1710 1629
8 1620 1701 1710 1629 1621 1702 1711 1630
8 1621 1702 1711 1630 1622 1703 1712 1631
8 1622 1703 1712 1631 899 908 909 900
8 225 234 235 226 1623 1704 1713 1632
8 1623 1704 1713 1632 1624 1705 1714 1633
8 1624 1705 1714 1633 1625 1706 1715 1634
8 1625 1706 1715 1634 1626 1707 1716 1635
8 1626 1707 1716 1635 1627 1708 1717 1636
8 1627 1708 1717 1636 1628 1709 1718 1637
8 1628 1709 1718 1637 1629 1710 1719 1638
8 1629 1710 1719 1638 1630 1711 1720 1639
8 1630 1711 1720 1639 1631 1712 1721 1640
8 1631 1712 1721 1640 900 909 910 901
8 226 235 236 227 1632 1713 1722 1641
8 1632 1713 1722 1641 1633 1714 1723 1642
8 1633 1714 1723 1642 1634 1715 1724 1643
8 1634 1715 1724 1643 1635 1716 1725 1644
8 1635 1716 1725 1644 1636 1717 1726 1645
8 1636 1717 1726 1645 1637 1718 1727 1646
8 1637 1718 1727 1646 1638 1719 1728 1647
8 1638 1719 1728 1647 1639 1720 1729 1648
8 1639 1720 1729 1648 1640 1721 1730 1649
8 1640 1721 1730 1649 901 910 911 902
8 227 236 46 47 1641 1722 669 678
8 1641 1722 669 678 1642 1723 670 679
8 1642 1723 670 679 1643 1724 671 680
8 1643 1724 671 680 1644 1725 672 681
8 1644 1725 672 681 1645 1726 673 682
8 1645 1726 673 682 1646 1727 674 683
8 1646 1727 674 683 1647 1728 675 684
8 1647 1728 675 684 1648 1729 676 685
8 1648 1729 676 685 1649 1730 677 686
8 1649 1730 677 686 902 911 102 103
8 16 17 237 228 399 408 1731 1650
8 399 408 1731 1650 400 409 1732 1651
8 400 409 1732 1651 401 410 1733 1652
8 401 410 1733 1652 402 411 1734 1653
8 402 411 1734 1653 403 412 1735 1654
8 403 412 1735 1654 404 413 1736 1655
8 404 413 1736 1655 405 414 1737 1656
8 405 414 1737 1656 406 415 1738 1657
8 406 415 1738 1657 407 416 1739 1658
8 407 416 1739 1658 72 73 912 903
8 228 237 238 229 1650 1731 1740 1659
8 1650 1731 1740 1659 1651 1732 1741 1660
8 1651 1732 1741 1660 1652 1733 1742 1661
8 1652 1733 1742 1661 1653 1734 1743 1662
8 1653 1734 1743 1662 1654 1735 1744 1663
8 1654 1735 1744 1663 1655 1736 1745 1664
8 1655 1736 1745 1664 1656 1737 1746 1665
8 1656 1737 1746 1665 1657 1738 1747 1666
8 1657 1738 1747 1666 1658 1739 1748 1667
8 1658 1739 1748 1667 903 912 913 904
8 229 238 239 230 1659 1740 1749 1668
8 1659 1740 1749 1668 1660 1741 1750 1669
8 1660 1741 1750 1669 1661 1742 1751 1670
8 1661 1742 1751 1670 1662 1743 1752 1671
8 1662 1743 1752 1671 1663 1744 1753 1672
8 1663 1744 1753 1672 1664 1745 1754 1673
8 1664 1745 1754 1673 1665 1746 1755 1674
8 1665 1746 1755 1674 1666 1747 1756 1675
8 1666 1747 1756 1675 1667 1748 1757 1676
8 1667 1748 1757 1676 904 913 914 905
8 230 239 240 231 1668 1749 1758 1677
8 1668 1749 1758 1677 1669 1750 1759 1678
8 1669 1750 1759 1678 1670 1751 1760 1679
8 1670 1751 1760 1679 1671 1752 1761 1680
8 1671 1752 1761 1680 1672 1753 1762 1681
8 1672 1753 1762 1681 1673 1754 1763 1682
8 1673 1754 1763 1682 1674 1755 1764 1683
8 1674 1755 1764 1683 1675 1756 1765 1684
8 1675 1756 1765 1684 1676 1757 1766 1685
8 1676 1757 1766 1685 905 914 915 906
8 231 240 241 232 1677 1758 1767 1686
8 1677 1758 1767 1686 1678 1759 1768 1687
8 1678 1759 1768 1687 1679 1760 1769 1688
8 1679 1760 1769 1688 1680 1761 1770 1689
8 1680 1761 1770 1689 1681 1762 1771 1690
8 1681 1762 1771 1690 1682 1763 1772 1691
8 1682 1763 1772 1691 1683 1764 1773 1692
8 1683 1764 1773 1692 1684 1765 1774 1693
8 1684 1765 1774 1693 1685 1766 1775 1694
8 1685 1766 1775 1694 906 915 916 907
8 232 241 242 233 1686 1767 1776 1695
8 1686 1767 1776 1695 1687 1768 1777 1696
8 1687 1768 1777 1696 1688 1769 1778 1697
8 1688 1769 1778 1697 1689 1770 1779 1698
8 1689 1770 1779 1698 1690 1771 1780 1699
8 1690 1771 1780 1699 1691 1772 1781 1700
8 1691 1772 1781 1700 1692 1773 1782 1701
8 1692 1773 1782 1701 1693 1774 1783 1702
8 1693 1774 1783 1702 1694 1775 1784 1703
8 1694 1775 1784 1703 907 916 917 908
8 233 242 243 234 1695 1776 1785 1704
8 1695 1776 1785 1704 1696 1777 1786 1705
8 1696 1777 1786 1705 1697 1778 1787 1706
8 1697 1778 1787 1706 1698 1779 1788 1707
8 1698 1779 1788 1707 1699 1780 1789 1708
8 1699 1780 1789 1708 1700 1781 1790 1709
8 1700 1781 1790 1709 1701 1782 1791 1710
8 1701 1782 1791 1710 1702 1783 1792 1711
8 1702 1783 1792 1711 1703 1784 1793 1712
8 1703 1784 1793 1712 908 917 918 909
8 234 243 244 235 1704 1785 1794 1713
8 1704 1785 1794 1713 1705 1786 1795 1714
8 1705 1786 1795 1714 1706 1787 1796 1715
8 1706 1787 1796 1715 1707 1788 1797 1716
8 1707 1788 1797 1716 1708 1789 1798 1717
8 1708 1789 1798 1717 1709 1790 1799 1718
8 1709 1790 1799 1718 1710 1791 1800 1719
8 1710 1791 1800 1719 1711 1792 1801 1720
8 1711 1792 1801 1720 1712 1793 1802 1721
8 1712 1793 1802 1721 909 918 919 910
8 235 244 245 236 1713 1794 1803 1722
8 1713 1794 1803 1722 1714 1795 1804 1723
8 1714 1795 1804 1723 1715 1796 1805 1724
8 1715 1796 1805 1724 1716 1797 1806 1725
8 1716 1797 1806 1725 1717 1798 1807 1726
8 1717 1798 1807 1726 1718 1799 1808 1727
8 1718 1799 1808 1727 1719 1800 1809 1728
8 1719 1800 1809 1728 1720 1801 1810 1729
8 1720 1801 1810 1729 1721 1802 1811 1730
8 1721 1802 1811 1730 910 919 920 911
8 236 245 45 46 1722 1803 660 669
8 1722 1803 660 669 1723 1804 661 670
8 1723 1804 661 670 1724 1805 662 671
8 1724 1805 662 671 1725 1806 663 672
8 1725 1806 663 672 1726 1807 664 673
8 1726 1807 664 673 1727 1808 665 674
8 1727 1808 665 674 1728 1809 666 675
8 1728 1809 666 675 1729 1810 667 676
8 1729 1810 667 676 1730 1811 668 677
8 1730 1811 668 677 911 920 101 102
8 17 18 246 237 408 417 1812 1731
8 408 417 1812 1731 409 418 1813 1732
8 409 418 1813 1732 410 419 1814 1733
8 410 419 1814 1733 411 420 1815 1734
8 411 420 1815 1734 412 421 1816 1735
8 412 421 1816 1735 413 422 1817 1736
8 413 422 1817 1736 414 423 1818 1737
8 414 423 1818 1737 415 424 1819 1738
8 415 424 1819 1738 416 425 1820 1739
8 416 425 1820 1739 73 74 921 912
8 237 246 247 238 1731 1812 1821 1740
8 1731 1812 1821 1740 1732 1813 1822 1741
8 1732 1813 1822 1741 1733 1814 1823 1742
8 1733 1814 1823 1742 1734 1815 1824 1743
8 1734 1815 1824 1743 1735 1816 1825 1744
8 1735 1816 1825 1744 1736 1817 1826 1745
8 1736 1817 1826 1745 1737 1818 1827 1746
8 1737 1818 1827 1746 1738 1819 1828 1747
8 1738 1819 1828 1747 1739 1820 1829 1748
8 1739 1820 1829 1748 912 921 922 913
8 238 247 248 239 1740 1821 1830 1749
8 1740 1821 1830 1749 1741 1822 1831 1750
8 1741 1822 1831 1750 1742 1823 1832 1751
8 1742 1823 1832 1751 1743 1824 1833 1752
8 1743 1824 1833 1752 1744 1825 1834 1753
8 1744 1825 1834 1753 1745 1826 1835 1754
8 1745 1826 1835 1754 1746 1827 1836 1755
8 1746 1827 1836 1755 1747 1828 1837 1756
8 1747 1828 1837 1756 1748 1829 1838 1757
8 1748 1829 1838 1757 913 922 923 914
8 239 248 249 240 1749 1830 1839 1758
8 1749 1830 1839 1758 1750 1831 1840 1759
8 1750 1831 1840 1759 1751 1832 1841 1760
8 1751 1832 1841 1760 1752 1833 1842 1761
8 1752 1833 1842 1761 1753 1834 1843 1762
8 1753 1834 1843 1762 1754 1835 1844 1763
8 1754 1835 1844 1763 1755 1836 1845 1764
8 1755 1836 1845 1764 1756 1837 1846 1765
8 1756 1837 1846 1765 1757 1838 1847 1766
8 1757 1838 1847 1766 914 923 924 915
8 240 249 250 241 1758 1839 1848 1767
8 1758 1839 1848 1767 1759 1840 1849 1768
8 1759 1840 1849 1768 1760 1841 1850 1769
8 1760 1841 1850 1769 1761 1842 1851 1770
8 1761 1842 1851 1770 1762 1843 1852 1771
8 1762 1843 1852 1771 1763 1844 1853 1772
8 1763 1844 1853 1772 1764 1845 1854 1773
8 1764 1845 1854 1773 1765 1846 1855 1774
8 1765 1846 1855 1774 1766 1847 1856 1775
8 1766 1847 1856 1775 915 924 925 916
8 241 250 251 242 1767 1848 1857 1776
8 1767 1848 1857 1776 1768 1849 1858 1777
8 1768 1849 1858 1777 1769 1850 1859 1778
8 1769 1850 1859 1778 1770 1851 1860 1779
8 1770 1851 1860 1779 1771 1852 1861 1780
8 1771 1852 1861 1780 1772 1853 1862 1781
8 1772 1853 1862 1781 1773 1854 1863 1782
8 1773 1854 1863 1782 1774 1855 1864 1783
8 1774 1855 1864 1783 1775 1856 1865 1784
8 1775 1856 1865 1784 916 925 926 917
8 242 251 252 243 1776 1857 1866 1785
8 1776 1857 1866 1785 1777 1858 1867 1786
8 1777 1858 1867 1786 1778 1859 1868 1787
8 1778 1859 1868 1787 1779 1860 1869 1788
8 1779 1860 1869 1788 1780 1861 1870 1789
8 1780 1861 1870 1789 1781 1862 1871 1790
8 1781 1862 1871 1790 1782 1863 1872 1791
8 1782 1863 1872 1791 1783 1864 1873 1792
8 1783 1864 1873 1792 1784 1865 1874 1793
8 1784 1865 1874 1793 917 926 927 918
8 243 252 253 244 1785 1866 1875 1794
8 1785 1866 1875 1794 1786 1867 1876 1795
8 1786 1867 1876 1795 1787 1868 1877 1796
8 1787 1868 1877 1796 1788 1869 1878 1797
8 1788 1869 1878 1797 1789 1870 1879 1798
8 1789 1870 1879 1798 1790 1871 1880 1799
8 1790 1871 1880 1799 1791 1872 1881 1800
8 1791 1872 1881 1800 1792 1873 1882 1801
8 1792 1873 1882 1801 1793 1874 1883 1802
8 1793 1874 1883 1802 918 927 928 919
8 244 253 254 245 1794 1875 1884 1803
8 1794 1875 1884 1803 1795 1876 1885 1804
8 1795 1876 1885 1804 1796 1877 1886 1805
8 1796 1877 1886 1805 1797 1878 1887 1806
8 1797 1878 1887 1806 1798 1879 1888 1807
8 1798 1879 1888 1807 1799 1880 1889 1808
8 1799 1880 1889 1808 1800 1881 1890 1809
8 1800 1881 1890 1809 1801 1882 1891 1810
8 1801 1882 1891 1810 1802 1883 1892 1811
8 1802 1883 1892 1811 919 928 929 920
8 245 254 44 45 1803 1884 651 660
8 1803 1884 651 660 1804 1885 652 661
8 1804 1885 652 661 1805 1886 653 662
8 1805 1886 653 662 1806 1887 654 663
8 1806 1887 654 663 1807 1888 655 664
8 1807 1888 655 664 1808 1889 656 665
8 1808 1889 656 665 1809 1890 657 666
8 1809 1890 657 666 1810 1891 658 667
8 1810 1891 658 667 1811 1892 659 668
8 1811 1892 659 668 920 929 100 101
8 18 19 255 246 417 426 1893 1812
8 417 426 1893 1812 418 427 1894 1813
8 418 427 1894 1813 419 428 1895 1814
8 419 428 1895 1814 420 429 1896 1815
8 420 429 1896 1815 421 430 1897 1816
8 421 430 1897 1816 422 431 1898 1817
8 422 431 1898 1817 423 432 1899 1818
8 423 432 1899 1818 424 433 1900 1819
8 424 433 1900 1819 425 434 1901 1820
8 425 434 1901 1820 74 75 930 921
8 246 255 256 247 1812 1893 1902 1821
8 1812 1893 1902 1821 1813 1894 1903 1822
8 1813 1894 1903 1822 1814 1895 1904 1823
8 1814 1895 1904 1823 1815 1896 1905 1824
8 1815 1896 1905 1824 1816 1897 1906 1825
8 1816 1897 1906 1825 1817 1898 1907 1826
8 1817 1898 1907 1826 1818 1899 1908 1827
8 1818 1899 1908 1827 1819 1900 1909 1828
8 1819 1900 1909 1828 1820 1901 1910 1829
8 1820 1901 1910 1829 921 930 931 922
8 247 256 257 248 1821 1902 1911 1830
8 1821 1902 1911 1830 1822 1903 1912 1831
8 1822 1903 1912 1831 1823 1904 1913 1832
8 1823 1904 1913 1832 1824 1905 1914 1833
8 1824 1905 1914 1833 1825 1906 1915 1834
8 1825 1906 1915 1834 1826 1907 1916 1835
8 1826 1907 1916 1835 1827 1908 1917 1836
8 1827 1908 1917 1836 1828 1909 1918 1837
8 1828 1909 1918 1837 1829 1910 1919 1838
8 1829 1910 1919 1838 922 931 932 923
8 248 257 258 249 1830 1911 1920 1839
8 1830 1911 1920 1839 1831 1912 1921 1840
8 1831 1912 1921 1840 1832 1913 1922 1841
8 1832 1913 1922 1841 1833 1914 1923 1842
8 1833 1914 1923 1842 1834 1915 1924 1843
8 1834 1915 1924 1843 1835 1916 1925 1844
8 1835 1916 1925 1844 1836 1917 1926 1845
8 1836 1917 1926 1845 1837 1918 1927 1846
8 1837 1918 1927 1846 1838 1919 1928 1847
8 1838 1919 1928 1847 923 932 933 924
8 249 258 259 250 1839 1920 1929 1848
8 1839 1920 1929 1848 1840 1921 1930 1849
8 1840 1921 1930 1849 1841 1922 1931 1850
8 1841 1922 1931 1850 1842 1923 1932 1851
8 1842 1923 1932 1851 1843 1924 1933 1852
8 1843 1924 1933 1852 1844 1925 1934 1853
8 1844 1925 1934 1853 1845 1926 1935 1854
8 1845 1926 1935 1854 1846 1927 1936 1855
8 1846 1927 1936 1855 1847 1928 1937 1856
8 1847 1928 1937 1856 924 933 934 925
8 250 259 260 251 1848 1929 1938 1857
8 1848 1929 1938 1857 1849 1930 1939 1858
8 1849 1930 1939 1858 1850 1931 1940 1859
8 1850 1931 1940 1859 1851 1932 1941 1860
8 1851 1932 1941 1860 1852 1933 1942 1861
8 1852 1933 1942 1861 1853 1934 1943 1862
8 1853 1934 1943 1862 1854 1935 1944 1863
8 1854 1935 1944 1863 1855 1936 1945 1864
8 1855 1936 1945 1864 1856 1937 1946 1865
8 1856 1937 1946 1865 925 934 935 926
8 251 260 261 252 1857 1938 1947 1866
8 1857 1938 1947 1866 1858 1939 1948 1867
8 1858 1939 1948 1867 1859 1940 1949 1868
8 1859 1940 1949 1868 1860 1941 1950 1869
8 1860 1941 1950 1869 1861 1942 1951 1870
8 1861 1942 1951 1870 1862 1943 1952 1871
8 1862 1943 1952 1871 1863 1944 1953 1872
8 1863 1944 1953 1872 1864 1945 1954 1873
8 1864 1945 1954 1873 1865 1946 1955 1874
8 1865 1946 1955 1874 926 935 936 927
8 252 261 262 253 1866 1947 1956 1875
8 1866 1947 1956 1875 1867 1948 1957 1876
8 1867 1948 1957 1876 1868 1949 1958 1877
8 1868 1949 1958 1877 1869 1950 1959 1878
8 1869 1950 1959 1878 1870 1951 1960 1879
8 1870 1951 1960 1879 1871 1952 1961 1880
8 1871 1952 1961 1880 1872 1953 1962 1881
8 1872 1953 1962 1881 1873 1954 1963 1882
8 1873 1954 1963 1882 1874 1955 1964 1883
8 1874 1955 1964 1883 927 936 937 928
8 253 262 263 254 1875 1956 1965 1884
8 1875 1956 1965 1884 1876 1957 1966 1885
8 1876 1957 1966 1885 1877 1958 1967 1886
8 1877 1958 1967 1886 1878 1959 1968 1887
8 1878 1959 1968 1887 1879 1960 1969 1888
8 1879 1960 1969 1888 1880 1961 1970 1889
8 1880 1961 1970 1889 1881 1962 1971 1890
8 1881 1962 1971 1890 1882 1963 1972 1891
8 1882 1963 1972 1891 1883 1964 1973 1892
8 1883 1964 1973 1892 928 937 938 929
8 254 263 43 44 1884 1965 642 651
8 1884 1965 642 651 1885 1966 643 652
8 1885 1966 643 652 1886 1967 644 653
8 1886 1967 644 653 1887 1968 645 654
8 1887 1968 645 654 1888 1969 646 655
8 1888 1969 646 655 1889 1970 647 656
8 1889 1970 647 656 1890 1971 648 657
8 1890 1971 648 657 1891 1972 649 658
8 1891 1972 649 658 1892 1973 650 659
8 1892 1973 650 659 929 938 99 100
8 19 20 264 255 426 435 1974 1893
8 426 435 1974 1893 427 436 1975 1894
8 427 436 1975 1894 428 437 1976 1895
8 428 437 1976 1895 429 438 1977 1896
8 429 438 1977 1896 430 439 1978 1897
8 430 439 1978 1897 431 440 1979 1898
8 431 440 1979 1898 432 441 1980 1899
8 432 441 1980 1899 433 442 1981 1900
8 433 442 1981 1900 434 443 1982 1901
8 434 443 1982 1901 75 76 939 930
8 255 264 265 256 1893 1974 1983 1902
8 1893 1974 1983 1902 1894 1975 1984 1903
8 1894 1975 1984 1903 1895 1976 1985 1904
8 1895 1976 1985 1904 1896 1977 1986 1905
8 1896 1977 1986 1905 1897 1978 1987 1906
8 1897 1978 1987 1906 1898 1979 1988 1907
8 1898 1979 1988 1907 1899 1980 1989 1908
8 1899 1980 1989 1908 1900 1981 1990 1909
8 1900 1981 1990 1909 1901 1982 1991 1910
8 1901 1982 1991 1910 930 939 940 931
8 256 265 266 257 1902 1983 1992 1911
8 1902 1983 1992 1911 1903 1984 1993 1912
8 1903 1984 1993 1912 1904 1985 1994 1913
8 1904 1985 1994 1913 1905 1986 1995 1914
8 1905 1986 1995 1914 1906 1987 1996 1915
8 1906 1987 1996 1915 1907 1988 1997 1916
8 1907 1988 1997 1916 1908 1989 1998 1917
8 1908 1989 1998 1917 1909 1990 1999 1918
8 1909 1990 1999 1918 1910 1991 2000 1919
8 1910 1991 2000 1919 931 940 941 932
8 257 266 267 258 1911 1992 2001 1920
8 1911 1992 2001 1920 1912 1993 2002 1921
8 1912 1993 2002 1921 1913 1994 2003 1922
8 1913 1994 2003 1922 1914 1995 2004 1923
8 1914 1995 2004 1923 1915 1996 2005 1924
8 1915 1996 2005 1924 1916 1997 2006 1925
8 1916 1997 2006 1925 1917 1998 2007 1926
8 1917 1998 2007 1926 1918 1999 2008 1927
8 1918 1999 2008 1927 1919 2000 2009 1928
8 1919 2000 2009 1928 932 941 942 933
8 258 267 268 259 1920 2001 2010 1929
8 1920 2001 2010 1929 1921 2002 2011 1930
8 1921 2002 2011 1930 1922 2003 2012 1931
8 1922 2003 2012 1931 1923 2004 2013 1932
8 1923 2004 2013 1932 1924 2005 2014 1933
8 1924 2005 2014 1933 1925 2006 2015 1934
8 1925 2006 2015 1934 1926 2007 2016 1935
8 1926 2007 2016 1935 1927 2008 2017 1936
8 1927 2008 2017 1936 1928 2009 2018 1937
8 1928 2009 2018 1937 933 942 943 934
8 259 268 269 260 1929 2010 2019 1938
8 1929 2010 2019 1938 1930 2011 2020 1939
8 1930 2011 2020 1939 1931 2012 2021 1940
8 1931 2012 2021 1940 1932 2013 2022 1941
8 1932 2013 2022 1941 1933 2014 2023 1942
8 1933 2014 2023 1942 1934 2015 2024 1943
8 1934 2015 2024 1943 1935 2016 2025 1944
8 1935 2016 2025 1944 1936 2017 2026 1945
8 1936 2017 2026 1945 1937 2018 2027 1946
8 1937 2018 2027 1946 934 943 944 935
8 260 269 270 261 1938 2019 2028 1947
8 1938 2019 2028 1947 1939 2020 2029 1948
8 1939 2020 2029 1948 1940 2021 2030 1949
8 1940 2021 2030 1949 1941 2022 2031 1950
8 1941 2022 2031 1950 1942 2023 2032 1951
8 1942 2023 2032 1951 1943 2024 2033 1952
8 1943 2024 2033 1952 1944 2025 2034 1953
8 1944 2025 2034 1953 1945 2026 2035 1954
8 1945 2026 2035 1954 1946 2027 2036 1955
8 1946 2027 2036 1955 935 944 945 936
8 261 270 271 262 1947 2028 2037 1956
8 1947 2028 2037 1956 1948 2029 2038 1957
8 1948 2029 2038 1957 1949 2030 2039 1958
8 1949 2030 2039 1958 1950 2031 2040 1959
8 1950 2031 2040 1959 1951 2032 2041 1960
8 1951 2032 2041 1960 1952 2033 2042 1961
8 1952 2033 2042 1961 1953 2034 2043 1962
8 1953 2034 2043 1962 1954 2035 2044 1963
8 1954 2035 2044 1963 1955 2036 2045 1964
8 1955 2036 2045 1964 936 945 946 937
8 262 271 272 263 1956 2037 2046 1965
8 1956 2037 2046 1965 1957 2038 2047 1966
8 1957 2038 2047 1966 1958 2039 2048 1967
8 1958 2039 2048 1967 1959 2040 2049 1968
8 1959 2040 2049 1968 1960 2041 2050 1969
8 1960 2041 2050 1969 1961 2042 2051 1970
8 1961 2042 2051 1970 1962 2043 2052 1971
8 1962 2043 2052 1971 1963 2044 2053 1972
8 1963 2044 2053 1972 1964 2045 2054 1973
8 1964 2045 2054 1973 937 946 947 938
8 263 272 42 43 1965 2046 633 642
8 1965 2046 633 642 1966 2047 634 643
8 1966 2047 634 643 1967 2048 635 644
8 1967 2048 635 644 1968 2049 636 645
8 1968 2049 636 645 1969 2050 637 646
8 1969 2050 637 646 1970 2051 638 647
8 1970 2051 638 647 1971 2052 639 648
8 1971 2052 639 648 1972 2053 640 649
8 1972 2053 640 649 1973 2054 641 650
8 1973 2054 641 650 938 947 98 99
8 20 21 273 264 435 444 2055 1974
8 435 444 2055 1974 436 445 2056 1975
8 436 445 2056 1975 437 446 2057 1976
8 437 446 2057 1976 438 447 2058 1977
8 438 447 2058 1977 439 448 2059 1978
8 439 448 2059 1978 440 449 2060 1979
8 440 449 2060 1979 441 450 2061 1980
8 441 450 2061 1980 442 451 2062 1981
8 442 451 2062 1981 443 452 2063 1982
8 443 452 2063 1982 76 77 948 939
8 264 273 274 265 1974 2055 2064 1983
8 1974 2055 2064 1983 1975 2056 2065 1984
8 1975 2056 2065 1984 1976 2057 2066 1985
8 1976 2057 2066 1985 1977 2058 2067 1986
8 1977 2058 2067 1986 1978 2059 2068 1987
8 1978 2059 2068 1987 1979 2060 2069 1988
8 1979 2060 2069 1988 1980 2061 2070 1989
8 1980 2061 2070 1989 1981 2062 2071 1990
8 1981 2062 2071 1990 1982 2063 2072 1991
8 1982 2063 2072 1991 939 948 949 940
8 265 274 275 266 1983 2064 2073 1992
8 1983 2064 2073 1992 1984 2065 2074 1993
8 1984 2065 2074 1993 1985 2066 2075 1994
8 1985 2066 2075 1994 1986 2067 2076 1995
8 1986 2067 2076 1995 1987 2068 2077 1996
8 1987 2068 2077 1996 1988 2069 2078 1997
8 1988 2069 2078 1997 1989 2070 2079 1998
8 1989 2070 2079 1998 1990 2071 2080 1999
8 1990 2071 2080 1999 1991 2072 2081 2000
8 1991 2072 2081 2000 940 949 950 941
8 266 275 276 267 1992 2073 2082 2001
8 1992 2073 2082 2001 1993 2074 2083 2002
8 1993 2074 2083 2002 1994 2075 2084 2003
8 1994 2075 2084 2003 1995 2076 2085 2004
8 1995 2076 2085 2004 1996 2077 2086 2005
8 1996 2077 2086 2005 1997 2078 2087 2006
8 1997 2078 2087 2006 1998 2079 2088 2007
8 1998 2079 2088 2007 1999 2080 2089 2008
8 1999 2080 2089 2008 2000 2081 2090 2009
8 2000 2081 2090 2009 941 950 951 942
8 267 276 277 268 2001 2082 2091 2010
8 2001 2082 2091 2010 2002 2083 2092 2011
8 2002 2083 2092 2011 2003 2084 2093 2012
8 2003 2084 2093 2012 2004 2085 2094 2013
8 2004 2085 2094 2013 2005 2086 2095 2014
8 2005 2086 2095 2014 2006 2087 2096 2015
8 2006 2087 2096 2015 2007 2088 2097 2016
8 2007 2088 2097 2016 2008 2089 2098 2017
8 2008 2089 2098 2017 2009 2090 2099 2018
8 2009 2090 2099 2018 942 951 952 943
8 268 277 278 269 2010 2091 2100 2019
8 2010 2091 2100 2019 2011 2092 2101 2020
8 2011 2092 2101 2020 2012 2093 2102 2021
8 2012 2093 2102 2021 2013 2094 2103 2022
8 2013 2094 2103 2022 2014 2095 2104 2023
8 2014 2095 2104 2023 2015 2096 2105 2024
8 2015 2096 2105 2024 2016 2097 2106 2025
8 2016 2097 2106 2025 2017 2098 2107 2026
8 2017 2098 2107 2026 2018 2099 2108 2027
8 2018 2099 2108 2027 943 952 953 944
8 269 278 279 270 2019 2100 2109 2028
8 2019 2100 2109 2028 2020 2101 2110 2029
8 2020 2101 2110 2029 2021 2102 2111 2030
8 2021 2102 2111 2030 2022 2103 2112 2031
8 2022 2103 2112 2031 2023 2104 2113 2032
8 2023 2104 2113 2032 2024 2105 2114 2033
8 2024 2105 2114 2033 2025 2106 2115 2034
8 2025 2106 2115 2034 2026 2107 2116 2035
8 2026 2107 2116 2035 2027 2108 2117 2036
8 2027 2108 2117 2036 944 953 954 945
8 270 279 280 271 2028 2109 2118 2037
8 2028 2109 2118 2037 2029 2110 2119 2038
8 2029 2110 2119 2038 2030 2111 2120 2039
8 2030 2111 2120 2039 2031 2112 2121 2040
8 2031 2112 2121 2040 2032 2113 2122 2041
8 2032 2113 2122 2041 2033 2114 2123 2042
8 2033 2114 2123 2042 2034 2115 2124 2043
8 2034 2115 2124 2043 2035 2116 2125 2044
8 2035 2116 2125 2044 2036 2117 2126 2045
8 2036 2117 2126 2045 945 954 955 946
8 271 280 281 272 2037 2118 2127 2046
8 2037 2118 2127 2046 2038 2119 2128 2047
8 2038 2119 2128 2047 2039 2120 2129 2048
8 2039 2120 2129 2048 2040 2121 2130 2049
8 2040 2121 2130 2049 2041 2122 2131 2050
8 2041 2122 2131 2050 2042 2123 2132 2051
8 2042 2123 2132 2051 2043 2124 2133 2052
8 2043 2124 2133 2052 2044 2125 2134 2053
8 2044 2125 2134 2053 2045 2126 2135 2054
8 2045 2126 2135 2054 946 955 956 947
8 272 281 41 42 2046 2127 624 633
8 2046 2127 624 633 2047 2128 625 634
8 2047 2128 625 634 2048 2129 626 635
8 2048 2129 626 635 2049 2130 627 636
8 2049 2130 627 636 2050 2131 628 637
8 2050 2131 628 637 2051 2132 629 638
8 2051 2132 629 638 2052 2133 630 639
8 2052 2133 630 639 2053 2134 631 640
8 2053 2134 631 640 2054 2135 632 641
8 2054 2135 632 641 947 956 97 98
8 21 22 282 273 444 453 2136 2055
8 444 453 2136 2055 445 454 2137 2056
8 445 454 2137 2056 446 455 2138 2057
8 446 455 2138 2057 447 456 2139 2058
8 447 456 2139 2058 448 457 2140 2059
8 448 457 2140 2059 449 458 2141 2060
8 449 458 2141 2060 450 459 2142 2061
8 450 459 2142 2061 451 460 2143 2062
8 451 460 2143 2062 452 461 2144 2063
8 452 461 2144 2063 77 78 957 948
8 273 282 283 274 2055 2136 2145 2064
8 2055 2136 2145 2064 2056 2137 2146 2065
8 2056 2137 2146 2065 2057 2138 2147 2066
8 2057 2138 2147 2066 2058 2139 2148 2067
8 2058 2139 2148 2067 2059 2140 2149 2068
8 2059 2140 2149 2068 2060 2141 2150 2069
8 2060 2141 2150 2069 2061 2142 2151 2070
8 2061 2142 2151 2070 2062 2143 2152 2071
8 2062 2143 2152 2071 2063 2144 2153 2072
8 2063 2144 2153 2072 948 957 958 949
8 274 283 284 275 2064 2145 2154 2073
8 2064 2145 2154 2073 2065 2146 2155 2074
8 2065 2146 2155 2074 2066 2147 2156 2075
8 2066 2147 2156 2075 2067 2148 2157 2076
8 2067 2148 2157 2076 2068 2149 2158 2077
8 2068 2149 2158 2077 2069 2150 2159 2078
8 2069 2150 2159 2078 2070 2151 2160 2079
8 2070 2151 2160 2079 2071 2152 2161 2080
8 2071 2152 2161 2080 2072 2153 2162 2081
8 2072 2153 2162 2081 949 958 959 950
8 275 284 285 276 2073 2154 2163 2082
8 2073 2154 2163 2082 2074 2155 2164 2083
8 2074 2155 2164 2083 2075 2156 2165 2084
8 2075 2156 2165 2084 2076 2157 2166 2085
8 2076 2157 2166 2085 2077 2158 2167 2086
8 2077 2158 2167 2086 2078 2159 2168 2087
8 2078 2159 2168 2087 2079 2160 2169 2088
8 2079 2160 2169 2088 2080 2161 2170 2089
8 2080 2161 2170 2089 2081 2162 2171 2090
8 2081 2162 2171 2090 950 959 960 951
8 276 285 286 277 2082 2163 2172 2091
8 2082 2163 2172 2091 2083 2164 2173 2092
8 2083 2164 2173 2092 2084 2165 2174 2093
8 2084 2165 2174 2093 2085 2166 2175 2094
8 2085 2166 2175 2094 2086 2167 2176 2095
8 2086 2167 2176 2095 2087 2168 2177 2096
8 2087 2168 2177 2096 2088 2169 2178 2097
8 2088 2169 2178 2097 2089 2170 2179 2098
8 2089 2170 2179 2098 2090 2171 2180 2099
8 2090 2171 2180 2099 951 960 961 952
8 277 286 287 278 2091 2172 2181 2100
8 2091 2172 2181 2100 2092 2173 2182 2101
8 2092 2173 2182 2101 2093 2174 2183 2102
8 2093 2174 2183 2102 2094 2175 2184 2103
8 2094 2175 2184 2103 2095 2176 2185 2104
8 2095 2176 2185 2104 2096 2177 2186 2105
8 2096 2177 2186 2105 2097 2178 2187 2106
8 2097 2178 2187 2106 2098 2179 2188 2107
8 2098 2179 2188 2107 2099 2180 2189 2108
8 2099 2180 2189 2108 952 961 962 953
8 278 287 288 279 2100 2181 2190 2109
8 2100 2181 2190 2109 2101 2182 2191 2110
8 2101 2182 2191 2110 2102 2183 2192 2111
8 2102 2183 2192 2111 2103 2184 2193 2112
8 2103 2184 2193 2112 2104 2185 2194 2113
8 2104 2185 2194 2113 2105 2186 2195 2114
8 2105 2186 2195 2114 2106 2187 2196 2115
8 2106 2187 2196 2115 2107 2188 2197 2116
8 2107 2188 2197 2116 2108 2189 2198 2117
8 2108 2189 2198 2117 953 962 963 954
8 279 288 289 280 2109 2190 2199 2118
8 2109 2190 2199 2118 2110 2191 2200 2119
8 2110 2191 2200 2119 2111 2192 2201 2120
8 2111 2192 2201 2120 2112 2193 2202 2121
8 2112 2193 2202 2121 2113 2194 2203 2122
8 2113 2194 2203 2122 2114 2195 2204 2123
8 2114 2195 2204 2123 2115 2196 2205 2124
8 2115 2196 2205 2124 2116 2197 2206 2125
8 2116 2197 2206 2125 2117 2198 2207 2126
8 2117 2198 2207 2126 954 963 964 955
8 280 289 290 281 2118 2199 2208 2127
8 2118 2199 2208 2127 2119 2200 2209 2128
8 2119 2200 2209 2128 2120 2201 2210 2129
8 2120 2201 2210 2129 2121 2202 2211 2130
8 2121 2202 2211 2130 2122 2203 2212 2131
8 2122 2203 2212 2131 2123 2204 2213 2132
8 2123 2204 2213 2132 2124 2205 2214 2133
8 2124 2205 2214 2133 2125 2206 2215 2134
8 2125 2206 2215 2134 2126 2207 2216 2135
8 2126 2207 2216 2135 955 964 965 956
8 281 290 40 41 2127 2208 615 624
8 2127 2208 615 624 2128 2209 616 625
8 2128 2209 616 625 2129 2210 617 626
8 2129 2210 617 626 2130 2211 618 627
8 2130 2211 618 627 2131 2212 619 628
8 2131 2212 619 628 2132 2213 620 629
8 2132 2213 620 629 2133 2214 621 630
8 2133 2214 621 630 2134 2215 622 631
8 2134 2215 622 631 2135 2216 623 632
8 2135 2216 623 632 956 965 96 97
8 22 23 291 282 453 462 2217 2136
8 453 462 2217 2136 454 463 2218 2137
8 454 463 2218 2137 455 464 2219 2138
8 455 464 2219 2138 456 465 2220 2139
8 456 465 2220 2139 457 466 2221 2140
8 457 466 2221 2140 458 467 2222 2141
8 458 467 2222 2141 459 468 2223 2142
8 459 468 2223 2142 460 469 2224 2143
8 460 469 2224 2143 461 470 2225 2144
8 461 470 2225 2144 78 79 966 957
8 282 291 292 283 2136 2217 2226 2145
8 2136 2217 2226 2145 2137 2218 2227 2146
8 2137 2218 2227 2146 2138 2219 2228 2147
8 2138 2219 2228 2147 2139 2220 2229 2148
8 2139 2220 2229 2148 2140 2221 2230 2149
8 2140 2221 2230 2149 2141 2222 2231 2150
8 2141 2222 2231 2150 2142 2223 2232 2151
8 2142 2223 2232 2151 2143 2224 2233 2152
8 2143 2224 2233 2152 2144 2225 2234 2153
8 2144 2225 2234 2153 957 966 967 958
8 283 292 293 284 2145 2226 2235 2154
8 2145 2226 2235 2154 2146 2227 2236 2155
8 2146 2227 2236 2155 2147 2228 2237 2156
8 2147 2228 2237 2156 2148 2229 2238 2157
8 2148 2229 2238 2157 2149 2230 2239 2158
8 2149 2230 2239 2158 2150 2231 2240 2159
8 2150 2231 2240 2159 2151 2232 2241 2160
8 2151 2232 2241 2160 2152 2233 2242 2161
8 2152 2233 2242 2161 2153 2234 2243 2162
8 2153 2234 2243 2162 958 967 968 959
8 284 293 294 285 2154 2235 2244 2163
8 2154 2235 2244 2163 2155 2236 2245 2164
8 2155 2236 2245 2164 2156 2237 2246 2165
8 2156 2237 2246 2165 2157 2238 2247 2166
8 2157 2238 2247 2166 2158 2239 2248 2167
8 2158 2239 2248 2167 2159 2240 2249 2168
8 2159 2240 2249 2168 2160 2241 2250 2169
8 2160 2241 2250 2169 2161 2242 2251 2170
8 2161 2242 2251 2170 2162 2243 2252 2171
8 2162 2243 2252 2171 959 968 969 960
8 285 294 295 286 2163 2244 2253 2172
8 2163 2244 2253 2172 2164 2245 2254 2173
8 2164 2245 2254 2173 2165 2246 2255 2174
8 2165 2246 2255 2174 2166 2247 2256 2175
8 2166 2247 2256 2175 2167 2248 2257 2176
8 2167 2248 2257 2176 2168 2249 2258 2177
8 2168 2249 2258 2177 2169 2250 2259 2178
8 2169 2250 2259 2178 2170 2251 2260 2179
8 2170 2251 2260 2179 2171 2252 2261 2180
8 2171 2252 2261 2180 960 969 970 961
8 286 295 296 287 2172 2253 2262 2181
8 2172 2253 2262 2181 2173 2254 2263 2182
8 2173 2254 2263 2182 2174 2255 2264 2183
8 2174 2255 2264 2183 2175 2256 2265 2184
8 2175 2256 2265 2184 2176 2257 2266 2185
8 2176 2257 2266 2185 2177 2258 2267 2186
8 2177 2258 2267 2186 2178 2259 2268 2187
8 2178 2259 2268 2187 2179 2260 2269 2188
8 2179 2260 2269 2188 2180 2261 2270 2189
8 2180 2261 2270 2189 961 970 971 962
8 287 296 297 288 2181 2262 2271 2190
8 2181 2262 2271 2190 2182 2263 2272 2191
8 2182 2263 2272 2191 2183 2264 2273 2192
8 2183 2264 2273 2192 2184 2265 2274 2193
8 2184 2265 2274 2193 2185 2266 2275 2194
8 2185 2266 2275 2194 2186 2267 2276 2195
8 2186 2267 2276 2195 2187 2268 2277 2196
8 2187 2268 2277 2196 2188 2269 2278 2197
8 2188 2269 2278 2197 2189 2270 2279 2198
8 2189 2270 2279 2198 962 971 972 963
8 288 297 298 289 2190 2271 2280 2199
8 2190 2271 2280 2199 2191 2272 2281 2200
8 2191 2272 2281 2200 2192 2273 2282 2201
8 2192 2273 2282 2201 2193 2274 2283 2202
8 2193 2274 2283 2202 2194 2275 2284 2203
8 2194 2275 2284 2203 2195 2276 2285 2204
8 2195 2276 2285 2204 2196 2277 2286 2205
8 2196 2277 2286 2205 2197 2278 2287 2206
8 2197 2278 2287 2206 2198 2279 2288 2207
8 2198 2279 2288 2207 963 972 973 964
8 289 298 299 290 2199 2280 2289 2208
8 2199 2280 2289 2208 2200 2281 2290 2209
8 2200 2281 2290 2209 2201 2282 2291 2210
8 2201 2282 2291 2210 2202 2283 2292 2211
8 2202 2283 2292 2211 2203 2284 2293 2212
8 2203 2284 2293 2212 2204 2285 2294 2213
8 2204 2285 2294 2213 2205 2286 2295 2214
8 2205 2286 2295 2214 2206 2287 2296 2215
8 2206 2287 2296 2215 2207 2288 2297 2216
8 2207 2288 2297 2216 964 973 974 965
8 290 299 39 40 2208 2289 606 615
8 2208 2289 606 615 2209 2290 607 616
8 2209 2290 607 616 2210 2291 608 617
8 2210 2291 608 617 2211 2292 609 618
8 2211 2292 609 618 2212 2293 610 619
8 2212 2293 610 619 2213 2294 611 620
8 2213 2294 611 620 2214 2295 612 621
8 2214 2295 612 621 2215 2296 613 622
8 2215 2296 613 622 2216 2297 614 623
8 2216 2297 614 623 965 974 95 96
8 23 24 300 291 462 471 2298 2217
8 462 471 2298 2217 463 472 2299 2218
8 463 472 2299 2218 464 473 2300 2219
8 464 473 2300 2219 465 474 2301 2220
8 465 474 2301 2220 466 475 2302 2221
8 466 475 2302 2221 467 476 2303 2222
8 467 476 2303 2222 468 477 2304 2223
8 468 477 2304 2223 469 478 2305 2224
8 469 478 2305 2224 470 479 2306 2225
8 470 479 2306 2225 79 80 975 966
8 291 300 301 292 2217 2298 2307 2226
8 2217 2298 2307 2226 2218 2299 2308 2227
8 2218 2299 2308 2227 2219 2300 2309 2228
8 2219 2300 2309 2228 2220 2301 2310 2229
8 2220 2301 2310 2229 2221 2302 2311 2230
8 2221 2302 2311 2230 2222 2303 2312 2231
8 2222 2303 2312 2231 2223 2304 2313 2232
8 2223 2304 2313 2232 2224 2305 2314 2233
8 2224 2305 2314 2233 2225 2306 2315 2234
8 2225 2306 2315 2234 966 975 976 967
8 292 301 302 293 2226 2307 2316 2235
8 2226 2307 2316 2235 2227 2308 2317 2236
8 2227 2308 2317 2236 2228 2309 2318 2237
8 2228 2309 2318 2237 2229 2310 2319 2238
8 2229 2310 2319 2238 2230 2311 2320 2239
8 2230 2311 2320 2239 2231 2312 2321 2240
8 2231 2312 2321 2240 2232 2313 2322 2241
8 2232 2313 2322 2241 2233 2314 2323 2242
8 2233 2314 2323 2242 2234 2315 2324 2243
8 2234 2315 2324 2243 967 976 977 968
8 293 302 303 294 2235 2316 2325 2244
8 2235 2316 2325 2244 2236 2317 2326 2245
8 2236 2317 2326 2245 2237 2318 2327 2246
8 2237 2318 2327 2246 2238 2319 2328 2247
8 2238 2319 2328 2247 2239 2320 2329 2248
8 2239 2320 2329 2248 2240 2321 2330 2249
8 2240 2321 2330 2249 2241 2322 2331 2250
8 2241 2322 2331 2250 2242 2323 2332 2251
8 2242 2323 2332 2251 2243 2324 2333 2252
8 2243 2324 2333 2252 968 977 978 969
8 294 303 304 295 2244 2325 2334 2253
8 2244 2325 2334 2253 2245 2326 2335 2254
8 2245 2326 2335 2254 2246 2327 2336 2255
8 2246 2327 2336 2255 2247 2328 2337 2256
8 2247 2328 2337 2256 2248 2329 2338 2257
8 2248 2329 2338 2257 2249 2330 2339 2258
8 2249 2330 2339 2258 2250 2331 2340 2259
8 2250 2331 2340 2259 2251 2332 2341 2260
8 2251 2332 2341 2260 2252 2333 2342 2261
8 2252 2333 2342 2261 969 978 979 970
8 295 304 305 296 2253 2334 2343 2262
8 2253 2334 2343 2262 2254 2335 2344 2263
8 2254 2335 2344 2263 2255 2336 2345 2264
8 2255 2336 2345 2264 2256 2337 2346 2265
8 2256 2337 2346 2265 2257 2338 2347 2266
8 2257 2338 2347 2266 2258 2339 2348 2267
8 2258 2339 2348 2267 2259 2340 2349 2268
8 2259 2340 2349 2268 2260 2341 2350 2269
8 2260 2341 2350 2269 2261 2342 2351 2270
8 2261 2342 2351 2270 970 979 980 971
8 296 305 306 297 2262 2343 2352 2271
8 2262 2343 2352 2271 2263 2344 2353 2272
8 2263 2344 2353 2272 2264 2345 2354 2273
8 2264 2345 2354 2273 2265 2346 2355 2274
8 2265 2346 2355 2274 2266 2347 2356 2275
8 2266 2347 2356 2275 2267 2348 2357 2276
8 2267 2348 2357 2276 2268 2349 2358 2277
8 2268 2349 2358 2277 2269 2350 2359 2278
8 2269 2350 2359 2278 2270 2351 2360 2279
8 2270 2351 2360 2279 971 980 981 972
8 297 306 307 298 2271 2352 2361 2280
8 2271 2352 2361 2280 2272 2353 2362 2281
8 2272 2353 2362 2281 2273 2354 2363 2282
8 2273 2354 2363 2282 2274 2355 2364 2283
8 2274 2355 2364 2283 2275 2356 2365 2284
8 2275 2356 2365 2284 2276 2357 2366 2285
8 2276 2357 2366 2285 2277 2358 2367 2286
8 2277 2358 2367 2286 2278 2359 2368 2287
8 2278 2359 2368 2287 2279 2360 2369 2288
8 2279 2360 2369 2288 972 981 982 973
8 298 307 308 299 2280 2361 2370 2289
8 2280 2361 2370 2289 2281 2362 2371 2290
8 2281 2362 2371 2290 2282 2363 2372 2291
8 2282 2363 2372 2291 2283 2364 2373 2292
8 2283 2364 2373 2292 2284 2365 2374 2293
8 2284 2365 2374 2293 2285 2366 2375 2294
8 2285 2366 2375 2294 2286 2367 2376 2295
8 2286 2367 2376 2295 2287 2368 2377 2296
8 2287 2368 2377 2296 2288 2369 2378 2297
8 2288 2369 2378 2297 973 982 983 974
8 299 308 38 39 2289 2370 597 606
8 2289 2370 597 606 2290 2371 598 607
8 2290 2371 598 607 2291 2372 599 608
8 2291 2372 599 608 2292 2373 600 609
8 2292 2373 600 609 2293 2374 601 610
8 2293 2374 601 610 2294 2375 602 611
8 2294 2375 602 611 2295 2376 603 612
8 2295 2376 603 612 2296 2377 604 613
8 2296 2377 604 613 2297 2378 605 614
8 2297 2378 605 614 974 983 94 95
8 24 25 309 300 471 480 2379 2298
8 471 480 2379 2298 472 481 2380 2299
8 472 481 2380 2299 473 482 2381 2300
8 473 482 2381 2300 474 483 2382 2301
8 474 483 2382 2301 475 484 2383 2302
8 475 484 2383 2302 476 485 2384 2303
8 476 485 2384 2303 477 486 2385 2304
8 477 486 2385 2304 478 487 2386 2305
8 478 487 2386 2305 479 488 2387 2306
8 479 488 2387 2306 80 81 984 975
8 300 309 310 301 2298 2379 2388 2307
8 2298 2379 2388 2307 2299 2380 2389 2308
8 2299 2380 2389 2308 2300 2381 2390 2309
8 2300 2381 2390 2309 2301 2382 2391 2310
8 2301 2382 2391 2310 2302 2383 2392 2311
8 2302 2383 2392 2311 2303 2384 2393 2312
8 2303 2384 2393 2312 2304 2385 2394 2313
8 2304 2385 2394 2313 2305 2386 2395 2314
8 2305 2386 2395 2314 2306 2387 2396 2315
8 2306 2387 2396 2315 975 984 985 976
8 301 310 311 302 2307 2388 2397 2316
8 2307 2388 2397 2316 2308 2389 2398 2317
8 2308 2389 2398 2317 2309 2390 2399 2318
8 2309 2390 2399 2318 2310 2391 2400 2319
8 2310 2391 2400 2319 2311 2392 2401 2320
8 2311 2392 2401 2320 2312 2393 2402 2321
8 2312 2393 2402 2321 2313 2394 2403 2322
8 2313 2394 2403 2322 2314 2395 2404 2323
8 2314 2395 2404 2323 2315 2396 2405 2324
8 2315 2396 2405 2324 976 985 986 977
8 302 311 312 303 2316 2397 2406 2325
8 2316 2397 2406 2325 2317 2398 2407 2326
8 2317 2398 2407 2326 2318 2399 2408 2327
8 2318 2399 2408 2327 2319 2400 2409 2328
8 2319 2400 2409 2328 2320 2401 2410 2329
8 2320 2401 2410 2329 2321 2402 2411 2330
8 2321 2402 2411 2330 2322 2403 2412 2331
8 2322 2403 2412 2331 2323 2404 2413 2332
8 2323 2404 2413 2332 2324 2405 2414 2333
8 2324 2405 2414 2333 977 986 987 978
8 303 312 313 304 2325 2406 2415 2334
8 2325 2406 2415 2334 2326 2407 2416 2335
8 2326 2407 2416 2335 2327 2408 2417 2336
8 2327 2408 2417 2336 2328 2409 2418 2337
8 2328 2409 2418 2337 2329 2410 2419 2338
8 2329 2410 2419 2338 2330 2411 2420 2339
8 2330 2411 2420 2339 2331 2412 2421 2340
8 2331 2412 2421 2340 2332 2413 2422 2341
8 2332 2413 2422 2341 2333 2414 2423 2342
8 2333 2414 2423 2342 978 987 988 979
8 304 313 314 305 2334 2415 2424 2343
8 2334 2415 2424 2343 2335 2416 2425 2344
8 2335 2416 2425 2344 2336 2417 2426 2345
8 2336 2417 2426 2345 2337 2418 2427 2346
8 2337 2418 2427 2346 2338 2419 2428 2347
8 2338 2419 2428 2347 2339 2420 2429 2348
8 2339 2420 2429 2348 2340 2421 2430 2349
8 2340 2421 2430 2349 2341 2422 2431 2350
8 2341 2422 2431 2350 2342 2423 2432 2351
8 2342 2423 2432 2351 979 988 989 980
8 305 314 315 306 2343 2424 2433 2352
8 2343 2424 2433 2352 2344 2425 2434 2353
8 2344 2425 2434 2353 2345 2426 2435 2354
8 2345 2426 2435 2354 2346 2427 2436 2355
8 2346 2427 2436 2355 2347 2428 2437 2356
8 2347 2428 2437 2356 2348 2429 2438 2357
8 2348 2429 2438 2357 2349 2430 2439 2358
8 2349 2430 2439 2358 2350 2431 2440 2359
8 2350 2431 2440 2359 2351 2432 2441 2360
8 2351 2432 2441 2360 980 989 990 981
8 306 315 316 307 2352 2433 2442 2361
8 2352 2433 2442 2361 2353 2434 2443 2362
8 2353 2434 2443 2362 2354 2435 2444 2363
8 2354 2435 2444 2363 2355 2436 2445 2364
8 2355 2436 2445 2364 2356 2437 2446 2365
8 2356 2437 2446 2365 2357 2438 2447 2366
8 2357 2438 2447 2366 2358 2439 2448 2367
8 2358 2439 2448 2367 2359 2440 2449 2368
8 2359 2440 2449 2368 2360 2441 2450 2369
8 2360 2441 2450 2369 981 990 991 982
8 307 316 317 308 2361 2442 2451 2370
8 2361 2442 2451 2370 2362 2443 2452 2371
8 2362 2443 2452 2371 2363 2444 2453 2372
8 2363 2444 2453 2372 2364 2445 2454 2373
8 2364 2445 2454 2373 2365 2446 2455 2374
8 2365 2446 2455 2374 2366 2447 2456 2375
8 2366 2447 2456 2375 2367 2448 2457 2376
8 2367 2448 2457 2376 2368 2449 2458 2377
8 2368 2449 2458 2377 2369 2450 2459 2378
8 2369 2450 2459 2378 982 991 992 983
8 308 317 37 38 2370 2451 588 597
8 2370 2451 588 597 2371 2452 589 598
8 2371 2452 589 598 2372 2453 590 599
8 2372 2453 590 599 2373 2454 591 600
8 2373 2454 591 600 2374 2455 592 601
8 2374 2455 592 601 2375 2456 593 602
8 2375 2456 593 602 2376 2457 594 603
8 2376 2457 594 603 2377 2458 595 604
8 2377 2458 595 604 2378 2459 596 605
8 2378 2459 596 605 983 992 93 94
8 25 26 318 309 480 489 2460 2379
8 480 489 2460 2379 481 490 2461 2380
8 481 490 2461 2380 482 491 2462 2381
8 482 491 2462 2381 483 492 2463 2382
8 483 492 2463 2382 484 493 2464 2383
8 484 493 2464 2383 485 494 2465 2384
8 485 494 2465 2384 486 495 2466 2385
8 486 495 2466 2385 487 496 2467 2386
8 487 496 2467 2386 488 497 2468 2387
8 488 497 2468 2387 81 82 993 984
8 309 318 319 310 2379 2460 2469 2388
8 2379 2460 2469 2388 2380 2461 2470 2389
8 2380 2461 2470 2389 2381 2462 2471 2390
8 2381 2462 2471 2390 2382 2463 2472 2391
8 2382 2463 2472 2391 2383 2464 2473 2392
8 2383 2464 2473 2392 2384 2465 2474 2393
8 2384 2465 2474 2393 2385 2466 2475 2394
8 2385 2466 2475 2394 2386 2467 2476 2395
8 2386 2467 2476 2395 2387 2468 2477 2396
8 2387 2468 2477 2396 984 993 994 985
8 310 319 320 311 2388 2469 2478 2397
8 2388 2469 2478 2397 2389 2470 2479 2398
8 2389 2470 2479 2398 2390 2471 2480 2399
8 2390 2471 2480 2399 2391 2472 2481 2400
8 2391 2472 2481 2400 2392 2473 2482 2401
8 2392 2473 2482 2401 2393 2474 2483 2402
8 2393 2474 2483 2402 2394 2475 2484 2403
8 2394 2475 2484 2403 2395 2476 2485 2404
8 2395 2476 2485 2404 2396 2477 2486 2405
8 2396 2477 2486 2405 985 994 995 986
8 311 320 321 312 2397 2478 2487 2406
8 2397 2478 2487 2406 2398 2479 2488 2407
8 2398 2479 2488 2407 2399 2480 2489 2408
8 2399 2480 2489 2408 2400 2481 2490 2409
8 2400 2481 2490 2409 2401 2482 2491 2410
8 2401 2482 2491 2410 2402 2483 2492 2411
8 2402 2483 2492 2411 2403 2484 2493 2412
8 2403 2484 2493 2412 2404 2485 2494 2413
8 2404 2485 2494 2413 2405 2486 2495 2414
8 2405 2486 2495 2414 986 995 996 987
8 312 321 322 313 2406 2487 2496 2415
8 2406 2487 2496 2415 2407 2488 2497 2416
8 2407 2488 2497 2416 2408 2489 2498 2417
8 2408 2489 2498 2417 2409 2490 2499 2418
8 2409 2490 2499 2418 2410 2491 2500 2419
8 2410 2491 2500 2419 2411 2492 2501 2420
8 2411 2492 2501 2420 2412 2493 2502 2421
8 2412 2493 2502 2421 2413 2494 2503 2422
8 2413 2494 2503 2422 2414 2495 2504 2423
8 2414 2495 2504 2423 987 996 997 988
8 313 322 323 314 2415 2496 2505 2424
8 2415 2496 2505 2424 2416 2497 2506 2425
8 2416 2497 2506 2425 2417 2498 2507 2426
8 2417 2498 2507 2426 2418 2499 2508 2427
8 2418 2499 2508 2427 2419 2500 2509 2428
8 2419 2500 2509 2428 2420 2501 2510 2429
8 2420 2501 2510 2429 2421 2502 2511 2430
8 2421 2502 2511 2430 2422 2503 2512 2431
8 2422 2503 2512 2431 2423 2504 2513 2432
8 2423 2504 2513 2432 988 997 998 989
8 314 323 324 315 2424 2505 2514 2433
8 2424 2505 2514 2433 2425 2506 2515 2434
8 2425 2506 2515 2434 2426 2507 2516 2435
8 2426 2507 2516 2435 2427 2508 2517 2436
8 2427 2508 2517 2436 2428 2509 2518 2437
8 2428 2509 2518 2437 2429 2510 2519 2438
8 2429 2510 2519 2438 2430 2511 2520 2439
8 2430 2511 2520 2439 2431 2512 2521 2440
8 2431 2512 2521 2440 2432 2513 2522 2441
8 2432 2513 2522 2441 989 998 999 990
8 315 324 325 316 2433 2514 2523 2442
8 2433 2514 2523 2442 2434 2515 2524 2443
8 2434 2515 2524 2443 2435 2516 2525 2444
8 2435 2516 2525 2444 2436 2517 2526 2445
8 2436 2517 2526 2445 2437 2518 2527 2446
8 2437 2518 2527 2446 2438 2519 2528 2447
8 2438 2519 2528 2447 2439 2520 2529 2448
8 2439 2520 2529 2448 2440 2521 2530 2449
8 2440 2521 2530 2449 2441 2522 2531 2450
8 2441 2522 2531 2450 990 999 1000 991
8 316 325 326 317 2442 2523 2532 2451
8 2442 2523 2532 2451 2443 2524 2533 2452
8 2443 2524 2533 2452 2444 2525 2534 2453
8 2444 2525 2534 2453 2445 2526 2535 2454
8 2445 2526 2535 2454 2446 2527 2536 2455
8 2446 2527 2536 2455 2447 2528 2537 2456
8 2447 2528 2537 2456 2448 2529 2538 2457
8 2448 2529 2538 2457 2449 2530 2539 2458
8 2449 2530 2539 2458 2450 2531 2540 2459
8 2450 2531 2540 2459 991 1000 1001 992
8 317 326 36 37 2451 2532 579 588
8 2451 2532 579 588 2452 2533 580 589
8 2452 2533 580 589 2453 2534 581 590
8 2453 2534 581 590 2454 2535 582 591
8 2454 2535 582 591 2455 2536 583 592
8 2455 2536 583 592 2456 2537 584 593
8 2456 2537 584 593 2457 2538 585 594
8 2457 2538 585 594 2458 2539 586 595
8 2458 2539 586 595 2459 2540 587 596
8 2459 2540 587 596 992 1001 92 93
8 26 1 27 318 489 129 498 2460
8 489 129 498 2460 490 130 499 2461
8 490 130 499 2461 491 131 500 2462
8 491 131 500 2462 492 132 501 2463
8 492 132 501 2463 493 133 502 2464
8 493 133 502 2464 494 134 503 2465
8 494 134 503 2465 495 135 504 2466
8 495 135 504 2466 496 136 505 2467
8 496 136 505 2467 497 137 506 2468
8 497 137 506 2468 82 5 83 993
8 318 27 28 319 2460 498 507 2469
8 2460 498 507 2469 2461 499 508 2470
8 2461 499 508 2470 2462 500 509 2471
8 2462 500 509 2471 2463 501 510 2472
8 2463 501 510 2472 2464 502 511 2473
8 2464 502 511 2473 2465 503 512 2474
8 2465 503 512 2474 2466 504 513 2475
8 2466 504 513 2475 2467 505 514 2476
8 2467 505 514 2476 2468 506 515 2477
8 2468 506 515 2477 993 83 84 994
8 319 28 29 320 2469 507 516 2478
8 2469 507 516 2478 2470 508 517 2479
8 2470 508 517 2479 2471 509 518 2480
8 2471 509 518 2480 2472 510 519 2481
8 2472 510 519 2481 2473 511 520 2482
8 2473 511 520 2482 2474 512 521 2483
8 2474 512 521 2483 2475 513 522 2484
8 2475 513 522 2484 2476 514 523 2485
8 2476 514 523 2485 2477 515 524 2486
8 2477 515 524 2486 994 84 85 995
8 320 29 30 321 2478 516 525 2487
8 2478 516 525 2487 2479 517 526 2488
8 2479 517 526 2488 2480 518 527 2489
8 2480 518 527 2489 2481 519 528 2490
8 2481 519 528 2490 2482 520 529 2491
8 2482 520 529 2491 2483 521 530 2492
8 2483 521 530 2492 2484 522 531 2493
8 2484 522 531 2493 2485 523 532 2494
8 2485 523 532 2494 2486 524 533 2495
8 2486 524 533 2495 995 85 86 996
8 321 30 31 322 2487 525 534 2496
8 2487 525 534 2496 2488 526 535 2497
8 2488 526 535 2497 2489 527 536 2498
8 2489 527 536 2498 2490 528 537 2499
8 2490 528 537 2499 2491 529 538 2500
8 2491 529 538 2500 2492 530 539 2501
8 2492 530 539 2501 2493 531 540 2502
8 2493 531 540 2502 2494 532 541 2503
8 2494 532 541 2503 2495 533 542 2504
8 2495 533 542 2504 996 86 87 997
8 322 31 32 323 2496 534 543 2505
8 2496 534 543 2505 2497 535 544 2506
8 2497 535 544 2506 2498 536 545 2507
8 2498 536 545 2507 2499 537 546 2508
8 2499 537 546 2508 2500 538 547 2509
8 2500 538 547 2509 2501 539 548 2510
8 2501 539 548 2510 2502 540 549 2511
8 2502 540 549 2511 2503 541 550 2512
8 2503 541 550 2512 2504 542 551 2513
8 2504 542 551 2513 997 87 88 998
8 323 32 33 324 2505 543 552 2514
8 2505 543 552 2514 2506 544 553 2515
8 2506 544 553 2515 2507 545 554 2516
8 2507 545 554 2516 2508 546 555 2517
8 2508 546 555 2517 2509 547 556 2518
8 2509 547 556 2518 2510 548 557 2519
8 2510 548 557 2519 2511 549 558 2520
8 2511 549 558 2520 2512 550 559 2521
8 2512 550 559 2521 2513 551 560 2522
8 2513 551 560 2522 998 88 89 999
8 324 33 34 325 2514 552 561 2523
8 2514 552 561 2523 2515 553 562 2524
8 2515 553 562 2524 2516 554 563 2525
8 2516 554 563 2525 2517 555 564 2526
8 2517 555 564 2526 2518 556 565 2527
8 2518 556 565 2527 2519 557 566 2528
8 2519 557 566 2528 2520 558 567 2529
8 2520 558 567 2529 2521 559 568 2530
8 2521 559 568 2530 2522 560 569 2531
8 2522 560 569 2531 999 89 90 1000
8 325 34 35 326 2523 561 570 2532
8 2523 561 570 2532 2524 562 571 2533
8 2524 562 571 2533 2525 563 572 2534
8 2525 563 572 2534 2526 564 573 2535
8 2526 564 573 2535 2527 565 574 2536
8 2527 565 574 2536 2528 566 575 2537
8 2528 566 575 2537 2529 567 576 2538
8 2529 567 576 2538 2530 568 577 2539
8 2530 568 577 2539 2531 569 578 2540
8 2531 569 578 2540 1000 90 91 1001
8 326 35 2 36 2532 570 138 579
8 2532 570 138 579 2533 571 139 580
8 2533 571 139 580 2534 572 140 581
8 2534 572 140 581 2535 573 141 582
8 2535 573 141 582 2536 574 142 583
8 2536 574 142 583 2537 575 143 584
8 2537 575 143 584 2538 576 144 585
8 2538 576 144 585 2539 577 145 586
8 2539 577 145 586 2540 578 146 587
8 2540 578 146 587 1001 91 6 92

CELL_TYPES 2000
12
12
12
12
12
12
12
12
12
12
12
12
12
12
12
12
12
12
12
12
12
12
12
12
12
12
12
12
12
12
12
12
12
12
12
12
12
12
12
12
12
12
12
12
12
12
12
12
12
12
12
12
12
12
12
12
12
12
12
12
12
12
12
12
12
12
12
12
12
12
12
12
12
12
12
12
12
12
12
12
12
12
12
12
12
12
12
12
12
12
12
12
12
12
12
12
12
12
12
12
12
12
12
12
12
12
12
12
12
12
12
12
12
12
12
12
12
12
12
12
12
12
12
12
12
12
12
12
12
12
12
12
12
12
12
12
12
12
12
12
12
12
12
12
12
12
12
12
12
12
12
12
12
12
12
12
12
12
12
12
12
12
12
12
12
12
12
12
12
12
12
12
12
12
12
12
12
12
12
12
12
12
12
12
12
12
12
12
12
12
12
12
12
12
12
12
12
12
12
12
12
12
12
12
12
12
12
12
12
12
12
12
12
12
12
12
12
12
12
12
12
12
12
12
12
12
12
12
12
12
12
12
12
12
12
12
12
12
12
12
12
12
12
12
12
12
12
12
12
12
12
12
12
12
12
12
12
12
12
12
12
12
12
12
12
12
12
12
12
12
12
12
12
12
12
12
12
12
12
12
12
12
12
12
12
12
12
12
12
12
12
12
12
12
12
12
12
12
12
12
12
12
12
12
12
12
12
12
12
12
12
12
12
12
12
12
12
12
12
12
12
12
12
12
12
12
12
12
12
12
12
12
12
12
12
12
12
12
12
12
12
12
12
12
12
12
12
12
12
12
12
12
12
12
12
12
12
12
12
12
12
12
12
12
12
12
12
12
12
12
12
12
12
12
12
12
12
12
12
12
12
12
12
12
12
12
12
12
12
12
12
12
12
12
12
12
12
12
12
12
12
12
12
12
12
12
12
12
12
12
12
12
12
12
12
12
12
12
12
12
12
12
12
12
12
12
12
12
12
12
12
12
12
12
12
12
12
12
12
12
12
12
12
12
12
12
12
12
12
12
12
12
12
12
12
12
12
12
12
12
12
12
12
12
12
12
12
12
12
12
12
12
12
12
12
12
12
12
12
12
12
12
12
12
12
12
12
12
12
12
12
12
12
12
12
12
12
12
12
12
12
12
12
12
12
12
12
12
12
12
12
12
12
12
12
12
12
12
12
12
12
12
12
12
12
12
12
12
12
12
12
12
12
12
12
12
12
12
12
12
12
12
12
12
12
12
12
12
12
12
12
12
12
12
12
12
12
12
12
12
12
12
12
12
12
12
12
12
12
12
12
12
12
12
12
12
12
12
12
12
12
12
12
12
12
12
12
12
12
12
12
12
12
12
12
12
12
12
12
12
12
12
12
12
12
12
12
12
12
12
12
12
12
12
12
12
12
12
12
12
12
12
12
12
12
12
12
12
12
12
12
12
12
12
12
12
12
12
12
12
12
12
12
12
12
12
12
12
12
12
12
12
12
12
12
12
12
12
12
12
12
12
12
12
12
12
12
12
12
12
12
12
12
12
12
12
12
12
12
12
12
12
12
12
12
12
12
12
12
12
12
12
12
12
12
12
12
12
12
12
12
12
12
12
12
12
12
12
12
12
12
12
12
12
12
12
12
12
12
12
12
12
12
12
12
12
12
12
12
12
12
12
12
12
12
12
12
12
12
12
12
12
12
12
12
12
12
12
12
12
12
12
12
12
12
12
12
12
12
12
12
12
12
12
12
12
12
12
12
12
12
12
12
12
12
12
12
12
12
12
12
12
12
12
12
12
12
12
12
12
12
12
12
12
12
12
12
12
12
12
12
12
12
12
12
12
12
12
12
12
12
12
12
12
12
12
12
12
12
12
12
12
12
12
12
12
12
12
12
12
12
12
12
12
12
12
12
12
12
12
12
12
12
12
12
12
12
12
12
12
12
12
12
12
12
12
12
12
12
12
12
12
12
12
12
12
12
12
12
12
12
12
12
12
12
12
12
12
12
12
12
12
12
12
12
12
12
12
12
12
12
12
12
12
12
12
12
12
12
12
12
12
12
12
12
12
12
12
12
12
12
12
12
12
12
12
12
12
12
12
12
12
12
12
12
12
12
12
12
12
12
12
12
12
12
12
12
12
12
12
12
12
12
12
12
12
12
12
12
12
12
12
12
12
12
12
12
12
12
12
12
12
12
12
12
12
12
12
12
12
12
12
12
12
12
12
12
12
12
12
12
12
12
12
12
12
12
12
12
12
12
12
12
12
12
12
12
12
12
12
12
12
12
12
12
12
12
12
12
12
12
12
12
12
12
12
12
12
12
12
12
12
12
12
12
12
12
12
12
12
12
12
12
12
12
12
12
12
12
12
12
12
12
12
12
12
12
12
12
12
12
12
12
12
12
12
12
12
12
12
12
12
12
12
12
12
12
12
12
12
12
12
12
12
12
12
12
12
12
12
12
12
12
12
12
12
12
12
12
12
12
12
12
12
12
12
12
12
12
12
12
12
12
12
12
12
12
12
12
12
12
12
12
12
12
12
12
12
12
12
12
12
12
12
12
12
12
12
12
12
12
12
12
12
12
12
12
12
12
12
12
12
12
12
12
12
12
12
12
12
12
12
12
12
12
12
12
12
12
12
12
12
12
12
12
12
12
12
12
12
12
12
12
12
12
12
12
12
12
12
12
12
12
12
12
12
12
12
12
12
12
12
12
12
12
12
12
12
12
12
12
12
12
12
12
12
12
12
12
12
12
12
12
12
12
12
12
12
12
12
12
12
12
12
12
12
12
12
12
12
12
12
12
12
12
12
12
12
12
12
12
12
12
12
12
12
12
12
12
12
12
12
12
12
12
12
12
12
12
12
12
12
12
12
12
12
12
12
12
12
12
12
12
12
12
12
12
12
12
12
12
12
12
12
12
12
12
12
12
12
12
12
12
12
12
12
12
12
12
12
12
12
12
12
12
12
12
12
12
12
12
12
12
12
12
12
12
12
12
12
12
12
12
12
12
12
12
12
12
12
12
12
12
12
12
12
12
12
12
12
12
12
12
12
12
12
12
12
12
12
12
12
12
12
12
12
12
12
12
12
12
12
12
12
12
12
12
12
12
12
12
12
12
12
12
12
12
12
12
12
12
12
12
12
12
12
12
12
12
12
12
12
12
12
12
12
12
12
12
12
12
12
12
12
12
12
12
12
12
12
12
12
12
12
12
12
12
12
12
12
12
12
12
12
12
12
12
12
12
12
12
12
12
12
12
12
12
12
12
12
12
12
12
12
12
12
12
12
12
12
12
12
12
12
12
12
12
12
12
12
12
12
12
12
12
12
12
12
12
12
12
12
12
12
12
12
12
12
12
12
12
12
12
12
12
12
12
12
12
12
12
12
12
12
12
12
12
12
12
12
12
12
12
12
12
12
12
12
12
12
12
12
12
12
12
12
12
12
12
12
12
12
12
12
12
12
12
12
12
12
12
12
12
12
12
12
12
12
12
12
12
12
12
12
12
12
12
12
12
12
12
12
12
12
12
12
12
12
12
12
12
12
12
12
12
12
12
12
12
12
12
12
12
12
12
12
12
12
12
12
12
12
12
12
12
12
12
12
12
12
12
12
12
12
12
12
12
12
12
12
12
12
12
12
12
12
12
12
12
12
12
12
12
12
12
12
12
12
12
12
12
12
12
12
12
12
12
12
12
12
12
12
12
12
12
12
12
12
12
12
12
12
12
12
12
12
12
12
12
12
12
12
12
12
12
12
12
12
12
12
12
12
12
12
12
12
12
12
12
12
12
12
12
12
12
12
12
12
12
12
12
12
12
12
12
12
12
12
12
12
12
12
12
12
12
12
12
12
12
12
12
12
12
12
12
12
12
12
12
12
12
12
12
12
12
12
12
12
12
12
12
12
12
12
12
12
12
12
12
12
12
12
12
12
12
12
12
12
12
12
12
12
12
12
12
12
12
12
12
12
12
12
12
12
12
12
12
12
12
12
12
12
12
12
12
12
12
12
12
12
12
12
12
12
12
12
12
12
12
12
12
12
12
12
12
12
12
12
12
12
12
12
12
12
12
12
12
12
12
12
12
12
12
12
12
12
12
12
12
12
12
12
12
12
12
12
12
12
12
12
12
12
12
12
12
12
12
12
12
12
12
12
12
12
12
12
12
12
12
12
12
12
12
12
12
12
12
12
12
12
12
12
12
12
12
12
12
12
12
12
12
12
12
12
12
12
12
12
12
12
12
12
12
12
12
12
12
12
12
12
12
12
12
12
12
12
12
12
12
12
12
12
12
12
12
12
12
12
12
12
12
12
12
12
12
12
12
12
12
12
12
12
12
12
12
12
12
12
12
12
12
12
12
12
12
12
12
12
12
12
12
12
12
12
12
12
12
12
12
12
12
12
12
12
12
12
12
12
12
12
12
12
12
12
12
12
12
12
12
12
12
12
12
12
12
12
12
12
12
12
12
12
12
12
12
12
12
12
12
12
12
12
12
12
12
12
12
12
12
12
12
12
12
12
12
12
12
12
12
12

POINT_DATA 2541
SCALARS STRESS_EQV float 1
LOOKUP_TABLE default
99.03911811569039
11.266423978645419
11.266423978697029
99.03911811581317
99.03911811569036
11.266423978645758
11.266423978693785
99.03911811581334
98.34886341884315
92.75619710830713
85.6977534014663
81.49097837328813
77.37183278251977
73.09379809594401
68.54236681651747
63.75296002882099
58.781539153138525
53.68239914359092
48.49956341592803
43.26796472715989
38.01799907497562
32.782164150021124
27.60304684978452
22.53852024299337
17.673998005461872
13.117698403743763
11.098488402401994
14.895306981601873
19.973196231583586
21.93705172229898
22.60118319971612
22.750465433444248
22.601183199723167
21.937051722323822
19.973196231641438
14.895306981666614
11.098488402396665
13.117698403642866
17.67399800529
22.5385202427565
27.603046849482315
32.78216414965652
38.01799907456541
43.26796472673585
48.49956341551453
53.68239914319791
58.78153915277099
63.752960028486456
68.542366816233
73.09379809572873
77.37183278238047
81.49097837321675
85.69775340143761
92.75619710833634
98.34886341894205
82.807550395144
55.80934404990677
35.64183745054697
17.454841254700046
8.668713033213773
17.454841253859854
35.641837449803226
55.809344049326484
82.80755039483697
98.34886341884317
92.75619710830716
85.69775340146633
81.49097837328807
77.3718327825197
73.09379809594421
68.54236681651784
63.75296002882126
58.781539153139065
53.682399143591525
48.49956341592832
43.26796472716043
38.01799907497597
32.78216415002095
27.603046849784675
22.538520242993496
17.67399800546166
13.117698403744185
11.098488402402609
14.895306981601756
19.973196231584044
21.937051722300644
22.601183199718484
22.750465433446134
22.601183199723152
21.937051722322526
19.97319623163956
14.89530698166395
11.098488402393606
13.11769840364014
17.673998005287874
22.53852024275472
27.60304684948062
32.782164149654626
38.01799907456347
43.26796472673402
48.49956341551328
53.68239914319752
58.78153915277073
63.75296002848623
68.54236681623257
73.09379809572837
77.37183278238035
81.4909783732167
85.69775340143767
92.75619710833647
98.34886341894219
82.80755039514418
55.809344049906926
35.64183745054712
17.45484125470017
8.668713033213784
17.454841253859794
35.64183744980321
55.8093440493265
82.80755039483695
93.59508496497799
87.42269796016903
86.62819970847261
86.62281048076535
86.68356565065795
86.62281048076528
86.62819970847252
87.42269796016896
93.59508496497794
11.352710460417484
11.459149887752318
11.504458647785407
11.55076151213109
11.571908562005943
11.550761512129665
11.504458647784276
11.459149887751902
11.352710460417455
11.352710460467724
11.459149887800336
11.504458647831868
11.550761512176857
11.571908562051881
11.550761512175928
11.504458647830965
11.459149887799041
11.35271046046513
93.59508496514559
87.42269796037955
86.62819970867989
86.62281048097051
86.68356565086235
86.62281048097057
86.62819970867999
87.42269796037962
93.5950849651457
84.12658296699266
58.60382300101766
37.76219082050302
19.980332199588574
11.739626245411614
19.980332200330444
37.76219082123373
58.60382300159088
84.12658296727915
81.9487310662503
60.465268010712194
40.65799329412774
24.60751854315382
17.688321495497988
24.607518543707386
40.65799329476502
60.46526801119538
81.94873106644947
76.51113675383074
58.433177794579315
41.55780034663243
27.94052149320707
22.307277776254917
27.940521493611598
41.55780034712059
58.43317779492237
76.51113675393361
72.78296921035697
56.179559357394446
41.35446875410132
29.718518353872838
25.01225786700762
29.718518354172566
41.35446875446561
56.179559357636144
72.78296921039694
69.21186214302422
53.8498608464172
40.549824998645526
30.49218861525981
26.532557422606928
30.49218861547873
40.549824998910154
53.84986084657475
69.21186214299378
65.53681265212987
51.42802763145188
39.50193077435196
30.782349360388345
27.43706522671207
30.78234936054369
39.50193077453286
51.42802763153061
65.53681265202415
61.63921128695275
48.85219219910589
38.2878547422838
30.807603159785653
28.007825475862003
30.807603159888664
38.28785474239161
48.85219219911127
61.63921128677656
57.53088869873939
46.12191413648369
36.94495505198125
30.661157446478303
28.367415693325363
30.66115744654003
36.9449550520301
46.121914136429844
57.530888698509486
53.257009303139064
43.26826620573959
35.507289143320456
30.395359630308718
28.580193932328406
30.395359630339875
35.50728914332493
43.268266205641886
53.25700930287198
48.868056680175485
40.333972941023234
34.01269689358028
30.051394487012637
28.691626852156872
30.05139448702146
34.01269689355151
40.33397294089227
48.86805667987988
44.40788540204076
37.36039915288748
32.49839978736019
29.666874644647798
28.741540632198596
29.666874644642775
32.49839978730944
37.360399152732576
44.40788540172293
39.911148145633526
34.381251129461575
30.99762335586334
29.278398761808035
28.76972150670501
29.27839876179519
30.997623355799714
34.381251129291556
39.91114814530263
35.40414008456735
31.420167958627754
29.53963063017045
28.924619504972235
28.820032572699706
28.924619504960123
29.53963063010748
31.42016795845834
35.40414008424398
30.90773186667204
28.49302779901867
28.155167084274296
28.649347394326877
28.941116634821572
28.649347394324174
28.155167084228346
28.4930277988719
30.907731866384182
26.444956483488006
25.622472114991176
26.890015524961296
28.49688646955653
29.171820001986905
28.49688646956905
26.890015524945248
25.622472114883426
26.44495648325214
22.065493445534063
22.885143136860012
25.823011407094015
28.474912330020008
29.481621471507612
28.47491233005222
25.823011407117114
22.885143136801737
22.06549344535611
17.934217337539963
20.523647849609734
25.043015601261523
28.424463128141216
29.61575408337439
28.424463128189185
25.043015601324473
20.523647849614015
17.934217337429736
14.579032490297257
19.116726742410567
24.41028597644155
27.71882858144992
28.810172117999766
27.71882858149935
24.410285976526083
19.116726742478477
14.579032490266972
14.045291182432816
19.36215390229552
23.011555582728157
24.841588639831162
25.39227995633941
24.841588639857235
23.01155558278409
19.3621539023725
14.04529118247127
95.58163359672511
91.5487552298322
89.95350214671012
89.53776281254021
89.45162801671745
89.5377628125401
89.95350214671
91.54875522983212
95.58163359672511
93.69737340357952
93.48679370807427
91.69368694513066
90.77626818011389
90.50020018726309
90.77626818011372
91.69368694513047
93.48679370807417
93.69737340357949
87.5065787347201
89.21181720644906
88.63837136469131
87.90223257366019
87.63595276286192
87.90223257366009
88.63837136469112
89.21181720644888
87.50657873472008
82.93155053831542
84.75843508529508
85.0492575668001
84.81969011705746
84.68561256776216
84.81969011705742
85.04925756679997
84.75843508529498
82.93155053831536
78.41391136106579
79.92687237872406
80.51693770161882
80.63009076376889
80.62406094213652
80.63009076376896
80.51693770161887
79.92687237872408
78.41391136106574
73.79549508119733
74.91363428817093
75.51725078450971
75.76356082202157
75.82269658491482
75.76356082202152
75.51725078450986
74.91363428817094
73.79549508119733
68.9933752786344
69.76412717580499
70.26369951903236
70.51837841007163
70.59322839293716
70.51837841007155
70.26369951903231
69.76412717580502
68.99337527863462
64.02789025446513
64.52843733141256
64.89740855478942
65.10734585138215
65.17392877590149
65.1073458513825
64.89740855478968
64.52843733141279
64.0278902544654
58.93726264648971
59.24194134078736
59.493581373291896
59.64685637764393
59.69744655043795
59.64685637764427
59.49358137329243
59.241941340787754
58.937262646490126
53.7596222688501
53.929580164031755
54.090688953096524
54.19408833163672
54.2291136910346
54.19408833163685
54.09068895309687
53.92958016403227
53.75962226885072
48.526560151770404
48.60879063056518
48.70777432911994
48.77461621487063
48.797708145018746
48.77461621487029
48.70777432911992
48.60879063056554
48.52656015177081
43.26443278552596
43.294509342626654
43.35697369135504
43.40131139880898
43.41679325626881
43.401311398808346
43.35697369135489
43.294509342627016
43.26443278552646
37.99878980425295
38.00479948935022
38.05224669503868
38.08603956010267
38.09760417529805
38.08603956010252
38.05224669503876
38.00479948935066
37.99878980425341
32.76088096958591
32.76715933204568
32.815963016323536
32.84699968846358
32.85679421922079
32.846999688463725
32.81596301632341
32.7671593320454
32.76088096958576
27.59527183204546
27.62448844193649
27.683325813488928
27.713240095256193
27.721308633100918
27.71324009525577
27.68332581348822
27.624488441935764
27.595271832045285
22.563311943486173
22.63440367839059
22.70031566933459
22.725107648435195
22.73028767100321
22.725107648434467
22.700315669333726
22.6344036783901
22.563311943486084
17.7453724449148
17.86330592561487
17.925262374032897
17.944356546969466
17.948053312734995
17.94435654696879
17.925262374031917
17.863305925614117
17.745372444914395
13.227676298733128
13.382395443207693
13.448406068604367
13.481290226090428
13.492905007664834
13.481290226089785
13.44840606860359
13.382395443207123
13.227676298733085
11.203375405817656
11.341374478151486
11.401579111048015
11.44887490557435
11.469078136122043
11.448874905573488
11.401579111047328
11.341374478151264
11.203375405817848
14.896176967573915
14.856412399398721
14.800725354901399
14.785311719754343
14.784950574957277
14.78531171975377
14.800725354900734
14.856412399398252
14.896176967573577
19.800005809256366
19.50670939051971
19.312343734949675
19.205744401377743
19.173404726966915
19.20574440137809
19.312343734949092
19.506709390519315
19.80000580925663
21.589965512983802
21.09170500378988
20.840445243864682
20.693626895040374
20.646894006263395
20.693626895041696
20.840445243864597
21.091705003789375
21.589965512984662
22.117208411871644
21.459678699535345
21.176650425344963
21.01563230234328
20.96408752904056
21.015632302344567
21.176650425345997
21.459678699535058
22.117208411872387
22.214853941557873
21.495691261483966
21.20010577084141
21.035637689981858
20.98320391157726
21.035637689981673
21.200105770841343
21.495691261483586
22.214853941558385
22.117208411875097
21.459678699535253
21.17665042534531
21.015632302343043
20.96408752903824
21.015632302340883
21.176650425343123
21.459678699534322
22.117208411874895
21.58996551300516
21.091705003807178
20.84044524388201
20.693626895058138
20.646894006278657
20.693626895054628
20.84044524387867
21.091705003805224
21.58996551300385
19.800005809312438
19.506709390573395
19.312343735002504
19.205744401430664
19.173404727018593
19.20574440142777
19.312343734999
19.506709390570286
19.800005809310075
14.896176967637407
14.856412399460286
14.800725354961585
14.78531171981399
14.784950575016625
14.785311719812343
14.800725354959493
14.85641239945802
14.89617696763481
11.20337540581104
11.341374478142482
11.401579111037524
11.448874905563962
11.469078136112094
11.448874905563153
11.401579111036783
11.341374478141379
11.20337540580867
13.227676298631767
13.382395443104691
13.448406068500116
13.481290225986442
13.492905007561204
13.48129022598577
13.448406068499029
13.382395443103162
13.227676298629452
17.745372444743666
17.86330592544376
17.925262373860726
17.94435654679677
17.94805331256228
17.944356546796364
17.92526237385978
17.863305925442486
17.745372444741864
22.563311943250454
22.634403678155827
22.700315669098977
22.725107648198815
22.73028767076702
22.725107648198925
22.70031566909883
22.634403678155113
22.563311943249005
27.595271831743837
27.624488441635744
27.683325813188368
27.713240094955044
27.721308632799584
27.713240094955182
27.683325813188084
27.62448844163466
27.59527183174223
32.76088096922108
32.767159331680915
32.81596301595928
32.84699968809913
32.856794218855775
32.84699968809859
32.81596301595849
32.767159331680006
32.760880969219606
37.99878980384229
38.00479948893886
38.05224669462656
38.086039559689674
38.097604174884765
38.08603955968918
38.05224669462561
38.00479948893787
37.9987898038408
43.264432785100595
43.29450934219906
43.356973690925415
43.40131139837731
43.4167932558369
43.40131139837749
43.356973690924676
43.29450934219787
43.26443278509909
48.52656015135402
48.608790630144
48.70777432869538
48.7746162144436
48.79770814459107
48.77461621444361
48.70777432869478
48.608790630143126
48.526560151352975
53.75962226845252
53.92958016362613
54.090688952685376
54.19408833122243
54.22911369061918
54.19408833122198
54.0906889526847
53.92958016362559
53.75962226845208
58.93726264611533
59.24194134040125
59.49358137289814
59.64685637724624
59.69744655003894
59.64685637724583
59.493581372897495
59.241941340400786
58.93726264611506
64.02789025412069
64.52843733105206
64.89740855441995
65.10734585100896
65.1739287755272
65.10734585100877
64.8974085544194
64.52843733105152
64.02789025412038
68.99337527833605
69.7641271754861
70.2636995187051
70.51837840974252
70.59322839260797
70.51837840974235
70.26369951870477
69.76412717548568
68.99337527833558
73.79549508096466
74.91363428791581
75.51725078425055
75.76356082176517
75.82269658466026
75.76356082176501
75.51725078425032
74.91363428791553
73.79549508096429
78.4139113609078
79.92687237854653
80.51693770144581
80.63009076360547
80.62406094197729
80.63009076360545
80.51693770144558
79.92687237854624
78.41391136090762
82.93155053822815
84.75843508519878
85.04925756672021
84.81969011699206
84.6856125677017
84.819690116992
85.04925756672014
84.7584350851987
82.9315505382281
87.50657873468847
89.21181720643006
88.63837136469654
87.90223257367668
87.635952762881
87.9022325736766
88.63837136469657
89.21181720643017
87.50657873468857
93.6973734036298
93.48679370816191
91.6936869452361
90.7762681802202
90.50020018736878
90.77626818022024
91.69368694523614
93.48679370816201
93.69737340362994
95.58163359686387
91.54875523001634
89.95350214689768
89.53776281272424
89.45162801690014
89.5377628127243
89.95350214689776
91.54875523001643
95.58163359686398
77.62925282484552
71.52059605871835
70.39059619914933
70.17753009428642
70.16410465316386
70.17753009428648
70.3905961991494
71.52059605871841
77.62925282484564
51.53993221471626
46.29630047485453
45.04094988338784
44.68973420242959
44.61964920826685
44.68973420242963
45.04094988338787
46.29630047485459
51.53993221471637
32.91286300035229
29.704619975275513
29.155089337117822
29.095110522873533
29.105393771904854
29.09511052287354
29.155089337117836
29.704619975275556
32.91286300035239
16.91917906669456
16.808840810469793
17.57549822056515
18.087933722612217
18.259035746344654
18.087933722612217
17.57549822056513
16.80884081046978
16.91917906669462
9.42907587723432
11.182548462830901
12.769724843888817
13.632865096589047
13.901938709807391
13.632865096589022
12.769724843888763
11.182548462830825
9.429075877234283
16.919179065988867
16.808840809950862
17.575498220120437
18.087933722197754
18.25903574593847
18.087933722197715
17.575498220120387
16.808840809950787
16.91917906598879
32.912862999665144
29.704619974670678
29.15508933655106
29.095110522324077
29.105393771360326
29.09511052232407
29.15508933655105
29.704619974670653
32.91286299966512
51.53993221414423
46.29630047429764
45.04094988284066
44.68973420188625
44.61964920772449
44.68973420188626
45.04094988284065
46.29630047429763
51.539932214144244
77.62925282450843
71.52059605835167
70.3905961987833
70.17753009392068
70.1641046527982
70.17753009392065
70.39059619878324
71.52059605835163
77.62925282450841
84.12658296699269
58.60382300101766
37.76219082050297
19.980332199588478
11.739626245411548
19.980332200330487
37.76219082123384
58.603823001591024
84.1265829672793
81.94873106625032
60.46526801071217
40.657993294127664
24.60751854315366
17.68832149549784
24.607518543707336
40.65799329476507
60.46526801119548
81.94873106644958
76.51113675383067
58.43317779457921
41.55780034663233
27.940521493206894
22.307277776254757
27.940521493611534
41.557800347120605
58.43317779492237
76.51113675393364
72.78296921035688
56.17955935739438
41.35446875410125
29.7185183538727
25.012257867007442
29.718518354172446
41.35446875446556
56.17955935763605
72.78296921039686
69.21186214302422
53.84986084641727
40.54982499864555
30.492188615259696
26.532557422606708
30.49218861547851
40.54982499890994
53.84986084657452
69.21186214299361
65.53681265213002
51.42802763145199
39.50193077435193
30.782349360388096
27.43706522671163
30.78234936054318
39.50193077453237
51.4280276315302
65.53681265202378
61.639211286953
48.852192199106014
38.28785474228372
30.807603159785277
28.00782547586136
30.807603159887922
38.28785474239097
48.85219219911068
61.639211286776046
57.530888698739574
46.121914136483795
36.94495505198115
30.661157446477894
28.36741569332478
30.6611574465392
36.94495505202911
46.12191413642893
57.53088869850896
53.257009303139505
43.26826620573985
35.507289143320406
30.395359630308274
28.580193932327806
30.395359630339193
35.50728914332402
43.26826620564102
53.25700930287149
48.868056680176075
40.33397294102366
34.012696893580404
30.05139448701251
28.691626852156613
30.051394487021206
34.0126968935512
40.3339729408918
48.8680566798794
44.407885402040975
37.360399152887545
32.498399787360576
29.66687464464865
28.741540632199246
29.666874644642913
32.49839978730912
37.360399152731894
44.4078854017219
39.91114814563372
34.38125112946134
30.997623355863368
29.278398761808447
28.76972150670577
29.27839876179611
30.99762335580003
34.38125112929117
39.91114814530141
35.40414008456722
31.420167958627317
29.539630630170194
28.924619504971936
28.82003257269951
28.924619504959967
29.53963063010754
31.42016795845799
35.40414008424247
30.907731866671796
28.49302779901872
28.15516708427449
28.64934739432672
28.94111663482119
28.649347394323478
28.15516708422801
28.493027798871427
30.907731866382644
26.44495648348847
25.62247211499208
26.890015524962138
28.496886469556845
29.171820001986994
28.496886469569013
26.890015524944918
25.622472114882708
26.444956483250774
22.065493445534354
22.885143136860332
25.823011407094278
28.47491233002045
29.48162147150811
28.47491233005231
25.82301140711672
22.88514313680116
22.065493445354903
17.93421733753983
20.52364784960962
25.043015601261224
28.424463128141078
29.61575408337491
28.42446312819004
25.043015601324917
20.523647849613468
17.934217337428088
14.579032490297317
19.11672674241051
24.410285976441365
27.718828581449262
28.81017211799935
27.718828581499466
24.410285976526207
19.116726742477834
14.579032490264995
14.045291182432823
19.36215390229559
23.01155558272869
24.841588639831745
25.392279956339838
24.841588639856813
23.011555582783235
19.362153902371613
14.04529118246928
81.5633999470424
77.7784734807521
76.21499414098254
75.7724192077662
75.67158016797939
75.77241920776613
76.21499414098245
77.77847348075207
81.5633999470424
56.61773473141675
53.668531374031794
52.43100292256314
52.072658351835855
51.988727144793174
52.07265835183587
52.431002922563124
53.66853137403177
56.61773473141675
36.757657833794084
35.38286901436171
34.99056803199266
34.98810588785045
35.00768889335387
34.98810588785045
34.99056803199266
35.38286901436169
36.757657833794035
20.54072136534635
21.656717115767684
22.601177029832282
23.176859260211643
23.36368816118994
23.176859260211604
22.601177029832222
21.6567171157676
20.540721365346258
13.256430228861564
15.876567219394957
17.60673770570394
18.515747845540872
18.797920506152252
18.515747845540837
17.606737705703868
15.876567219394865
13.256430228861486
20.540721365995573
21.656717116277658
22.601177030276226
23.176859260628515
23.36368816159918
23.17685926062851
22.60117703027621
21.656717116277626
20.54072136599558
36.7576578344881
35.38286901499237
34.99056803258396
34.988105888423746
35.00768889392186
34.98810588842376
34.99056803258397
35.382869014992394
36.757657834488164
56.61773473199045
53.66853137459891
52.43100292311893
52.07265835238551
51.98872714534096
52.07265835238554
52.43100292311897
53.668531374598984
56.61773473199057
81.56339994735748
77.77847348109917
76.21499414133137
75.77241920811247
75.67158016832471
75.77241920811252
76.21499414133145
77.77847348109925
81.56339994735762
82.95425819012584
83.07612738032029
81.69735386857822
80.99093921392125
80.77964013732522
80.99093921392114
81.6973538685781
83.07612738032023
82.95425819012584
61.5240683528865
62.17313932461266
61.539826640858394
61.226220489168526
61.13619765078478
61.22622048916853
61.539826640858394
62.17313932461265
61.52406835288649
41.845418759405604
43.13189837148811
43.30911973710313
43.43285867650711
43.478430397100716
43.432858676507124
43.309119737103146
43.13189837148809
41.84541875940553
26.294089598618974
28.771576761384274
30.019064553806867
30.686634228052633
30.897632217175932
30.686634228052608
30.01906455380682
28.771576761384182
26.294089598618836
19.734335407721876
22.96017437660987
24.7985221232349
25.75438183382614
26.051718854456446
25.7543818338261
24.79852212323481
22.960174376609753
19.73433540772174
26.294089599142747
28.771576761849055
30.019064554227587
30.686634228452174
30.897632217569154
30.686634228452142
30.01906455422754
28.771576761848998
26.2940895991427
41.84541876003488
43.13189837209072
43.30911973767559
43.43285867706287
43.478430397651266
43.432858677062896
43.30911973767562
43.13189837209073
41.8454187600349
61.52406835337752
62.17313932510946
61.53982664134895
61.22622048965255
61.136197651266436
61.2262204896526
61.53982664134903
62.17313932510953
61.524068353377615
82.95425819034222
83.07612738056454
81.69735386883332
80.99093921417555
80.77964013757858
80.9909392141756
81.6973538688334
83.07612738056466
82.95425819034234
78.3080781246436
80.19561315651126
79.97612422899024
79.47924547279422
79.292449305174
79.47924547279422
79.97612422899019
80.19561315651114
78.30807812464352
60.091818729185476
62.124408946508396
62.46440414891554
62.384787727573325
62.33912538654074
62.38478772757337
62.46440414891556
62.124408946508375
60.09181872918539
43.01497484422275
45.04852875398281
45.83353948825969
46.124699966991805
46.20722912361677
46.124699966991756
45.833539488259625
45.04852875398276
43.014974844222664
29.350107129503495
31.61088825888001
32.933704287555145
33.621523799965274
33.837722776780325
33.62152379996518
32.93370428755505
31.61088825887992
29.350107129503353
23.744324514503674
26.194127796366093
27.81526080325061
28.706964749276633
28.990292232031774
28.70696474927655
27.815260803250503
26.19412779636601
23.74432451450356
29.350107129902916
31.610888259262573
32.93370428791631
33.62152380031213
33.83772277712256
33.62152380031209
32.93370428791625
31.61088825926256
29.350107129902895
43.01497484471056
45.048528754463916
45.8335394887273
46.12469996744848
46.207229124069684
46.12469996744852
45.833539488727354
45.04852875446394
43.014974844710565
60.09181872952905
62.12440894685494
62.46440414926368
62.3847877279195
62.3391253868858
62.38478772791959
62.464404149263764
62.124408946854956
60.09181872952904
78.30807812474464
80.19561315662142
79.97612422911676
79.47924547292753
79.29244930530865
79.47924547292752
79.9761242291168
80.19561315662148
78.3080781247447
74.20096542049677
76.11447899653092
76.62451884679578
76.56732104857747
76.49560076598866
76.56732104857753
76.62451884679578
76.11447899653086
74.20096542049671
57.447431972093185
59.334123959477736
60.13991254576911
60.360610796176665
60.39433983297871
60.360610796176715
60.13991254576915
59.33412395947772
57.44743197209311
42.36864504699923
44.019855168916266
44.96002906175728
45.37968950930234
45.4962098930255
45.37968950930231
44.960029061757226
44.01985516891619
42.36864504699915
30.526997600323018
32.00538753053695
33.09053651261192
33.70024565760597
33.894716504288795
33.70024565760593
33.09053651261182
32.00538753053684
30.5269976003229
25.741188748257187
27.168789734529373
28.341059866551177
29.047381908954947
29.280103924359516
29.04738190895491
28.341059866551095
27.168789734529255
25.741188748257038
30.526997600622536
32.00538753083228
33.09053651289875
33.70024565788553
33.89471650456563
33.70024565788552
33.09053651289874
32.005387530832266
30.526997600622458
42.36864504736148
44.019855169273896
44.960029062109214
45.379689509649104
45.49620989337022
45.37968950964911
44.96002906210926
44.01985516927392
42.36864504736145
57.44743197232731
59.334123959703994
60.1399125459958
60.360610796404245
60.3943398332064
60.36061079640425
60.13991254599577
59.3341239597039
57.44743197232721
74.20096542052316
76.11447899654745
76.62451884682228
76.56732104861331
76.49560076602756
76.56732104861327
76.62451884682218
76.11447899654735
74.20096542052306
70.20966656917868
71.73081725857894
72.43731272086197
72.65416344395598
72.6878649680128
72.65416344395602
72.43731272086204
71.73081725857902
70.20966656917872
54.67608301087739
56.052808223652704
56.86880215301452
57.227307897653965
57.320322761246686
57.22730789765396
56.86880215301464
56.05280822365282
54.676083010877456
41.101594118446506
42.12741520389357
42.88573888352419
43.293784899867305
43.41755920222589
43.29378489986736
42.8857388835243
42.127415203893634
41.10159411844653
30.775215381200837
31.44275427531045
32.11448026953791
32.54668373457858
32.691673333560374
32.546683734578636
32.11448026953798
31.442754275310485
30.775215381200802
26.6939867700455
27.201532451779652
27.837399338024575
28.28217734065929
28.43720479134462
28.28217734065924
27.837399338024547
27.201532451779592
26.69398677004535
30.775215381420963
31.442754275530653
32.11448026975519
32.54668373479274
32.691673333773196
32.546683734792666
32.11448026975504
31.44275427553051
30.7752153814208
41.10159411870836
42.12741520415031
42.885738883776924
43.2937849001173
43.417559202474806
43.29378490011722
42.88573888377678
42.127415204150196
41.101594118708206
54.676083011024915
56.05280822378652
56.86880215314424
57.2273078977835
57.32032276137646
57.22730789778343
56.868802153144095
56.05280822378633
54.676083011024716
70.20966656913185
71.73081725851316
72.43731272079653
72.65416344389607
72.6878649679555
72.65416344389604
72.4373127207963
71.73081725851286
70.20966656913166
66.17700526778529
67.24662153899024
67.8940109462477
68.19254237707955
68.27310805620338
68.19254237707948
67.89401094624779
67.24662153899027
66.17700526778533
51.87870141896589
52.72057525598518
53.350049410567784
53.69232725964026
53.796331003635345
53.69232725964018
53.35004941056778
52.72057525598524
51.87870141896599
39.67210929468928
40.10156936211236
40.556346623464734
40.849009490980976
40.94617664423063
40.84900949098103
40.55634662346474
40.10156936211236
39.67210929468929
30.66873585104451
30.662311562402866
30.902178366253736
31.113764345119932
31.192672740837487
31.11376434512001
30.902178366253764
30.662311562402806
30.66873585104434
27.192140496321286
26.983026122795394
27.120991198781592
27.292640295474307
27.362134673045702
27.29264029547426
27.120991198781557
26.98302612279533
27.192140496321006
30.668735851201113
30.662311562560497
30.902178366410496
31.11376434527547
31.19267274099242
31.11376434527541
30.902178366410293
30.662311562560248
30.668735851200736
39.672109294867425
40.10156936228515
40.55634662363343
40.84900949114743
40.94617664439629
40.84900949114734
40.55634662363319
40.101569362284835
39.67210929486701
51.87870141903501
52.720575256039275
53.35004941061452
53.69232725968462
53.796331003679335
53.692327259684575
53.350049410614325
52.72057525603894
51.87870141903462
66.17700526766424
67.24662153884805
67.8940109460992
68.19254237693139
68.27310805605612
68.1925423769313
67.89401094609897
67.24662153884768
66.17700526766384
62.01423207419103
62.69611825765859
63.19143729444793
63.46369244904501
63.54749396308204
63.46369244904494
63.191437294447795
62.69611825765854
62.01423207419117
49.02125592016756
49.415678541046745
49.80893853922225
50.060227014950044
50.143614392319854
50.06022701494996
49.808938539222076
49.415678541046674
49.02125592016763
38.17517149678645
38.122972464288175
38.27087380966039
38.41134357726041
38.46439621248733
38.411343577260425
38.27087380966027
38.12297246428801
38.17517149678635
30.416114015597714
29.904543908249945
29.773033491206824
29.773279640950516
29.784955244577556
29.773279640950577
29.77303349120671
29.904543908249668
30.416114015597365
27.489308008245416
26.766390630541512
26.50302137171098
26.435319669299098
26.42658731563043
26.435319669299027
26.503021371710773
26.766390630541107
27.489308008244823
30.41611401570182
29.904543908355187
29.77303349131194
29.77327964105526
29.784955244682006
29.77327964105508
29.773033491311573
29.90454390835463
30.416114015701112
38.175171496892006
38.12297246438912
38.27087380975762
38.41134357735558
38.46439621258174
38.41134357735537
38.27087380975725
38.12297246438865
38.17517149689141
49.02125592016508
49.41567854103101
49.808938539198465
50.060227014922624
50.14361439229141
50.06022701492244
49.80893853919813
49.41567854103055
49.02125592016453
62.0142320740025
62.69611825745105
63.19143729423129
63.46369244882542
63.54749396286185
63.46369244882524
63.19143729423094
62.696118257450564
62.014232074001974
57.71773764211175
58.09980333199361
58.432439293453484
58.637172923627304
58.70448733885091
58.637172923627574
58.43243929345364
58.09980333199381
57.717737642111985
46.08799982895111
46.13822647791261
46.31246443403953
46.45395405102674
46.50534666838115
46.45395405102683
46.312464434039605
46.1382264779127
46.087999828951226
36.630427088689224
36.21558507002857
36.102149372332455
36.09585554710742
36.10268336420984
36.095855547107405
36.10214937233242
36.21558507002845
36.6304270886891
30.08205688593813
29.21266294927061
28.793142557550503
28.617298300330262
28.57068105870278
28.61729830033012
28.793142557550134
29.212662949270246
30.082056885937792
27.671674222664056
26.5994393817581
26.039445206421526
25.783793612650854
25.711642823972056
25.7837936126505
26.039445206420837
26.599439381757357
27.67167422266341
30.0820568860008
29.21266294933435
28.79314255761434
28.61729830039407
28.570681058766496
28.617298300393628
28.793142557613596
29.212662949333456
30.082056885999897
36.6304270887364
36.21558507007229
36.10214937237318
36.09585554714631
36.10268336424798
36.095855547145845
36.10214937237259
36.21558507007159
36.6304270887355
46.087999828891476
46.13822647784272
46.312464433962454
46.45395405094576
46.50534666829883
46.45395405094544
46.31246443396197
46.13822647784207
46.08799982889064
57.717737641872986
58.09980333174004
58.43243929319088
58.63717292336051
58.70448733858282
58.63717292336032
58.43243929319036
58.099803331739416
57.71773764187244
53.313781660052896
53.476479128390025
53.66916796010834
53.8017173094184
53.84750293843349
53.801717309418684
53.669167960108744
53.47647912839033
53.31378166005324
43.09013429122605
42.885302722307586
42.879610733721485
42.920047050408144
42.939475701276066
42.920047050408336
42.87961073372169
42.88530272230774
43.09013429122625
35.05073179794646
34.37140533722924
34.05255616138904
33.92265014003893
33.888824179185846
33.92265014003904
34.05255616138915
34.37140533722929
35.05073179794645
29.692248927513855
28.57774018644283
27.948076520150643
27.6372886442871
27.544766396439535
27.63728864428689
27.948076520150344
28.577740186442544
29.692248927513486
27.773002167983567
26.47225822706319
25.705507638055302
25.312792868133815
25.19327651064456
25.312792868133325
25.70550763805453
26.47225822706246
27.77300216798293
29.692248927545606
28.57774018647527
27.94807652018309
27.63728864431937
27.544766396471694
27.63728864431898
27.948076520182305
28.577740186474422
29.69224892754488
35.050731797949695
34.37140533722982
34.052556161387045
33.92265014003517
33.888824179181356
33.92265014003492
34.052556161386555
34.37140533722907
35.05073179794881
43.09013429112417
42.88530272219806
42.87961073360603
42.920047050289085
42.939475701155814
42.920047050289085
42.87961073360583
42.88530272219746
43.09013429112331
53.313781659779565
53.47647912810578
53.66916795981653
53.801717309122466
53.847502938136294
53.80171730912235
53.66916795981614
53.47647912810529
53.31378165977908
48.83572190508902
48.84295752249167
48.927482633797865
48.998616968387566
49.024796584160185
48.99861696838771
48.9274826337982
48.8429575224921
48.83572190508956
40.05250536982696
39.66056124621666
39.51533107872078
39.47273280643287
39.464888149226816
39.47273280643301
39.51533107872109
39.660561246217
40.05250536982734
33.4556612873572
32.58508660055779
32.110953905701066
31.883749477453446
31.8171386634862
31.883749477453534
32.11095390570136
32.585086600558085
33.45566128735737
29.267157514306795
27.988013297485892
27.210765866413123
26.801915429482634
26.675405179509788
26.801915429482563
27.21076586641314
27.98801329748581
29.26715751430662
27.816181652231144
26.37064100534432
25.46600976437304
24.978651911792255
24.82582985322158
24.978651911792095
25.466009764372725
26.370641005343806
27.816181652230725
29.267157514315784
27.988013297495
27.210765866421887
26.80191542949094
26.67540517951801
26.801915429490904
27.210765866421568
27.98801329749449
29.267157514315418
33.455661287327224
32.58508660052529
32.11095390566621
31.88374947741688
31.817138663448958
31.883749477416817
32.11095390566601
32.58508660052488
33.455661287326826
40.05250536969265
39.66056124607627
39.51533107857578
39.47273280628484
39.464888149077666
39.472732806284895
39.51533107857568
39.660561246075886
40.052505369692156
48.835721904788926
48.842957522183696
48.92748263348433
48.99861696807071
49.02479658384225
48.99861696807063
48.927482633483976
48.842957522183255
48.83572190478845
44.314282055053795
44.21346409217663
44.220146453566656
44.24494004366509
44.2558366564832
44.24494004366497
44.22014645356684
44.21346409217708
44.31428205505414
37.00289499370217
36.47227578655345
36.22137705684588
36.11409258747318
36.08459179984473
36.114092587473394
36.221377056846315
36.472275786553936
37.002894993702384
31.868809697809397
30.858739363812234
30.268821192461427
29.967431925096065
29.875480584635213
29.96743192509622
30.268821192461626
30.858739363812482
31.868809697809724
28.829517102183786
27.44075464149407
26.56240834802373
26.084841441598606
25.934215910418274
26.084841441598797
26.562408348023638
27.440754641494074
28.829517102184347
27.825200837817757
26.290444574684333
25.297409846804868
24.74774033549364
24.57268908330945
24.74774033549376
25.29740984680459
26.29044457468427
27.825200837818265
28.82951710217831
27.440754641487754
26.562408348016557
26.084841441590655
25.934215910409925
26.08484144159069
26.562408348016348
27.44075464148763
28.82951710217843
31.86880969775701
30.858739363756612
30.268821192403106
29.96743192503595
29.875480584574323
29.967431925035918
30.268821192403102
30.858739363756577
31.8688096977568
37.00289499354424
36.4722757863901
36.22137705667848
36.114092587303205
36.084591799673746
36.11409258730312
36.22137705667841
36.47227578639005
37.00289499354385
44.314282054732764
44.213464091850156
44.22014645323624
44.24494004333202
44.2558366561494
44.24494004333207
44.220146453235905
44.21346409184962
44.314282054731976
39.77513035595258
39.60063331835254
39.554784625838764
39.54749842182348
39.54758166240269
39.54749842182322
39.55478462583886
39.600633318352834
39.77513035595279
33.96581918187714
33.33001680913591
32.99901920474845
32.84210644112421
32.79582085673065
32.842106441124216
32.99901920474863
33.33001680913613
33.965819181877066
30.314040788194333
29.20007023893117
28.523438956579987
28.165958486077706
28.054721316332397
28.16595848607745
28.523438956579856
29.200070238931467
30.31404078819457
28.405521065815797
26.943456139860785
25.99716915094269
25.472989540502518
25.305909689017582
25.472989540502233
25.9971691509426
26.943456139861148
28.40552106581626
27.82877099261762
26.240048126052095
25.192903237899028
24.604589546259135
24.41564839029408
24.604589546258975
25.192903237899102
26.2400481260524
27.828770992618175
28.40552106580253
26.94345613984623
25.99716915092661
25.472989540485607
25.305909689000522
25.472989540485557
25.99716915092678
26.943456139846504
28.405521065803107
30.314040788128914
29.200070238862146
28.523438956507846
28.165958486003678
28.054721316257794
28.16595848600345
28.52343895650781
29.200070238862473
30.314040788129255
33.96581918170419
33.33001680895791
32.99901920456675
32.842106440940206
32.79582085654576
32.8421064409398
32.99901920456653
33.330016808958106
33.965819181704155
39.775130355619496
39.600633318015745
39.554784625499096
39.54749842148169
39.547581662060395
39.547498421481635
39.554784625498684
39.60063331801517
39.77513035561858
35.239576127411944
35.017218030156215
34.938417410302705
34.91017869854274
34.90294646653588
34.91017869854263
34.938417410302776
35.01721803015632
35.23957612741189
30.959718071299328
30.2423595102545
29.849186636092654
29.653368478045557
29.593814520443818
29.65336847804557
29.849186636092924
30.242359510254563
30.959718071298994
28.81458754006571
27.62121663568547
26.878739253094547
26.478731437668024
26.352873190556835
26.478731437668166
26.87873925309507
27.621216635685755
28.814587540065578
28.02636484739152
26.514007538664764
25.5234682225894
24.969522942891835
24.79201432812355
24.96952294289217
25.523468222590193
26.514007538665084
28.02636484739127
27.86262830667892
26.24066425550466
25.163243085607185
24.554002129554615
24.357622558246142
24.554002129555094
25.163243085607867
26.240664255504807
27.862628306678676
28.02636484737852
26.514007538649793
25.523468222572607
24.969522942873986
24.792014328105438
24.96952294287417
25.52346822257285
26.51400753864965
28.02636484737823
28.81458754000065
27.621216635616058
26.878739253021593
26.478731437592934
26.352873190480835
26.47873143759258
26.878739253021408
27.621216635616037
28.81458754000063
30.95971807112716
30.24235951007726
29.84918663591168
29.653368477862372
29.593814520259805
29.653368477861953
29.84918663591135
30.242359510077122
30.95971807112688
35.239576127086934
35.01721802982844
34.93841740997293
34.91017869821161
34.90294646620434
34.910178698211254
34.938417409972374
35.01721802982776
35.23957612708572
30.727266056557344
30.47852374672312
30.380321388656
30.33773631390387
30.32507709749923
30.3377363139035
30.380321388655332
30.47852374672248
30.727266056556985
27.998542917237046
27.217909741081144
26.77440981343372
26.546443473470603
26.47582876678048
26.546443473470156
26.774409813433213
27.21790974108078
27.998542917236918
27.39730281894122
26.142067329646984
25.349791813603
24.91838520418208
24.781882886844002
24.918385204182293
25.349791813603296
26.142067329647148
27.397302818941384
27.730025092749603
26.181156120163322
25.16505123475745
24.596022804774787
24.41355258918917
24.59602280477539
25.165051234758117
26.181156120163642
27.730025092749607
27.96887923856381
26.32410890179576
25.23465870818907
24.619689208783505
24.421636962474544
24.619689208783935
25.23465870818949
26.32410890179613
27.968879238563808
27.730025092745418
26.181156120156782
25.165051234749612
24.59602280476602
24.41355258917969
24.59602280476576
25.165051234749193
26.181156120156672
27.730025092745144
27.397302818892566
26.142067329593417
25.349791813546016
24.918385204123027
24.78188288678388
24.918385204122472
25.349791813545494
26.14206732959334
27.397302818892477
27.998542917087306
27.21790974092592
26.774409813274495
26.54644347330907
26.47582876661809
26.546443473308674
26.774409813274282
27.21790974092574
27.998542917086898
30.727266056267922
30.47852374643118
30.380321388362596
30.337736313609355
30.325077097204062
30.337736313608932
30.38032138836214
30.47852374643044
30.727266056266608
26.263036587339805
26.007692451885468
25.896693825281524
25.841230877430675
25.823342316877405
25.84123087743009
25.89669382528062
26.00769245188475
26.263036587339865
25.104929496119006
24.277338955544103
23.792182046490538
23.53724967455419
23.457426289968474
23.53724967455361
23.792182046489806
24.27733895554382
25.104929496119524
26.104982188423044
24.802125663032687
23.976757374525192
23.526937089493906
23.384661904117884
23.526937089493597
23.97675737452496
24.80212566303279
26.104982188423612
27.555934157012935
25.979050042507588
24.9568695736805
24.389683227007808
24.20874554720021
24.389683227007506
24.956869573680507
25.9790500425076
27.555934157013027
28.18096158678887
26.517630208208324
25.43452665422221
24.83076996453559
24.637643865452155
24.83076996453499
25.43452665422211
26.517630208208175
28.180961586788694
27.555934157023625
25.979050042515727
24.956869573687513
24.389683227013975
24.208745547205886
24.389683227013283
24.95686957368695
25.979050042515425
27.555934157023472
26.104982188403604
24.802125663007807
23.976757374496756
23.52693708946307
23.384661904086187
23.526937089462656
23.976757374496284
24.802125663007715
26.104982188403497
25.10492949600781
24.277338955426753
23.79218204636848
23.537249674428956
23.457426289842186
23.53724967442887
23.79218204636838
24.27733895542646
25.104929496007248
26.263036587102697
26.007692451645994
25.896693825039996
25.84123087718731
25.82334231663338
25.841230877187407
25.89669382503982
26.00769245164508
26.26303658710136
21.898611300784253
21.653830436613777
21.52973567522629
21.46046872164011
21.43739781002051
21.460468721639504
21.529735675225808
21.653830436613703
21.898611300784445
22.354931145313785
21.497454946792857
20.983536659243
20.711991750323136
20.627100921978244
20.711991750322934
20.983536659243136
21.497454946793226
22.35493114531416
25.014291673712503
23.680750245839878
22.849669331273084
22.403774828687027
22.264139546176583
22.403774828687027
22.849669331273404
23.680750245840244
25.014291673712744
27.509087496606508
25.914371948599264
24.915140993913216
24.374882634798716
24.20496451577643
24.374882634798478
24.91514099391314
25.914371948599456
27.509087496606845
28.465543278343034
26.788896104276482
25.738860962656872
25.17036931803305
24.991343834126667
25.17036931803251
25.73886096265643
26.788896104276553
28.465543278343453
27.509087496636614
25.914371948626126
24.915140993938184
24.374882634822455
24.20496451579968
24.37488263482193
24.915140993937573
25.91437194862588
27.509087496636603
25.014291673732217
23.680750245853687
22.849669331282612
22.40377482869387
22.26413954618252
22.40377482869359
22.849669331282147
23.680750245853226
25.01429167373179
22.35493114525231
21.497454946725092
20.983536659169932
20.71199175024686
20.627100921901118
20.71199175024695
20.983536659169978
21.497454946724776
22.354931145251786
21.898611300605523
21.653830436432727
21.529735675042254
21.460468721454113
21.437397809834316
21.460468721454355
21.529735675042314
21.65383043643222
21.89861130060451
17.793485714787003
17.56901522550458
17.434101329598118
17.358829024663752
17.334731749106076
17.358829024662775
17.43410132959709
17.569015225503996
17.79348571478672
19.99033849883822
19.129531473164025
18.621100431857926
18.360630251937707
18.281093438420598
18.360630251936826
18.62110043185713
19.129531473163887
19.990338498838256
24.218981586037415
22.891397414731017
22.108956502568354
21.707150651342396
21.584235556196617
21.70715065134182
22.108956502567935
22.89139741473129
24.218981586037575
27.436463500641707
25.85353808375051
24.929768253425223
24.45547409918605
24.310023985880377
24.455474099185594
24.929768253424875
25.853538083750678
27.436463500641793
28.57404184223884
26.908619758984834
25.940884080277776
25.44460589721604
25.292353550742966
25.444605897216064
25.94088408027786
26.908619758985086
28.574041842239225
27.436463500687815
25.85353808379348
24.929768253466076
24.45547409922593
24.310023985920296
24.455474099226144
24.92976825346625
25.853538083793463
27.4364635006882
24.218981586097122
22.89139741478545
22.108956502619577
21.70715065139194
21.584235556245897
21.70715065139211
22.108956502619314
22.891397414784677
24.21898158609696
19.990338498838717
19.12953147315821
18.621100431848213
18.360630251926043
18.281093438408828
18.360630251926437
18.6211004318481
19.12953147315725
19.990338498837822
17.793485714675313
17.569015225389663
17.434101329480413
17.35882902454472
17.334731748987178
17.35882902454481
17.43410132948
17.569015225388526
17.79348571467372
14.468331621873006
14.282593176189458
14.169731146097536
14.118463698177262
14.105020703089371
14.118463698176566
14.169731146096657
14.282593176188628
14.468331621872633
18.611038758600053
17.823086955439493
17.397674011639012
17.19544222437431
17.136359561559814
17.19544222437364
17.397674011638006
17.823086955438455
18.61103875859956
23.614430951933848
22.397426990593637
21.761551000242406
21.455711698506054
21.364599450288075
21.455711698505155
21.761551000241475
22.397426990592916
23.61443095193341
26.747983216244528
25.278483188658946
24.5279058195003
24.168345303356723
24.060707493991337
24.168345303356183
24.52790581949988
25.278483188658285
26.747983216243686
27.780195100820432
26.22549539784932
25.437001438213784
25.060514488196365
24.947798812022995
25.060514488197008
25.43700143821416
26.225495397848928
27.780195100819803
26.747983216291257
25.278483188702218
24.527905819542184
24.168345303398176
24.060707494033814
24.16834530339949
24.527905819543264
25.27848318870241
26.747983216291185
23.614430952013734
22.39742699066754
21.76155100031457
21.455711698578035
21.364599450361062
21.4557116985793
21.761551000315922
22.39742699066802
23.614430952013755
18.61103875866279
17.823086955495288
17.39767401169263
17.195442224427573
17.13635956161373
17.19544222442864
17.397674011693425
17.823086955494958
18.61103875866204
14.468331621840061
14.282593176152186
14.169731146058073
14.118463698137512
14.105020703050206
14.118463698137706
14.169731146057666
14.282593176150762
14.468331621838143
13.998203797115892
13.899182595467037
13.82764383739398
13.805764066693285
13.80348923773363
13.805764066692959
13.8276438373936
13.899182595466602
13.998203797115602
19.036100214620028
18.528364115999615
18.252265939191012
18.119199558937353
18.08054894454756
18.119199558937506
18.252265939190607
18.528364115998812
19.036100214619644
22.456250862715095
21.645802016328112
21.254266394789525
21.058526051877074
20.999177204129566
21.058526051877358
21.25426639478915
21.645802016327274
22.45625086271492
24.127161634185917
23.11168520203816
22.654043382480836
22.42872446561729
22.359997941808686
22.428724465617712
22.654043382481092
23.11168520203769
24.12716163418577
24.62098978377243
23.53150389064059
23.05037729002865
22.816142717546413
22.74483902511156
22.816142717546754
23.05037729002861
23.531503890640355
24.620989783772487
24.127161634208473
23.111685202056968
22.65404338249937
22.42872446563551
22.35999794182667
22.428724465635266
22.65404338249889
23.111685202057064
24.127161634208424
22.45625086276646
21.64580201637399
21.254266394834698
21.058526051922854
20.99917720417503
21.058526051921852
21.25426639483426
21.64580201637414
22.456250862766055
19.036100214693317
18.52836411606811
18.2522659392583
18.119199559005043
18.080548944615085
18.119199559004052
18.252265939257395
18.5283641160672
19.036100214692365
13.998203797152215
13.89918259550011
13.827643837425443
13.805764066724729
13.803489237765284
13.805764066723935
13.82764383742442
13.899182595498715
13.9982037971504

SCALARS STRESS_XX float 1
LOOKUP_TABLE default
-121.66736213937881
-4.180516199415175
4.180516199365536
121.66736213957054
-121.66736213937878
-4.18051619941353
4.18051619936425
121.66736213957077
-108.75604053027911
-92.01224472959467
-85.74244166186816
-81.27093414970776
-77.14448422215648
-72.82704077211179
-68.2450050736077
-63.426775182422276
-58.42775773378784
-53.29975353635437
-48.08469430123253
-42.81597374730278
-37.52378643843453
-32.24339263574456
-27.02551472520919
-21.944650329256817
-17.08026124465639
-12.408174300527506
-7.142892621187565
-2.5547570869393175
-0.7124716493200172
-0.3636675954274411
-0.15195805563511733
-3.986810881428937e-12
0.15195805562680587
0.3636675954160974
0.7124716492938725
2.554757086895373
7.142892621109069
12.408174300399512
17.080261244478425
21.944650329017115
27.025514724905545
32.24339263537911
37.52378643802163
42.815973746877305
48.084694300821354
53.29975353596568
58.427757733425366
63.426775182091916
68.24500507332496
72.82704077189706
77.14448422201842
81.27093414963537
85.74244166183553
92.01224472956457
108.75604053035536
102.82580747629773
70.8976388611406
45.82854868363664
22.5074091212025
5.565228278214818e-10
-22.507409120124077
-45.82854868269983
-70.89763886044446
-102.82580747592061
-108.75604053027914
-92.01224472959473
-85.7424416618682
-81.2709341497075
-77.14448422215617
-72.82704077211179
-68.24500507360794
-63.426775182422304
-58.42775773378834
-53.299753536355404
-48.08469430123333
-42.81597374730407
-37.52378643843508
-32.243392635744144
-27.025514725209018
-21.944650329256866
-17.080261244656946
-12.408174300528254
-7.142892621187058
-2.5547570869387624
-0.7124716493202972
-0.3636675954273813
-0.15195805563414547
-2.4371615836571436e-12
0.1519580556273307
0.36366759541527777
0.7124716492938021
2.554757086895353
7.14289262110652
12.408174300396404
17.080261244474976
21.944650329013424
27.025514724902695
32.243392635376445
37.52378643801985
42.815973746875656
48.08469430082006
53.29975353596536
58.42775773342498
63.42677518209163
68.24500507332459
72.8270407718967
77.14448422201828
81.27093414963527
85.74244166183556
92.01224472956463
108.75604053035552
102.82580747629794
70.89763886114079
45.8285486836368
22.507409121202652
5.566445082649807e-10
-22.50740912012401
-45.828548682699825
-70.89763886044446
-102.8258074759206
-116.17358163462626
-111.53464030421674
-113.08693039600894
-114.20987583402182
-114.63537035458552
-114.20987583402174
-113.08693039600885
-111.53464030421668
-116.1735816346262
-4.254283231257848
-4.332365486602063
-4.330303268610009
-4.31990065432764
-4.315875481538663
-4.319900654327829
-4.330303268610836
-4.3323654866026615
-4.25428323125719
4.254283231207593
4.332365486551133
4.330303268559227
4.319900654276902
4.315875481487671
4.319900654276458
4.33030326855941
4.332365486551266
4.254283231206752
116.17358163485926
111.53464030448868
113.08693039628082
114.20987583429658
114.6353703548609
114.20987583429664
113.08693039628085
111.53464030448865
116.17358163485937
-94.29948580759712
-67.1287730864837
-43.11324189416337
-21.142175897982522
5.002211977966908e-10
21.142175898951816
43.113241895005835
67.12877308709113
94.29948580786927
-82.09328857424194
-61.00363893275723
-39.50361580398657
-19.38853802087401
4.1467007605433537e-10
19.38853802167522
39.50361580467229
61.00363893321247
82.09328857438294
-76.17210679378243
-56.95548824267664
-37.663637004538074
-18.643031953649764
3.584799124212168e-10
18.643031954335875
37.663637005103986
56.95548824302489
76.1721067938761
-72.07658335602815
-53.841751756024074
-35.80517402423303
-17.8596778596531
3.0484903490446413e-10
17.85967786022927
35.805174024691404
53.84175175628923
72.07658335607007
-68.36823022425251
-51.02704507556354
-33.959635542928
-16.970256110433102
2.5264013103765137e-10
16.970256110905073
33.959635543289764
51.02704507574928
68.36823022422679
-64.55792136476566
-48.187106392527106
-32.05877679070985
-16.020746156470544
2.0290746860496256e-10
16.02074615684435
32.05877679098043
48.18710639263269
64.5579213646642
-60.53154071074175
-45.21531347046079
-30.077072187116464
-15.02647872052196
1.5589796120707433e-10
15.026478720803116
30.077072187300793
45.21531347048949
60.53154071057001
-56.294669279448264
-42.0923662450369
-28.004484759407617
-13.989479241459927
1.1344303274540835e-10
13.989479241657868
28.00448475951601
42.09236624500092
56.294669279223214
-51.88822946733728
-38.83564424246185
-25.8466104647957
-12.912018311749314
7.649725297653731e-11
12.912018311875254
25.846610464839724
38.83564424237399
51.8882294670736
-47.35664638773749
-35.47284427659622
-23.616184940330278
-11.798487561694591
4.406941478407589e-11
11.798487561757593
23.616184940318796
35.47284427646445
47.3566463874418
-42.737689449034335
-32.02994499051677
-21.32589836374238
-10.65317994066301
1.6317835971335626e-11
10.653179940672118
21.32589836368301
32.02994499034739
42.73768944871153
-38.06072276756463
-28.525343182649024
-18.9826420024054
-9.477169966275417
-7.0530248308386945e-12
9.47716996623933
18.98264200230621
28.525343182449348
38.060722767222366
-33.348592886130916
-24.96657683962371
-16.582848934015292
-8.265366437235283
-2.600819559717138e-11
8.265366437163276
16.58284893388741
24.966576839407768
33.34859288579041
-28.621104828777327
-21.347457734201353
-14.108758189128821
-7.004538527951763
-3.8169134519705494e-11
7.00453852785766
14.108758188987773
21.347457733989508
28.62110482846787
-23.898538287564087
-17.645175724589137
-11.52830562181347
-5.675272468959046
-4.342115555999726e-11
5.675272468856975
11.528305621673043
17.645175724395003
23.898538287299903
-19.201469378489385
-13.82045972454412
-8.808840051057294
-4.265896648277497
-4.218619897855547e-11
4.265896648179826
8.808840050926936
13.820459724372501
19.20146937827279
-14.538789046459877
-9.837901750952472
-5.969389038222976
-2.813374442175747
-3.414052374139942e-11
2.8133744420963542
5.969389038114953
9.837901750808706
14.538789046289901
-9.861753401872065
-5.761793954695241
-3.219457933177019
-1.4665042629039422
-2.1373763869902973e-11
1.4665042628537173
3.219457933104875
5.761793954590528
9.861753401746647
-5.031238947454536
-2.215954030584874
-1.1374035821637878
-0.4995675500706401
-9.059503147668124e-12
0.4995675500496298
1.1374035821325836
2.215954030531245
5.031238947380913
-107.48096530307532
-106.21364222372677
-106.62681975644577
-107.28223923509898
-107.53223332888837
-107.28223923509886
-106.62681975644566
-106.21364222372672
-107.48096530307534
-94.80858383650087
-97.53269122140202
-97.4859531021473
-97.54888502705458
-97.58632334921147
-97.54888502705447
-97.4859531021472
-97.53269122140202
-94.80858383650093
-88.09388358542132
-91.23100534033254
-92.12091378962478
-92.24578452022058
-92.26642663288217
-92.24578452022055
-92.12091378962481
-91.23100534033256
-88.09388358542134
-83.00114946389054
-85.57821718770192
-86.74603501601965
-87.15232145269061
-87.23764247067244
-87.15232145269066
-86.74603501601968
-85.5782171877018
-83.00114946389033
-78.31340653219044
-80.2109072689885
-81.30627772748396
-81.8150826317229
-81.95709550423048
-81.81508263172297
-81.30627772748394
-80.21090726898821
-78.31340653219009
-73.59053556512463
-74.90637389302725
-75.78874687375533
-76.26636696031201
-76.41395760103026
-76.26636696031201
-75.78874687375547
-74.90637389302701
-73.59053556512438
-68.72760917349737
-69.60242693743803
-70.25464026665419
-70.64104034707827
-70.76744076233723
-70.6410403470784
-70.2546402666542
-69.60242693743791
-68.72760917349743
-63.72201932661825
-64.2827007292233
-64.73759589051863
-65.02400983591104
-65.12096587841741
-65.02400983591144
-64.7375958905188
-64.2827007292235
-63.7220193266185
-58.601426071272165
-58.94826169888176
-59.25256833244728
-59.45335556975174
-59.523003463616035
-59.45335556975212
-59.252568332447936
-58.948261698882455
-58.601426071272755
-53.39670640309411
-53.603735476531625
-53.802040818046564
-53.938610078696485
-53.98695020452944
-53.938610078696854
-53.80204081804696
-53.603735476532336
-53.39670640309511
-48.134807583253064
-48.25481969973209
-48.38444421470913
-48.4778673146964
-48.51156473416514
-48.47786731469612
-48.384444214708694
-48.25481969973237
-48.134807583253874
-42.839269585236565
-42.91000105905416
-43.00085846134981
-43.06934140298934
-43.0944025782171
-43.06934140298908
-43.000858461349395
-42.910001059054665
-42.8392695852378
-37.534845231239856
-37.585084434467134
-37.66127091383265
-37.71954292534889
-37.74080886792167
-37.719542925348925
-37.66127091383271
-37.58508443446735
-37.534845231240205
-32.255367014891625
-32.310352279752024
-32.391344416847616
-32.450040552408595
-32.47075543658722
-32.45004055240824
-32.391344416847375
-32.31035227975166
-32.255367014891036
-27.053908320360232
-27.13906484841236
-27.238565641115443
-27.302382086029418
-27.32346067114139
-27.302382086029333
-27.23856564111548
-27.139064848412225
-27.05390832035988
-22.009540779192196
-22.14962117355444
-22.27000046131924
-22.33464033673516
-22.35409086881311
-22.33464033673547
-22.27000046131997
-22.149621173554515
-22.00954077919191
-17.201981292455578
-17.407340025139508
-17.529520132867436
-17.5817204058031
-17.59537925589576
-17.58172040580389
-17.529520132868157
-17.4073400251396
-17.20198129245583
-12.570379198520854
-12.799710589081672
-12.88751564095559
-12.913077784656632
-12.917961369051868
-12.913077784657238
-12.887515640955115
-12.799710589081627
-12.570379198521621
-7.264650513246377
-7.414354027619133
-7.443686738088546
-7.443166639878934
-7.441259453514159
-7.443166639879092
-7.4436867380882505
-7.414354027619412
-7.264650513246552
-2.5865566208338393
-2.615855624983501
-2.608814822127811
-2.6015880759456502
-2.5989016028741476
-2.6015880759459566
-2.6088148221288123
-2.615855624984296
-2.586556620833834
-0.7015469110793664
-0.6769701662220404
-0.6599816888440877
-0.6555895735384606
-0.6545339289940295
-0.6555895735386346
-0.6599816888444283
-0.676970166222431
-0.7015469110798118
-0.35718405579685186
-0.33415633450614945
-0.3133187529523118
-0.30815692873070233
-0.30728850440260463
-0.30815692873029693
-0.3133187529519278
-0.33415633450586607
-0.35718405579672996
-0.1513143313253575
-0.14063693239202257
-0.12721791288926454
-0.12310588914302921
-0.12237921027590862
-0.12310588914260276
-0.12721791288870593
-0.14063693239142955
-0.1513143313244789
-3.8896941223498516e-12
-3.536934634063016e-12
-3.081736255072798e-12
-2.488880629369916e-12
-2.11642509073684e-12
-1.8558071745999882e-12
-1.9263236838984454e-12
-2.246543229222908e-12
-2.3259727477409342e-12
0.15131433131749777
0.14063693238466904
0.12721791288189216
0.12310588913658013
0.12237921027065327
0.1231058891375336
0.12721791288309242
0.1406369323848447
0.15131433131756017
0.35718405578554957
0.33415633449447396
0.3133187529398094
0.3081569287183551
0.3072885043910549
0.3081569287185092
0.3133187529402643
0.33415633449409443
0.35718405578444223
0.7015469110525261
0.676970166194151
0.6599816888159256
0.6555895735103271
0.6545339289658082
0.655589573509818
0.6599816888160747
0.676970166195227
0.7015469110530259
2.586556620789204
2.615855624938006
2.6088148220824703
2.6015880759005348
2.5989016028288408
2.6015880759000294
2.6088148220827225
2.615855624938828
2.5865566207895236
7.264650513167383
7.414354027538607
7.443686738006874
7.443166639797393
7.44125945343238
7.443166639796904
7.443686738006575
7.414354027537857
7.264650513165343
12.570379198392935
12.799710588952374
12.887515640824532
12.913077784525345
12.91796136892003
12.913077784524937
12.88751564082363
12.799710588950926
12.570379198390409
17.201981292278376
17.407340024963013
17.52952013269069
17.581720405625486
17.59537925571754
17.581720405625713
17.529520132690266
17.40734002496201
17.201981292276056
22.009540778953813
22.14962117331823
22.27000046108355
22.33464033649863
22.354090868576595
22.334640336499575
22.270000461083853
22.149621173316813
22.009540778950715
27.053908320057598
27.139064848111715
27.23856564081539
27.302382085728468
27.323460670840383
27.302382085729192
27.23856564081537
27.139064848109843
27.053908320054596
32.2553670145258
32.31035227938632
32.39134441648241
32.45004055204305
32.470755436221566
32.450040552043006
32.391344416482106
32.31035227938533
32.25536701452359
37.534845230825795
37.58508443405169
37.661270913416956
37.71954292493301
37.740808867505336
37.71954292493257
37.661270913416615
37.585084434051204
37.53484523082451
42.83926958480877
42.910001058622825
43.00085846091655
43.06934140255503
43.094402577781935
43.06934140255461
43.00085846091651
42.91000105862264
42.83926958480784
48.13480758283811
48.254819699310566
48.38444421428322
48.47786731426846
48.51156473373661
48.477867314268565
48.38444421428369
48.25481969931081
48.134807582837496
53.39670640270009
53.60373547612781
53.80204081763554
53.938610078281386
53.98695020411293
53.93861007828136
53.80204081763536
53.60373547612777
53.39670640269992
58.601426070902
58.94826169849776
59.25256833205312
59.453355569351416
59.52300346321336
59.45335556935099
59.25256833205251
58.94826169849731
58.601426070901674
63.72201932627695
64.28270072886278
64.73759589014482
65.02400983553008
65.12096587803407
65.02400983552995
64.73759589014433
64.28270072886215
63.72201932627655
68.72760917319874
69.60242693711335
70.25464026631417
70.64104034673102
70.76744076198787
70.64104034673088
70.25464026631388
69.60242693711294
68.72760917319829
73.59053556488885
74.90637389275986
75.78874687347334
76.26636696002498
76.41395760074234
76.26636696002484
75.78874687347312
74.9063738927596
73.59053556488853
78.31340653202777
80.21090726879243
81.30627772727793
81.81508263151676
81.95709550402549
81.8150826315169
81.30627772727773
80.2109072687921
78.31340653202761
83.0011494637932
85.57821718757589
86.74603501589273
87.15232145256857
87.2376424705524
87.15232145256861
86.7460350158928
85.57821718757583
83.00114946379311
88.09388358537046
91.23100534026887
92.12091378957051
92.24578452017107
92.26642663283334
92.24578452017094
92.12091378957052
91.231005340269
88.09388358537058
94.80858383647832
97.53269122139676
97.48595310215079
97.54888502705558
97.58632334921103
97.54888502705555
97.4859531021507
97.5326912213968
94.80858383647842
107.4809653031859
106.21364222387479
106.62681975659542
107.2822392352463
107.53223332903488
107.28223923524631
106.62681975659541
106.21364222387476
107.480965303186
97.37281725399887
92.29642886201775
93.0517881118022
93.69872491535047
93.96690429943207
93.69872491535054
93.05178811180224
92.29642886201776
97.37281725399896
66.26697341357482
61.50613784676982
61.39461811250608
61.48885019316187
61.5644318888422
61.48885019316192
61.39461811250612
61.506137846769846
66.26697341357493
42.73344607765965
39.50823675549561
39.351533386017735
39.35262761440053
39.380318496074146
39.35262761440055
39.35153338601775
39.508236755495645
42.73344607765976
20.9451409009544
19.314855152426638
19.226256695074422
19.2152341190731
19.224792472144344
19.215234119073116
19.226256695074447
19.31485515242668
20.9451409009545
5.173417250148304e-10
4.766720351767617e-10
4.748099691198604e-10
4.747313653297169e-10
4.750364546168839e-10
4.747553461470488e-10
4.748277326882544e-10
4.766933514588345e-10
5.174194406265542e-10
-20.945140899947724
-19.31485515149466
-19.226256694145835
-19.215234118144277
-19.22479247121482
-19.21523411814426
-19.226256694145825
-19.314855151494655
-20.945140899947685
-42.73344607677383
-39.508236754663095
-39.35153338518692
-39.35262761356811
-39.38031849524073
-39.35262761356812
-39.35153338518692
-39.5082367546631
-42.733446076773845
-66.2669734128939
-61.50613784610368
-61.39461811183653
-61.488850192487654
-61.56443188816628
-61.48885019248767
-61.394618111836515
-61.506137846103684
-66.26697341289392
-97.37281725359792
-92.29642886159284
-93.05178811137374
-93.6987249149172
-93.96690429899738
-93.69872491491716
-93.05178811137367
-92.29642886159282
-97.3728172535979
-94.29948580759715
-67.12877308648372
-43.11324189416336
-21.14217589798247
5.003211178689071e-10
21.142175898951933
43.11324189500597
67.12877308709129
94.29948580786944
-82.09328857424197
-61.0036389327572
-39.50361580398655
-19.388538020873966
4.14765999323663e-10
19.388538021675323
39.50361580467244
61.00363893321262
82.09328857438302
-76.17210679378235
-56.95548824267645
-37.663637004538
-18.643031953649725
3.5856739799555726e-10
18.64303195433599
37.66363700510412
56.95548824302499
76.17210679387614
-72.07658335602792
-53.841751756023875
-35.80517402423291
-17.859677859653097
3.0486324575917934e-10
17.85967786022934
35.80517402469147
53.841751756289256
72.07658335607002
-68.3682302242523
-51.02704507556353
-33.95963554292806
-16.9702561104331
2.526450160189597e-10
16.970256110905066
33.95963554328976
51.0270450757493
68.36823022422675
-64.55792136476563
-48.1871063925272
-32.058776790710006
-16.020746156470622
2.028075485327463e-10
16.02074615684419
32.058776790980204
48.18710639263247
64.55792136466394
-60.53154071074205
-45.215313470461
-30.077072187116585
-15.02647872052217
1.5565881916757007e-10
15.02647872080285
30.077072187300416
45.215313470489136
60.5315407105697
-56.29466927944835
-42.09236624503707
-28.00448475940786
-13.989479241460245
1.1310596903513215e-10
13.989479241657481
28.004484759515563
42.092366245000456
56.29466927922282
-51.88822946733768
-38.83564424246228
-25.846610464796125
-12.912018311749659
7.61006813121412e-11
12.912018311874851
25.846610464839426
38.83564424237357
51.888229467073074
-47.35664638773842
-35.472844276597144
-23.61618494033102
-11.798487561695001
4.370792616725794e-11
11.798487561757227
23.616184940318337
35.47284427646377
47.35664638744123
-42.73768944903502
-32.02994499051736
-21.32589836374275
-10.653179940663456
1.5758727656134397e-11
10.653179940671592
21.325898363682146
32.02994499034596
42.737689448709965
-38.060722767565615
-28.525343182649788
-18.982642002405967
-9.477169966276124
-7.784661804066673e-12
9.47716996623879
18.9826420023056
28.525343182448253
38.060722767220696
-33.34859288613138
-24.966576839624494
-16.58284893401624
-8.26536643723605
-2.642885910120185e-11
8.26536643716295
16.582848933886716
24.966576839406862
33.34859288578899
-28.621104828777092
-21.347457734201804
-14.108758189129716
-7.00453852795268
-3.8590686202155666e-11
7.004538527857468
14.10875818898685
21.34745773398853
28.62110482846622
-23.898538287564197
-17.64517572458987
-11.528305621814505
-5.675272468959896
-4.3874570643254174e-11
5.675272468856481
11.528305621672256
17.64517572439422
23.898538287298095
-19.201469378489836
-13.820459724545342
-8.808840051058418
-4.265896648278083
-4.276179410567238e-11
4.26589664817895
8.808840050926083
13.820459724371169
19.20146937826991
-14.538789046460314
-9.837901750953396
-5.969389038223868
-2.813374442176135
-3.496797296165255e-11
2.813374442095422
5.969389038114098
9.837901750807374
14.538789046287336
-9.861753401872303
-5.761793954695512
-3.219457933177524
-1.4665042629039546
-2.1687499018874234e-11
1.4665042628534368
3.2194579331049047
5.761793954590127
9.861753401744782
-5.03123894745439
-2.2159540305852077
-1.1374035821640895
-0.4995675500701871
-8.250636285289659e-12
0.49956755005006315
1.1374035821325772
2.215954030531245
5.031238947379798
-92.95038154298744
-91.42461024788278
-91.47808550877163
-91.86903104585384
-92.02983429155222
-91.86903104585377
-91.47808550877156
-91.42461024788278
-92.95038154298747
-65.90271245559441
-64.320060325937
-63.97521881499692
-64.02832739082375
-64.06968597882255
-64.02832739082373
-63.97521881499691
-64.32006032593702
-65.90271245559444
-42.28356358611451
-41.16936072159269
-40.8527160355678
-40.82535979909082
-40.830123692165756
-40.825359799090826
-40.85271603556781
-41.1693607215927
-42.28356358611452
-20.720713534171274
-20.154130313811052
-19.986650641652478
-19.962728790271683
-19.961165754500485
-19.962728790271683
-19.98665064165249
-20.154130313811056
-20.72071353417124
4.890980953575763e-10
4.744911130671881e-10
4.705649203629036e-10
4.701288247588309e-10
4.701510292193234e-10
4.701585787358908e-10
4.705835721097174e-10
4.74511985260051e-10
4.891633764714243e-10
20.720713535122094
20.15413031473731
19.986650642572073
19.96272879119087
19.961165755419845
19.962728791190898
19.986650642572116
20.15413031473735
20.720713535122172
42.283563586949526
41.169360722417466
40.852716036390284
40.82535979991442
40.83012369298998
40.82535979991444
40.85271603639032
41.16936072241751
42.283563586949626
65.90271245621308
64.32006032656975
63.975218815634605
64.02832739146479
64.06968597946484
64.02832739146484
63.97521881563465
64.3200603265698
65.90271245621321
92.95038154328813
91.42461024821654
91.47808550911068
91.86903104619401
92.02983429189277
91.86903104619407
91.47808550911071
91.42461024821657
92.95038154328824
-84.79820768816167
-87.50836081020216
-87.55399712053784
-87.63048637829641
-87.66657333384
-87.63048637829631
-87.55399712053777
-87.50836081020218
-84.79820768816171
-63.253139728977175
-65.56455970132376
-65.65750964226658
-65.70861036519236
-65.72868032330192
-65.7086103651923
-65.65750964226658
-65.5645597013238
-63.25313972897719
-41.016879884392154
-42.560672770031864
-42.59302755454166
-42.59635147781886
-42.59784942182037
-42.596351477818885
-42.593027554541706
-42.560672770031886
-41.01687988439215
-20.149612964589807
-20.92373708002587
-20.934337041885545
-20.929967757461064
-20.92804768289721
-20.929967757461117
-20.93433704188557
-20.923737080025862
-20.149612964589775
4.31387814359141e-10
4.480562587616532e-10
4.4788439623744125e-10
4.477054282858717e-10
4.476552462051586e-10
4.4771564233769823e-10
4.478954984676875e-10
4.48080683668195e-10
4.314526513837791e-10
20.149612965423955
20.92373708089402
20.934337042754976
20.92996775833079
20.928047683767
20.92996775833084
20.934337042755033
20.92373708089407
20.149612965424026
41.01687988510791
42.5606727707822
42.593027555298015
42.59635147857726
42.5978494225794
42.59635147857736
42.593027555298136
42.56067277078228
41.01687988510801
63.253139729456414
65.56455970183565
65.65750964278953
65.70861036571858
65.72868032382905
65.70861036571867
65.65750964278965
65.56455970183575
63.253139729456535
84.79820768831664
87.50836081038118
87.55399712072774
87.63048637848672
87.66657333403003
87.63048637848675
87.55399712072773
87.50836081038125
84.79820768831675
-78.51724329567037
-81.69437030344156
-82.68284354934227
-82.88194396970927
-82.92456165005885
-82.88194396970931
-82.68284354934225
-81.6943703034415
-78.51724329567028
-59.01566623930927
-61.869723710484124
-62.859088332843484
-63.11600666711785
-63.17743985357509
-63.116006667117894
-62.859088332843484
-61.86972371048408
-59.015666239309155
-39.09899005751713
-41.10728812384738
-41.82866546234909
-42.02418090939479
-42.07126403128997
-42.024180909394794
-41.82866546234913
-41.107288123847404
-39.09899005751709
-19.37079471496199
-20.39001116437615
-20.758148554771005
-20.85883587464325
-20.8828394922226
-20.858835874643272
-20.758148554770997
-20.390011164376133
-19.370794714961963
3.7270186936666505e-10
3.927516090129757e-10
3.9998981904432185e-10
4.0185899052858076e-10
4.0229908293554217e-10
4.0183323335440946e-10
3.9998893086590215e-10
3.9278047481161593e-10
3.72767150480513e-10
19.370794715674236
20.390011165126097
20.758148555535623
20.858835875411998
20.88283949299237
20.858835875412026
20.75814855553563
20.390011165126126
19.370794715674318
39.09899005810086
41.10728812445954
41.82866546297551
42.02418091002612
42.07126403192263
42.024180910026224
41.82866546297559
41.1072881244596
39.09899005810095
59.015666239660504
61.86972371084636
62.85908833321753
63.116006667496904
63.177439853955384
63.116006667496976
62.85908833321761
61.86972371084644
59.01566623966059
78.517243295752
81.69437030351699
82.68284354942739
82.88194396979912
82.92456165014954
82.88194396979907
82.6828435494274
81.6943703035171
78.51724329575208
-73.78533418700835
-76.37359510890778
-77.60806738955235
-78.06860218806645
-78.17417479685527
-78.06860218806654
-77.60806738955235
-76.37359510890765
-73.78533418700815
-55.352234331852216
-57.693897994330925
-58.888177382455765
-59.37189748393675
-59.49251928394352
-59.371897483936834
-58.88817738245578
-57.693897994330854
-55.352234331852046
-36.886507131140476
-38.58218903809163
-39.47490606005758
-39.84948374213292
-39.94569320228599
-39.84948374213291
-39.474906060057634
-38.58218903809164
-36.886507131140384
-18.414112145184355
-19.289026539995703
-19.75693462976804
-19.95617562660103
-20.007988642941775
-19.956175626601045
-19.75693462976807
-19.289026539995724
-18.414112145184358
3.144777771524332e-10
3.297726536288792e-10
3.380784541207049e-10
3.416578131520964e-10
3.425810746193747e-10
3.4163871731607287e-10
3.3808600363727237e-10
3.2978553221596485e-10
3.1448621484742034e-10
18.414112145777118
19.289026540615275
19.756934630402856
19.956175627242658
20.007988643585186
19.956175627242636
19.756934630402867
19.289026540615332
18.41411214577718
36.88650713160628
38.58218903857147
39.474906060548065
39.84948374262899
39.94569320278361
39.84948374262892
39.474906060548065
38.582189038571585
36.88650713160639
55.35223433211026
57.69389799458288
58.888177382711305
59.37189748419614
59.49251928420414
59.371897484196104
58.88817738271128
57.69389799458294
55.35223433211033
73.7853341870302
76.37359510890667
77.60806738955068
78.06860218806872
78.17417479685909
78.06860218806875
77.60806738955068
76.37359510890663
73.78533418703016
-69.51291426879541
-71.39693117713398
-72.52061570798668
-73.05792321436792
-73.21087905369214
-73.05792321436797
-72.52061570798668
-71.3969311771339
-69.51291426879524
-52.03602191562758
-53.731535458713495
-54.79147606735316
-55.3191894899957
-55.47349900702046
-55.31918948999571
-54.79147606735319
-53.73153545871357
-52.036021915627614
-34.69125589279487
-35.93593454486981
-36.735011771677364
-37.141723350471295
-37.26241600466576
-37.14172335047135
-36.73501177167749
-35.9359345448699
-34.691255892794906
-17.349250176466427
-17.999035295722262
-18.422774921408866
-18.640903834103604
-18.706084174334286
-18.640903834103725
-18.422774921409015
-17.999035295722365
-17.349250176466462
2.5841284667649234e-10
2.6841373568231575e-10
2.750102368054286e-10
2.7842972372127406e-10
2.7949509373570436e-10
2.784585895199143e-10
2.749902527909853e-10
2.6833557598138214e-10
2.5837110229076643e-10
17.349250176947525
17.999035296219468
18.422774921917224
18.640903834617948
18.706084174850428
18.64090383461798
18.42277492191724
17.999035296219446
17.349250176947496
34.691255893157916
35.93593454523674
36.7350117720492
37.14172335084656
37.26241600504212
37.1417233508465
36.73501177204919
35.935934545236805
34.691255893157944
52.03602191580317
53.73153545887541
54.79147606751137
55.31918949015419
55.47349900717939
55.319189490154116
54.79147606751126
53.7315354588754
52.03602191580322
69.51291426874931
71.39693117705973
72.52061570790339
73.05792321428399
73.21087905360886
73.05792321428399
72.5206157079032
71.39693117705951
69.51291426874924
-65.29923914116658
-66.59266410265627
-67.48072226539584
-67.96877293052796
-68.12087261800914
-67.96877293052788
-67.48072226539594
-66.59266410265624
-65.29923914116648
-48.83700348211953
-49.99140740738147
-50.81193013130378
-51.27371847863856
-51.4194909377205
-51.27371847863848
-50.81193013130377
-49.991407407381594
-48.837003482119684
-32.533230756668736
-33.38550200634069
-34.004176633724555
-34.3574774687026
-34.46992096000987
-34.35747746870264
-34.00417663372458
-33.38550200634083
-32.533230756668935
-16.267743394726093
-16.715493309104982
-17.04536971721969
-17.235170975485705
-17.295848501760403
-17.23517097548583
-17.04536971721983
-16.715493309105142
-16.26774339472623
2.0616020002250934e-10
2.1211521428199376e-10
2.1651880288686698e-10
2.1905322000748129e-10
2.19877449580963e-10
2.1902257785200163e-10
2.1643220549094622e-10
2.119788788945698e-10
2.0603851957901043e-10
16.267743395104517
16.715493309492032
17.04536971761341
17.235170975883364
17.295848502159313
17.2351709758834
17.045369717613333
16.71549330949192
16.267743395104407
32.53323075693807
33.38550200660872
34.00417663399307
34.357477468971986
34.469920960279595
34.35747746897194
34.004176633992856
33.38550200660853
32.533230756937904
48.837003482215565
49.9914074074625
50.81193013137718
51.27371847870907
51.419490937790364
51.2737184787089
50.81193013137682
49.99140740746225
48.83700348221538
65.29923914104766
66.59266410251053
67.48072226523693
67.96877293036417
68.12087261784437
67.96877293036397
67.48072226523664
66.5926641025103
65.29923914104744
-60.996094433119495
-61.84801089094019
-62.4955002018046
-62.88291738834489
-63.01020799946376
-62.88291738834496
-62.495500201804596
-61.848010890940195
-60.99609443311968
-45.620392557183806
-46.37416535740093
-46.962123880792305
-47.319759308128674
-47.438129925567836
-47.31975930812874
-46.962123880792305
-46.37416535740105
-45.62039255718403
-30.374629288384092
-30.932731307014986
-31.374369917897578
-31.645757184449508
-31.73605075748214
-31.645757184449586
-31.374369917897663
-30.932731307015125
-30.374629288384256
-15.181822439603678
-15.47596464073017
-15.71180545109349
-15.857431154546553
-15.906014529681087
-15.857431154546623
-15.711805451093591
-15.475964640730309
-15.18182243960388
1.5763124139311913e-10
1.609254951517869e-10
1.6356338505829626e-10
1.6521850554340745e-10
1.657645132269181e-10
1.651383474410295e-10
1.634519186666239e-10
1.6079204634422695e-10
1.5744161530051315e-10
15.181822439886966
15.475964641017589
15.711805451384333
15.857431154839606
15.906014529974865
15.857431154839514
15.711805451384176
15.475964641017468
15.181822439886815
30.37462928856646
30.93273130719424
31.374369918075224
31.64575718462656
31.736050757658923
31.645757184626287
31.37436991807489
30.93273130719397
30.37462928856616
45.62039255720493
46.37416535740907
46.96212388079223
47.3197593081246
47.43812992556241
47.31975930812426
46.96212388079178
46.37416535740867
45.62039255720459
60.99609443293459
61.84801089073322
62.49550020158415
62.88291738811796
63.01020799923488
62.88291738811777
62.495500201583816
61.84801089073286
60.99609443293424
-56.57577459070048
-57.116306608559746
-57.56296155944968
-57.8464359822985
-57.94268216086468
-57.846435982298914
-57.56296155944985
-57.116306608559945
-56.57577459070072
-42.33605847516178
-42.80991555010328
-43.20926150339251
-43.46608761743723
-43.553732623009466
-43.46608761743751
-43.20926150339272
-42.80991555010347
-42.33605847516199
-28.185085300624262
-28.53699148050501
-28.835332480659392
-29.028553138151686
-29.094738434153737
-29.028553138151842
-28.83533248065968
-28.53699148050525
-28.18508530062446
-14.08402522969999
-14.269925662130232
-14.429187280608712
-14.532568388037063
-14.5680423211771
-14.532568388037102
-14.429187280608875
-14.269925662130394
-14.0840252297002
1.1426259938218664e-10
1.1593837001555585e-10
1.173430241863116e-10
1.1824408119309737e-10
1.1863066085027185e-10
1.1828182877593463e-10
1.1724532456014458e-10
1.15807585743255e-10
1.1406497968380336e-10
14.084025229898707
14.269925662330674
14.429187280810677
14.532568388240009
14.568042321380403
14.532568388239879
14.42918728081047
14.269925662330442
14.084025229898419
28.18508530073074
28.536991480608222
28.835332480760414
29.02855313825161
29.09473843425324
29.0285531382513
28.835332480760115
28.53699148060793
28.185085300730343
42.33605847512032
42.80991555005186
43.209261503333984
43.46608761737501
43.5537326229459
43.4660876173747
43.20926150333365
42.80991555005151
42.3360584751199
56.57577459046635
57.11630660830937
57.56296155918785
57.84643598203057
57.9426821605946
57.846435982030386
57.56296155918747
57.116306608308854
56.57577459046593
-52.05085471993368
-52.38083408246819
-52.67640424612686
-52.872987362584425
-52.94135442532158
-52.87298736258478
-52.67640424612717
-52.38083408246838
-52.05085471993397
-38.975526026195
-39.26146487609067
-39.5214638322643
-39.69656472220362
-39.75772372213194
-39.6965647222039
-39.521463832264445
-39.261464876090585
-38.97552602619517
-25.95186963169659
-26.165287727580697
-26.358233238642057
-26.488726996850577
-26.534434172981015
-26.488726996850758
-26.358233238642235
-26.165287727580846
-25.951869631696894
-12.967367524023391
-13.080446970512039
-13.18333088470271
-13.252859997115266
-13.277235429551702
-13.252859997115237
-13.183330884702801
-13.080446970512334
-12.967367524023757
7.679501479174178e-11
7.751399522248903e-11
7.819189740132515e-11
7.855849304405638e-11
7.87014897696281e-11
7.852807293318165e-11
7.797384959928877e-11
7.729528128663787e-11
7.653300215793024e-11
12.967367524149456
13.080446970638523
13.183330884829676
13.252859997242474
13.277235429678962
13.25285999724234
13.18333088482943
13.08044697063832
12.967367524149186
25.951869631739093
26.16528772762048
26.358233238679823
26.488726996886996
26.534434173016948
26.488726996887017
26.35823323867953
26.165287727620125
25.951869631738795
38.97552602610331
39.261464875991926
39.52146383216021
39.6965647220963
39.75772372202337
39.69656472209613
39.52146383215987
39.2614648759916
38.97552602610297
52.050854719663675
52.38083408218664
52.67640424583669
52.87298736228917
52.9413544250243
52.87298736228876
52.67640424583624
52.38083408218624
52.050854719663235
-47.44482288202221
-47.63774122735981
-47.82764967585296
-47.95969165048682
-48.006567027680575
-47.9596916504871
-47.827649675853124
-47.63774122736011
-47.44482288202294
-35.54771361828442
-35.71187079247814
-35.87527664106017
-35.9904730118624
-36.0315513665882
-35.99047301186265
-35.875276641060324
-35.71187079247824
-35.547713618285
-23.67421498876088
-23.79787749461137
-23.917979503365334
-24.00273915831397
-24.033029261928554
-24.002739158314164
-23.917979503365594
-23.797877494611672
-23.674214988761463
-11.829283866729313
-11.895157488792442
-11.959076727688162
-12.003955501151669
-12.01999235274782
-12.003955501151665
-11.959076727688377
-11.895157488792911
-11.829283866729813
4.4247494557225764e-11
4.464140168636277e-11
4.493760918933276e-11
4.4996006920428044e-11
4.496802930020749e-11
4.4847681124338123e-11
4.458144964303301e-11
4.426325972417544e-11
4.3902437241172265e-11
11.829283866792295
11.895157488855443
11.959076727751144
12.003955501214485
12.019992352810528
12.003955501214346
11.959076727750928
11.895157488855272
11.829283866792059
23.67421498874826
23.79787749459669
23.917979503349045
24.002739158296393
24.03302926191048
24.002739158296578
23.917979503348782
23.797877494596207
23.674214988747863
35.547713618150055
35.71187079233896
35.875276640917335
35.9904730117171
36.031551366441725
35.99047301171691
35.875276640916866
35.7118707923384
35.5477136181495
47.4448228817222
47.63774122705178
47.827649675538964
47.959691650169376
48.006567027361655
47.95969165016902
47.82764967553865
47.63774122705156
47.444822881721784
-42.780635787267094
-42.88832752304937
-43.00952640720154
-43.09804024520952
-43.13010059661476
-43.09804024520918
-43.00952640720134
-42.88832752304984
-42.78063578726784
-32.06550848893919
-32.15395508077556
-32.25423017918729
-32.328787446080995
-32.355952707976854
-32.328787446080895
-32.25423017918752
-32.15395508077618
-32.06550848893985
-21.35542043022206
-21.42325165282528
-21.495609691319522
-21.549226796573194
-21.568795019456097
-21.54922679657329
-21.49560969131991
-21.423251652825726
-21.35542043022246
-10.669219176489346
-10.705755925483516
-10.74408324864223
-10.772136714712722
-10.782360370792166
-10.772136714712548
-10.74408324864244
-10.705755925483981
-10.669219176489818
1.64923630308067e-11
1.6658452395290624e-11
1.6606938046948017e-11
1.656297321517286e-11
1.6760814958161063e-11
1.689048900743728e-11
1.6619594589428743e-11
1.6334489316705003e-11
1.6004531033786407e-11
10.669219176498306
10.705755925492358
10.744083248650927
10.7721367147211
10.78236037080065
10.772136714721182
10.74408324865089
10.70575592549234
10.66921917649806
21.355420430161935
21.423251652763888
21.49560969125697
21.54922679650951
21.56879501939204
21.549226796509537
21.49560969125668
21.423251652763422
21.35542043016131
32.065508488768415
32.15395508060182
32.254230179010875
32.32878744590264
32.355952707797655
32.32878744590238
32.254230179010364
32.153955080601065
32.06550848876728
42.78063578694143
42.88832752271844
43.00952640686681
43.09804024487269
43.130100596277074
43.09804024487238
43.00952640686675
42.88832752271827
42.78063578694046
-38.07793263183206
-38.13690912892466
-38.21815437657909
-38.28067625297342
-38.303719514538514
-38.280676252973194
-38.21815437657889
-38.13690912892522
-38.077932631833036
-28.538755109888392
-28.583377743147388
-28.645422968542665
-28.694556018630422
-28.712854549342538
-28.694556018630294
-28.645422968542597
-28.58337774314781
-28.538755109889127
-18.996277939147955
-19.031713466375365
-19.074599854171122
-19.108242100297105
-19.12079754911212
-19.108242100296998
-19.074599854171083
-19.031713466375578
-18.996277939148445
-9.485109010123226
-9.504671368614435
-9.52705269140855
-9.54418276444759
-9.550554829335901
-9.544182764447516
-9.527052691408608
-9.504671368614861
-9.485109010123889
-6.871392344010019e-12
-6.894040893712372e-12
-6.9897421184350605e-12
-7.0030647947305624e-12
-7.035927396259467e-12
-6.8549610432455665e-12
-6.862954649022868e-12
-7.069456131603147e-12
-7.48134887373908e-12
9.485109010087093
9.504671368578162
9.527052691372205
9.544182764410866
9.55055482929886
9.54418276441082
9.527052691372088
9.504671368578204
9.485109010086864
18.99627793904846
19.0317134662753
19.074599854070343
19.108242100195497
19.120797549010177
19.108242100195326
19.074599854069945
19.03171346627483
18.996277939047932
28.538755109688452
28.583377742946222
28.645422968339815
28.694556018426297
28.712854549137802
28.694556018425978
28.64542296833911
28.58337774294526
28.53875510968738
38.07793263148846
38.13690912857851
38.21815437623104
38.280676252624026
38.30371951418813
38.280676252623465
38.21815437623044
38.13690912857781
38.07793263148727
-33.35405331458901
-33.39138397703816
-33.45488397093209
-33.505036144799654
-33.52355855876473
-33.50503614480027
-33.454883970932514
-33.39138397703872
-33.3540533145896
-24.970009026149405
-24.993561769447634
-25.035312093983844
-25.07003016459086
-25.08311846743449
-25.070030164591266
-25.03531209398394
-24.993561769448036
-24.970009026150223
-16.589646081494507
-16.609251655603444
-16.635347061984803
-16.656750839741747
-16.66486763774704
-16.65675083974159
-16.635347061984575
-16.609251655603558
-16.589646081495182
-8.270016509458141
-8.28132898630006
-8.294349636440817
-8.304561476331209
-8.308415070700072
-8.304561476331516
-8.294349636441108
-8.281328986300476
-8.270016509458792
-2.5863533537062722e-11
-2.5765389821685858e-11
-2.5754620658346994e-11
-2.5789481661320224e-11
-2.5996427233110353e-11
-2.5945912085489908e-11
-2.5737856290675154e-11
-2.5842106232687456e-11
-2.6210034143048233e-11
8.270016509386323
8.281328986228463
8.294349636369162
8.304561476259058
8.30841507062741
8.304561476259211
8.294349636369219
8.281328986228417
8.270016509386146
16.589646081366773
16.60925165547566
16.635347061856372
16.656750839612766
16.6648676376181
16.656750839613093
16.6353470618563
16.609251655474974
16.58964608136601
24.970009025934026
24.99356176923237
25.035312093767537
25.070030164373986
25.08311846721744
25.070030164374018
25.035312093766912
24.993561769231253
24.970009025933024
33.35405331424838
33.39138397669712
33.45488397059047
33.50503614445746
33.52355855842178
33.50503614445698
33.45488397058957
33.39138397669623
33.35405331424728
-28.626905662042027
-28.665077057346302
-28.72764406069245
-28.774693457612152
-28.791546413225497
-28.774693457612535
-28.727644060692604
-28.66507705734628
-28.6269056620419
-21.350823317369507
-21.370648955440352
-21.404137222053542
-21.43114794985796
-21.441130465952043
-21.431147949858186
-21.40413722205337
-21.370648955440192
-21.3508233173698
-14.115956158844188
-14.131925122491015
-14.149210409763791
-14.162815984617406
-14.167907266129658
-14.162815984617243
-14.149210409763544
-14.131925122490859
-14.115956158844615
-7.009720416736256
-7.019119824683806
-7.026827738080276
-7.032374991871854
-7.034431851430114
-7.032374991872314
-7.026827738080829
-7.019119824684245
-7.009720416736966
-3.8090641751864496e-11
-3.806577275611289e-11
-3.812694604476974e-11
-3.808919846193248e-11
-3.8044678518645014e-11
-3.798228398466108e-11
-3.807620885254437e-11
-3.831401862441908e-11
-3.8492653509081265e-11
7.009720416642378
7.019119824590157
7.026827737986521
7.032374991777906
7.034431851336155
7.032374991778525
7.026827737987135
7.019119824590293
7.0097204166422555
14.115956158703359
14.131925122350427
14.14921040962288
14.162815984476111
14.167907265988745
14.162815984476925
14.149210409623205
14.131925122349811
14.1159561587024
21.350823317158387
21.37064895522984
21.40413722184243
21.43114794964645
21.441130465740603
21.43114794964675
21.404137221842035
21.370648955228653
21.350823317157253
28.62690566173304
28.66507705703794
28.72764406038402
28.7746934573033
28.791546412916237
28.77469345730299
28.727644060383355
28.66507705703699
28.626905661731623
-23.91781470989571
-23.977665809578134
-24.049869700379812
-24.097366961654227
-24.113235009477883
-24.097366961654387
-24.049869700379837
-23.977665809577946
-23.9178147098956
-17.657683068167707
-17.687365535939236
-17.718537093620508
-17.739811941997193
-17.747090356885657
-17.739811941997225
-17.71853709362013
-17.68736553593867
-17.65768306816783
-11.542043723148508
-11.563112252389143
-11.57516293915296
-11.582261797590515
-11.584640397169892
-11.582261797590512
-11.575162939152651
-11.563112252388782
-11.542043723148925
-5.684082543438926
-5.69595586117099
-5.700164547082602
-5.701763510995165
-5.702217032248411
-5.701763510995562
-5.700164547082824
-5.695955861171056
-5.68408254343948
-4.337352699224084e-11
-4.339906212180722e-11
-4.338196468722799e-11
-4.3150372164291184e-11
-4.3086867407282625e-11
-4.3239967162378434e-11
-4.347067150689554e-11
-4.3841597019422807e-11
-4.396538688666851e-11
5.684082543336958
5.695955861068955
5.7001645469806625
5.701763510893609
5.702217032146733
5.701763510893659
5.7001645469811235
5.6959558610690415
5.684082543336517
11.542043723007826
11.563112252248336
11.575162939012422
11.58226179745003
11.584640397029284
11.582261797450089
11.575162939012444
11.56311225224815
11.54204372300728
17.657683067973853
17.687365535745656
17.71853709342667
17.73981194180299
17.747090356691245
17.73981194180285
17.718537093425976
17.687365535744572
17.657683067972933
23.917814709632623
23.9776658093164
24.04986970011793
24.09736696139163
24.11323500921499
24.0973669613917
24.049869700117604
23.97766580931512
23.917814709630704
-19.249369287467324
-19.348621221758876
-19.430843992139764
-19.474831344731818
-19.487947952256647
-19.47483134473207
-19.43084399214033
-19.34862122175919
-19.249369287467495
-13.849912395390579
-13.897500460997716
-13.925044768283898
-13.937905805222158
-13.941357929634897
-13.937905805222078
-13.925044768284026
-13.89750046099796
-13.849912395391245
-8.833222945336253
-8.863566135663579
-8.869786250332279
-8.86926360429138
-8.868481139630225
-8.8692636042915
-8.869786250332234
-8.863566135663508
-8.83322294533683
-4.280203889288962
-4.296519557404715
-4.297162142769878
-4.294538409992773
-4.293280518954832
-4.2945384099927875
-4.29716214276959
-4.296519557404329
-4.280203889289135
-4.2397085842083015e-11
-4.252276308847058e-11
-4.2333081484713375e-11
-4.200817471655682e-11
-4.182393320562028e-11
-4.2024161928111425e-11
-4.236827555459399e-11
-4.2788994569775696e-11
-4.289557598013971e-11
4.28020388919102
4.296519557306368
4.297162142671841
4.294538409895404
4.293280518857266
4.294538409894895
4.297162142671858
4.296519557306238
4.28020388919031
8.833222945205458
8.863566135532414
8.869786250201475
8.8692636041606
8.868481139498865
8.869263604160087
8.869786250201065
8.86356613553214
8.833222945204893
13.849912395218917
13.897500460825952
13.925044768111807
13.937905805049418
13.941357929461738
13.937905805048707
13.925044768110528
13.897500460824837
13.849912395217766
19.249369287251724
19.34862122154435
19.430843991924927
19.47483134451623
19.487947952040848
19.4748313445163
19.430843991924576
19.348621221543276
19.24936928724943
-14.626614842349706
-14.76879667335639
-14.846073699827908
-14.876317158679512
-14.883639626176619
-14.876317158680099
-14.846073699828583
-14.76879667335687
-14.626614842350152
-9.885024901994985
-9.946991417109869
-9.963011340543236
-9.962691037650446
-9.961194175396534
-9.962691037650277
-9.96301134054348
-9.946991417110514
-9.885024901995806
-6.003515501998601
-6.040208198301816
-6.037312908396566
-6.0278396622894475
-6.023827938615144
-6.02783966228947
-6.037312908396627
-6.040208198301812
-6.003515501999031
-2.8324569466583664
-2.8518172037060916
-2.847933602914501
-2.840954042256466
-2.838135834955002
-2.8409540422562474
-2.8479336029142974
-2.851817203705836
-2.8324569466584153
-3.4420133410151266e-11
-3.453459740399012e-11
-3.416922300658598e-11
-3.3972658020076096e-11
-3.402622628101426e-11
-3.407552018330762e-11
-3.4449720853757526e-11
-3.505096213274328e-11
-3.512290458473899e-11
2.832456946578416
2.8518172036255223
2.8479336028344013
2.840954042176869
2.8381358348750343
2.8409540421761306
2.84793360283411
2.851817203625264
2.832456946577712
6.003515501890137
6.04020819819276
6.037312908287416
6.0278396621800905
6.023827938505463
6.027839662179863
6.037312908287101
6.04020819819225
6.003515501889375
9.885024901851338
9.94699141696588
9.96301134039845
9.962691037504955
9.961194175250606
9.962691037504154
9.96301134039733
9.946991416964625
9.885024901849933
14.626614842180391
14.768796673187175
14.846073699657968
14.876317158508948
14.883639626005316
14.876317158508455
14.846073699657278
14.76879667318623
14.62661484217847
-9.9739343130265
-10.12481437123527
-10.171924406870943
-10.18093376279237
-10.18153223013276
-10.180933762792762
-10.171924406870817
-10.124814371235464
-9.973934313027033
-5.815115824194859
-5.870498726478754
-5.865232954017567
-5.853166603132681
-5.848427057493042
-5.853166603132418
-5.865232954017525
-5.870498726479173
-5.815115824195411
-3.2564084161821016
-3.2878656419811594
-3.27247942688211
-3.25735582708191
-3.252125185174556
-3.257355827081547
-3.272479426881853
-3.2878656419810537
-3.256408416182321
-1.4864283805078293
-1.5031157934305686
-1.4937594496702489
-1.4844227791846745
-1.481205747778023
-1.4844227791842108
-1.4937594496701125
-1.5031157934303438
-1.4864283805075331
-2.171006430184974e-11
-2.1543294925763234e-11
-2.1030496788476682e-11
-2.1108462200380984e-11
-2.133200560638926e-11
-2.1089352486569624e-11
-2.1069590516731296e-11
-2.1983137532544106e-11
-2.211283933739594e-11
1.4864283804569394
1.503115793379469
1.493759449619707
1.484422779134064
1.481205747727069
1.4844227791336535
1.493759449619656
1.5031157933790686
1.486428380456461
3.256408416109508
3.2878656419079335
3.2724794268082955
3.25735582700785
3.2521251851007626
3.257355827007811
3.2724794268079154
3.287865641907356
3.256408416109359
5.815115824090093
5.870498726373224
5.865232953910975
5.853166603025725
5.848427057386045
5.85316660302521
5.865232953910281
5.870498726372431
5.815115824089524
9.97393431290119
10.124814371108762
10.171924406743123
10.180933762664328
10.181532230004017
10.180933762663672
10.171924406742383
10.124814371107776
9.973934312899543
-5.104600406035179
-5.189301195350302
-5.198463321448324
-5.193716952014062
-5.1911477872163125
-5.193716952014161
-5.19846332144838
-5.189301195350694
-5.104600406035486
-2.236471766063738
-2.246407805946118
-2.228831478131748
-2.2186150483344838
-2.2153932507548646
-2.2186150483342613
-2.2288314781317586
-2.2464078059464465
-2.2364717660642417
-1.1521643940114934
-1.153073516651046
-1.1314952155796798
-1.1208474361053329
-1.1179262684939288
-1.1208474361047462
-1.1314952155792457
-1.1530735166509083
-1.1521643940116246
-0.5087433479508294
-0.5100663043137632
-0.4972032339079545
-0.49035180290115676
-0.48851060078272557
-0.4903518029006008
-0.49720323390756604
-0.5100663043133143
-0.5087433479501732
-9.28151999701754e-12
-8.98977420282776e-12
-8.475473795011013e-12
-8.276107230087426e-12
-8.126350287129824e-12
-7.74045411100488e-12
-7.635935286853801e-12
-8.331450113141514e-12
-8.473555190846582e-12
0.5087433479296871
0.5100663042929678
0.4972032338874107
0.49035180288085045
0.4885106007629847
0.4903518028813828
0.4972032338882003
0.5100663042928264
0.5087433479295912
1.1521643939801245
1.153073516619307
1.1314952155471552
1.1208474360726868
1.1179262684619833
1.1208474360727303
1.1314952155470437
1.1530735166187478
1.1521643939797455
2.236471766009515
2.2464078058908497
2.228831478075917
2.2186150482785543
2.2153932506990417
2.2186150482780587
2.2288314780755663
2.2464078058911507
2.236471766009818
5.1046004059609675
5.1893011952747035
5.198463321372114
5.1937169519379776
5.191147787139932
5.193716951937403
5.198463321371822
5.189301195274625
5.104600405960229

SCALARS STRESS_YY float 1
LOOKUP_TABLE default
-32.42992380889844
3.8216762533971336
-3.8216762534328175
32.42992380884789
-32.42992380889843
3.821676253399562
-3.821676253431625
32.42992380884795
-14.952498068414982
1.3140021860117237
0.23897369113014655
0.2578992089182712
0.100629459873252
0.035193501528713256
-0.0010213724721852557
-0.016565409186753755
-0.02222189868118729
-0.023558665981483706
-0.024313308434098957
-0.027423366601511567
-0.03616505652996782
-0.05500763780199769
-0.08898668891391237
-0.14097878945864784
-0.17033679516220523
-0.05022941971561079
1.945147867567192
5.651943557383788
7.29929102734092
6.0029742350438795
3.307483104236699
5.3614668260593135e-11
-3.3074831041430457
-6.002974234993449
-7.299291027352718
-5.65194355742382
-1.9451478675961913
0.050229419705394296
0.17033679516586342
0.14097878946500852
0.08898668892225725
0.0550076378099722
0.036165056533666196
0.027423366603398946
0.024313308437439396
0.023558665985588867
0.02222189868522051
0.0165654091891847
0.0010213724709888794
-0.03519350153207057
-0.1006294598755808
-0.25789920892245277
-0.23897369113805667
-1.3140021860987439
14.952498068307209
29.612996598372938
23.471494100097516
16.187528027995427
8.163350380236263
1.929327808625203e-10
-8.163350379876146
-16.187528027726664
-23.471494099977406
-29.61299659837968
-14.952498068414991
1.3140021860116864
0.23897369113016254
0.25789920891850215
0.1006294598735451
0.0351935015289655
-0.0010213724720129491
-0.01656540918644911
-0.02222189868115443
-0.023558665982001514
-0.024313308434533276
-0.027423366602286947
-0.03616505653026536
-0.055007637801711695
-0.08898668891341366
-0.14097878945805054
-0.17033679516276123
-0.05022941971603134
1.9451478675686136
5.651943557384213
7.299291027339825
6.0029742350431725
3.3074831042382407
5.741396247316288e-11
-3.3074831041402066
-6.002974234991887
-7.299291027348843
-5.651943557419927
-1.9451478675958702
0.050229419705091205
0.17033679516456668
0.14097878946274722
0.08898668892057726
0.05500763780919504
0.03616505653384383
0.0274233666035828
0.02431330843751045
0.023558665985625282
0.022221898684899877
0.016565409189060354
0.0010213724710084193
-0.035193501532161164
-0.10062945987569094
-0.2578992089225256
-0.23897369113811529
-1.314002186098838
14.95249806830721
29.612996598372987
23.47149410009756
16.187528027995484
8.16335038023632
1.9298651565691216e-10
-8.16335037987611
-16.187528027726657
-23.47149409997739
-29.61299659837966
-30.767174244707885
-29.4577855121702
-30.074651374063357
-30.49048701205343
-30.642817619803203
-30.490487012053435
-30.0746513740634
-29.45778551217021
-30.767174244707867
3.9587401470618295
4.1071522836530265
4.106547472161242
4.086984799377444
4.079375181011615
4.086984799376212
4.10654747216048
4.107152283652754
3.958740147062617
-3.958740147099367
-4.107152283691499
-4.106547472197283
-4.086984799412335
-4.079375181047413
-4.086984799412257
-4.106547472195927
-4.107152283689476
-3.9587401470977963
30.767174244665686
29.45778551213327
30.074651374023446
30.49048701201338
30.642817619762937
30.49048701201339
30.074651374023418
29.457785512133228
30.767174244665696
-15.516027863187796
-14.556037151032738
-10.639679014768957
-5.527396900255934
1.2492062939628568e-10
5.5273969004787915
10.639679014905239
14.556037151038133
15.516027863100955
-0.650697528947616
-3.126323870668508
-3.222409279521453
-1.91963871112169
3.4763081302457977e-11
1.9196387111676372
3.2224092795033012
3.126323870577254
0.6506975288421875
0.2872693473328298
-0.07205476970089464
-0.5713406523692213
-0.47630113975290744
3.0608848788915566e-12
0.4763011397457212
0.5713406523326823
0.0720547696503333
-0.28726934736105436
0.3756079258743883
0.478808550588365
0.330850440738891
0.12034040861509876
-8.10762568193013e-12
-0.12034040863540818
-0.3308504407638555
-0.47880855060681204
-0.3756079258821634
0.22544098862731277
0.40590178352621864
0.4042255830090493
0.23394796536463408
-8.787415239908114e-12
-0.23394796538159385
-0.4042255830218371
-0.40590178353232087
-0.22544098862996398
0.10964059760097511
0.2449919739550266
0.2842294369201326
0.18188470454878336
-6.248779271800231e-12
-0.18188470455947348
-0.2842294369260203
-0.24499197395701433
-0.10964059760319511
0.036485877760928265
0.11716486162821971
0.1564815016725185
0.10697923183692387
-2.8655966488599915e-12
-0.10697923184113883
-0.156481501673307
-0.11716486162720452
-0.03648587776107215
-0.0029290149989855685
0.03768312496493387
0.0677232897883564
0.05036355832134953
-2.940425680719727e-13
-0.05036355832123546
-0.06772328978629982
-0.03768312496183768
0.0029290150016487715
-0.022084029909578806
-0.006542991101457396
0.014363666180985835
0.014734862597786447
6.927236562148664e-13
-0.014734862596390952
-0.014363666178738521
0.006542991104451001
0.02208402991304448
-0.031289770918617066
-0.031739379163747694
-0.01840972989855927
-0.007977912080581462
1.123434678618196e-12
0.00797791208280757
0.018409729901174288
0.03173937916623171
0.03128977092164131
-0.03837887590971523
-0.05243360514933548
-0.04630990730129225
-0.027672699095563802
1.56891166724904e-12
0.027672699098913067
0.04630990730458073
0.052433605151984475
0.03837887591252631
-0.05031620307550333
-0.08248986126445224
-0.08504863030772725
-0.05456790685663815
2.0749513218731863e-12
0.05456790686145557
0.08504863031268906
0.0824898612685756
0.05031620307835105
-0.07506177522006285
-0.13744787073930542
-0.1516084273292767
-0.09939709248285122
3.165495643386862e-12
0.09939709249026699
0.15160842733816815
0.13744787074731146
0.0750617752252769
-0.12254374327539397
-0.23438951378720907
-0.2619267751555725
-0.1709238806695319
2.8146651676053125e-12
0.17092388067671263
0.2619267751664677
0.23438951379863426
0.1225437432842773
-0.20184355358149042
-0.382028861271446
-0.4152694726744667
-0.26411138788728317
7.254752354413085e-13
0.2641113878907664
0.4152694726832618
0.3820288612830496
0.20184355359122907
-0.3050647496292126
-0.5405483553406253
-0.5449344637853377
-0.32699214104712643
-1.390068615769735e-12
0.326992141046246
0.5449344637889887
0.5405483553488384
0.30506474963746466
-0.33806018535748217
-0.49959643090144645
-0.396792017380574
-0.19813447376699628
-1.6552592629892615e-12
0.1981344737637345
0.3967920173763736
0.49959643089828704
0.3380601853587457
0.12050278725530172
0.4920239305068765
0.6742679725860392
0.45890555077090167
7.129269397054827e-12
-0.4589055507631135
-0.6742679725951364
-0.492023930530005
-0.1205027872737825
3.1046438488324446
4.334990098214601
3.777994105984612
2.140811666103034
3.431277484367001e-11
-2.140811666046833
-3.777994105964125
-4.33499009823776
-3.104643848868701
-15.072264354494761
-15.194657881432061
-15.315422089843036
-15.49916298309665
-15.564766908796813
-15.499162983096674
-15.315422089843086
-15.19465788143211
-15.072264354494791
0.2575080283304434
-0.7797806958324416
-0.7254002311748886
-0.677277873305131
-0.6643305465745439
-0.6772778733052167
-0.7254002311750445
-0.7797806958325717
0.25750802833037767
0.07963669875268309
-0.27310260002464215
-0.47048070171840584
-0.47111300512968635
-0.4677695132470485
-0.47111300512979026
-0.47048070171870915
-0.27310260002488196
0.07963669875263424
0.19625489893571224
0.07385267039413534
-0.024054156495261658
-0.06672099707833556
-0.0722389293309682
-0.06672099707841106
-0.024054156495500578
0.07385267039413179
0.1962548989359254
0.09509793054156557
0.058975987781844985
0.01025543237529103
-0.01807515950663685
-0.02827560940995255
-0.01807515950664218
0.010255432375299023
0.058975987782240225
0.09509793054200166
0.043789309955180045
0.040358664589393634
0.019298809292052077
0.004692823044737615
-0.000879761697452075
0.004692823044650574
0.019298809292014774
0.04035866458973647
0.04378930995556285
0.013068890925428622
0.02209733844271078
0.013748236453257512
0.007969953556635545
0.0054789567689992325
0.007969953556322018
0.013748236453144713
0.022097338442927494
0.013068890925666654
-0.0012363902728043108
0.012083623969774582
0.009264737751645491
0.007706153377609493
0.006957450550301836
0.0077061533775291124
0.009264737751616625
0.01208362396968754
-0.001236390272760346
-0.007201238932025511
0.006951428137357052
0.006229880129423826
0.006369561023582104
0.00636279724579758
0.006369561023445769
0.006229880129143162
0.006951428136756643
-0.007201238932368348
-0.009443188027937754
0.004241663915638405
0.004218303199298834
0.004870860416155587
0.005116152339017077
0.004870860415709277
0.004218303199184703
0.004241663915290239
-0.009443188028511962
-0.01113884494078432
0.0018949300418618087
0.0021783841973714857
0.00287709750290821
0.0031516681419105907
0.0028770975026621848
0.0021783841978124663
0.0018949300420163517
-0.011138844941177783
-0.014801217373391129
-0.001870099677400816
-0.0011893243561886813
-0.0006256199397816076
-0.00043372237706229555
-0.0006256199401839524
-0.0011893243560465727
-0.0018700996775176115
-0.014801217374094566
-0.023180393166116975
-0.00910990487290464
-0.007768083599027253
-0.007507861645334124
-0.007503636036110262
-0.007507861645239977
-0.007768083599080988
-0.009109904872694585
-0.023180393165954438
-0.03988858737113499
-0.022541891058935226
-0.020341515096799156
-0.02069134802197259
-0.021013911027650378
-0.020691348021055322
-0.02034151509658
-0.022541891058955654
-0.03988858737060896
-0.06859231346166506
-0.04459701476667344
-0.04160679227822106
-0.04293035987146876
-0.043643226710594396
-0.0429303598717079
-0.04160679227916697
-0.04459701476764377
-0.0685923134615094
-0.11001646646003338
-0.07448697573787877
-0.07095699745570627
-0.07287262179312992
-0.07375105668935045
-0.07287262179441578
-0.07095699745790429
-0.07448697573876961
-0.11001646645954888
-0.12356792464042798
-0.07001169448935629
-0.06356676412508921
-0.06439645032115549
-0.06488370725244386
-0.06439645032272645
-0.06356676412714524
-0.0700116944902952
-0.12356792464091038
0.021270001408775996
0.1057387359444878
0.1200241189062895
0.1211219026094823
0.12090361676122907
0.1211219026079643
0.12002411890585085
0.10573873594374827
0.021270001407716177
2.057360889717886
2.1838384934300485
2.193244292027819
2.1844213804594474
2.1804572518539804
2.18442138045831
2.1932442920279187
2.183838493429736
2.0573608897178417
5.921940183689018
6.206242471561101
6.193640866354031
6.148988161208472
6.131242722836943
6.148988161208003
6.193640866353225
6.206242471560046
5.921940183688404
7.738320123270763
8.214897911400943
8.211317904529977
8.139307810469326
8.108426415480418
8.139307810469463
8.211317904529327
8.214897911399737
7.7383201232693555
6.411772433891555
6.8838731590389415
6.9163426031879585
6.856454018027629
6.827398515018633
6.856454018028044
6.916342603187487
6.883873159038858
6.411772433891366
3.5400113976361887
3.8213588333774746
3.856858580999423
3.8272167216339477
3.8108942569881714
3.8272167216341133
3.8568585810005445
3.8213588333790787
3.540011397637756
5.83459947023357e-11
6.458011903021088e-11
6.662914664445907e-11
6.767442162214365e-11
6.726030843395847e-11
6.774114602592363e-11
6.911304861745293e-11
6.746825320647076e-11
6.162975685342076e-11
-3.540011397533937
-3.821358833264539
-3.856858580884513
-3.827216721518779
-3.810894256873061
-3.8272167215183996
-3.8568585808839075
-3.8213588332648367
-3.540011397532762
-6.411772433836867
-6.883873158979728
-6.916342603129499
-6.856454017971078
-6.827398514962221
-6.856454017971544
-6.91634260313012
-6.8838731589798865
-6.411772433836197
-7.73832012328337
-8.214897911415171
-8.211317904544838
-8.139307810484645
-8.108426415496039
-8.139307810485514
-8.21131790454374
-8.214897911410441
-7.738320123278567
-5.921940183731175
-6.206242471605422
-6.193640866397089
-6.148988161250294
-6.131242722879022
-6.148988161250605
-6.193640866395206
-6.206242471601307
-5.92194018372701
-2.0573608897486535
-2.1838384934626074
-2.1932442920593394
-2.1844213804899244
-2.1804572518850556
-2.1844213804893053
-2.19324429205827
-2.18383849346186
-2.05736088974841
-0.02127000142103619
-0.10573873595943006
-0.12002411892133025
-0.12112190262377498
-0.1209036167757429
-0.12112190262274847
-0.12002411892063392
-0.10573873595927996
-0.021270001421247464
0.12356792464198174
0.07001169448900901
0.06356676412546525
0.06439645032157859
0.06488370725249004
0.06439645032232921
0.06356676412582452
0.07001169448914846
0.12356792464151878
0.11001646646519814
0.07448697574241292
0.07095699746095852
0.07287262179790188
0.07375105669357307
0.07287262179845455
0.07095699746112816
0.07448697574131802
0.11001646646310737
0.06859231346948591
0.044597014774201416
0.041606792285233896
0.04293035987764848
0.04364322671668175
0.042930359877822566
0.04160679228524522
0.044597014773146704
0.06859231346758965
0.03988858737824308
0.022541891065057218
0.020341515102236807
0.02069134802703454
0.021013911033363586
0.0206913480272517
0.02034151510255433
0.022541891064971953
0.03988858737750123
0.02318039316830145
0.009109904873530805
0.007768083600219189
0.007507861647453762
0.007503636038185935
0.007507861647111813
0.007768083600824038
0.009109904874319952
0.023180393168640734
0.014801217373799691
0.0018700996761649158
0.0011893243556713173
0.0006256199410508145
0.0004337223777923782
0.0006256199400143103
0.0011893243566469813
0.0018700996778058254
0.014801217374616371
0.011138844943404003
-0.0018949300405251002
-0.0021783841962563777
-0.0028770975003866717
-0.0031516681389636148
-0.0028770975001122245
-0.002178384194779781
-0.0018949300389996537
0.011138844944047044
0.009443188031707184
-0.0042416639125884
-0.004218303196678708
-0.004870860413446199
-0.005116152336173574
-0.0048708604127361
-0.0042183031960054684
-0.004241663912027516
0.009443188031959426
0.007201238935882426
-0.006951428133861626
-0.006229880126374265
-0.006369561021159154
-0.006362797243829821
-0.006369561021128067
-0.006229880126291665
-0.006951428133900706
0.007201238935623966
0.0012363902751433287
-0.012083623967737545
-0.009264737750283025
-0.007706153376850544
-0.0069574505497627115
-0.007706153376814129
-0.009264737750216412
-0.012083623967853008
0.001236390274986121
-0.013068890927096177
-0.022097338445224324
-0.013748236456586405
-0.007969953560541754
-0.005478956773197652
-0.00796995356051955
-0.013748236456487817
-0.02209733844520212
-0.013068890927121046
-0.04378930995956942
-0.04035866459548565
-0.019298809299278297
-0.004692823052645956
0.0008797616893820859
-0.004692823052553585
-0.01929880929918859
-0.04035866459548121
-0.04378930995962804
-0.09509793054587767
-0.05897598778927904
-0.01025543238444282
0.01807515949692995
0.02827560940045437
0.01807515949717331
-0.01025543238437443
-0.058975987789374074
-0.09509793054594518
-0.196254898943808
-0.07385267040829202
0.024054156478745092
0.06672099706178258
0.07223892931464082
0.06672099706189716
0.024054156478904964
-0.0738526704083089
-0.19625489894389325
-0.07963669876984447
0.2731025999967862
0.4704807016895085
0.4711130051011767
0.467769513218498
0.4711130051011314
0.4704807016895054
0.273102599996796
-0.07963669876986312
-0.2575080284273765
0.7797806957255413
0.7254002310667955
0.677277873195191
0.6643305464638787
0.6772778731951159
0.725400231066673
0.7797806957255111
-0.2575080284274023
15.072264354387878
15.194657881324499
15.315422089732492
15.49916298298399
15.56476690868345
15.499162982983945
15.315422089732413
15.194657881324458
15.072264354387869
27.971858406530416
26.616705033189653
27.08321912782396
27.380317324921414
27.49688624588633
27.380317324921435
27.083219127823952
26.616705033189625
27.97185840653043
22.114438009137228
20.939193702163443
21.20219509260479
21.347169626961175
21.410954554862723
21.347169626961193
21.202195092604793
20.939193702163436
22.114438009137253
15.307937247913348
14.548539967944286
14.717442559027837
14.801886399065097
14.837621148131834
14.801886399065104
14.717442559027841
14.548539967944304
15.30793724791339
7.719879999555947
7.340549196863503
7.4266034022270535
7.464705532466077
7.480893035329424
7.464705532466086
7.4266034022270695
7.340549196863526
7.719879999555989
1.82226678191455e-10
1.7323520395962078e-10
1.7560419784956594e-10
1.766948809489577e-10
1.7712897815158613e-10
1.7669687935040201e-10
1.7561307963376294e-10
1.7324719436828673e-10
1.8226065101600852e-10
-7.719879999215211
-7.340549196539111
-7.426603401898292
-7.464705532135112
-7.480893034997585
-7.464705532135102
-7.426603401898275
-7.3405491965391
-7.71987999921519
-15.307937247658241
-14.548539967700698
-14.717442558780833
-14.801886398816011
-14.837621147881931
-14.801886398815999
-14.717442558780817
-14.548539967700691
-15.307937247658234
-22.11443800902113
-20.939193702050957
-21.202195092490797
-21.34716962684546
-21.410954554746404
-21.347169626845467
-21.202195092490786
-20.93919370205095
-22.11443800902112
-27.971858406532014
-26.616705033188065
-27.08321912782377
-27.380317324920547
-27.496886245885335
-27.38031732492055
-27.08321912782378
-26.616705033188065
-27.971858406532
-15.51602786318779
-14.556037151032719
-10.639679014768953
-5.527396900255908
1.249688130755544e-10
5.527396900478818
10.639679014905258
14.556037151038124
15.516027863100945
-0.6506975289476253
-3.1263238706684655
-3.2224092795214423
-1.9196387111216653
3.480882249107253e-11
1.9196387111676365
3.2224092795033195
3.1263238705772425
0.650697528842112
0.28726934733287157
-0.07205476970077562
-0.57134065236916
-0.4763011397528851
3.1026292646174625e-12
0.4763011397457271
0.5713406523327291
0.07205476965040303
-0.28726934736105036
0.3756079258745588
0.47880855058851735
0.33085044073898073
0.12034040861510431
-8.050782263069323e-12
-0.12034040863533424
-0.33085044076381953
-0.47880855060669525
-0.3756079258820888
0.22544098862758588
0.4059017835263141
0.4042255830090462
0.23394796536472212
-8.631761971855667e-12
-0.23394796538141654
-0.40422558302165235
-0.40590178353206063
-0.22544098862986184
0.10964059760123623
0.24499197395513672
0.28422943692019764
0.18188470454893585
-6.085743020634027e-12
-0.18188470455928507
-0.28422943692584535
-0.24499197395681493
-0.10964059760312805
0.036485877760977115
0.11716486162832052
0.15648150167275743
0.10697923183703595
-2.7507995881137504e-12
-0.106979231841
-0.1564815016732961
-0.11716486162704687
-0.0364858777608803
-0.002929014998758195
0.03768312496508708
0.06772328978849917
0.05036355832141659
-1.5337731085196538e-13
-0.05036355832105682
-0.06772328978612308
-0.037683124961612524
0.002929015001675417
-0.022084029909405167
-0.00654299110140566
0.014363666181037571
0.01473486259808321
9.321432514752814e-13
-0.014734862596172293
-0.014363666178049517
0.00654299110498302
0.02208402991284597
-0.031289770918839555
-0.03173937916398928
-0.018409729898745564
-0.00797791208026033
1.3685719224554305e-12
0.007977912082865024
0.018409729901533556
0.03173937916665004
0.03128977092176033
-0.0383788759099728
-0.05243360514980666
-0.0463099073016332
-0.027672699095622588
1.7393309015290015e-12
0.027672699099234865
0.04630990730452822
0.052433605151501084
0.038378875912133736
-0.050316203076169685
-0.08248986126560776
-0.08504863030864918
-0.054567906857287074
1.952993322618113e-12
0.05456790686229829
0.08504863031366827
0.08248986126877256
0.05031620307802154
-0.07506177522056534
-0.13744787074072184
-0.15160842733080704
-0.09939709248410183
2.742750471185218e-12
0.09939709249077922
0.15160842733888436
0.137447870748588
0.07506177522607804
-0.12254374327534046
-0.23438951378803508
-0.26192677515703144
-0.17092388067100944
2.5214830223774243e-12
0.17092388067711073
0.2619267751660582
0.23438951379934803
0.1225437432849481
-0.20184355358129036
-0.38202886127209523
-0.4152694726756679
-0.26411138788803545
8.428813202954188e-13
0.2641113878910304
0.4152694726832498
0.3820288612833269
0.20184355359067396
-0.30506474962906227
-0.5405483553417342
-0.5449344637864477
-0.3269921410471176
-1.1422668366734001e-12
0.3269921410460227
0.5449344637895218
0.5405483553494803
0.30506474963613006
-0.33806018535782434
-0.49959643090266437
-0.39679201738143455
-0.19813447376656493
-1.9283463714714344e-12
0.19813447376354842
0.39679201737754105
0.49959643090016526
0.33806018535903326
0.12050278725493474
0.4920239305059368
0.6742679725858112
0.45890555077184314
6.783018591249856e-12
-0.4589055507627419
-0.6742679725924411
-0.49202393052616794
-0.12050278727168784
3.104643848832624
4.334990098213615
3.777994105984245
2.1408116661043013
3.6185332508154033e-11
-2.1408116660449776
-3.777994105961523
-4.334990098233423
-3.104643848865643
-15.680736024746908
-15.91275563506446
-16.092367276806627
-16.268985588206313
-16.333303706622257
-16.268985588206323
-16.092367276806662
-15.912755635064494
-15.680736024746926
-14.794827267738464
-15.160296181191406
-15.382948170600887
-15.531172988436815
-15.583424613610466
-15.53117298843679
-15.38294817060088
-15.160296181191413
-14.794827267738455
-10.86289255103
-11.193772323113873
-11.370328076734273
-11.471798563737362
-11.504379532942867
-11.47179856373733
-11.37032807673424
-11.193772323113857
-10.862892551029995
-5.647073490707624
-5.830912206112151
-5.93048818933578
-5.981548121198642
-5.997194194790714
-5.981548121198635
-5.9304881893357635
-5.830912206112133
-5.6470734907076015
1.2772688462447945e-10
1.3226131301280475e-10
1.3497014617058767e-10
1.3636136664274545e-10
1.3678036481223899e-10
1.3637402318522618e-10
1.3497458706268617e-10
1.3226819639555742e-10
1.277575267799591e-10
5.647073490936277
5.830912206349585
5.930488189577986
5.981548121443435
5.997194195036313
5.981548121443452
5.930488189578007
5.830912206349608
5.647073490936302
10.862892551171539
11.193772323262627
11.370328076886164
11.47179856389105
11.504379533097183
11.471798563891042
11.370328076886166
11.193772323262642
10.862892551171562
14.79482726774834
15.160296181205778
15.382948170615423
15.531172988451688
15.583424613625542
15.531172988451702
15.382948170615416
15.160296181205755
14.794827267748332
15.680736024662735
15.912755634981469
16.092367276721237
16.268985588119595
16.333303706535155
16.2689855881196
16.092367276721205
15.912755634981433
15.680736024662716
-1.8622458142274745
-3.15059257271127
-3.2430266780539627
-3.2657726827971643
-3.272883055401609
-3.265772682797193
-3.2430266780540378
-3.150592572711356
-1.8622458142275204
-4.409494613461634
-5.892574083918618
-6.16574240673828
-6.267586656306875
-6.296171310719618
-6.267586656306803
-6.165742406738273
-5.892574083918646
-4.409494613461623
-4.211772999815515
-5.403434736187863
-5.676659955851036
-5.77282408852407
-5.798061017612193
-5.772824088524035
-5.676659955851021
-5.40343473618785
-4.211772999815501
-2.4423651669723316
-3.0867665807658344
-3.2509661925586117
-3.307363335381487
-3.3212358243544626
-3.3073633353815053
-3.2509661925585807
-3.0867665807657834
-2.442365166972301
4.678801790447551e-11
6.180556066937015e-11
6.592648649217381e-11
6.742895131139903e-11
6.782502337543406e-11
6.747558067843329e-11
6.596367896349875e-11
6.182798717446758e-11
4.682082499485318e-11
2.4423651670403315
3.0867665808608695
3.25096619266046
3.3073633354857748
3.3212358244593654
3.3073633354858174
3.2509661926604974
3.086766580860895
2.442365167040339
4.211772999812135
5.403434736201707
5.676659955867916
5.77282408854172
5.79806101763005
5.772824088541725
5.676659955867947
5.403434736201742
4.211772999812155
4.409494613373882
5.892574083833644
6.1657424066516455
6.267586656218902
6.296171310631285
6.267586656218891
6.165742406651626
5.892574083833614
4.409494613373861
1.862245814115847
3.150592572592231
3.243026677932323
3.265772682673429
3.272883055277164
3.2657726826733784
3.2430266779322316
3.150592572592185
1.8622458141158083
-0.052939044318166095
-0.5919450892674534
-0.8088480040714725
-0.8279237127337515
-0.8288941598902984
-0.8279237127337775
-0.8088480040715473
-0.5919450892675195
-0.05293904431816698
-0.6398417964301466
-1.4363968992534015
-1.7080792426165021
-1.7609334109411294
-1.770873311996615
-1.7609334109410708
-1.7080792426164626
-1.4363968992533516
-0.6398417964300624
-1.0996727303265939
-1.855095145382061
-2.1338367909536577
-2.1991689368696097
-2.2128497743120095
-2.199168936869583
-2.133836790953699
-1.8550951453820743
-1.0996727303265583
-0.7761759111369537
-1.2138810271659397
-1.3866041290106241
-1.4304260051041178
-1.4393551239978803
-1.4304260051041249
-1.3866041290105784
-1.2138810271659017
-0.7761759111369437
9.315603843873532e-12
1.879296718243495e-11
2.2951890388256402e-11
2.4207746918136763e-11
2.451960856575397e-11
2.423564127163047e-11
2.302963375555578e-11
1.8843593352357857e-11
9.344969242874868e-12
0.7761759111401476
1.213881027184543
1.3866041290356188
1.4304260051308282
1.4393551240249491
1.4304260051308504
1.3866041290356117
1.2138810271845286
0.7761759111401474
1.0996727302935336
1.8550951453540199
2.1338367909272526
2.1991689368431535
2.212849774285476
2.199168936843159
2.1338367909272344
1.855095145354041
1.099672730293582
0.6398417963739558
1.4363968991898777
1.708079242550411
1.7609334108737704
1.7708733119288869
1.760933410873744
1.708079242550402
1.4363968991899239
0.6398417963740284
0.0529390442803328
0.591945089217853
0.8088480040193806
0.8279237126810961
0.8288941598373776
0.8279237126810355
0.8088480040193535
0.5919450892178657
0.05293904428035345
0.220451801185233
-0.003981227992097436
-0.10727222347047283
-0.14560949134387702
-0.14993266822707096
-0.14560949134392098
-0.10727222347052212
-0.003981227992017278
0.22045180118539376
0.18037306520742136
-0.21240204859740341
-0.3393050703007756
-0.3753892661509137
-0.37891006872156674
-0.37538926615090595
-0.3393050703007272
-0.21240204859732614
0.18037306520754015
0.021224231499038404
-0.3962070663651742
-0.5372233923863974
-0.5747827348965966
-0.5791308400098893
-0.5747827348965874
-0.5372233923864791
-0.39620706636521896
0.021224231499086144
-0.06501370000165063
-0.3235131030048068
-0.419512734119213
-0.44584309485254564
-0.4493191188579061
-0.4458430948526288
-0.4195127341192716
-0.3235131030048345
-0.06501370000167284
-4.460709579490185e-12
9.016121182980896e-13
3.326977582318591e-12
4.26675361708817e-12
4.454492330552284e-12
4.2132686228768534e-12
3.342770504843884e-12
9.188205751797796e-13
-4.442279877281408e-12
0.06501369998700507
0.32351310299810826
0.41951273411577295
0.4458430948502602
0.44931911885577175
0.445843094850216
0.41951273411569157
0.3235131029980647
0.0650136999870366
-0.02122423152334041
0.39620706634142566
0.5372233923625591
0.574782734872597
0.5791308399857346
0.5747827348725038
0.5372233923624904
0.3962070663415169
-0.021224231523237824
-0.18037306523035945
0.21240204856815947
0.3393050702691436
0.3753892661185594
0.37891006868907096
0.37538926611858714
0.3393050702692144
0.21240204856832068
-0.18037306523019647
-0.22045180119810182
0.003981227971923573
0.10727222344765375
0.14560949132069356
0.14993266820397744
0.1456094913208028
0.10727222344777743
0.003981227971936674
-0.22045180119807628
0.1692645650634037
0.08176290830444222
0.0367824119190443
0.016761188786178494
0.010395228843682602
0.016761188786115655
0.03678241191899656
0.0817629083046143
0.16926456506367282
0.26225177216633244
0.07847160440061596
0.029680344305979434
0.01990130486956221
0.018783369121918136
0.019901304869524905
0.029680344305988537
0.07847160440058976
0.26225177216634066
0.2384980898038399
0.023653373445375325
-0.034212401671951054
-0.04275448283539496
-0.04254801203478087
-0.04275448283544969
-0.03421240167202921
0.023653373445285175
0.23849808980378484
0.12980384034643375
-0.009873075119021024
-0.05238708395456154
-0.05937691086227587
-0.059385519381776
-0.05937691086248137
-0.05238708395474262
-0.00987307511908525
0.129803840346461
-6.834588450743695e-12
-3.941735826629156e-12
-2.6599278335481813e-12
-2.1578849818126855e-12
-1.993960552226781e-12
-2.1401769245699143e-12
-2.655986541810762e-12
-3.96133126301379e-12
-6.7662542235780165e-12
-0.12980384036050155
0.009873075109034346
0.052387083946223933
0.059376910854535114
0.05938551937412101
0.05937691085457414
0.052387083946241975
0.009873075109026241
-0.12980384036042072
-0.23849808981686937
-0.023653373458760396
0.03421240165841721
0.042754482821753204
0.04254801202101699
0.042754482821687034
0.034212401658435865
-0.023653373458599747
-0.23849808981666532
-0.26225177217532014
-0.07847160441343126
-0.02968034432008393
-0.019901304884061055
-0.018783369136497585
-0.019901304884063054
-0.029680344320031526
-0.07847160441322232
-0.26225177217503526
-0.1692645650687512
-0.08176290831363442
-0.03678241192986853
-0.016761188797471904
-0.01039522885490829
-0.016761188797392634
-0.03678241192982856
-0.0817629083135969
-0.16926456506865217
0.092939934862871
0.06475867000033664
0.04825687185573635
0.040759313288185606
0.038282950740861965
0.04075931328813365
0.04825687185558758
0.06475867000037283
0.0929399348630775
0.1774390799924377
0.096607311890748
0.08378582290527015
0.08637644532135802
0.08850968258381475
0.08637644532129385
0.08378582290516556
0.09660731189060678
0.17743907999240016
0.19639910106275738
0.09066744437790453
0.07410930960197648
0.07886679108008954
0.0822810865066097
0.0788667910799945
0.07410930960186934
0.09066744437774754
0.19639910106268832
0.12454457572437175
0.05263172928662069
0.03830644044493345
0.040739302097667573
0.042924734978691315
0.040739302097528074
0.03830644044477008
0.05263172928643961
0.12454457572434896
-5.1250947930014945e-12
-3.4631186807132508e-12
-2.7517710332602974e-12
-2.444461300044054e-12
-2.3050727993023656e-12
-2.4140689447449404e-12
-2.729289017011638e-12
-3.4781899582725373e-12
-5.055872387416116e-12
-0.12454457573343236
-0.052631729293321106
-0.03830644045066517
-0.04073930210305313
-0.042924734983941365
-0.04073930210287213
-0.03830644045048742
-0.05263172929307805
-0.12454457573317737
-0.19639910106884695
-0.09066744438409724
-0.07410930960807416
-0.07886679108626116
-0.08228108651285271
-0.07886679108618744
-0.07410930960800488
-0.09066744438388052
-0.1963991010685805
-0.1774390799958685
-0.09660731189600669
-0.08378582291109127
-0.08637644532753819
-0.08850968259021608
-0.08637644532773336
-0.08378582291129044
-0.09660731189587302
-0.1774390799955996
-0.09293993486634244
-0.06475867000568591
-0.04825687186205285
-0.04075931329508942
-0.038282950748000255
-0.04075931329526172
-0.048256871862151884
-0.0647586700055387
-0.0929399348661899
0.039178684634533445
0.03789371606666636
0.03326979278444053
0.032237312268925455
0.031850979594066686
0.03223731226863169
0.03326979278416875
0.037893716066599525
0.03917868463456631
0.09058403292218142
0.061473201905462904
0.0624872388286537
0.06890351407637074
0.07177575009008308
0.06890351407605122
0.06248723882832974
0.06147320190518846
0.09058403292209549
0.11279760778856918
0.06486928708496686
0.06533378803227408
0.07388667939590876
0.07773064299250498
0.07388667939566307
0.06533378803193335
0.06486928708466344
0.11279760778855852
0.07693340988552608
0.04211488881211631
0.040196797873932794
0.04560590321784999
0.04816040037790337
0.04560590321770175
0.04019679787372024
0.042114888811886575
0.07693340988545205
-2.164046719599355e-12
-1.0796363802967335e-12
-5.919154055789022e-13
-3.577971252610723e-13
-2.375877272697835e-13
-3.5110803153770576e-13
-5.792588630981754e-13
-1.0740297540223764e-12
-2.0979606940585427e-12
-0.07693340988876626
-0.04211488881380113
-0.04019679787491262
-0.04560590321862934
-0.04816040037855218
-0.04560590321840158
-0.040196797874672535
-0.04211488881340869
-0.07693340988840655
-0.11279760778944081
-0.06486928708570971
-0.06533378803274947
-0.07388667939639093
-0.07773064299314425
-0.07388667939639437
-0.06533378803261836
-0.06486928708537643
-0.1127976077892201
-0.09058403292169448
-0.06147320190568162
-0.062487238829028735
-0.06890351407684192
-0.0717757500908629
-0.06890351407705197
-0.06248723882921681
-0.06147320190558503
-0.09058403292148332
-0.03917868463508478
-0.03789371606800418
-0.03326979278639253
-0.03223731227128912
-0.03185097959671768
-0.03223731227134863
-0.0332697927864154
-0.03789371606786851
-0.03917868463487628
0.00884709771863501
0.019678494054922835
0.019442697101827777
0.02062911321409966
0.021106609898000617
0.02062911321382721
0.019442697101648587
0.019678494054825135
0.008847097718690966
0.03299948618513726
0.030118449819536153
0.035468853393490374
0.04150514254117521
0.04399363052890548
0.04150514254079196
0.03546885339319994
0.030118449819321436
0.03299948618510218
0.04877708893797883
0.03153968392163187
0.03801114954788287
0.04593888156799042
0.04910394379572636
0.045938881567668344
0.038011149547553025
0.03153968392135864
0.048777088937935975
0.03594894200756388
0.02124153696076478
0.024114956261065745
0.02943584721041778
0.03159053012643939
0.029435847210344812
0.024114956260989473
0.02124153696084763
0.035948942007699575
1.7680301667155618e-14
6.803724250659116e-13
1.0237088954312412e-12
1.036365437911968e-12
1.2240486402248507e-12
1.3535284004717596e-12
1.1818046541378635e-12
9.565404024414192e-13
3.558542349679783e-13
-0.03594894200690904
-0.021241536958955975
-0.02411495625874452
-0.029435847208136745
-0.031590530123999094
-0.02943584720779935
-0.0241149562585036
-0.021241536958720025
-0.03594894200660198
-0.04877708893581201
-0.03153968391921136
-0.038011149545388756
-0.04593888156538528
-0.04910394379310856
-0.045938881565380396
-0.03801114954527085
-0.031539683919015404
-0.048777088935623714
-0.032999486182182514
-0.030118449816911586
-0.03546885339092243
-0.04150514253823756
-0.043993630526047545
-0.04150514253847093
-0.03546885339102168
-0.030118449816775472
-0.03299948618194648
-0.00884709771604042
-0.019678494052571827
-0.019442697099775197
-0.020629113212143002
-0.021106609896274664
-0.0206291132122447
-0.01944269709974833
-0.01967849405253408
-0.008847097715992902
-0.0062171765583856065
0.009726360280109425
0.01067802130374762
0.012163766024173128
0.012774533208074201
0.012163766023957301
0.010678021303738738
0.009726360280063684
-0.006217176558363402
0.0005096228446115347
0.010879576878010111
0.01687224235056317
0.02127490661754372
0.023002245499103235
0.02127490661717446
0.016872242350502664
0.010879576878261354
0.0005096228447775131
0.009389347181806063
0.00857021536785696
0.01658433287794603
0.02264935466930218
0.02485544613567947
0.02264935466908624
0.01658433287798977
0.008570215368121081
0.00938934718195683
0.00931233580702831
0.0055974819756477445
0.01004115656297222
0.014335828319781752
0.015894498448820737
0.014335828320262478
0.010041156563428438
0.005597481975911256
0.009312335807288352
8.101297410689767e-13
1.1685374889935929e-12
1.3227197115384115e-12
1.1471101846183274e-12
1.278699368612024e-12
1.597860732616141e-12
1.6140699887756682e-12
1.5714929357812935e-12
1.271815985859348e-12
-0.009312335805318567
-0.005597481973227653
-0.010041156560207654
-0.014335828317100313
-0.01589449844597951
-0.014335828316991622
-0.0100411565599694
-0.005597481972793111
-0.009312335804919192
-0.00938934717935902
-0.00857021536508884
-0.016584332875000163
-0.02264935466631901
-0.024855446132629577
-0.022649354666168464
-0.0165843328751899
-0.008570215365066747
-0.00938934717885842
-0.000509622841581514
-0.010879576874972763
-0.016872242347367394
-0.02127490661406939
-0.02300224549581953
-0.02127490661449638
-0.016872242347924837
-0.010879576874960883
-0.0005096228410891301
0.006217176561796656
-0.009726360276840929
-0.010678021300531082
-0.012163766020936162
-0.01277453320529398
-0.012163766021365152
-0.010678021300690066
-0.009726360276842927
0.006217176561678528
-0.013870256290563932
0.003963632795443317
0.005021370946369341
0.0061391705805220464
0.006613606521360893
0.006139170580141462
0.005021370946517889
0.003963632795594529
-0.013870256290711147
-0.018408452080127202
-0.001251740703730686
0.004337259796097559
0.0071142125182691585
0.008127949033221338
0.007114212517923879
0.004337259796187487
-0.0012517407032334171
-0.018408452080018733
-0.015269661902729492
-0.006932382050477415
0.0011746789449711414
0.0054598741309731524
0.006835220178001422
0.005459874130964937
0.0011746789451303474
-0.0069323820500729605
-0.01526966190263812
-0.008047549713964264
-0.005449114686136292
-0.0005721167852013043
0.0026722812875669966
0.0037077541208823395
0.0026722812882586655
-0.0005721167846210184
-0.005449114686024048
-0.008047549713851326
1.3181677971374484e-12
1.5785150964120476e-12
1.6155965454345278e-12
1.524030901478568e-12
1.5313028622898628e-12
1.7961465648141939e-12
2.0202450823347817e-12
1.9458601396848962e-12
1.6052437157298982e-12
0.008047549716387992
0.005449114688882983
0.0005721167881777012
-0.0026722812845438315
-0.0037077541178621165
-0.002672281284854805
0.0005721167884372713
0.0054491146896041565
0.008047549716783953
0.015269661905345844
0.006932382053305375
-0.0011746789417856895
-0.005459874127908937
-0.00683522017499838
-0.005459874127830555
-0.0011746789421654968
0.006932382053205233
0.01526966190572876
0.0184084520827269
0.0012517407065917308
-0.004337259792883352
-0.0071142125149741275
-0.008127949030351411
-0.0071142125154619595
-0.004337259793744774
0.0012517407062166974
0.01840845208306585
0.013870256293537553
-0.003963632792717053
-0.005021370943669723
-0.006139170577437403
-0.006613606518583337
-0.0061391705777196215
-0.005021370943654402
-0.003963632792477911
0.013870256293718741
-0.02046503326482596
-0.0018483252121999083
-0.0007502596114596916
-8.423455949069236e-05
0.00018659029928769222
-8.423455953510128e-05
-0.0007502596110615656
-0.0018483252119858573
-0.020465033264996046
-0.0353522647191582
-0.014042343112820599
-0.008680352532781987
-0.007081965042014637
-0.006616986955078286
-0.007081965041869087
-0.008680352532368651
-0.014042343112469657
-0.03535226471935793
-0.03773949814757516
-0.02325863641912529
-0.01509781983574382
-0.012079339268819045
-0.011311222710409519
-0.012079339268589284
-0.01509781983541375
-0.023258636418870493
-0.03773949814772459
-0.024034628211793724
-0.01705915806386052
-0.011893337679272559
-0.009412541929160856
-0.008760167299266014
-0.009412541928605078
-0.011893337678836435
-0.01705915806395933
-0.024034628212010245
1.8732793094500266e-12
1.9537149675841192e-12
1.820738004809641e-12
1.9550472352136694e-12
2.315730940338767e-12
2.748884453396272e-12
2.6221524951353103e-12
2.3481494526578217e-12
2.028016643507158e-12
0.024034628215142212
0.01705915806739769
0.011893337683128724
0.009412541933128626
0.008760167303535071
0.009412541933194601
0.011893337683422905
0.017059158068396807
0.024034628215962778
0.03773949815084948
0.023258636422863466
0.01509781983979308
0.012079339272431378
0.01131122271397178
0.012079339272341505
0.015097819839249238
0.023258636422665124
0.03773949815099237
0.0353522647221759
0.014042343116118405
0.008680352536108327
0.007081965045045768
0.006616986957639126
0.007081965044777427
0.008680352535493485
0.014042343115334033
0.03535226472160158
0.020465033267354382
0.0018483252140113482
0.0007502596133297512
8.42345621829832e-05
-0.000186590296862299
8.423456180683964e-05
0.000750259613831572
0.0018483252146532791
0.020465033267331068
-0.03185026520595868
-0.01205232797621647
-0.01046459759871221
-0.010154949838348637
-0.010101033095569312
-0.010154949838431238
-0.010464597598358716
-0.012052327976380894
-0.031850265206614825
-0.06193719164401745
-0.036247687668805595
-0.03024460051439526
-0.029318393696009637
-0.029258439677377512
-0.02931839369579803
-0.030244600513698594
-0.036247687668860995
-0.06193719164501543
-0.071239359308306
-0.050396698240962434
-0.04138262725062014
-0.039048841065945306
-0.03869573580362906
-0.039048841065608686
-0.04138262725012404
-0.05039669824102028
-0.07123935930904568
-0.04727537790767475
-0.03575286241085013
-0.029842256918589105
-0.02776615861796447
-0.02737067926173764
-0.027766158617741288
-0.029842256918457516
-0.03575286241136169
-0.04727537790842118
2.415678768130647e-12
2.369521245881856e-12
2.3392676684608205e-12
2.693373302165014e-12
2.9177216198661426e-12
3.1791236310141358e-12
3.0106472870272682e-12
2.740668803014046e-12
2.313343960835823e-12
0.04727537791259226
0.03575286241601153
0.02984225692425571
0.027766158623687143
0.027370679267471
0.027766158624004722
0.029842256924519944
0.03575286241701925
0.04727537791376066
0.07123935931354886
0.050396698246950755
0.04138262725671327
0.03904884107145762
0.03869573580919683
0.0390488410716765
0.04138262725635106
0.050396698246706395
0.07123935931415992
0.0619371916490874
0.03624768767456377
0.030244600519697573
0.02931839370065381
0.02925843968162467
0.02931839370076117
0.03024460051908817
0.0362476876735639
0.061937191648718914
0.03185026520849188
0.012052327978160249
0.010464597600990055
0.0101549498411444
0.01010103309742938
0.010154949840326055
0.01046459760087326
0.012052327978458677
0.0318502652084911
-0.05473851751670522
-0.03180359012769651
-0.028983325561725337
-0.02899187725964092
-0.02920902383838231
-0.02899187726036445
-0.028983325562196183
-0.03180359012845391
-0.05473851751746084
-0.1112796425148872
-0.07795549830351667
-0.06984906003642533
-0.06919463135987758
-0.06949072496395214
-0.0691946313604036
-0.06984906003648739
-0.07795549830445425
-0.11127964251651368
-0.1300979393022748
-0.09927491072201666
-0.08781744751632603
-0.085623768656098
-0.08557501244828142
-0.08562376865585664
-0.08781744751611764
-0.09927491072240191
-0.13009793930341518
-0.0868210480947356
-0.06838039439977
-0.06069360438613708
-0.058647268871931627
-0.05842311406473259
-0.0586472688723243
-0.060693604386466704
-0.06838039440031841
-0.08682104809574889
3.2439745334400527e-12
3.1278174494886457e-12
3.4089814304749666e-12
3.963621098002079e-12
3.798780734420859e-12
3.802499981553353e-12
4.0800557377096425e-12
3.775063595057304e-12
3.0913327453419015e-12
0.08682104810219293
0.06838039440748216
0.060693604394429265
0.05864726888025998
0.05842311407258324
0.05864726888068826
0.060693604395089404
0.0683803944081691
0.08682104810282776
0.1300979393113475
0.0992749107315305
0.08781744752544474
0.08562376866462407
0.08557501245731075
0.08562376866580113
0.08781744752588289
0.09927491073086447
0.13009793931136054
0.1112796425239202
0.07795549831326698
0.06984906004504987
0.06919463136783854
0.06949072497187259
0.06919463136838055
0.06984906004461167
0.0779554983123536
0.11127964252433509
0.05473851752197112
0.031803590132830406
0.02898332556671035
0.028991877264500365
0.029209023842363124
0.028991877263894295
0.028983325565969387
0.031803590132779
0.05473851752266756
-0.09717512991755295
-0.06696630170920825
-0.061986529689801007
-0.06247128155523063
-0.06309559059001535
-0.062471281556113145
-0.0619865296909361
-0.06696630171037732
-0.09717512991799115
-0.19702886098451194
-0.14859800683761182
-0.1361936863246982
-0.13559076279770044
-0.1363219584398948
-0.13559076279870963
-0.13619368632560397
-0.1485980068385352
-0.19702886098547023
-0.2266832945162976
-0.17769588524956026
-0.16114296127994088
-0.15857672295935032
-0.15881947998101337
-0.15857672295954556
-0.16114296128002942
-0.17769588524962093
-0.2266832945170978
-0.14924869088838325
-0.11864159831846251
-0.10737001290054098
-0.10493626696028431
-0.10484220364940337
-0.10493626696117857
-0.10737001290126286
-0.11864159831887257
-0.14924869088947817
2.995020897955669e-12
2.932196152549693e-12
2.9484192864970282e-12
3.3449076841662873e-12
3.4890978994894795e-12
3.879660481764802e-12
4.0140946122591e-12
3.4003078130950826e-12
2.778513530365956e-12
0.149248690895752
0.1186415983260587
0.10737001290840846
0.10493626696815565
0.10484220365704965
0.10493626696944533
0.10737001291043288
0.11864159832730763
0.149248690896236
0.22668329452666225
0.17769588525977015
0.16114296129012906
0.15857672296890352
0.15881947999093404
0.15857672297054304
0.16114296129117828
0.1776958852594629
0.22668329452603891
0.19702886099598949
0.148598006848911
0.13619368633511442
0.13559076280777693
0.13632195845017325
0.13559076280850513
0.13619368633471085
0.1485980068479547
0.1970288609961509
0.0971751299265936
0.06696630171802254
0.06198652969766694
0.06247128156281134
0.0630955905973869
0.06247128156239645
0.06198652969703722
0.06696630171799778
0.09717512992715616
-0.1651300478105715
-0.12015469590740502
-0.111974605557699
-0.11324255610033584
-0.11442875086086013
-0.11324255610124756
-0.11197460555900107
-0.12015469590849404
-0.16513004781074114
-0.3225207540406439
-0.24509681093897612
-0.22519960482839296
-0.22459140054953486
-0.225964566510776
-0.22459140055037746
-0.22519960482915768
-0.24509681093920677
-0.32252075404089525
-0.35511981800914205
-0.27323346346938526
-0.24740496580836874
-0.24394851403810805
-0.24458386005473695
-0.24394851403894297
-0.24740496580888163
-0.27323346346918387
-0.35511981800955805
-0.2265449943360262
-0.17458771089939906
-0.1568258513490506
-0.1535044753086522
-0.15355406893343895
-0.1535044753096232
-0.1568258513496914
-0.17458771089916914
-0.22654499433629577
1.3068851556496952e-12
1.6526224833057768e-12
1.2538303728604205e-12
1.1918521725107212e-12
1.5794310304073633e-12
2.178354718829212e-12
2.2756102557863755e-12
1.6052020823664748e-12
9.964529201766936e-13
0.22654499434021558
0.17458771090392977
0.15682585135334753
0.15350447531290365
0.15355406893754914
0.15350447531464054
0.15682585135635058
0.17458771090532232
0.22654499434023184
0.3551198180166567
0.2732334634760958
0.24740496581601948
0.24394851404598825
0.24458386006246804
0.24394851404726273
0.2474049658176974
0.27323346347714283
0.3551198180169038
0.3225207540509492
0.24509681094804792
0.2251996048375926
0.22459140055925442
0.22596456652096136
0.22459140055958993
0.22519960483677753
0.24509681094727537
0.32252075405107516
0.16513004782015506
0.12015469591640837
0.11197460556579741
0.11324255610832468
0.11442875086888882
0.11324255610803657
0.11197460556522787
0.12015469591590311
0.1651300478195551
-0.24580890123987825
-0.1735706824611909
-0.1608960741964166
-0.16294287718219075
-0.1646819180438473
-0.16294287718355827
-0.16089607419808755
-0.17357068246192403
-0.24580890123977167
-0.44007436220267315
-0.31054368141752653
-0.27872461655464414
-0.278256856987951
-0.28055147463723534
-0.27825685698857916
-0.27872461655536684
-0.310543681417804
-0.4400743622031209
-0.4419182071784251
-0.30382784609580815
-0.2627859537962064
-0.2581350392161002
-0.2594519124601926
-0.2581350392168164
-0.2627859537966514
-0.3038278460956235
-0.4419182071787655
-0.2630484030438402
-0.17569658748024455
-0.14733220979798184
-0.14271434934034286
-0.14305278900472784
-0.14271434934040766
-0.14733220979755068
-0.1756965874793314
-0.263048403043348
-4.291705879566621e-13
8.536643614220907e-13
8.048353650202955e-13
5.915615219898029e-13
9.981321325014392e-13
1.5642348527578065e-12
1.5479978410226636e-12
5.44439493488369e-13
-6.340622471512347e-13
0.26304840304402
0.17569658748132966
0.14733220979913525
0.14271434934202548
0.14305278900650048
0.14271434934311797
0.14733220980159306
0.17569658748232203
0.2630484030436807
0.44191820718054814
0.303827846096619
0.26278595379808517
0.2581350392189086
0.25945191246294624
0.2581350392199585
0.2627859537999915
0.30382784609824864
0.44191820718141894
0.44007436220857515
0.31054368142116023
0.27872461655868974
0.27825685699255376
0.2805514746419901
0.278256856992088
0.27872461655715913
0.3105436814204681
0.44007436220901536
0.24580890124684862
0.17357068246651225
0.1608960742015581
0.16294287718746214
0.16468191804873428
0.1629428771870905
0.160896074200646
0.17357068246568347
0.24580890124575872
-0.23978532506724215
-0.12182694616448864
-0.10218022767046664
-0.10441415116163938
-0.1066112745347762
-0.1044141511634793
-0.10218022767273283
-0.12182694616574441
-0.23978532506778716
-0.32928493132744024
-0.11415987349709483
-0.06609014465959698
-0.06675186029886679
-0.07066974651938346
-0.06675186029949787
-0.06609014466065508
-0.11415987349797654
-0.3292849313284157
-0.22531244413885215
0.0006370316876956883
0.06267442262300585
0.067272848264846
0.06430378555613744
0.06727284826462357
0.06267442262314532
0.0006370316882983729
-0.22531244413897705
-0.09352575914711031
0.047346902706257424
0.09010330430764749
0.09535065790148395
0.09410555712774143
0.09535065790226319
0.09010330430842181
0.04734690270700881
-0.09352575914646769
-7.818745650922665e-14
2.5136698278416247e-12
3.6841640849161195e-12
3.88081233815285e-12
3.975923756893707e-12
4.352490590164848e-12
3.966035833080639e-12
2.068616111738919e-12
-5.241501677133442e-13
0.09352575914541637
-0.0473469027058151
-0.09010330430569397
-0.09535065789822923
-0.0941055571243743
-0.09535065789837063
-0.09010330430407344
-0.04734690270414965
0.09352575914580212
0.2253124441335011
-0.0006370316945576715
-0.06267442262965303
-0.06727284827082808
-0.06430378556186425
-0.06727284826997204
-0.06267442262807843
-0.0006370316927499231
0.22531244413494422
0.32928493132217035
0.11415987348905604
0.06609014465096591
0.06675186029005087
0.0706697465101361
0.06675186028917621
0.06609014464961546
0.1141598734886062
0.32928493132322767
0.23978532506648442
0.12182694616106682
0.10218022766694013
0.10441415115839098
0.10661127453066999
0.10441415115784752
0.10218022766634832
0.12182694616104278
0.23978532506679473
0.2785951633005445
0.46613610741049
0.49468347372448196
0.48995508458809
0.4861278972019808
0.4899550845868489
0.49468347372327065
0.46613610740920397
0.27859516329947315
0.7648089451854498
1.1001585412577577
1.1621536930507876
1.1531958230863961
1.144807382723009
1.1531958230863568
1.1621536930500471
1.1001585412565318
0.7648089451841554
0.9406939934075419
1.2823804531496585
1.3620838266777962
1.3587414359200523
1.350956110554996
1.3587414359203012
1.362083826677943
1.2823804531500824
0.9406939934077424
0.6175754981758255
0.8260704756068592
0.8811825965964808
0.8823649705064214
0.8782602534533204
0.8823649705069418
0.881182596596299
0.8260704756076421
0.6175754981773116
9.122494426527794e-12
1.283531614326705e-11
1.5139535458619235e-11
1.573206148686168e-11
1.527208220997167e-11
1.530470195021394e-11
1.5348916582169636e-11
1.3072036508798845e-11
9.017273039368945e-12
-0.6175754981650197
-0.826070475591046
-0.8811825965778007
-0.8823649704870373
-0.8782602534345937
-0.8823649704880536
-0.8811825965770488
-0.8260704755899788
-0.6175754981645808
-0.9406939934159231
-1.282380453157416
-1.3620838266863746
-1.358741435928954
-1.3509561105632595
-1.3587414359286223
-1.3620838266860091
-1.28238045315631
-0.940693993413525
-0.7648089452100004
-1.1001585412847366
-1.1621536930791705
-1.1531958231149455
-1.1448073827512493
-1.1531958231151915
-1.1621536930788454
-1.1001585412832224
-0.7648089452069173
-0.27859516332116063
-0.4661361074342047
-0.49468347374826654
-0.4899550846112321
-0.48612789722576005
-0.48995508461117077
-0.49468347374749283
-0.4661361074328418
-0.27859516331950457
3.336492438349225
3.593093807690211
3.6033426531563992
3.5773466700399403
3.5658546212813587
3.5773466700394825
3.6033426531560995
3.593093807689345
3.33649243834843
4.720379382159912
5.160242381612463
5.191903404521832
5.147765310404441
5.126439908885432
5.147765310404827
5.191903404521389
5.160242381611278
4.720379382158553
4.142278421482925
4.580664134449036
4.639739055399083
4.604488088718187
4.5842635985555305
4.604488088718737
4.639739055398837
4.5806641344488845
4.142278421482899
2.3512620721856603
2.6141630118732113
2.661686996743781
2.6454677245345324
2.634175001059731
2.6454677245346847
2.6616869967439576
2.614163011874471
2.3512620721874375
3.772848700123177e-11
4.29520308209419e-11
4.532910158339121e-11
4.6166265255109806e-11
4.558453614578184e-11
4.5772718948455804e-11
4.673708642322083e-11
4.48412418307953e-11
3.960232142219411e-11
-2.3512620721230726
-2.614163011801709
-2.6616869966696504
-2.64546772446035
-2.6341750009862
-2.6454677244607714
-2.661686996669295
-2.61416301180192
-2.351262072122437
-4.142278421459199
-4.580664134421687
-4.63973905537274
-4.604488088693375
-4.58426359853034
-4.604488088693593
-4.6397390553734095
-4.58066413442168
-4.142278421457471
-4.720379382184137
-5.1602423816385485
-5.191903404548872
-5.1477653104316605
-5.126439908912236
-5.147765310431945
-5.1919034045477215
-5.160242381634716
-4.720379382179496
-3.3364924383876993
-3.593093807731375
-3.6033426531967416
-3.5773466700791947
-3.5658546213209443
-3.577346670079102
-3.60334265319511
-3.59309380772834
-3.336492438384688

SCALARS STRESS_ZZ float 1
LOOKUP_TABLE default
-33.875194791534696
0.24399615581793255
-0.24399615581754963
33.87519479154969
-33.87519479153471
0.24399615581944023
-0.24399615581685552
33.87519479154979
-16.72596416579157
-0.22149857346886392
-0.46258112415897656
-0.027484566581890135
0.0442488418474305
0.10150129424557619
0.12636051736836862
0.13559281666056044
0.13460421466086991
0.12832516441501163
0.12008372932704603
0.1124153880197376
0.10743296127250446
0.10673695249569004
0.11020476063408058
0.10936742651610043
0.08144698761511071
-0.09656606639620868
-0.003046204727532309
0.5956614283285546
0.7313299656562379
0.3973650847384853
0.18304066724777573
1.3933298959045715e-12
-0.18304066724373774
-0.39736508473307264
-0.7313299656553287
-0.595661428330222
0.0030462047276158533
0.0965660663986232
-0.08144698761109792
-0.1093674265131348
-0.11020476063054208
-0.10673695249244908
-0.10743296127104429
-0.11241538801671425
-0.12008372932104194
-0.12832516440814068
-0.13460421465388173
-0.13559281665453327
-0.12636051736392773
-0.10150129424132004
-0.044248841842662756
0.02748456658385834
0.4625811241563298
0.22149857341812051
16.725964165750632
28.613167422386933
19.743565099769377
12.803333855859389
6.300569590267443
1.5668599750995327e-10
-6.3005695899675445
-12.80333385560984
-19.743565099605803
-28.6131674223222
-16.725964165791595
-0.2214985734689101
-0.46258112415900143
-0.0274845665817125
0.04424884184761879
0.10150129424569698
0.12636051736848586
0.135592816660715
0.1346042146609321
0.12832516441474873
0.12008372932652733
0.1124153880189489
0.10743296127216162
0.10673695249561455
0.11020476063384432
0.10936742651586595
0.08144698761450986
-0.09656606639673626
-0.0030462047268872694
0.5956614283292878
0.7313299656563532
0.3973650847383874
0.18304066724832385
2.946642929657628e-12
-0.18304066724301654
-0.39736508473383136
-0.7313299656550803
-0.595661428328918
0.003046204727983337
0.09656606639871024
-0.08144698761210245
-0.10936742651471398
-0.11020476063120199
-0.1067369524926578
-0.10743296127082935
-0.11241538801661832
-0.12008372932110234
-0.12832516440797015
-0.13460421465393857
-0.1355928166546203
-0.12636051736389575
-0.10150129424124188
-0.0442488418426521
0.0274845665838086
0.46258112415630137
0.22149857341807433
16.725964165750675
28.613167422387004
19.743565099769427
12.803333855859444
6.300569590267495
1.56725299405025e-10
-6.300569589967523
-12.80333385560984
-19.743565099605796
-28.613167422322192
-35.4535100127618
-38.82331909738718
-41.502604266062406
-42.820071811497634
-43.2497480516559
-42.820071811497634
-41.50260426606242
-38.82331909738716
-35.45351001276179
0.41974132874259285
0.9052046472289546
1.4978947805270004
1.9426772121164981
2.1044876559695367
1.9426772121161064
1.4978947805265714
0.905204647228727
0.4197413287432712
-0.41974132874616205
-0.9052046472388879
-1.497894780540229
-1.9426772121315379
-2.104487655986019
-1.9426772121319076
-1.497894780539455
-0.9052046472370944
-0.4197413287447651
35.453510012771304
38.82331909739655
41.50260426608288
42.820071811526155
43.24974805168675
42.82007181152617
41.50260426608288
38.82331909739655
35.453510012771346
-14.817046427668668
-10.812618826793855
-6.910580136702384
-3.3925688260236955
8.216660685178567e-11
3.392568826178743
6.91058013682571
10.812618826857904
14.817046427661802
-0.940500648416517
-1.4005803782557837
-0.8941840950954663
-0.42774032532129747
7.037703753098867e-12
0.42774032533126216
0.8941840950941193
1.4005803782302397
0.9405006483698752
-0.5132912956430395
-0.5771646151023262
-0.47880189464596556
-0.2449659072978192
3.5058622671613193e-12
0.24496590730191747
0.47880189464291467
0.5771646150903562
0.5132912956333895
-0.11864603276696606
-0.1758731396647768
-0.13008478074534136
-0.08009718968940227
-1.4876988529977098e-13
0.08009718968706458
0.13008478074030494
0.1758731396589024
0.11864603276492325
-0.03463041909150366
-0.0861105223727705
-0.047503417897259315
-0.02524646084913562
-1.18760556944153e-12
0.025246460845859908
0.04750341789401569
0.08611052237007044
0.03463041909234299
0.018345052265043904
-0.04259399802868025
-0.014233952135298988
-0.004901079653935714
-1.5207834991315394e-12
0.004901079650665219
0.014233952132841399
0.04259399802674224
-0.018345052264145956
0.04412340233071799
-0.022892061567989508
-0.0038318762925282357
0.0005245894099589199
-1.4920287227937479e-12
-0.0005245894129928264
0.003831876290319336
0.02289206156609147
-0.044123402329728556
0.056675059489498025
-0.012178670205376108
-0.0002891274951881684
0.0014615946342064756
-1.2486678357959136e-12
-0.0014615946368442545
0.00028912749323062314
0.012178670203949693
-0.056675059487342416
0.060853919205021256
-0.006404431723749937
0.0006294474150765339
0.0010536677793816507
-1.0667022820598504e-12
-0.001053667781633183
-0.0006294474165473574
0.006404431723042947
-0.06085391920194816
0.06048843099295009
-0.0033132248937364217
0.0004503399966955257
0.0002503871234095234
-1.1082246231808313e-12
-0.0002503871253868306
-0.0004503399975197553
0.003313224893465083
-0.06048843098983081
0.0580707452642768
-0.0018788070782300714
-0.0005946207752605126
-0.0009191135874139222
-1.049604847480623e-12
0.0009191135856981836
0.0005946207744251808
0.001878807077834388
-0.058070745261501244
0.0553114806553503
-0.0017613454310039245
-0.0028223818562826963
-0.0027584978673010907
-1.1151080059335072e-12
0.002758497865550713
0.002822381855120737
0.0017613454298794906
-0.05531148065443636
0.053336521764276945
-0.003195640252823928
-0.006791450611771888
-0.005605355826951153
-1.1967649093946875e-12
0.005605355825231029
0.006791450610998062
0.003195640251479226
-0.0533365217646411
0.05258646556815494
-0.006800740281506457
-0.012651252862738716
-0.00924169011714887
-1.138089622543248e-12
0.009241690115522727
0.012651252862541984
0.006800740281163176
-0.05258646556716906
0.05199101047287513
-0.012889834648910137
-0.01823035311001675
-0.011433581727391118
-1.165456620100258e-12
0.01143358172568365
0.018230353109929265
0.012889834649539633
-0.05199101047093091
0.046877771223077014
-0.017692299474564965
-0.014093684903961345
-0.0048806176134595924
-9.25814980234918e-13
0.004880617612002647
0.014093684903451309
0.017692299475257522
-0.04687777122092274
0.027688613422750086
-0.002980501839374483
0.026488234976231373
0.02343399578829597
-3.1297187064183163e-13
-0.023433995788702422
-0.02648823497687197
0.0029805018387281113
-0.027688613420842945
-0.006432312414573371
0.13158070706631145
0.15343785319483608
0.08613105064681068
9.238478038131603e-13
-0.08613105064500257
-0.1534378531944155
-0.1315807070684821
0.00643231241407366
0.2848561995424884
0.49080458523612935
0.32176060030545595
0.15518616311676728
1.5944225106867549e-12
-0.15518616311311767
-0.32176060030206033
-0.49080458523690373
-0.2848561995445615
-20.46116032518827
-26.321896377466278
-29.598473273451816
-31.274287362764106
-31.799064448972157
-31.274287362764106
-29.59847327345183
-26.321896377466288
-20.46116032518829
-3.8653363962703224
-9.932082292279823
-13.774793887562723
-15.85177971788046
-16.50896202612334
-15.85177971788048
-13.77479388756278
-9.932082292279883
-3.865336396270367
-1.5328515885056593
-4.385223568136913
-7.4261758857744145
-9.316114320420468
-9.947201952713584
-9.316114320420528
-7.426175885774578
-4.385223568137034
-1.5328515885056966
-0.5624097731427771
-2.0083194994349505
-3.7827129904425174
-5.122067095968756
-5.598012230218719
-5.122067095968848
-3.7827129904426418
-2.0083194994349363
-0.5624097731426367
-0.1992251711528965
-0.9288557602115439
-1.9078638802435108
-2.702639214863529
-3.004563005509903
-2.7026392148635825
-1.9078638802434291
-0.9288557602113166
-0.1992251711527082
-0.01742812237607083
-0.38282521601961506
-0.8955145072468795
-1.3300661986989812
-1.4983962759456748
-1.3300661986989954
-0.895514507246844
-0.38282521601945874
-0.01742812237594471
0.07169047660708117
-0.10394057419660996
-0.35955785985583155
-0.5816994804508706
-0.6691848254291219
-0.581699480450915
-0.3595578598557818
-0.1039405741965318
0.071690476607154
0.11243255937608065
0.034402462926777844
-0.08384350379114824
-0.18924703109364138
-0.23127443084304478
-0.1892470310936245
-0.08384350379094219
0.03440246292686311
0.11243255937606733
0.12662999445648815
0.09757723919983796
0.050703833906592166
0.007184104971745597
-0.01054075372207297
0.007184104971845073
0.05070383390666233
0.09757723919976957
0.12662999445642953
0.12756789259579016
0.1229585319181501
0.1128268928752938
0.10157975916668249
0.09661217564251068
0.10157975916676598
0.11282689287535597
0.12295853191806305
0.1275678925955912
0.12338821554415524
0.13218139082554448
0.14178679438109842
0.14768798037083197
0.1494724518691637
0.1476879803709954
0.14178679438159847
0.1321813908256404
0.1233882155437831
0.11917923770452266
0.13745723258043263
0.15902276597783693
0.17452564543137328
0.17997713667819415
0.17452564543121785
0.1590227659783885
0.13745723258032427
0.11917923770374905
0.11798456533387292
0.14449048783710428
0.1738231112129327
0.19446327994225587
0.20172514373734352
0.19446327994204715
0.1738231112130837
0.14449048783716734
0.11798456533367485
0.12060716438039032
0.15256282168381352
0.18466840704497
0.2061477326487009
0.21360691831000178
0.20614773264874797
0.184668407044855
0.15256282168390767
0.12060716438060526
0.1233403867941707
0.1513715982704067
0.17740322716602774
0.19497502391510046
0.20141077708445332
0.19497502391455157
0.17740322716529766
0.15137159826995727
0.12334038679402903
0.11028159146708116
0.1134855628885183
0.12279048798808967
0.13678756990526209
0.14376953319305308
0.13678756990430196
0.1227904879868924
0.11348556288799916
0.11028159146694838
0.044981777987347815
-0.003282769309932876
-0.00025016964714064116
0.03194359854592643
0.049305429406375056
0.031943598544845964
-0.0002501696481826965
-0.0032827693103205657
0.044981777986929705
-0.16080722452438834
-0.20739690266120947
-0.12401893815006582
-0.0068252016215466504
0.0446420503864704
-0.006825201622650434
-0.12401893815029252
-0.20739690266139155
-0.1608072245249943
0.05242425532441297
0.2887638097113675
0.6646740862312166
0.9788445529511774
1.0979738374857744
0.9788445529505186
0.6646740862312237
0.28876380971122617
0.052424255324452385
0.9098443817867625
1.5988915908177868
2.2700690940194272
2.7260580919752457
2.885733842302393
2.726058091975181
2.2700690940190382
1.5988915908174843
0.9098443817869988
1.1668721639039623
2.0347347417972133
2.768338583663811
3.2209370651170417
3.3722520843494026
3.220937065117102
2.768338583663758
2.0347347417971036
1.1668721639038226
0.7317957698353359
1.4215827549048887
2.0262270521815307
2.3994959687184307
2.5234768879515297
2.399495968718753
2.0262270521818198
1.4215827549048783
0.7317957698351706
0.3497801176834191
0.708550939596954
1.0400356144144625
1.2494481074271575
1.3194072971002446
1.2494481074277581
1.0400356144151983
0.708550939597016
0.3497801176836105
4.594880032016135e-12
1.1043624348339165e-11
1.679728578452e-11
2.0948937029530157e-11
2.2475299399360438e-11
2.156866352187592e-11
1.7912740735148702e-11
1.1671510979915922e-11
5.622530219184796e-12
-0.34978011767322376
-0.7085509395748655
-1.0400356143826925
-1.2494481073886923
-1.3194072970589423
-1.2494481073879722
-1.040035614382059
-0.7085509395754159
-0.34978011767340506
-0.7317957698260041
-1.4215827548883024
-2.0262270521595673
-2.399495968693465
-2.523476887925158
-2.399495968692927
-2.0262270521592765
-1.421582754888932
-0.7317957698270726
-1.1668721639032347
-2.034734741796665
-2.7683385836628007
-3.220937065115879
-3.3722520843480095
-3.220937065115372
-2.768338583661736
-2.0347347417949786
-1.1668721639023187
-0.9098443817915506
-1.598891590827747
-2.2700690940320216
-2.726058091989052
-2.8857338423167858
-2.7260580919889597
-2.270069094030774
-1.598891590825561
-0.9098443817897569
-0.05242425532708819
-0.28876380971951787
-0.6646740862434852
-0.9788445529656717
-1.0979738375018409
-0.9788445529659345
-0.6646740862430984
-0.28876380971860266
-0.05242425532641437
0.16080722452605456
0.2073969026603315
0.12401893814591891
0.006825201615165533
-0.04464205039428859
0.006825201615267673
0.1240189381460397
0.2073969026603939
0.16080722452610074
-0.044981777983116755
0.0032827693145300874
0.0002501696512930973
-0.03194359854313178
-0.049305429404379764
-0.0319435985423997
0.0002501696517529517
0.0032827693143759884
-0.04498177798377512
-0.11028159146379624
-0.11348556288432388
-0.1227904879835573
-0.13678756990134522
-0.1437695331892268
-0.1367875699000889
-0.12279048798281833
-0.11348556288490741
-0.11028159146519112
-0.12334038679086223
-0.15137159826708402
-0.17740322716302082
-0.1949750239129293
-0.20141077708223687
-0.19497502391181643
-0.1774032271624395
-0.1513715982676218
-0.12334038679176418
-0.12060716437808239
-0.15256282168251278
-0.18466840704412935
-0.20614773264865383
-0.2136069183099858
-0.20614773264795216
-0.18466840704365506
-0.15256282168256297
-0.12060716437838259
-0.11798456533347768
-0.14449048783819496
-0.17382311121442573
-0.19446327994390877
-0.2017251437394494
-0.19446327994371515
-0.17382311121409355
-0.14449048783795249
-0.11798456533326185
-0.11917923770299499
-0.13745723258127107
-0.15902276597983267
-0.17452564543347826
-0.1799771366810674
-0.17452564543383442
-0.15902276597946763
-0.1374572325807124
-0.11917923770259975
-0.12338821553983337
-0.132181390824325
-0.141786794382198
-0.14768798037275221
-0.1494724518714463
-0.14768798037282238
-0.14178679438160469
-0.13218139082361446
-0.12338821553950385
-0.12756789259039536
-0.12295853191604156
-0.1128268928764884
-0.10157975917022544
-0.09661217564686098
-0.10157975917015527
-0.1128268928763605
-0.12295853191574224
-0.1275678925901147
-0.12662999445116263
-0.09757723919871797
-0.050703833910459295
-0.007184104979768513
0.01054075371227281
-0.007184104979904404
-0.05070383391052413
-0.0975772391987828
-0.1266299944512106
-0.11243255937221175
-0.03440246292918481
0.0838435037803631
0.1892470310760741
0.23127443082284227
0.18924703107606522
0.0838435037803773
-0.03440246292935445
-0.11243255937234764
-0.07169047660631023
0.10394057418696434
0.3595578598324458
0.5816994804162743
0.669184825390289
0.5816994804162334
0.35955785983237654
0.10394057418692526
-0.07169047660631556
0.017428122373964072
0.38282521600045527
0.8955145072064656
1.3300661986417772
1.4983962758823086
1.3300661986417275
0.8955145072063662
0.3828252160005299
0.017428122374104404
0.1992251711475248
0.9288557601801379
1.907863880181921
2.7026392147801097
3.0045630054189694
2.7026392147801808
1.9078638801818801
0.9288557601801593
0.19922517114763494
0.5624097731287812
2.0083194993828712
3.7827129903526107
5.122067095856053
5.598012230098895
5.122067095856108
3.78271299035271
2.008319499382944
0.5624097731288131
1.5328515884739833
4.385223568051728
7.426175885653751
9.316114320284871
9.94720195257403
9.316114320284857
7.426175885653774
4.385223568051801
1.532851588474033
3.865336396181508
9.932082292139953
13.77479388740775
15.85177971772351
16.50896202596654
15.851779717723485
13.774793887407698
9.93208229213996
3.86533639618151
20.46116032512574
26.321896377383588
29.5984732733746
31.274287362693094
31.799064448903316
31.274287362693077
29.598473273374577
26.321896377383588
20.46116032512576
29.77627890790032
32.397964102902954
34.544874224446275
35.5679146428342
35.90261864916806
35.567914642834225
34.54487422444629
32.39796410290296
29.776278907900362
20.423589798952104
22.054849286733756
23.42000243292463
24.033034299052552
24.232147807588525
24.03303429905257
23.420002432924647
22.05484928673377
20.423589798952143
13.275791855948263
14.37077473410983
15.26241698876873
15.65788649882622
15.784238632297498
15.657886498826219
15.262416988768734
14.370774734109842
13.275791855948302
6.5209211385525006
7.052466050511226
7.496886161687151
7.692875079687647
7.755637250185886
7.69287507968765
7.496886161687158
7.052466050511245
6.52092113855254
1.6137735592280933e-10
1.7334222945919464e-10
1.837774377122514e-10
1.884503664228987e-10
1.899620460932283e-10
1.8845347504736765e-10
1.837825447381647e-10
1.7335533009088522e-10
1.6140744296677667e-10
-6.520921138243124
-7.052466050178152
-7.496886161333515
-7.692875079324666
-7.755637249819907
-7.69287507932466
-7.496886161333505
-7.052466050178147
-6.520921138243111
-13.275791855690969
-14.370774733831903
-15.262416988471667
-15.657886498520025
-15.784238631988428
-15.657886498520023
-15.262416988471662
-14.370774733831903
-13.275791855690967
-20.42358979878299
-22.054849286548006
-23.42000243272136
-24.033034298839993
-24.23214780737311
-24.033034298840008
-23.420002432721354
-22.054849286548
-20.423589798782988
-29.776278907835753
-32.39796410283071
-34.544874224359965
-35.56791464273905
-35.90261864907027
-35.567914642739055
-34.544874224359965
-32.3979641028307
-29.776278907835746
-14.817046427668673
-10.812618826793841
-6.910580136702384
-3.392568826023692
8.218647984392646e-11
3.3925688261787648
6.910580136825736
10.812618826857902
14.817046427661811
-0.9405006484165437
-1.4005803782557598
-0.8941840950954592
-0.4277403253213028
7.0468075819007936e-12
0.4277403253312615
0.8941840950941469
1.4005803782302317
0.940500648369822
-0.5132912956430271
-0.5771646151022516
-0.4788018946459318
-0.24496590729782786
3.503863865716994e-12
0.24496590730191836
0.47880189464295597
0.57716461509039
0.5132912956333779
-0.11864603276681507
-0.17587313966464713
-0.13008478074528007
-0.08009718968943624
-1.8762769116165146e-13
0.08009718968705393
0.1300847807402885
0.17587313965891216
0.11864603276492502
-0.03463041909132425
-0.08611052237268524
-0.047503417897244216
-0.025246460849102315
-1.1471934513451743e-12
0.025246460845879004
0.047503417894000144
0.08611052237011041
0.03463041909240072
0.018345052265164696
-0.042593998028646496
-0.014233952135279893
-0.004901079653857887
-1.450506381672767e-12
0.0049010796506741006
0.014233952132747252
0.04259399802670316
-0.01834505226408112
0.044123402330763284
-0.022892061567937994
-0.0038318762924078875
0.0005245894099846771
-1.4958034810774734e-12
-0.0005245894130276874
0.003831876290140368
0.02289206156599377
-0.04412340232969214
0.05667505948967566
-0.012178670205190478
-0.00028912749503362534
0.001461594634203034
-1.340927369142264e-12
-0.0014615946368979893
0.00028912749316889474
0.01217867020385377
-0.05667505948745433
0.06085391920515715
-0.006404431723678439
0.0006294474151391505
0.0010536677794441562
-1.1274314815068465e-12
-0.0010536677816200823
-0.0006294474163959229
0.00640443172297811
-0.06085391920215244
0.060488430992826636
-0.0033132248939340414
0.00045033999647614564
0.00025038712347846825
-9.230394226733551e-13
-0.0002503871252435008
-0.00045033999755395016
0.0033132248931821984
-0.06048843098995338
0.058070745264050316
-0.0018788070782833621
-0.000594620775272503
-0.000919113587407483
-8.943956686380261e-13
0.0009191135858827026
0.0005946207742042464
0.001878807077142941
-0.05807074526204037
0.055311480654850254
-0.0017613454312441768
-0.002822381856272038
-0.002758497867377696
-1.1480816297648744e-12
0.0027584978657519965
0.002822381855281497
0.001761345429597494
-0.05531148065481872
0.053336521764014044
-0.0031956402531805317
-0.00679145061204145
-0.005605355827082659
-1.0058620603103918e-12
0.005605355825534342
0.006791450610971417
0.003195640251524967
-0.0533365217644759
0.052586465568083884
-0.006800740281719619
-0.012651252863109974
-0.009241690117555268
-8.165690346118026e-13
0.009241690116134071
0.012651252862224682
0.006800740281154294
-0.05258646556689017
0.051991010472539845
-0.012889834649358889
-0.01823035311051524
-0.011433581727769038
-8.824052599720744e-13
0.011433581726188857
0.018230353109891184
0.01288983464958493
-0.05199101047106636
0.04687777122267378
-0.017692299475386752
-0.01409368490462104
-0.004880617613634869
-9.138245715689663e-13
0.004880617611938226
0.014093684903553783
0.017692299475116302
-0.04687777122208381
0.02768861342241813
-0.0029805018400373973
0.02648823497556807
0.023433995788151224
-8.389955397092308e-13
-0.023433995789122836
-0.026488234976685454
0.0029805018389196247
-0.02768861342134743
-0.006432312414660413
0.13158070706610026
0.1534378531943871
0.08613105064678468
4.5095177592102687e-13
-0.08613105064517293
-0.15343785319389985
-0.13158070706775507
0.00643231241466613
0.28485619954288555
0.49080458523610404
0.32176060030517184
0.15518616311700278
2.2548976574832125e-12
-0.15518616311265893
-0.32176060030205395
-0.4908045852363781
-0.28485619954364055
-18.079594860676476
-23.193836184925992
-26.02138961036313
-27.43846707375841
-27.879684002958264
-27.43846707375842
-26.02138961036314
-23.193836184926006
-18.079594860676487
-13.232411047294832
-16.99972224209946
-19.03203722029653
-20.019193859304487
-20.321554494419033
-20.019193859304497
-19.032037220296534
-16.999722242099462
-13.232411047294827
-8.538657355775186
-11.063182926314706
-12.415798860766921
-13.070513910001365
-13.269061376250317
-13.070513910001363
-12.415798860766916
-11.063182926314704
-8.538657355775184
-4.195148511503517
-5.447381171369308
-6.126531283911659
-6.45622461319987
-6.556420804331705
-6.456224613199872
-6.126531283911658
-5.4473811713693046
-4.195148511503511
1.0062251032394443e-10
1.292302931332756e-10
1.445924491250139e-10
1.5209400405780116e-10
1.5438827993818904e-10
1.5209722370457257e-10
1.445930042365262e-10
1.2923884185056522e-10
1.0064044042579212e-10
4.19514851169351
5.4473811716138485
6.1265312841859645
6.456224613488814
6.556420804625122
6.456224613488818
6.126531284185969
5.447381171613864
4.19514851169353
8.5386573559248
11.06318292650757
12.415798860985891
13.070513910233549
13.269061376486563
13.070513910233542
12.415798860985888
11.063182926507581
8.538657355924824
13.232411047371244
16.9997222422007
19.032037220417905
20.01919385943709
20.321554494555194
20.019193859437106
19.032037220417912
16.99972224220071
13.232411047371258
18.07959486066138
23.19383618490833
26.021389610356643
27.438467073760172
27.879684002962787
27.438467073760187
26.021389610356643
23.193836184908342
18.07959486066139
-4.306261633381312
-9.868779948256034
-13.334497091252949
-15.184508123179741
-15.765559342019547
-15.184508123179754
-13.334497091252974
-9.86877994825608
-4.306261633381352
-4.05980629234803
-8.429148330006983
-11.105657612046176
-12.506771910901548
-12.941493051284425
-12.50677191090154
-11.10565761204618
-8.429148330007006
-4.0598062923480365
-2.675281897391761
-5.620105491875792
-7.4410652916392825
-8.392446930585928
-8.686594561956815
-8.392446930585933
-7.441065291639296
-5.620105491875802
-2.6752818973917636
-1.3141884511104875
-2.7857617100552146
-3.704898325553309
-4.188649737355434
-4.338389666815017
-4.188649737355454
-3.70489832555331
-2.7857617100552066
-1.3141884511104867
2.667777110332281e-11
5.891248600065069e-11
7.864470186191852e-11
8.898987102767819e-11
9.220224583827985e-11
8.899869730072396e-11
7.864719986372393e-11
5.891648280353934e-11
2.668781862169567e-11
1.3141884511565787
2.7857617101609007
3.7048983256959196
4.188649737517563
4.338389666983205
4.188649737517571
3.7048983256959187
2.7857617101609105
1.3141884511565847
2.675281897414626
5.620105491940343
7.441065291731958
8.392446930694188
8.686594562070024
8.392446930694202
7.4410652917319755
5.620105491940367
2.675281897414651
4.05980629232657
8.42914832999682
11.105657612049429
12.506771910914287
12.941493051300464
12.506771910914313
11.105657612049452
8.429148329996831
4.059806292326575
4.306261633311992
9.868779948158158
13.334497091150006
15.184508123078883
15.765559341919966
15.184508123078883
13.334497091149988
9.868779948158167
4.306261633311985
-1.5460487997238945
-4.179610859444107
-6.900728413317409
-8.578211807200834
-9.135382202850334
-8.578211807200883
-6.900728413317458
-4.179610859444139
-1.5460487997239047
-1.4433571338445663
-3.5539297211425054
-5.651850389871887
-6.924227363553493
-7.343063737061419
-6.924227363553514
-5.651850389871873
-3.553929721142477
-1.4433571338445335
-1.0655649423347555
-2.512789483066462
-3.9598753487268277
-4.832909646454082
-5.1193195715638655
-4.832909646454077
-3.9598753487268437
-2.512789483066469
-1.0655649423347469
-0.5354408913581705
-1.2606443401895144
-1.994934426849206
-2.440728738774669
-2.5869614288114318
-2.4407287387746512
-1.9949344268491824
-1.260644340189506
-0.5354408913581733
8.582801136469698e-12
2.227068529592202e-11
3.6793179614136307e-11
4.562117350559447e-11
4.8540782504602475e-11
4.564160160924757e-11
3.6808112113817515e-11
2.2272461652761422e-11
8.585909760938648e-12
0.5354408913708243
1.2606443402258056
1.9949344269111373
2.440728738852378
2.5869614288943756
2.4407287388523824
1.9949344269111084
1.2606443402257745
0.5354408913708131
1.0655649423339082
2.5127894830758244
3.9598753487507343
4.8329096464879795
5.119319571601251
4.832909646487996
3.9598753487507308
2.512789483075819
1.0655649423339286
1.4433571338234321
3.5539297211088154
5.651850389835134
6.924227363517922
7.343063737026702
6.9242273635179465
5.6518503898351575
3.5539297211088416
1.4433571338234708
1.5460487996918406
4.179610859372484
6.900728413221554
8.578211807095656
9.135382202742857
8.57821180709565
6.900728413221571
4.179610859372534
1.5460487996918824
-0.6115901962932271
-1.9096041509585637
-3.4726703993029595
-4.64707563313763
-5.063484409767014
-4.647075633137705
-3.4726703993029813
-1.9096041509585109
-0.6115901962931196
-0.5765092147082935
-1.588071919439348
-2.764308956332572
-3.6375015057338573
-3.945383647929485
-3.6375015057338937
-2.7643089563325414
-1.588071919439276
-0.5765092147081954
-0.4067007289856688
-1.1061007924723856
-1.9157608683346712
-2.5119181207677723
-2.7211994125849515
-2.5119181207677546
-1.9157608683346952
-1.1061007924723667
-0.4067007289856033
-0.2147950883012114
-0.5648769652515476
-0.9781969981552133
-1.2830329771103854
-1.389932901500406
-1.2830329771103626
-0.9781969981552139
-0.564876965251555
-0.21479508830122507
1.832201057538896e-12
7.419953540477309e-12
1.4545364912521563e-11
2.002337184947578e-11
2.198546900089582e-11
2.004540977651459e-11
1.4568790618341154e-11
7.401190771361144e-12
1.7899015603006774e-12
0.21479508830217164
0.5648769652614434
0.9781969981765106
1.2830329771406734
1.3899329015339341
1.2830329771406594
0.9781969981764835
0.5648769652613855
0.21479508830212102
0.4067007289803928
1.106100792467557
1.9157608683324463
2.5119181207687733
2.7211994125872527
2.5119181207686996
1.9157608683324148
1.1061007924675637
0.4067007289803839
0.5765092146960278
1.5880719194137103
2.764308956295986
3.637501505691803
3.945383647885878
3.637501505691778
2.7643089562959977
1.5880719194137671
0.5765092146960762
0.6115901962783674
1.9096041509141908
3.472670399230397
4.6470756330484875
5.063484409672736
4.6470756330485266
3.472670399230453
1.9096041509142383
0.611590196278414
-0.24536045178291666
-0.8703043845786147
-1.7068695860473881
-2.3882944448277144
-2.6473680022435886
-2.388294444827764
-1.7068695860473109
-0.8703043845784979
-0.24536045178280075
-0.2464911744781242
-0.7027219715126924
-1.2996360339477495
-1.7854303911628118
-1.9701608308720773
-1.785430391162825
-1.299636033947667
-0.7027219715126352
-0.24649117447807445
-0.1593993806937961
-0.47286066123490245
-0.876446164054872
-1.201873866836141
-1.3252813845420064
-1.201873866836141
-0.8764461640548855
-0.4728606612348665
-0.15939938069374282
-0.07877964576476026
-0.23483887871567355
-0.4403246398095517
-0.6059089424463802
-0.668533532024621
-0.6059089424464064
-0.44032463980960646
-0.23483887871568943
-0.07877964576472907
-6.314393452555578e-13
1.3711254354120683e-12
4.325317881637147e-12
6.861955448300705e-12
7.920220035373404e-12
6.9365624355555155e-12
4.355960037116802e-12
1.3063994330764217e-12
-6.61415366920437e-13
0.07877964576230717
0.2348388787159682
0.44032463981390724
0.6059089424543608
0.6685335320340982
0.6059089424543961
0.4403246398139282
0.23483887871588272
0.07877964576223645
0.1593993806893157
0.4728606612280848
0.87644616404644
1.2018738668271127
1.3252813845328564
1.2018738668270645
0.8764461640464709
0.47286066122809256
0.1593993806892795
0.24649117447102142
0.7027219714954267
1.299636033919965
1.7854303911278264
1.9701608308345913
1.785430391127821
1.2996360339199944
0.7027219714954742
0.24649117447106672
0.2453604517757868
0.8703043845513871
1.706869585997271
2.3882944447611663
2.647368002171343
2.388294444761189
1.7068695859972443
0.8703043845514191
0.2453604517758885
-0.07293016796210017
-0.36278941657132746
-0.7810598634382577
-1.1407490208291398
-1.2807517597351405
-1.140749020829099
-0.7810598634382013
-0.3627894165712653
-0.07293016796202734
-0.1027912544364824
-0.2897473003751201
-0.5611542769484505
-0.7992026187536614
-0.8926027735163906
-0.7992026187536152
-0.5611542769483218
-0.2897473003750628
-0.10279125443647752
-0.05755156997362709
-0.18376814401610253
-0.3596090336912898
-0.5125258811613989
-0.5725007951604784
-0.5125258811613844
-0.35960903369122366
-0.1837681440160508
-0.05755156997360711
-0.024526109781865646
-0.0860272448225784
-0.1745612111860968
-0.2511558136097438
-0.2810925545826543
-0.25115581360974953
-0.17456121118612328
-0.08602724482260676
-0.02452610978183528
-1.400546345564635e-12
-8.070211166000263e-13
1.6403545188836688e-13
1.09007247672821e-12
1.5425993815654238e-12
1.1467493621353242e-12
1.5337731085196538e-13
-8.815725927036056e-13
-1.396882609583372e-12
0.024526109778718053
0.08602724481996327
0.17456121118437412
0.2511558136089778
0.2810925545823908
0.2511558136090622
0.17456121118439905
0.0860272448199213
0.024526109778712224
0.057551569970134775
0.1837681440102914
0.3596090336831361
0.5125258811516131
0.5725007951501107
0.5125258811516527
0.3596090336831661
0.18376814401024744
0.057551569970051286
0.1027912544320233
0.28974730036418883
0.5611542769298281
0.79920261872905
0.8926027734895423
0.7992026187290522
0.5611542769297801
0.28974730036413465
0.10279125443197445
0.07293016795833296
0.36278941655481933
0.7810598634056953
1.140749020783856
1.2807517596851707
1.1407490207837996
0.7810598634056007
0.3627894165548722
0.07293016795843377
0.012078890165134748
-0.10845336588289278
-0.30147662267133457
-0.4752661942873062
-0.5445202529972808
-0.4752661942872871
-0.3014766226712795
-0.10845336588285504
0.012078890165159617
-0.03576211953455788
-0.09302001058308518
-0.19645276298596182
-0.2964101803422259
-0.33732267837758956
-0.29641018034220945
-0.1964527629858912
-0.09302001058304077
-0.03576211953452457
-0.015234856045273526
-0.05285901379047564
-0.11328495400000604
-0.17154621001687298
-0.19560270381667033
-0.17154621001688053
-0.11328495400000249
-0.05285901379046498
-0.0152348560452098
-0.0035953536357999916
-0.020682663513532595
-0.05015643213026577
-0.07816228815622184
-0.08966174239741836
-0.07816228815624249
-0.05015643213028492
-0.02068266351356529
-0.0035953536358213634
-1.5261125696497402e-12
-1.4677703497056882e-12
-1.2803091919977305e-12
-1.0111356196773613e-12
-8.646972027293032e-13
-1.0423328866693282e-12
-1.3283818489639998e-12
-1.5146217613448698e-12
-1.5302759059920845e-12
0.003595353632666942
0.02068266351022896
0.050156432126821415
0.07816228815278686
0.089661742394047
0.07816228815281517
0.05015643212681825
0.02068266351025788
0.003595353632725007
0.015234856042346756
0.052859013785994335
0.11328495399383764
0.17154621000930348
0.19560270380850286
0.17154621000927084
0.1132849539938443
0.052859013785997444
0.015234856042264378
0.035762119531438596
0.09302001057652243
0.19645276297482672
0.29641018032720723
0.33732267836101615
0.2964101803271899
0.19645276297477077
0.09302001057645892
0.035762119531368874
-0.012078890166548728
0.10845336587415266
0.30147662265251096
0.47526619426013506
0.5445202529669517
0.4752661942601515
0.3014766226524763
0.10845336587414467
-0.012078890166516754
0.05227899958093252
0.015281968905882959
-0.061278769209917705
-0.135752445700573
-0.16626635484194408
-0.13575244570059297
-0.061278769209763606
0.015281968906012633
0.052278999581009344
-0.004464027393108694
-0.002156291530352572
-0.024174037357165723
-0.05441333688776506
-0.0680417975410732
-0.0544133368877584
-0.024174037357123535
-0.0021562915302801855
-0.004464027392968362
0.00179906761071158
0.003537368178746947
-0.002850349459981416
-0.01480394966190457
-0.020719726762955748
-0.014803949661904348
-0.0028503494600737866
0.0035373681786849964
0.0017990676108115
0.0036605743609787744
0.005861655898572404
0.003628757485111267
-0.0009145099978264404
-0.003222777256478959
-0.0009145099978430937
0.0036287574850767945
0.005861655898590723
0.0036605743610104713
-1.3862799796982017e-12
-1.5464296510003805e-12
-1.6479595466023511e-12
-1.6568413307993524e-12
-1.573241537045078e-12
-1.6206480601965723e-12
-1.6627255128298657e-12
-1.4990231278488864e-12
-1.3475331961387838e-12
-0.0036605743638047916
-0.005861655901663598
-0.003628757488533363
0.0009145099941241241
0.003222777252736342
0.0009145099941576529
-0.0036287574885489615
-0.005861655901667373
-0.003660574363769542
-0.0017990676131074412
-0.003537368181974365
0.0028503494557869935
0.014803949656813531
0.02071972675753031
0.014803949656803761
0.002850349455815193
-0.0035373681819399483
-0.0017990676131223182
0.004464027391154701
0.0021562915267696603
0.024174037351237132
0.054413336879815866
0.0680417975323171
0.05441333687981054
0.024174037351267774
0.0021562915268162897
0.004464027391137382
-0.05227899957999593
-0.015281968908986698
0.061278769201016825
0.13575244568688571
0.16626635482634278
0.13575244568690126
0.06127876920107456
-0.015281968909044874
-0.0522789995800812
0.06869465033427735
0.0710180106333218
0.052177107786971266
0.02829805870962465
0.017742541648448018
0.028298058709728124
0.052177107787198196
0.07101801063357316
0.06869465033444211
0.009298963778824776
0.036400971393655945
0.0507445324191782
0.053004730831883506
0.05231998033137253
0.053004730831977875
0.05074453241933341
0.03640097139394549
0.009298963779039715
0.0077007399226405315
0.024862671847835083
0.041139524717639375
0.049564684836672424
0.05180363150356326
0.049564684836727935
0.04113952471768534
0.024862671847927453
0.007700739922742228
0.005377704088234403
0.014758941990481
0.02359748124044997
0.029094212819735676
0.030809606742499884
0.029094212819848697
0.02359748124054356
0.014758941990520913
0.005377704088271373
-1.205924249347845e-12
-1.36457511956678e-12
-1.509292690826669e-12
-1.6850965067760626e-12
-1.691868867226276e-12
-1.6687207171628415e-12
-1.591116127741543e-12
-1.3045675650857902e-12
-1.1218248552324894e-12
-0.005377704090643809
-0.014758941993128993
-0.02359748124338812
-0.029094212822969756
-0.03080960674576272
-0.029094212822963816
-0.023597481243405216
-0.014758941993054941
-0.0053777040905442774
-0.007700739924411337
-0.024862671850119034
-0.041139524720392284
-0.04956468483993337
-0.05180363150692191
-0.04956468483976062
-0.041139524720346765
-0.02486267185008817
-0.007700739924300537
-0.009298963779805103
-0.0364009713953799
-0.050744532421907795
-0.053004730835664926
-0.052319980335600036
-0.053004730835674474
-0.05074453242193355
-0.03640097139527998
-0.009298963779742264
-0.0686946503320276
-0.07101801063348523
-0.05217710779031037
-0.028298058715705565
-0.017742541655787925
-0.028298058715868102
-0.05217710779033835
-0.07101801063348301
-0.06869465033212796
0.07317241891551207
0.09304097752209595
0.10189706405705401
0.10297079349062743
0.10237300707330466
0.1029707934908175
0.10189706405727827
0.09304097752225937
0.0731724189155396
0.014564127425781281
0.050125552486401714
0.07892569842951236
0.09501409566215746
0.09998641969289679
0.09501409566235663
0.078925698429684
0.050125552486631086
0.014564127425837237
0.00873284056413648
0.030439220612230145
0.054547672178681506
0.0706736931495715
0.07611514203478209
0.07067369314967387
0.05454767217870282
0.030439220612315188
0.00873284056407364
0.0048941503843836776
0.016066142818026596
0.028441621886344526
0.03749007917539382
0.0406912865689148
0.03749007917551722
0.028441621886345803
0.016066142817980023
0.004894150384372853
-1.0910161662991413e-12
-1.0244582959728632e-12
-1.076527755827783e-12
-1.280864303510043e-12
-1.361577517400292e-12
-1.3586354263850353e-12
-1.2678746941219288e-12
-1.0441092435087285e-12
-9.267031586546182e-13
-0.004894150386402174
-0.0160661428201353
-0.02844162188859345
-0.037490079177859514
-0.04069128657141258
-0.03749007917793923
-0.028441621888641078
-0.016066142820012896
-0.0048941503862128255
-0.008732840565266908
-0.03043922061381643
-0.054547672180468076
-0.07067369315161676
-0.07611514203678138
-0.07067369315136607
-0.05454767218043388
-0.030439220613899476
-0.008732840565285338
-0.014564127426198281
-0.050125552487126246
-0.07892569843064212
-0.09501409566385766
-0.0999864196948359
-0.0950140956638923
-0.07892569843080333
-0.050125552487245706
-0.01456412742631863
-0.07317241891302873
-0.09304097752126417
-0.1018970640581669
-0.10297079349323868
-0.10237300707655583
-0.10297079349341898
-0.10189706405819621
-0.09304097752111806
-0.07317241891298432
0.07266346663100975
0.10055619321860298
0.12293299608811115
0.13635834790674473
0.14070690207674685
0.1363583479070516
0.12293299608846509
0.1005561932186132
0.07266346663084322
0.015956362651537326
0.05330783770260572
0.08701492290693835
0.10845406377539213
0.11570242476093484
0.10845406377566102
0.08701492290704915
0.05330783770258063
0.015956362651523115
0.0076103539535037346
0.02971748745878744
0.055501171521673665
0.07383058710489576
0.08027847740189853
0.07383058710496537
0.055501171521549875
0.02971748745882774
0.007610353953584004
0.003488545538998744
0.0145098597451232
0.02738934970571627
0.03724140697523126
0.04082762936407053
0.03724140697536438
0.027389349705536303
0.01450985974502561
0.0034885455390119002
-9.595657601835228e-13
-8.162914788556463e-13
-8.394396289190809e-13
-9.799938638366257e-13
-8.071876500537201e-13
-6.75404177030714e-13
-8.548717289613705e-13
-8.08686451136964e-13
-7.913114608015803e-13
-0.003488545540834276
-0.014509859746862086
-0.027389349707262367
-0.03724140697697431
-0.04082762936559736
-0.03724140697678974
-0.027389349707252153
-0.01450985974657637
-0.003488545540465904
-0.007610353954556004
-0.029717487459930303
-0.0555011715227447
-0.07383058710616197
-0.08027847740300698
-0.07383058710593315
-0.05550117152278833
-0.029717487460063863
-0.0076103539546785726
-0.015956362651789124
-0.053307837702862404
-0.08701492290752522
-0.1084540637763034
-0.11570242476183568
-0.10845406377626476
-0.08701492290769708
-0.053307837703231886
-0.015956362652326694
-0.07266346662892431
-0.10055619321802967
-0.12293299608888342
-0.13635834790811296
-0.1407069020784002
-0.136358347908351
-0.12293299608873864
-0.10055619321775744
-0.0726634666290753
0.07120266752548443
0.10397755966632549
0.13390373187958904
0.15383054425612674
0.16071488968985803
0.15383054425610898
0.1339037318799281
0.10397755966619449
0.07120266752499638
0.01565947045884397
0.05307005725474334
0.08842151872140458
0.11193327178271373
0.12008333428338291
0.11193327178276369
0.08842151872154158
0.053070057254736014
0.015659470458659674
0.005299323889548235
0.0271041794397634
0.05280639072346183
0.07150128146743262
0.07817711073215183
0.07150128146748846
0.052806390723479035
0.027104179439871534
0.005299323889637719
0.0015070412815624823
0.012203618284331696
0.024842473719827507
0.034662929173878754
0.03827556704639318
0.03466292917388797
0.02484247371962689
0.012203618284127526
0.0015070412814764955
-9.872103134966892e-13
-8.414935415146374e-13
-7.722156247780276e-13
-8.025802245015257e-13
-6.813993813636898e-13
-5.95967719618784e-13
-7.706613125435524e-13
-7.903677712306489e-13
-9.505174425328278e-13
-0.001507041283357602
-0.012203618285839102
-0.024842473720917357
-0.03466292917514063
-0.03827556704757018
-0.034662929174854085
-0.024842473720918135
-0.012203618285455908
-0.001507041282875099
-0.00529932389073251
-0.027104179440684883
-0.05280639072407256
-0.07150128146805423
-0.0781771107326037
-0.07150128146781487
-0.052806390724115526
-0.027104179440760157
-0.005299323890588736
-0.015659470459394642
-0.053070057254806846
-0.08842151872149828
-0.1119332717828001
-0.12008333428347306
-0.11193327178275014
-0.08842151872171877
-0.05307005725523517
-0.01565947045976901
-0.0712026675248949
-0.10397755966655264
-0.1339037318803875
-0.1538305442571033
-0.16071488969142855
-0.15383054425744747
-0.13390373188052895
-0.1039775596665371
-0.07120266752502813
0.07088100082535109
0.10801404742453391
0.1429003896806973
0.16632308544233387
0.17444800648557113
0.16632308544180785
0.1429003896804797
0.1080140474242477
0.07088100082496962
0.014387040412348284
0.052532188705392
0.08920657796369702
0.11392325304383433
0.12252800649340578
0.11392325304356477
0.0892065779636042
0.05253218870518617
0.014387040411919738
0.0019823355459585024
0.024652673072932063
0.050797069894133795
0.06989083153541908
0.07673674772479666
0.06989083153559716
0.05079706989427479
0.024652673072929066
0.001982335545806957
-0.0009960733873956018
0.01021636032163617
0.02313112871650949
0.03312327635487086
0.03680380686771703
0.033123276354645986
0.023131128716197547
0.010216360321311513
-0.0009960733875808425
-1.1036727087798681e-12
-8.963108033555045e-13
-7.125133816288098e-13
-5.73457947794509e-13
-6.035449917618507e-13
-7.743805596760467e-13
-7.986111771884907e-13
-8.299472220585358e-13
-9.570677583781162e-13
0.000996073385743479
-0.010216360322867879
-0.023131128717372218
-0.03312327635578394
-0.03680380686877832
-0.03312327635569093
-0.02313112871740161
-0.010216360322712226
0.0009960733861363869
-0.0019823355467261106
-0.024652673073494613
-0.050797069894588875
-0.06989083153580355
-0.07673674772488537
-0.06989083153545694
-0.05079706989450439
-0.024652673073775833
-0.0019823355468414627
-0.014387040412982
-0.052532188705280536
-0.08920657796359532
-0.11392325304359252
-0.12252800649311557
-0.11392325304356321
-0.08920657796377163
-0.05253218870561693
-0.014387040413086583
-0.07088100082556803
-0.10801404742474063
-0.14290038968103724
-0.16632308544287366
-0.1744480064867029
-0.16632308544305108
-0.1429003896813279
-0.10801404742479503
-0.07088100082538284
0.07195464630105053
0.11262591110818265
0.14999813963337827
0.17445748006428152
0.18284767604400853
0.1744574800636991
0.14999813963284625
0.11262591110790598
0.07195464630090509
0.012112832222392234
0.052995154426145774
0.09213168477677725
0.11839526866461858
0.1274910719015716
0.11839526866428507
0.09213168477662226
0.05299515442607894
0.012112832222151981
-0.0018361788414701374
0.024425586309139602
0.053302570548679706
0.07421983958421008
0.08170681550959302
0.07421983958437617
0.053302570548819705
0.024425586309194447
-0.0018361788416263458
-0.003431823008272772
0.01008699800318627
0.02492952568813081
0.0361906870193541
0.04031827456815135
0.036190687018944484
0.02492952568754811
0.010086998002778541
-0.0034318230086461676
-1.0643153025569063e-12
-8.852918398360998e-13
-6.433464871946626e-13
-3.9948599983574695e-13
-4.012623566751472e-13
-5.943578962330776e-13
-8.816281038548368e-13
-1.0582923426483148e-12
-9.242051568492116e-13
0.0034318230067289512
-0.010086998004401854
-0.024929525688942133
-0.03619068701996153
-0.040318274568904106
-0.03619068701995806
-0.024929525688811988
-0.010086998004169234
0.003431823007266993
0.0018361788410234947
-0.024425586309639313
-0.05330257054905374
-0.07421983958454881
-0.08170681550972292
-0.07421983958433465
-0.053302570548957706
-0.024425586309822167
0.0018361788407492696
-0.012112832222508585
-0.05299515442596148
-0.09213168477669953
-0.11839526866451666
-0.12749107190145437
-0.11839526866457639
-0.09213168477686962
-0.05299515442622971
-0.012112832222593406
-0.07195464630004578
-0.11262591110717857
-0.14999813963267417
-0.17445748006402528
-0.1828476760441049
-0.17445748006405326
-0.1499981396327379
-0.11262591110708908
-0.07195464629981307
0.07186323817725815
0.11243441127615861
0.14845509435992876
0.17198257290716268
0.1801883137648752
0.17198257290653318
0.14845509435929127
0.11243441127582243
0.071863238177031
0.009482021882173508
0.0571265117796419
0.10213937253024163
0.13231555820317376
0.142751516491734
0.1323155582028902
0.10213937253017613
0.05712651177982031
0.009482021882066372
-0.0028463188948302243
0.03251930564466954
0.06960951018862777
0.09621183368697755
0.10570554296559026
0.09621183368680847
0.06960951018860306
0.032519305644787666
-0.002846318895013633
-0.002922266034665888
0.01638058305421672
0.03683554317471174
0.05202211098562598
0.057545252072079056
0.05202211098505144
0.03683554317417603
0.01638058305405901
-0.002922266034927873
-1.0280942763785106e-12
-7.437939153476236e-13
-3.9210301672198966e-13
-1.5423773369604987e-13
-2.2615243011614439e-13
-4.922173779675632e-13
-8.865963518900344e-13
-1.2331802246023926e-12
-1.1144141165431165e-12
0.002922266033155624
-0.016380583055414816
-0.03683554317540061
-0.05202211098591522
-0.05754525207267325
-0.05202211098608939
-0.036835543175302216
-0.01638058305522369
0.0029222660335135875
0.0028463188942744466
-0.032519305645567265
-0.06960951018917833
-0.0962118336872812
-0.1057055429660893
-0.09621183368741704
-0.06960951018910666
-0.03251930564522887
0.002846318894515698
-0.009482021881819236
-0.0571265117796137
-0.10213937253035954
-0.13231555820332574
-0.14275151649210283
-0.13231555820360852
-0.10213937253069016
-0.05712651177982131
-0.009482021881835223
-0.07186323817517604
-0.11243441127402565
-0.1484550943582894
-0.17198257290606045
-0.1801883137640048
-0.17198257290582109
-0.14845509435811222
-0.112434411274146
-0.07186323817546936
0.0631616500163601
0.09679594772921885
0.1300992426053167
0.15632057578525294
0.16658903300837502
0.15632057578451408
0.1300992426044958
0.096795947728753
0.06316165001606666
0.012769069018073398
0.0777900903991533
0.1399795359588364
0.18277028072925228
0.19793123282831748
0.1827702807291075
0.1399795359586139
0.07779009039895168
0.012769069017647738
0.010979178665158185
0.06777612607738448
0.12636215658003214
0.1682157477071135
0.18320739217447912
0.1682157477067726
0.12636215657982253
0.06777612607734779
0.01097917866483522
0.009210329371925424
0.04153265105136508
0.07574788019249763
0.10081284753581199
0.10989396043187037
0.10081284753536666
0.07574788019233283
0.04153265105151065
0.00921032937188089
-8.257561301405758e-13
-3.6139147230329627e-13
2.2096213747602178e-13
5.641598299632733e-13
5.603295605283165e-13
1.1042555758677963e-13
-3.829020434054087e-13
-9.005574064246957e-13
-1.079816791538235e-12
-0.009210329373184556
-0.04153265105223562
-0.07574788019268351
-0.10081284753532477
-0.10989396043170134
-0.1008128475358416
-0.07574788019287411
-0.04153265105225183
-0.009210329373239873
-0.010979178666047529
-0.06777612607872952
-0.12636215658126387
-0.16821574770831244
-0.18320739217617893
-0.16821574770855813
-0.126362156581251
-0.0677761260783799
-0.010979178665736111
-0.012769069017899648
-0.07779009039983975
-0.1399795359601793
-0.18277028073127954
-0.1979312328309102
-0.18277028073184864
-0.13997953596091062
-0.07779009040029528
-0.012769069018176538
-0.06316165001408791
-0.0967959477269722
-0.13009924260356853
-0.15632057578419978
-0.16658903300774608
-0.15632057578394853
-0.13009924260348538
-0.09679594772735922
-0.0631616500150951
0.035240966579666244
0.0636455570367993
0.11483940143358895
0.16724794980102442
0.18931489107158905
0.16724794980010782
0.11483940143265536
0.06364555703623542
0.035240966579251465
0.05053424723749472
0.16486573126248916
0.27714164141028497
0.3578355205017074
0.38707022439346267
0.35783552050159845
0.2771416414099497
0.16486573126203968
0.050534247236936725
0.07379896159587687
0.18062641241606867
0.29080212250747794
0.36973066631609236
0.39800022423375436
0.36973066631583507
0.29080212250730375
0.1806264124161831
0.07379896159566604
0.04986723167087141
0.11102229288393389
0.1760447724639851
0.2234069263645779
0.24046842601555907
0.22340692636435494
0.17604477246376246
0.11102229288398345
0.049867231670895774
-1.1703832347720322e-13
7.549516567451064e-13
1.9651294480560466e-12
2.6272387043668743e-12
2.5748778109679904e-12
2.056951831086451e-12
1.1287082379851654e-12
5.4165005813899825e-14
-6.343536806951988e-13
-0.04986723167109442
-0.11102229288337254
-0.17604477246194256
-0.22340692636146003
-0.24046842601278096
-0.22340692636233267
-0.17604477246239175
-0.11102229288332396
-0.04986723167119212
-0.07379896159680319
-0.18062641241756727
-0.29080212250941345
-0.3697306663184333
-0.398000224236575
-0.36973066631863344
-0.29080212250945064
-0.18062641241749164
-0.07379896159666213
-0.05053424723873773
-0.16486573126534326
-0.27714164141505737
-0.3578355205080419
-0.3870702244006644
-0.3578355205087079
-0.2771416414157934
-0.1648657312661067
-0.05053424723912303
-0.035240966577973376
-0.0636455570360498
-0.11483940143427218
-0.16724794980312996
-0.1893148910747693
-0.16724794980323043
-0.11483940143432503
-0.06364555703636088
-0.03524096657852638
0.014788583501722435
0.10723631648900245
0.2644465293864982
0.40613811892327467
0.46184633263319763
0.4061381189225353
0.2644465293861182
0.10723631648871529
0.01478858350137438
0.24054471191875637
0.4841081676910193
0.7304730640477559
0.9036256712430006
0.9650128330014915
0.9036256712430133
0.7304730640475718
0.48410816769074555
0.24054471191840915
0.24769565645971875
0.4660628856559862
0.692479906578061
0.8498096977749114
0.9048318939811388
0.8498096977749081
0.692479906577986
0.46606288565611315
0.24769565645962596
0.1380861997188011
0.2605162061268783
0.39051424548679503
0.48233915916506853
0.5146408908196348
0.48233915916513137
0.39051424548637126
0.26051620612679227
0.13808619971906616
1.3861481407140275e-12
3.271043158559195e-12
5.5352736283431625e-12
6.751717240849331e-12
6.89567153377979e-12
6.489225823358424e-12
5.02638208832451e-12
2.588450287444033e-12
9.443487658522542e-13
-0.13808619971625172
-0.2605162061216926
-0.3905142454784739
-0.48233915915507164
-0.5146408908095774
-0.4823391591556373
-0.3905142454787727
-0.2605162061221328
-0.13808619971654623
-0.24769565645930766
-0.4660628856555503
-0.692479906577947
-0.849809697775006
-0.9048318939811438
-0.849809697775013
-0.6924799065781677
-0.46606288565595844
-0.24769565645911934
-0.24054471192216148
-0.48410816769733817
-0.7304730640570045
-0.9036256712539688
-0.9650128330129273
-0.9036256712540679
-0.7304730640570338
-0.4841081676974771
-0.2405447119218435
-0.014788583503542313
-0.1072363164942815
-0.26444652939514846
-0.40613811893409346
-0.46184633264537583
-0.40613811893417145
-0.2644465293949527
-0.10723631649402937
-0.01478858350318657
0.4621416046505171
0.8847854848705123
1.3425952622374426
1.6747335195979525
1.7944204747033967
1.6747335195977144
1.3425952622373778
0.8847854848703836
0.46214160465051557
0.7820834439081177
1.384068613024222
1.922534054592937
2.2675292669504623
2.3847653481836417
2.2675292669506195
1.9225340545929206
1.3840686130241153
0.7820834439079188
0.5517481117947921
1.0440884824117176
1.4996741140576977
1.7911451424338438
1.8893833982917514
1.791145142434135
1.4996741140578307
1.0440884824116459
0.5517481117945839
0.272995573022167
0.5343028125550583
0.7869712035038705
0.9521658271244622
1.008189889423828
0.9521658271248937
0.7869712035040167
0.5343028125550107
0.2729955730224276
3.4936498138904426e-12
7.992002892809325e-12
1.2315232167381396e-11
1.5178608370192137e-11
1.6156798121613747e-11
1.5552670262763968e-11
1.28513866215485e-11
8.064750256497888e-12
3.895654632213308e-12
-0.27299557301480026
-0.534302812539686
-0.7869712034815749
-0.9521658270977783
-1.0081898893954775
-0.9521658270974851
-0.7869712034812874
-0.5343028125404461
-0.27299557301514354
-0.5517481117893024
-1.0440884824022345
-1.499674114045483
-1.7911451424201035
-1.8893833982770392
-1.7911451424197549
-1.4996741140455616
-1.0440884824029677
-0.5517481117897314
-0.7820834439099541
-1.3840686130280226
-1.9225340545980143
-2.2675292669562497
-2.384765348189325
-2.267529266955825
-1.9225340545973353
-1.3840686130269657
-0.7820834439090754
-0.46214160465530774
-0.884785484880491
-1.3425952622508883
-1.6747335196132216
-1.7944204747196322
-1.6747335196131525
-1.342595262250121
-0.8847854848791008
-0.4621416046541174

SCALARS STRESS_XY float 1
LOOKUP_TABLE default
-14.308154913595438
-5.111327074665101
-5.111327074709708
-14.308154913554452
-14.308154913595393
-5.111327074665035
-5.1113270747082735
-14.308154913554436
-8.125744799461689
-1.7432653081301444
-1.8036626434288907
-2.3102269442342998
-2.727929520545948
-3.0074609939522112
-3.1796257468926665
-3.280377407184602
-3.3365224252468666
-3.3652634769219105
-3.3757176896872068
-3.3701287224727388
-3.343794071476795
-3.2836879894486644
-3.1670465160849144
-2.9655990788261635
-2.6798220452954595
-2.5046330857818226
-3.800518542962391
-7.424870420167133
-10.690022363992792
-12.130895780625394
-12.837865690374201
-13.055570781816968
-12.83786569038568
-12.130895780648057
-10.690022364029442
-7.424870420211968
-3.8005185430031503
-2.5046330858065393
-2.679822045302731
-2.9655990788289355
-3.167046516088387
-3.2836879894511752
-3.343794071478132
-3.370128722472355
-3.3757176896835714
-3.3652634769154544
-3.3365224252388535
-3.280377407176098
-3.1796257468848985
-3.0074609939459434
-2.7279295205409575
-2.3102269442288383
-1.8036626434120797
-1.7432653080666003
-8.125744799391258
-10.867816034481525
-5.294329927285457
-2.144633410150195
-0.6862412471306965
-0.24439837311036344
-0.6862412470801096
-2.144633410055607
-5.294329927170698
-10.867816034444214
-8.125744799461653
-1.743265308130109
-1.803662643428792
-2.3102269442341594
-2.727929520545923
-3.0074609939521895
-3.1796257468925297
-3.280377407184605
-3.3365224252468257
-3.36526347692167
-3.375717689687052
-3.370128722472869
-3.3437940714772516
-3.2836879894491533
-3.1670465160855343
-2.965599078826033
-2.679822045295003
-2.504633085782051
-3.800518542962488
-7.424870420167068
-10.690022363993283
-12.130895780626503
-12.837865690375569
-13.055570781818076
-12.837865690385875
-12.130895780647666
-10.690022364029183
-7.424870420211251
-3.8005185430026938
-2.5046330858065393
-2.6798220453029917
-2.965599078828805
-3.167046516088387
-3.28368798945199
-3.3437940714782624
-3.370128722472225
-3.3757176896838974
-3.3652634769156498
-3.3365224252384946
-3.2803774071757066
-3.1796257468846862
-3.007460993945845
-2.727929520540835
-2.310226944228838
-1.8036626434120389
-1.743265308066584
-8.125744799391251
-10.867816034481484
-5.29432992728538
-2.144633410150105
-0.6862412471305963
-0.2443983731102553
-0.6862412470800029
-2.1446334100555076
-5.294329927170614
-10.867816034444155
-16.150716501542483
-18.905059056987717
-20.30060791231223
-20.996482216547967
-21.208588632957387
-20.996482216547953
-20.300607912312206
-18.90505905698768
-16.150716501542437
-5.080586495983944
-5.041844832973913
-5.034076645314336
-5.03526435518132
-5.036219168378844
-5.035264355180635
-5.03407664531339
-5.041844832973425
-5.080586495983846
-5.080586496028095
-5.041844833017999
-5.034076645359237
-5.035264355226775
-5.036219168424331
-5.0352643552262535
-5.034076645359041
-5.041844833017934
-5.080586496027248
-16.150716501490074
-18.905059056920944
-20.30060791224097
-20.996482216474483
-21.20858863288322
-20.996482216474497
-20.30060791224098
-18.905059056920923
-16.150716501490045
-7.847591723790279
-6.499513669141052
-4.768495389252774
-3.791079111677571
-3.4747561350234974
-3.7910791117174742
-4.768495389318961
-6.4995136691968565
-7.847591723773917
-4.267405422980375
-7.578392545057089
-8.504393910204117
-8.644644359882342
-8.645740451644397
-8.644644359895299
-8.504393910211494
-7.578392545028147
-4.267405422920867
-3.932132555860311
-7.715992665870169
-10.205380222898615
-11.371639720980829
-11.703901859610767
-11.371639720968371
-10.205380222865386
-7.715992665818602
-3.9321325558233724
-4.463249594028053
-8.363103297107621
-11.25223177623225
-12.92723063795889
-13.459932073840935
-12.9272306379352
-11.252231776189461
-8.363103297064711
-4.46324959400729
-5.015856258425706
-9.079084102956802
-12.06496078400877
-13.881420795174959
-14.48730523193395
-13.881420795150218
-12.064960783969465
-9.079084102922629
-5.015856258410169
-5.430536895943488
-9.65614035686895
-12.679266400134594
-14.516886073445102
-15.13390726241818
-14.516886073423198
-12.679266400100785
-9.656140356839504
-5.430536895928783
-5.705616746788096
-10.064338045334287
-13.11875207045703
-14.954684365738117
-15.568932934542225
-14.9546843657197
-13.118752070428322
-10.06433804530781
-5.705616746773023
-5.8760191667107815
-10.331996181671641
-13.418181472958942
-15.256100043660135
-15.868168578504678
-15.256100043645226
-13.418181472935327
-10.331996181648726
-5.876019166696354
-5.975938851548319
-10.497917761919085
-13.613536985173335
-15.45957508828314
-16.072556452204914
-15.459575088271837
-13.613536985155156
-10.497917761900629
-5.975938851535823
-6.0300838913467185
-10.594209534482811
-13.735503571850792
-15.594060581558004
-16.21062878260647
-15.59406058155049
-13.735503571838551
-10.594209534469844
-6.0300838913372985
-6.052945131301774
-10.64245635128406
-13.807752943362676
-15.683710576902648
-16.306655396731024
-15.683710576899788
-13.807752943357613
-10.642456351277847
-6.052945131296647
-6.049653115030657
-10.653941263751303
-13.847717477659126
-15.750525999616285
-16.38432206382879
-15.750525999617743
-13.847717477660836
-10.653941263751237
-6.049653115029708
-6.016248728982437
-10.630734331664542
-13.86850325036649
-15.816779620028374
-16.469318016166774
-15.816779620035613
-13.868503250376778
-10.630734331671599
-6.0162487289851105
-5.939421196440618
-10.567620322646325
-13.88144940012073
-15.906202866092173
-16.58959317380681
-15.906202866106145
-13.88144940014133
-10.567620322662213
-5.939421196447286
-5.798483052129242
-10.458143348948893
-13.898963756780901
-16.039002318529118
-16.766444233226224
-16.03900231854969
-13.898963756812206
-10.458143348974133
-5.798483052139913
-5.578877407536263
-10.312935050123334
-13.93469670576932
-16.20770850735199
-16.97973796717328
-16.20770850738005
-13.934696705812772
-10.312935050159496
-5.57887740755079
-5.323898026911806
-10.202362218706389
-13.98305864768505
-16.304368741235027
-17.079370615993316
-16.30436874126793
-13.983058647739162
-10.202362218757111
-5.323898026936212
-5.302087750290832
-10.300187044906899
-13.893878310478947
-15.954199643862765
-16.621474341789373
-15.95419964389366
-13.893878310535243
-10.300187044970452
-5.3020877503335635
-6.414966591875488
-10.56015924637244
-12.955679570763671
-14.217351843605062
-14.614248397643888
-14.217351843624577
-12.955679570801871
-10.560159246424563
-6.414966591924497
-9.596433007793268
-11.746015470640746
-12.798592066246194
-13.334893839370046
-13.49751327140436
-13.33489383937006
-12.7985920662462
-11.746015470640728
-9.596433007793234
-2.506254343969215
-3.615331322654969
-4.1625351878494214
-4.454596226184133
-4.545541342171081
-4.454596226184162
-4.162535187849459
-3.615331322654984
-2.506254343969198
-2.0915156378872606
-2.554230445749013
-2.8389103143267387
-3.0030300619112067
-3.057331754321318
-3.00303006191122
-2.838910314326807
-2.554230445749046
-2.091515637887203
-2.379727239536417
-2.518800548658139
-2.648247112284561
-2.7397890078599207
-2.7714573536284495
-2.739789007859936
-2.6482471122846496
-2.518800548658181
-2.379727239536329
-2.6703206058272424
-2.6264068458308683
-2.6651853361939377
-2.7072312823938813
-2.7241938929531297
-2.7072312823940394
-2.6651853361941478
-2.626406845831
-2.6703206058272664
-2.872424074093744
-2.7141251284781966
-2.69243306001977
-2.699513000392909
-2.7050229834673685
-2.699513000392912
-2.6924330600198747
-2.7141251284783046
-2.8724240740937654
-2.9975530657369407
-2.766808018883016
-2.7026806574652467
-2.684101281028703
-2.6809769003116033
-2.6841012810284806
-2.702680657465213
-2.766808018883115
-2.9975530657369096
-3.0703241791187015
-2.794330917114715
-2.7006641023302342
-2.663378824563272
-2.6538203276426917
-2.6633788245632894
-2.700664102330326
-2.7943309171149413
-3.070324179118868
-3.110458046924073
-2.8070827383232975
-2.693447610870299
-2.6429110987521347
-2.628698783808928
-2.642911098752017
-2.693447610870326
-2.8070827383236154
-3.1104580469242853
-3.1306978081797183
-2.8116350737222775
-2.6849879849087386
-2.6253692132494866
-2.6079004646883828
-2.6253692132491766
-2.6849879849087097
-2.8116350737224876
-3.1306978081796695
-3.137542959336275
-2.8105573866915408
-2.675751266251856
-2.6100593554089913
-2.5903627227119705
-2.6100593554088403
-2.675751266251567
-2.810557386691211
-3.1375429593360433
-3.131968902304299
-2.8025785045698153
-2.6628180105579418
-2.593063228395249
-2.5718383626782026
-2.5930632283947475
-2.662818010557412
-2.8025785045695466
-3.131968902304307
-3.10907367534282
-2.7818711168003647
-2.6391097518709694
-2.5665278234978857
-2.544225097645473
-2.5665278234973394
-2.63910975187079
-2.7818711168007564
-3.1090736753433172
-3.056541937970675
-2.736285311187489
-2.591630923598127
-2.517069701355065
-2.4940522913961924
-2.517069701355228
-2.5916309235984043
-2.736285311187677
-3.0565419379709686
-2.953018437050999
-2.64556606013874
-2.5000104080380106
-2.424771385931586
-2.4016637180476046
-2.4247713859318556
-2.5000104080383285
-2.64556606013896
-2.9530184370514228
-2.7717076609819413
-2.4849057512930024
-2.341345554503107
-2.268977910616666
-2.2472599716755433
-2.268977910616935
-2.3413455545033353
-2.4849057512933124
-2.7717076609820883
-2.5127604803371058
-2.258445247369052
-2.127367031943453
-2.0660086061202665
-2.048474727712896
-2.066008606119973
-2.1273670319430127
-2.2584452473685297
-2.512760480336584
-2.372057184597461
-2.1739632601223313
-2.079850562310199
-2.041231018479592
-2.0312061491703157
-2.041231018479543
-2.079850562309987
-2.1739632601219236
-2.372057184597363
-3.7286789132794005
-3.628424432355113
-3.5908003339686774
-3.5793266825462347
-3.5770622782690604
-3.5793266825463976
-3.5908003339685632
-3.62842443235495
-3.728678913279433
-7.345329979205397
-7.238808949947092
-7.204222647012548
-7.194871859220905
-7.193126786067204
-7.194871859220563
-7.204222647011977
-7.238808949946815
-7.345329979205349
-10.505609760511126
-10.265560707716503
-10.18770451520216
-10.157988173392829
-10.150491574785114
-10.157988173392958
-10.18770451520185
-10.265560707716503
-10.505609760511582
-11.852591180955098
-11.501303612473949
-11.3960319949779
-11.351605787795927
-11.33946822929959
-11.35160578779671
-11.396031994977948
-11.501303612473718
-11.852591180955718
-12.504082522102573
-12.08494263664481
-11.962522718151659
-11.911178092242999
-11.896896667641546
-11.911178092243746
-11.962522718152181
-12.084942636644515
-12.504082522102996
-12.704128740892795
-12.262626396856614
-12.134021828043426
-12.080641592421294
-12.065805622500273
-12.08064159242113
-12.134021828043231
-12.262626396856287
-12.704128740893122
-12.504082522112782
-12.084942636653906
-11.962522718161278
-11.911178092252324
-11.896896667649568
-11.911178092250923
-11.96252271815978
-12.084942636653157
-12.504082522112682
-11.852591180976471
-11.501303612493853
-11.3960319949981
-11.351605787816375
-11.339468229318484
-11.35160578781409
-11.39603199499585
-11.501303612492713
-11.852591180975983
-10.505609760547028
-10.265560707751508
-10.18770451523718
-10.157988173428304
-10.15049157481997
-10.157988173426382
-10.187704515235158
-10.265560707750366
-10.505609760546538
-7.34532997924976
-7.238808949991177
-7.20422264705709
-7.1948718592660015
-7.193126786112235
-7.194871859264959
-7.204222647056177
-7.2388089499906885
-7.345329979249174
-3.728678913319606
-3.628424432394845
-3.590800334008997
-3.5793266825873857
-3.5770622783103088
-3.5793266825873857
-3.590800334009388
-3.628424432395237
-3.7286789133194755
-2.3720571846215583
-2.1739632601457273
-2.079850562333986
-2.041231018504064
-2.0312061491952607
-2.041231018504618
-2.079850562334345
-2.1739632601457273
-2.372057184621526
-2.512760480344573
-2.258445247376682
-2.127367031951246
-2.066008606128255
-2.048474727721097
-2.0660086061284835
-2.127367031951083
-2.2584452473762253
-2.512760480344508
-2.7717076609854954
-2.4849057512969646
-2.341345554506156
-2.268977910619201
-2.2472599716780297
-2.268977910619495
-2.3413455545064163
-2.4849057512968993
-2.7717076609853324
-2.9530184370546024
-2.6455660601420905
-2.500010408040301
-2.42477138593298
-2.4016637180487863
-2.4247713859332736
-2.500010408040562
-2.6455660601422535
-2.953018437054733
-3.0565419379732672
-2.736285311190163
-2.591630923600369
-2.5170697013565078
-2.49405229139726
-2.5170697013564425
-2.5916309236000594
-2.7362853111902607
-3.0565419379740018
-3.1090736753443933
-2.7818711168021504
-2.6391097518724855
-2.5665278234989457
-2.5442250976464185
-2.566527823498408
-2.6391097518719477
-2.7818711168022476
-3.1090736753447032
-3.1319689023039197
-2.8025785045691998
-2.662818010556996
-2.5930632283942745
-2.5718383626773096
-2.5930632283939157
-2.6628180105570287
-2.8025785045697056
-3.131968902304132
-3.1375429593327375
-2.8105573866880107
-2.6757512662479312
-2.610059355404642
-2.5903627227076544
-2.61005935540474
-2.675751266247833
-2.8105573866880764
-3.137542959333047
-3.1306978081734593
-2.8116350737160394
-2.684987984901862
-2.6253692132418154
-2.607900464680504
-2.6253692132417012
-2.684987984901536
-2.8116350737156806
-3.1306978081734274
-3.110458046916074
-2.8070827383147585
-2.6934476108606162
-2.6429110987415902
-2.6286987837980553
-2.6429110987414925
-2.6934476108606322
-2.807082738314498
-3.1104580469156335
-3.0703241791095994
-2.7943309171042277
-2.7006641023182714
-2.6633788245500924
-2.653820327628908
-2.6633788245499135
-2.7006641023181084
-2.794330917103983
-3.0703241791092326
-2.9975530657276463
-2.766808018871053
-2.7026806574512006
-2.684101281012972
-2.6809769002952057
-2.684101281012858
-2.7026806574511517
-2.7668080188710364
-2.9975530657275073
-2.8724240740846008
-2.7141251284644934
-2.692433060003142
-2.699513000374302
-2.7050229834480892
-2.6995130003743997
-2.692433060003231
-2.7141251284645342
-2.87242407408456
-2.670320605817567
-2.626406845814099
-2.665185336173014
-2.707231282370323
-2.7241938929287137
-2.70723128237047
-2.665185336173059
-2.626406845814066
-2.6703206058175017
-2.3797272395237705
-2.5188005486345584
-2.648247112254751
-2.7397890078264138
-2.771457353593772
-2.7397890078264666
-2.6482471122547633
-2.518800548634554
-2.3797272395237745
-2.091515637859295
-2.5542304457036247
-2.8389103142716485
-3.00303006185118
-3.0573317542598213
-3.0030300618512147
-2.8389103142716694
-2.5542304457036185
-2.0915156378592625
-2.506254343889252
-3.615331322549654
-4.1625351877310575
-4.454596226059932
-4.545541342045168
-4.454596226059964
-4.16253518773109
-3.6153313225496735
-2.506254343889248
-9.596433007707512
-11.746015470533186
-12.798592066129254
-13.334893839248958
-13.497513271282017
-13.334893839248966
-12.798592066129263
-11.746015470533187
-9.596433007707507
-12.830790699212672
-15.716232775964672
-17.128482753148134
-17.831307981673394
-18.04435064503604
-17.83130798167339
-17.12848275314812
-15.716232775964638
-12.830790699212628
-7.357989533217829
-10.336050215451047
-11.73310829914995
-12.424546575769858
-12.6333278449917
-12.424546575769835
-11.733108299149913
-10.336050215450994
-7.3579895332177605
-4.187387932756312
-7.1126241511203805
-8.4563065503629
-9.117241677517455
-9.316976101187443
-9.117241677517438
-8.456306550362859
-7.112624151120318
-4.187387932756231
-2.728620717767254
-5.634498138217918
-6.9456846302030435
-7.586810118430487
-7.780247064486911
-7.586810118430475
-6.945684630203006
-5.634498138217854
-2.728620717767167
-2.2875797395096598
-5.188441910076396
-6.488615163912301
-7.122096286480714
-7.313084959380657
-7.122096286480699
-6.4886151639122644
-5.188441910076333
-2.287579739509568
-2.7286207177179618
-5.634498138169408
-6.945684630153635
-7.586810118380474
-7.780247064436674
-7.586810118380452
-6.945684630153601
-5.634498138169349
-2.728620717717869
-4.187387932664104
-7.112624151029591
-8.456306550270524
-9.117241677424111
-9.316976101093745
-9.117241677424094
-8.4563065502705
-7.112624151029542
-4.187387932664019
-7.357989533106981
-10.336050215343086
-11.733108299040365
-12.42454657565932
-12.633327844880816
-12.42454657565932
-11.733108299040357
-10.336050215343047
-7.357989533106911
-12.830790699183554
-15.716232775944752
-17.128482753129738
-17.83130798165569
-18.044350645018522
-17.831307981655694
-17.128482753129724
-15.716232775944714
-12.830790699183503
-7.847591723790213
-6.499513669140953
-4.768495389252669
-3.7910791116774654
-3.474756135023388
-3.7910791117173726
-4.768495389318871
-6.499513669196768
-7.847591723773869
-4.2674054229802945
-7.5783925450569765
-8.504393910204003
-8.644644359882223
-8.645740451644285
-8.6446443598952
-8.504393910211387
-7.578392545028005
-4.26740542292078
-3.932132555860204
-7.715992665870082
-10.205380222898519
-11.371639720980705
-11.703901859610657
-11.371639720968272
-10.205380222865271
-7.71599266581844
-3.9321325558232645
-4.463249594027954
-8.363103297107596
-11.252231776232218
-12.927230637958804
-13.459932073840822
-12.927230637935084
-11.252231776189333
-8.363103297064566
-4.463249594007224
-5.015856258425711
-9.07908410295681
-12.064960784008738
-13.881420795174876
-14.48730523193382
-13.881420795150097
-12.064960783969303
-9.079084102922424
-5.0158562584100075
-5.430536895943464
-9.656140356868875
-12.679266400134427
-14.51688607344487
-15.133907262417928
-14.516886073422937
-12.67926640010052
-9.656140356839293
-5.430536895928653
-5.705616746787877
-10.064338045334049
-13.11875207045676
-14.954684365737767
-15.56893293454185
-14.954684365719306
-13.11875207042793
-10.06433804530746
-5.70561674677277
-5.876019166710563
-10.331996181671313
-13.418181472958608
-15.25610004365975
-15.868168578504338
-15.256100043644803
-13.418181472934764
-10.33199618164809
-5.87601916669584
-5.975938851548132
-10.49791776191882
-13.613536985173026
-15.459575088282707
-16.072556452204555
-15.459575088271535
-13.613536985154823
-10.497917761900197
-5.975938851535382
-6.030083891346381
-10.59420953448252
-13.7355035718506
-15.594060581557777
-16.21062878260631
-15.59406058155044
-13.735503571838683
-10.594209534470039
-6.030083891337461
-6.0529451313013904
-10.642456351283721
-13.807752943362846
-15.683710576903097
-16.306655396731422
-15.683710576900022
-13.807752943357727
-10.642456351277914
-6.052945131296842
-6.049653115030421
-10.653941263750927
-13.847717477659115
-15.750525999616473
-16.384322063829273
-15.750525999618526
-13.84771747766157
-10.653941263751644
-6.04965311502974
-6.016248728982315
-10.630734331664124
-13.868503250366302
-15.816779620028154
-16.469318016166696
-15.816779620035662
-13.868503250377332
-10.630734331672464
-6.016248728985519
-5.939421196440756
-10.567620322646366
-13.881449400120877
-15.90620286609209
-16.589593173806616
-15.906202866105804
-13.881449400141332
-10.567620322662783
-5.939421196448036
-5.798483052129878
-10.45814334894953
-13.898963756781392
-16.03900231852928
-16.766444233226288
-16.039002318549777
-13.89896375681219
-10.458143348974131
-5.79848305213993
-5.578877407536295
-10.312935050123482
-13.93469670576945
-16.20770850735222
-16.97973796717357
-16.207708507380165
-13.934696705812787
-10.312935050159707
-5.578877407550887
-5.32389802691148
-10.202362218706241
-13.983058647684855
-16.30436874123491
-17.079370615993607
-16.304368741268465
-13.983058647739668
-10.202362218757534
-5.323898026936538
-5.302087750290897
-10.300187044906933
-13.893878310478831
-15.95419964386234
-16.62147434178911
-15.954199643893759
-13.893878310535504
-10.30018704497068
-5.302087750333662
-6.414966591875439
-10.560159246372603
-12.95567957076403
-14.217351843605371
-14.61424839764413
-14.217351843624447
-12.955679570801644
-10.560159246424758
-6.41496659192453
-9.50970884910911
-11.973418128537894
-13.206487565195598
-13.826729486604997
-14.015494125466663
-13.826729486605027
-13.2064875651956
-11.973418128537855
-9.509708849109053
-8.329328643689351
-11.076505372679078
-12.478713647941888
-13.176526999511008
-13.389493830258754
-13.17652699951103
-12.47871364794188
-11.076505372679028
-8.32932864368927
-6.571063194146147
-9.270717092807097
-10.640273159509679
-11.320156447076297
-11.527569761707902
-11.320156447076279
-10.640273159509652
-9.270717092807047
-6.57106319414606
-5.590101327496653
-8.266305533398807
-9.602800816356064
-10.26347484909802
-10.464835588965784
-10.263474849097994
-9.602800816356012
-8.266305533398736
-5.590101327496561
-5.2737488636649985
-7.943366840116386
-9.268099545441565
-9.92112566923572
-10.120044335514578
-9.921125669235696
-9.268099545441514
-7.9433668401163136
-5.273748863664904
-5.590101327534899
-8.266305533435624
-9.602800816393511
-10.263474849136095
-10.464835589004082
-10.263474849136076
-9.602800816393472
-8.266305533435558
-5.590101327534811
-6.571063194209211
-9.27071709286719
-10.640273159570416
-11.320156447137801
-11.527569761769682
-11.32015644713778
-10.640273159570373
-9.270717092867123
-6.571063194209127
-8.32932864373943
-11.076505372722046
-12.478713647983266
-13.176526999552152
-13.389493830299854
-13.176526999552127
-12.478713647983222
-11.07650537272199
-8.329328643739355
-9.509708849081258
-11.97341812849395
-13.206487565145196
-13.826729486551963
-14.015494125412838
-13.826729486551955
-13.206487565145178
-11.97341812849393
-9.509708849081221
-5.290271237227076
-6.866123925785145
-7.728795297532794
-8.178460227382674
-8.318440659796297
-8.178460227382725
-7.728795297532825
-6.866123925785128
-5.290271237227017
-8.873356372094326
-10.964351397763876
-12.202302558639687
-12.843615633385834
-13.043008745888498
-12.843615633385872
-12.202302558639698
-10.964351397763831
-8.873356372094236
-9.810096771374255
-11.945152275751006
-13.240294946427856
-13.91617301147562
-14.126261049053133
-13.9161730114756
-13.240294946427834
-11.945152275750958
-9.810096771374162
-9.948716729979786
-12.075416782814083
-13.36149923459041
-14.03431763224257
-14.24368126085524
-14.034317632242537
-13.361499234590365
-12.075416782814006
-9.94871672997968
-9.949664530918527
-12.072315280741556
-13.351958286391149
-14.021196279727207
-14.229517937962566
-14.021196279727178
-13.351958286391088
-12.07231528074147
-9.949664530918422
-9.948716729990245
-12.075416782821334
-13.361499234596858
-14.034317632248923
-14.243681260861594
-14.03431763224888
-13.361499234596792
-12.075416782821263
-9.94871672999016
-9.810096771376461
-11.945152275745805
-13.240294946419645
-13.916173011466384
-14.126261049043638
-13.916173011466332
-13.240294946419574
-11.945152275745725
-9.810096771376365
-8.873356372055701
-10.964351397709764
-12.20230255857724
-12.843615633319889
-13.043008745821552
-12.84361563331985
-12.20230255857718
-10.964351397709681
-8.873356372055582
-5.290271237152975
-6.866123925687855
-7.728795297422991
-8.178460227267365
-8.318440659679379
-8.178460227267365
-7.728795297422987
-6.866123925687832
-5.2902712371529095
-4.414342580363368
-5.219809215972688
-5.74292818812347
-6.038610438047259
-6.134430326926541
-6.038610438047294
-5.7429281881235195
-5.2198092159727025
-4.414342580363304
-8.448155156709849
-9.719338431077347
-10.59288279004387
-11.085462086412257
-11.24351780734193
-11.08546208641224
-10.592882790043856
-9.71933843107732
-8.448155156709781
-11.002386000326037
-12.422925222061753
-13.43973092459964
-14.018887370120414
-14.20477155741156
-14.018887370120336
-13.43973092459957
-12.422925222061696
-11.002386000325956
-12.179376789347277
-13.630948359103304
-14.685401984869605
-15.290889015461925
-15.485756921677499
-15.29088901546185
-14.685401984869529
-13.63094835910324
-12.179376789347177
-12.513122368619626
-13.969335150037102
-15.030161638702458
-15.640736649318878
-15.83747744367855
-15.640736649318827
-15.030161638702388
-13.96933515003704
-12.513122368619541
-12.17937678933149
-13.630948359082218
-14.68540198484547
-15.290889015436257
-15.485756921651394
-15.29088901543621
-14.685401984845397
-13.630948359082172
-12.179376789331428
-11.002386000285647
-12.422925222009447
-13.439730924539916
-14.018887370056916
-14.20477155734699
-14.018887370056895
-13.439730924539877
-12.422925222009393
-11.002386000285554
-8.448155156646397
-9.719338430993888
-10.592882789947787
-11.085462086309844
-11.24351780723769
-11.085462086309851
-10.59288278994779
-9.719338430993801
-8.44815515664624
-4.414342580313612
-5.2198092159020835
-5.742928188040443
-6.038610437958009
-6.134430326835448
-6.03861043795802
-5.742928188040456
-5.2198092159020355
-4.414342580313507
-4.620039673467259
-4.931060539304242
-5.202486212459656
-5.3806675092877105
-5.44165391935815
-5.380667509287784
-5.20248621245975
-4.931060539304271
-4.620039673467197
-8.65461123329689
-9.241270372708826
-9.750602744945864
-10.074586874211727
-10.184389834463211
-10.074586874211725
-9.750602744945866
-9.241270372708803
-8.654611233296855
-11.60607734757663
-12.337125484177792
-12.98831375160038
-13.401856604751107
-13.54141375573601
-13.401856604751051
-12.988313751600296
-12.337125484177713
-11.606077347576582
-13.298978668880373
-14.082004979462234
-14.794809832150904
-15.250119291925142
-15.403902178671096
-15.250119291925131
-14.794809832150836
-14.082004979462148
-13.298978668880295
-13.834673001796498
-14.628979206027983
-15.357472338348728
-15.824153112046101
-15.98190602969865
-15.82415311204608
-15.35747233834867
-14.628979206027898
-13.834673001796396
-13.298978668853053
-14.082004979428518
-14.794809832112698
-15.250119291884397
-15.40390217862953
-15.25011929188437
-14.794809832112646
-14.082004979428456
-13.29897866885296
-11.60607734752634
-12.337125484114248
-12.988313751527546
-13.401856604673117
-13.541413755656428
-13.401856604673139
-12.988313751527565
-12.337125484114207
-11.606077347526233
-8.654611233243159
-9.24127037263643
-9.750602744860906
-10.07458687411994
-10.184389834369323
-10.07458687411999
-9.75060274486096
-9.24127037263635
-8.654611233243003
-4.620039673436839
-4.931060539258094
-5.202486212403718
-5.380667509226335
-5.441653919295034
-5.380667509226363
-5.2024862124037305
-4.931060539258034
-4.620039673436757
-4.972649844296015
-4.9716095231408355
-5.067761922194476
-5.155172453930847
-5.188596679588152
-5.155172453931041
-5.067761922194697
-4.971609523140951
-4.972649844296043
-9.075184318827503
-9.17379837996783
-9.384006258003343
-9.554795008614365
-9.617889726459508
-9.55479500861443
-9.38400625800346
-9.17379837996789
-9.075184318827507
-12.096845130325864
-12.283668644515178
-12.587641707933798
-12.82163268156668
-12.906589759653158
-12.821632681566694
-12.587641707933827
-12.283668644515192
-12.09684513032585
-13.9271465215474
-14.157037342100468
-14.514408907846974
-14.785315376140243
-14.88301537286765
-14.785315376140296
-14.514408907847013
-14.157037342100468
-13.927146521547353
-14.535992337325933
-14.777521954646598
-15.151208407627998
-15.433841780897279
-15.535631213113824
-15.433841780897254
-15.151208407627976
-14.777521954646545
-14.53599233732583
-13.927146521519441
-14.157037342066486
-14.514408907808289
-14.785315376098701
-14.883015372825117
-14.78531537609863
-14.51440890780816
-14.15703734206636
-13.927146521519333
-12.096845130280201
-12.2836686444578
-12.587641707867572
-12.821632681495274
-12.906589759580033
-12.821632681495203
-12.587641707867487
-12.283668644457716
-12.096845130280084
-9.07518431878493
-9.173798379910425
-9.384006257935393
-9.554795008540342
-9.617889726383506
-9.554795008540342
-9.384006257935368
-9.17379837991031
-9.07518431878475
-4.972649844273664
-4.97160952310728
-5.067761922153631
-5.15517245388568
-5.1885966795415355
-5.155172453885763
-5.067761922153617
-4.971609523107157
-4.972649844273521
-5.262631023451964
-5.0610843271492385
-5.034793927886273
-5.053496268261683
-5.06484818408889
-5.053496268261771
-5.034793927886347
-5.061084327149278
-5.262631023451971
-9.46114569810629
-9.23016819071456
-9.216301271861349
-9.261421445532937
-9.284425689428701
-9.261421445532992
-9.216301271861354
-9.23016819071454
-9.461145698106247
-12.494360268033272
-12.292168338063945
-12.314877937839427
-12.388564525076406
-12.422255714669927
-12.388564525076443
-12.31487793783942
-12.292168338063892
-12.494360268033152
-14.337639721528308
-14.157445867159948
-14.210479860139053
-14.30576696862877
-14.347072581687849
-14.305766968628822
-14.210479860139062
-14.157445867159883
-14.337639721528138
-14.956012330385855
-14.782847913792981
-14.846651592560248
-14.949768242030533
-14.993811728173002
-14.949768242030508
-14.846651592560224
-14.782847913792942
-14.95601233038569
-14.337639721503852
-14.157445867130525
-14.21047986010552
-14.305766968592675
-14.347072581650862
-14.305766968592662
-14.210479860105444
-14.157445867130427
-14.337639721503677
-12.494360267994672
-12.292168338016186
-12.31487793778437
-12.388564525016974
-12.422255714609015
-12.388564525016978
-12.31487793778437
-12.292168338016111
-12.494360267994473
-9.461145698070919
-9.230168190668373
-9.216301271807009
-9.261421445473761
-9.284425689367934
-9.261421445473822
-9.216301271807028
-9.230168190668255
-9.46114569807072
-5.262631023432775
-5.061084327122399
-5.03479392785407
-5.053496268226154
-5.0648481840522415
-5.053496268226251
-5.0347939278540785
-5.061084327122298
-5.262631023432654
-5.460542406487162
-5.130263150156139
-5.01837013778743
-4.986044194792328
-4.9804063481358245
-4.98604419479227
-5.018370137787384
-5.130263150156102
-5.460542406487024
-9.748166206740267
-9.300270125163568
-9.126439008250433
-9.075482954218906
-9.066633774117868
-9.07548295421892
-9.126439008250351
-9.30027012516343
-9.748166206740073
-12.79303533107846
-12.326716504681581
-12.140945440656093
-12.087055348956259
-12.078334234263632
-12.08705534895629
-12.14094544065603
-12.32671650468143
-12.793035331078237
-14.626999505507172
-14.16173169223135
-13.981876307755968
-13.93264293626929
-13.925681996213159
-13.932642936269351
-13.981876307755915
-14.16173169223116
-14.626999505506879
-15.240729015095134
-14.776852343991052
-14.600680132583818
-14.554153974500196
-14.548127276166822
-14.554153974500164
-14.600680132583694
-14.77685234399081
-15.240729015094793
-14.626999505486967
-14.161731692207573
-13.981876307729136
-13.932642936240505
-13.925681996183652
-13.932642936240473
-13.981876307729006
-14.161731692207336
-14.626999505486625
-12.793035331046442
-12.32671650464318
-12.140945440612501
-12.087055348909404
-12.078334234215607
-12.087055348909402
-12.140945440612484
-12.32671650464308
-12.793035331046159
-9.748166206709904
-9.300270125126051
-9.126439008207301
-9.07548295417217
-9.066633774069892
-9.075482954172218
-9.126439008207239
-9.300270125125909
-9.748166206709648
-5.460542406469408
-5.130263150133622
-5.018370137761218
-4.986044194763526
-4.980406348106088
-4.986044194763505
-5.0183701377611
-5.130263150133488
-5.46054240646922
-5.584190971806628
-5.172648734784577
-5.0019581021864425
-4.932743904353956
-4.914506297001715
-4.932743904354
-5.001958102186523
-5.172648734784663
-5.58419097180656
-9.940830644077629
-9.353668022390153
-9.069573348235508
-8.948836585266672
-8.916197412359015
-8.948836585266683
-9.06957334823553
-9.353668022390103
-9.940830644077405
-13.003677724658509
-12.364407257841707
-12.032513957955468
-11.884464817418955
-11.843542258252322
-11.884464817418948
-12.032513957955388
-12.364407257841572
-13.003677724658267
-14.833739059036866
-14.178996130065448
-13.833153761032914
-13.675501927057315
-13.631310517766114
-13.67550192705724
-13.833153761032657
-14.178996130065158
-14.833739059036553
-15.443726192413148
-14.785547236768537
-14.43717420057788
-14.27763840565968
-14.232739077379026
-14.277638405659491
-14.43717420057747
-14.785547236768084
-15.443726192412774
-14.833739059020925
-14.178996130047338
-13.833153761012763
-13.67550192703585
-13.631310517744186
-13.675501927035665
-13.833153761012388
-14.178996130046869
-14.833739059020473
-13.003677724632922
-12.364407257812262
-12.032513957922667
-11.884464817383908
-11.843542258216395
-11.884464817383682
-12.03251395792238
-12.36440725781192
-13.003677724632446
-9.940830644052456
-9.35366802236079
-9.069573348202624
-8.948836585231291
-8.916197412322667
-8.948836585231074
-9.0695733482023
-9.35366802236042
-9.940830644051935
-5.584190971790818
-5.172648734766119
-5.001958102165604
-4.9327439043313115
-4.914506296978323
-4.932743904331144
-5.001958102165331
-5.172648734765777
-5.58419097179037
-5.6567420138523685
-5.195378487238216
-4.985445404403558
-4.890438886458567
-4.863198762430004
-4.89043888645852
-4.985445404403581
-5.195378487238359
-5.656742013852375
-10.061821283098473
-9.38790180846782
-9.030332589329369
-8.861026800138934
-8.81146723427693
-8.861026800139001
-9.030332589329413
-9.387901808467781
-10.061821283098304
-13.144836739908952
-12.396087062014127
-11.966081329085487
-11.752217531808636
-11.688310034830012
-11.752217531808684
-11.966081329085462
-12.396087062013988
-13.144836739908701
-14.978767926363624
-14.202713818224513
-13.744439944204139
-13.510483623281822
-13.439554230160242
-13.51048362328164
-13.744439944203847
-14.202713818224193
-14.978767926363236
-15.588478958322412
-14.805382893199784
-14.339939210955414
-14.100619109055168
-14.027724118159092
-14.10061910905486
-14.339939210954945
-14.805382893199353
-15.58847895832204
-14.978767926351765
-14.202713818211443
-13.744439944189814
-13.510483623266612
-13.439554230144756
-13.510483623266431
-13.744439944189416
-14.20271381821101
-14.978767926351427
-13.144836739889765
-12.396087061992807
-11.966081329062057
-11.752217531783717
-11.68831003480453
-11.752217531783579
-11.96608132906174
-12.396087061992379
-13.144836739889374
-10.061821283078944
-9.387901808446069
-9.030332589305365
-8.861026800113315
-8.811467234250768
-8.861026800113274
-9.030332589305221
-9.387901808445744
-10.061821283078515
-5.65674201383938
-5.195378487223936
-4.985445404387628
-4.8904388864414585
-4.863198762412551
-4.8904388864414585
-4.985445404387649
-5.195378487223704
-5.656742013838953
-5.695840796189194
-5.205368887642143
-4.970159404679118
-4.8577334177496745
-4.824288100393641
-4.857733417749498
-4.970159404679122
-5.205368887642189
-5.69584079618898
-10.132552581587596
-9.406844872270788
-9.0020783901718
-8.800258360604182
-8.739154056713906
-8.800258360604143
-9.002078390171873
-9.4068448722707
-10.132552581587307
-13.23511763956392
-12.419726456322635
-11.926406333184712
-11.668556857076208
-11.589022253151139
-11.668556857076146
-11.926406333184769
-12.419726456322568
-13.235117639563713
-15.07849267616739
-14.227616666865211
-13.696376165705617
-13.411327029570705
-13.322210290683746
-13.411327029570563
-13.696376165705509
-14.227616666865023
-15.078492676167134
-15.69087145218134
-14.830367464062466
-14.288765620933473
-13.995959443944857
-13.904008452391434
-13.995959443944724
-14.288765620933269
-14.830367464062176
-15.6908714521811
-15.07849267615956
-14.227616666856713
-13.696376165696371
-13.411327029560875
-13.32221029067378
-13.411327029560837
-13.696376165696254
-14.227616666856534
-15.078492676159456
-13.235117639551147
-12.419726456308712
-11.926406333169618
-11.668556857060146
-11.589022253134726
-11.668556857060077
-11.926406333169464
-12.419726456308574
-13.235117639551172
-10.132552581574135
-9.406844872256277
-9.002078390156075
-8.80025836058733
-8.739154056696696
-8.800258360587392
-9.002078390155969
-9.406844872256173
-10.13255258157424
-5.695840796179672
-5.205368887632191
-4.970159404668239
-4.857733417737859
-4.824288100381634
-4.857733417737932
-4.970159404668101
-5.205368887632004
-5.69584079617972
-5.7116745469917864
-5.205833384740814
-4.955035454123047
-4.8312112596502566
-4.793614417854325
-4.831211259650372
-4.95503545412298
-5.205833384740484
-5.71167454699137
-10.16777416123622
-9.413425013266277
-8.979684613491246
-8.756924669825704
-8.688238168013203
-8.756924669825912
-8.97968461349129
-9.413425013266007
-10.16777416123583
-13.290091855050772
-12.436327467641474
-11.903939608548388
-11.617970007814675
-11.528284967076669
-11.617970007814655
-11.903939608548264
-12.436327467641313
-13.290091855050786
-15.14837553379035
-14.253270218477851
-13.676718111190151
-13.359058840895287
-13.258181405687996
-13.359058840895347
-13.676718111190006
-14.253270218477752
-15.148375533790611
-15.766309545303482
-14.85962614541428
-14.270606590270777
-13.94366384191997
-13.8394031002511
-13.943663841920046
-14.270606590270612
-14.85962614541426
-15.766309545303805
-15.148375533787199
-14.2532702184742
-13.676718111186027
-13.359058840890707
-13.2581814056832
-13.359058840890722
-13.676718111185933
-14.253270218474272
-15.148375533787448
-13.290091855045338
-12.43632746763523
-11.903939608541325
-11.617970007806926
-11.528284967068627
-11.617970007806939
-11.903939608541325
-12.436327467635333
-13.290091855045484
-10.167774161229747
-9.413425013259136
-8.979684613483322
-8.756924669817135
-8.688238168004279
-8.75692466981721
-8.979684613483427
-9.413425013259316
-10.167774161229902
-5.711674546986647
-5.20583338473544
-4.9550354541171
-4.831211259643823
-4.793614417847767
-4.831211259643968
-4.955035454117174
-5.2058333847356035
-5.711674546986892
-5.707065091391499
-5.19540383324677
-4.935547991462711
-4.804445530256309
-4.764125676328366
-4.804445530256185
-4.935547991462471
-5.1954038332464805
-5.707065091391238
-10.174685335608887
-9.407291345618031
-8.956983738199433
-8.721358597637671
-8.647903002646158
-8.72135859763775
-8.956983738199323
-9.407291345617839
-10.174685335608604
-13.321900392739902
-12.448152434879589
-11.89323268412335
-11.59035763875582
-11.494471471203415
-11.5903576387556
-11.893232684123106
-12.44815243487965
-13.321900392740009
-15.204421257158797
-14.284447305048976
-13.681427451708661
-13.344316072923935
-13.236355337827126
-13.344316072923727
-13.68142745170858
-14.284447305049175
-15.204421257159026
-15.832251119577322
-14.898943269651534
-14.28207903920234
-13.934806231494484
-13.823160748561468
-13.934806231494424
-14.282079039202408
-14.898943269651749
-15.832251119577688
-15.204421257160305
-14.284447305050321
-13.681427451709562
-13.344316072924595
-13.236355337827849
-13.344316072924634
-13.681427451709709
-14.284447305050623
-15.204421257160885
-13.321900392741615
-12.448152434881028
-11.893232684124143
-11.590357638756151
-11.494471471203742
-11.590357638756185
-11.893232684124209
-12.448152434881404
-13.321900392742258
-10.174685335608887
-9.407291345617832
-8.956983738198687
-8.721358597636408
-8.647903002644576
-8.721358597636335
-8.956983738198794
-9.407291345618354
-10.174685335609425
-5.70706509139065
-5.195403833245745
-4.935547991461272
-4.804445530254606
-4.764125676326472
-4.804445530254387
-4.935547991461434
-5.195403833246331
-5.707065091390968
-5.677249105964963
-5.167252029846493
-4.9026899560410575
-4.767068381333848
-4.7250114273309105
-4.767068381333502
-4.902689956040968
-5.167252029846692
-5.677249105965012
-10.153216924436265
-9.384001323706244
-8.925715050025895
-8.682944308179163
-8.606761646510968
-8.682944308179122
-8.925715050026092
-9.384001323706425
-10.15321692443607
-13.340212984431657
-12.458426139376847
-11.892449040952208
-11.580830337194085
-11.481692152740546
-11.580830337194149
-11.892449040952599
-12.45842613937711
-13.340212984431577
-15.264600332692666
-14.331289871470712
-13.714764698187302
-13.367859532774226
-13.256348366758273
-13.367859532774405
-13.714764698187793
-14.331289871470922
-15.264600332692492
-15.909784008809448
-14.961097168709586
-14.329791254312727
-13.972338068350673
-13.857037964042993
-13.97233806835096
-14.329791254313152
-14.961097168709708
-15.909784008809341
-15.264600332699866
-14.331289871477672
-13.71476469819391
-13.367859532780649
-13.256348366764708
-13.367859532780788
-13.71476469819409
-14.331289871477646
-15.264600332699816
-13.340212984442008
-12.458426139386924
-11.892449040961724
-11.580830337203203
-11.481692152749519
-11.580830337203153
-11.892449040961765
-12.458426139387047
-13.340212984442365
-10.153216924443724
-9.384001323713793
-8.92571505003287
-8.682944308185599
-8.606761646517075
-8.682944308185256
-8.925715050032732
-9.38400132371411
-10.153216924444392
-5.677249105968053
-5.167252029849827
-4.902689956043988
-4.767068381336244
-4.725011427333001
-4.767068381335683
-4.902689956043588
-5.167252029850046
-5.677249105968484
-5.609270488526796
-5.108040435500214
-4.841942746098439
-4.703974892907214
-4.6610253840049936
-4.703974892907201
-4.841942746098471
-5.108040435500303
-5.609270488526918
-10.097317028441132
-9.335529270757693
-8.87604775776188
-8.630944845858133
-8.553838983471916
-8.630944845858064
-8.876047757761926
-9.335529270757847
-10.097317028441227
-13.354020933227563
-12.472198921390392
-11.904199749856836
-11.590828009456398
-11.491061895645537
-11.590828009456601
-11.904199749857149
-12.472198921390586
-13.354020933227691
-15.34926923269554
-14.408780359768855
-13.78869449806133
-13.44023442558902
-13.328304975294307
-13.440234425589427
-13.788694498061764
-14.40878035976905
-15.349269232695548
-16.023131616739082
-15.064425858463128
-14.428830443337816
-14.06982243952599
-13.954165649631367
-14.069822439526252
-14.428830443338084
-15.064425858463357
-16.023131616739096
-15.349269232709194
-14.408780359782167
-13.788694498074717
-13.440234425602323
-13.328304975307267
-13.440234425602135
-13.788694498074497
-14.408780359782183
-15.349269232709112
-13.354020933247838
-12.472198921410158
-11.904199749876383
-11.590828009475707
-11.491061895664494
-11.590828009475405
-11.904199749876138
-12.472198921410222
-13.35402093324797
-10.097317028457127
-9.33552927077342
-8.87604775777708
-8.630944845873051
-8.553838983486507
-8.630944845872587
-8.876047757776933
-9.335529270773748
-10.097317028457656
-5.609270488533685
-5.108040435507069
-4.841942746104781
-4.703974892913005
-4.661025384010333
-4.70397489291259
-4.841942746104504
-5.108040435507331
-5.609270488534353
-5.483538501079458
-4.999201163600462
-4.735063310010414
-4.597717685635911
-4.555117128422262
-4.597717685635985
-4.735063310010479
-4.999201163600617
-5.483538501079922
-10.000371617281914
-9.25528742357189
-8.802258241605585
-8.560874630120852
-8.485207738559335
-8.5608746301207
-8.802258241605458
-9.255287423572033
-10.000371617282394
-13.373948978714298
-12.498329089322471
-11.938061126589144
-11.631187742266574
-11.533977209352065
-11.631187742266492
-11.938061126589144
-12.49832908932261
-13.37394897871464
-15.475843460033815
-14.53122581417249
-13.91779171681802
-13.577108946297365
-13.468401485765048
-13.577108946297258
-13.917791716818085
-14.531225814172506
-15.475843460033856
-16.190473632100442
-15.223532029787066
-14.59386145169158
-14.242927682968551
-14.130693491153174
-14.242927682968233
-14.593861451691547
-15.223532029786968
-16.190473632100336
-15.475843460053909
-14.53122581419212
-13.917791716837716
-13.577108946316955
-13.468401485784431
-13.57710894631661
-13.917791716837527
-14.531225814192087
-15.475843460053927
-13.373948978744885
-12.498329089352275
-11.938061126618711
-11.631187742295749
-11.533977209381046
-11.63118774229561
-11.938061126618598
-12.498329089352445
-13.37394897874504
-10.000371617306895
-9.25528742359631
-8.802258241629326
-8.560874630143982
-8.48520773858227
-8.560874630143942
-8.802258241629279
-9.25528742359647
-10.000371617307067
-5.483538501090255
-4.9992011636109535
-4.735063310019951
-4.59771768564465
-4.555117128430732
-4.597717685644756
-4.735063310020026
-4.999201163611068
-5.4835385010903845
-5.286568054235127
-4.829755358937807
-4.574529975996387
-4.444013934729776
-4.404219934408495
-4.444013934729984
-4.574529975996606
-4.829755358938108
-5.286568054235339
-9.872992508119435
-9.156345427962712
-8.722668650009103
-8.495449538400468
-8.42520266659262
-8.495449538400598
-8.722668650009389
-9.156345427962998
-9.872992508119637
-13.412576109327082
-12.550790810805008
-12.013311387593607
-11.725657357678598
-11.635818048895134
-11.725657357678688
-12.013311387593909
-12.550790810805243
-13.412576109327187
-15.635259561694763
-14.690205623010423
-14.0986006370191
-13.77933603116331
-13.679071418271702
-13.77933603116323
-14.098600637019098
-14.690205623010527
-15.635259561694934
-16.389923473493337
-15.416915513760772
-14.80820140138654
-14.479206464934435
-14.375732174803826
-14.479206464934133
-14.808201401386288
-15.416915513760795
-16.38992347349357
-15.635259561722137
-14.690205623036778
-14.098600637044893
-13.779336031188695
-13.6790714182969
-13.779336031188492
-14.098600637044697
-14.690205623036746
-15.635259561722194
-13.412576109369798
-12.55079081084646
-12.013311387634097
-11.725657357718402
-11.635818048934734
-11.725657357718436
-12.01331138763409
-12.550790810846426
-13.412576109369782
-9.872992508155637
-9.15634542799845
-8.722668650043829
-8.495449538434567
-8.425202666626646
-8.49544953843473
-8.72266865004392
-9.156345427998449
-9.872992508155768
-5.286568054250346
-4.829755358953303
-4.574529976010922
-4.4440139347437615
-4.404219934422463
-4.444013934744023
-4.574529976011085
-4.829755358953255
-5.286568054250362
-5.061734718993781
-4.648650173828456
-4.419060939213127
-4.307634041062967
-4.274875140280711
-4.307634041062625
-4.419060939212761
-4.648650173828106
-5.0617347189934145
-9.786654569355548
-9.11803383498965
-8.72871982401334
-8.533738194884684
-8.475157491717148
-8.53373819488435
-8.728719824013037
-9.118033834989577
-9.786654569355498
-13.466302796763443
-12.634942858169392
-12.147805509905151
-11.899925226475197
-11.824578203636932
-11.899925226474886
-12.147805509904899
-12.634942858169513
-13.46630279676351
-15.72214488843035
-14.790214560177104
-14.24862361607677
-13.972465491818973
-13.88819183621289
-13.97246549181873
-14.248623616076564
-14.790214560177184
-15.722144888430382
-16.474284364402955
-15.507755973714982
-14.948321013895013
-14.663297444459095
-14.576266695745566
-14.663297444459097
-14.948321013895054
-15.507755973715128
-16.474284364403182
-15.722144888462593
-14.790214560208188
-14.248623616107029
-13.972465491848922
-13.888191836242946
-13.972465491849086
-14.248623616107224
-14.790214560208284
-15.722144888462884
-13.46630279681671
-12.634942858221294
-12.147805509956257
-11.899925226525916
-11.824578203687704
-11.899925226526088
-12.147805509956223
-12.634942858221024
-13.466302796816848
-9.786654569405894
-9.118033835039343
-8.728719824062637
-8.533738194933807
-8.475157491766467
-8.533738194934053
-8.72871982406257
-9.118033835038936
-9.786654569405894
-5.061734719018335
-4.648650173853026
-4.419060939237575
-4.307634041087472
-4.274875140305534
-4.3076340410877485
-4.41906093923751
-4.648650173852586
-5.0617347190182524
-5.082381146840317
-4.745702695666569
-4.574047828281719
-4.498480897114754
-4.477596985609276
-4.4984808971145505
-4.57404782828145
-4.745702695666113
-5.082381146840088
-9.92493945754569
-9.34762351921708
-9.046711506630112
-8.907923041867557
-8.8679782387244
-8.9079230418672
-9.046711506629638
-9.347623519216544
-9.924939457545456
-13.397918986343598
-12.643884963283728
-12.25826480669777
-12.07782769984983
-12.024936050663122
-12.077827699849317
-12.25826480669723
-12.643884963283295
-13.397918986343335
-15.378591519261782
-14.510872167676327
-14.075552811361028
-13.872632515996909
-13.812920349963452
-13.872632515996616
-14.0755528113608
-14.51087216767592
-15.37859151926126
-16.01851887185198
-15.111779316015582
-14.659753928340486
-14.449724940286284
-14.38793725400831
-14.449724940286643
-14.659753928340692
-15.111779316015337
-16.01851887185161
-15.378591519291456
-14.510872167704573
-14.075552811388832
-13.872632516024648
-13.812920349991836
-13.87263251602539
-14.075552811389446
-14.51087216770472
-15.37859151929147
-13.397918986397922
-12.643884963335752
-12.258264806749445
-12.077827699901757
-12.024936050715793
-12.077827699902524
-12.258264806750258
-12.643884963336143
-13.397918986398134
-9.92493945760754
-9.347623519277054
-9.046711506690126
-8.907923041928004
-8.867978238785497
-8.907923041928754
-9.046711506690778
-9.347623519277168
-9.924939457607605
-5.0823811468821605
-4.745702695707435
-4.574047828322772
-4.498480897156321
-4.47759698565147
-4.498480897157005
-4.574047828323196
-4.745702695707289
-5.082381146882063
-6.278136255192323
-6.081294343900629
-5.997771309562504
-5.966479674965068
-5.958699500097293
-5.966479674965191
-5.997771309562447
-6.081294343900433
-6.2781362551922175
-10.293557624311541
-9.915336168043812
-9.754924350871033
-9.687886645385387
-9.669640922865748
-9.68788664538546
-9.754924350870859
-9.915336168043494
-10.293557624311493
-12.577012718908705
-12.052430743677652
-11.840656980124027
-11.74884756087015
-11.722896781793924
-11.74884756087033
-11.84065698012388
-12.05243074367721
-12.577012718908655
-13.768103761104566
-13.150769059922016
-12.907871822616668
-12.803247388372258
-12.7734335727512
-12.803247388372519
-12.90787182261679
-13.150769059921666
-13.768103761104452
-14.141703735913886
-13.493184713134205
-13.239536101575172
-13.130940278395048
-13.100018705724416
-13.130940278395212
-13.23953610157506
-13.493184713133992
-14.141703735913927
-13.768103761122614
-13.150769059938664
-12.907871822633478
-12.803247388388986
-12.773433572767757
-12.80324738838874
-12.907871822633037
-13.150769059938598
-13.768103761122614
-12.577012718944907
-12.05243074371158
-11.840656980157938
-11.748847560904558
-11.722896781828196
-11.748847560903874
-11.840656980157533
-12.05243074371171
-12.577012718944907
-10.293557624362123
-9.915336168092608
-9.754924350919877
-9.687886645434974
-9.669640922915432
-9.687886645434372
-9.754924350919552
-9.91533616809269
-10.29355762436232
-6.2781362552405255
-6.081294343948015
-5.99777130961025
-5.966479675013589
-5.9586995001459915
-5.966479675013377
-5.9977713096102985
-6.081294343948194
-6.278136255240624

SCALARS STRESS_YZ float 1
LOOKUP_TABLE default
0.49697953936030886
0.22345572259650245
0.2234557225961848
0.49697953934522177
-0.49697953936030276
-0.2234557225968139
-0.2234557225967715
-0.49697953934523603
0.4135376558634665
0.07050222255276205
-0.09979194048920477
0.014785689088230207
0.04971476402636871
0.05979398254684125
0.05772552485020911
0.052009736018257036
0.045677692100621864
0.03975608316216868
0.034457088386257675
0.02984566441202058
0.026285174682337972
0.02502766946148275
0.02940102312683137
0.046531312374171636
0.09168927519481224
0.15151926646993497
0.2012929993225741
0.09444230324633161
-0.2993667145907537
-0.7276256131231826
-0.9671659569459337
-1.0432430007249955
-0.9671659569521194
-0.7276256131331196
-0.2993667146004046
0.09444230324209836
0.2012929993229859
0.15151926647111316
0.0916892751957031
0.04653131237449619
0.029401023126460972
0.02502766946005719
0.026285174680221537
0.02984566440976658
0.03445708838374689
0.03975608315929309
0.04567769209772182
0.05200973601545075
0.05772552484734372
0.05979398254423875
0.049714764024611974
0.01478568908770237
-0.09979194049220365
0.07050222254266592
0.413537655848895
0.3688898189691333
0.3091125352080962
0.3941556971353131
0.4131999499302612
0.41551347741326805
0.41319994993156517
0.3941556971389776
0.3091125352131291
0.36888981897912493
-0.4135376558634553
-0.07050222255273861
0.09979194048922209
-0.014785689088254662
-0.04971476402637075
-0.05979398254686978
-0.05772552485037521
-0.05200973601839664
-0.045677692100494494
-0.039756083162136066
-0.03445708838649306
-0.029845664412212147
-0.02628517468246229
-0.025027669461794556
-0.029401023127181902
-0.046531312373994334
-0.09168927519460666
-0.15151926647001
-0.20129299932274752
-0.09444230324657427
0.2993667145908434
0.7276256131233952
0.9671659569460724
1.0432430007248632
0.9671659569518114
0.7276256131331114
0.29936671460059183
-0.09444230324226911
-0.20129299932363437
-0.1515192664717503
-0.09168927519575379
-0.04653131237398873
-0.029401023126430906
-0.02502766946060591
-0.02628517468045285
-0.029845664409571954
-0.03445708838378256
-0.03975608315967929
-0.04567769209798064
-0.05200973601552106
-0.05772552484748638
-0.05979398254440179
-0.04971476402470572
-0.01478568908774517
0.09979194049217205
-0.07050222254270565
-0.41353765584891844
-0.36888981896914524
-0.3091125352080987
-0.39415569713531556
-0.4131999499302649
-0.4155134774132652
-0.4131999499315647
-0.3941556971389791
-0.30911253521313
-0.36888981897912265
0.38475644996555425
0.26618943925547006
0.2107614249834391
0.10779192347070124
-1.4016565685892601e-15
-0.10779192347069727
-0.21076142498343375
-0.26618943925546645
-0.38475644996554764
0.1836367420161928
0.07451204668396996
-0.017374392532380014
-0.030100184899002562
1.2228065782160513e-14
0.030100184898668746
0.017374392531972132
-0.07451204668452958
-0.18363674201684627
0.1836367420156936
0.07451204668330427
-0.01737439253326959
-0.030100184899691365
-1.6599915886317262e-13
0.030100184899667766
0.01737439253423164
-0.07451204668224103
-0.18363674201574337
0.3847564499552118
0.2661894392514998
0.21076142498164593
0.10779192346988432
2.994132719535969e-15
-0.1077919234698877
-0.21076142498163958
-0.2661894392514902
-0.384756449955222
0.4057387779334669
0.514414444190296
0.6751598099463976
0.7307248427643114
0.7420190540129338
0.730724842763131
0.6751598099424887
0.5144144441849894
0.4057387779236217
0.29405654336737397
0.709546364060783
0.9927555498406381
1.1156178483090544
1.1472064608763428
1.1156178483068757
0.9927555498345727
0.7095463640526247
0.29405654335812415
0.14171668594097173
0.5953698637198446
0.9168660191689635
1.0712150309560733
1.1162124386422716
1.0712150309521817
0.9168660191601666
0.5953698637092766
0.14171668593429837
0.13081166082920456
0.4175023604680607
0.6870578736501644
0.8295722765372686
0.8731958941394672
0.8295722765328097
0.6870578736410523
0.417502360459034
0.1308116608252509
0.1136171338552722
0.2900744598113556
0.47891045885794703
0.5905958093438126
0.6260001169096245
0.5905958093398246
0.4789104588503847
0.29007445980479185
0.1136171338520466
0.09201438823304936
0.19703305715057914
0.3219826757444981
0.39995570284288556
0.42577737457821185
0.3999557028398795
0.3219826757389357
0.197033057145874
0.09201438823006322
0.07022452566564313
0.12902556953187969
0.20941819261123126
0.26081959699311835
0.27813042134614974
0.26081959699100393
0.20941819260734687
0.12902556952859193
0.07022452566299939
0.05175035609226711
0.08051027883559644
0.13119515730818015
0.16396065911482194
0.17506058511797262
0.16396065911327826
0.13119515730550127
0.0805102788334255
0.051750356090054885
0.037470239306251485
0.04702888138168257
0.07826595976729328
0.09863463861878083
0.10553233395427968
0.09863463861760352
0.07826595976528894
0.047028881380009144
0.03747023930413454
0.027018582934194967
0.024743622960037164
0.04331343120050801
0.055535495211477756
0.059650291235758546
0.055535495210670464
0.04331343119893508
0.02474362295859046
0.027018582932110118
0.019639465176318427
0.010502358737976343
0.020653327677963275
0.027307681596224324
0.029491583346249788
0.027307681595879714
0.020653327677050012
0.010502358737214397
0.019639465174715563
0.014735307754800385
0.001976940821802297
0.005975597943656316
0.00822006416164842
0.008817862982143848
0.008220064161527256
0.005975597943338011
0.001976940821782936
0.014735307753715928
0.012256464224126238
-0.0022888392662156276
-0.0040917165967808
-0.006540625214690017
-0.007703249534083089
-0.0065406252147201084
-0.004091716596984214
-0.0022888392663259326
0.012256464223049934
0.013146918545274755
-0.002964957469482667
-0.012689476322910776
-0.021887538780008396
-0.025592207482233828
-0.021887538780073736
-0.012689476323300666
-0.002964957469947453
0.013146918544428232
0.01998270028522742
-0.00042209133980942353
-0.023990777852607958
-0.044274078968665934
-0.05197516235559359
-0.044274078969077035
-0.02399077785313184
-0.0004220913400599666
0.019982700285139786
0.0373492890648902
0.0034728048931082283
-0.045492763780903875
-0.08364417995964608
-0.09752448832722047
-0.08364417996060967
-0.04549276378215571
0.0034728048923032932
0.0373492890648795
0.07001203434465787
-0.0004517358799624935
-0.09159342569751282
-0.15718020703316474
-0.18041182792626942
-0.15718020703528154
-0.09159342570062162
-0.00045173588231992023
0.070012034344275
0.10314755145681218
-0.031913318270941335
-0.1892191092618187
-0.29588177094171053
-0.3319277963462002
-0.2958817709451054
-0.18921910926691793
-0.03191331827475069
0.10314755145614068
0.10503863265866037
-0.17847284712631656
-0.4914538695529852
-0.6768371360671928
-0.7364964932771844
-0.6768371360722231
-0.4914538695609306
-0.17847284713338485
0.10503863265610255
0.3906778501017214
0.3600226193886747
0.292063311127409
0.15533463022973903
-1.5300261058115439e-15
-0.15533463022972083
-0.2920633111273862
-0.36002261938867364
-0.3906778501017178
0.22447378589250963
0.38717926612235043
0.33855133822714356
0.1900389277076096
-1.3312267954646018e-14
-0.19003892770757347
-0.33855133822709466
-0.38717926612234815
-0.22447378589249514
0.0736462818587473
0.28288492565579587
0.2798764102239012
0.16450612608843035
-1.8023776915399026e-14
-0.16450612608839893
-0.27987641022386045
-0.28288492565578516
-0.0736462818587193
0.10286917143097846
0.22553913190220148
0.23116531676714575
0.13841547331886406
9.870576578308032e-15
-0.13841547331883508
-0.23116531676716126
-0.225539131902228
-0.10286917143098254
0.10856181600529811
0.18645780317657157
0.18376379972105117
0.11112525572893486
-1.910797908788453e-14
-0.1111252557289695
-0.18376379972111662
-0.18645780317667449
-0.10856181600535211
0.09882812283328363
0.1482591748577691
0.14105840846824047
0.08479699374375221
-9.40029304397072e-14
-0.08479699374390709
-0.14105840846835282
-0.14825917485794896
-0.09882812283342629
0.08293983417287894
0.11296323688748383
0.1041168086976215
0.06208254311087155
-3.827580613569026e-14
-0.062082543110978106
-0.10411680869775651
-0.11296323688759236
-0.08293983417300377
0.06710566728133928
0.08339104263721242
0.07425812525109601
0.04383919730023832
1.3564670220400643e-14
-0.04383919730031392
-0.07425812525121676
-0.08339104263726642
-0.0671056672814315
0.05365302394508595
0.06045123393659981
0.051576641405057515
0.030041545534964673
5.1394652422764864e-14
-0.030041545535128028
-0.05157664140520043
-0.06045123393670578
-0.05365302394520008
0.04300469382332196
0.04363979823378785
0.03526698050372467
0.020155987064168816
1.674962252229406e-13
-0.020155987064438212
-0.03526698050406068
-0.0436397982336294
-0.043004693823248084
0.034870059902024915
0.031955693491329554
0.024219588424435348
0.013484414268906243
1.270548336679278e-13
-0.013484414269167804
-0.0242195884245924
-0.03195569349070619
-0.03487005990175081
0.028959400495341906
0.024571994906726728
0.01747889451684293
0.00939842864748603
-4.3243403649584344e-14
-0.009398428647657157
-0.01747889451649113
-0.02457199490596096
-0.028959400495151603
0.025481689973894186
0.021278860965815542
0.014484587445449773
0.00742995938309354
-7.409947221787005e-14
-0.0074299593833713085
-0.014484587445231838
-0.021278860965222746
-0.025481689973785155
0.025699403076096507
0.02277841167916514
0.01504146106497756
0.0071687393070601416
3.1270233798175173e-14
-0.007168739307307182
-0.01504146106511971
-0.022778411678875878
-0.02569940307609931
0.03275729919594857
0.030696642484164496
0.018798970616135245
0.00784856452536785
1.1973104799278822e-13
-0.007848564525485352
-0.01879897061647922
-0.03069664248433951
-0.03275729919619211
0.05241945879761029
0.04651687120656513
0.0237021760799024
0.007566839831840623
1.6649295874263115e-13
-0.007566839831768769
-0.02370217608047239
-0.046516871207200466
-0.052419458797681624
0.09243198270033459
0.06681954005037921
0.02355329104237666
0.0027422479807074386
2.4099027894769476e-13
-0.002742247980374166
-0.023553291043082687
-0.06681954005110581
-0.09243198270016008
0.13603802596400144
0.07480900742056688
0.008576415577078833
-0.010480009452935493
3.1024922214628603e-13
0.010480009453133463
-0.008576415577639846
-0.07480900742099268
-0.13603802596401604
0.16857448772942268
0.07350488589925058
-0.01066077602175574
-0.024848840097081864
1.656643572323091e-13
0.024848840096912298
0.010660776021366345
-0.07350488589964319
-0.16857448772984784
0.03308960369194257
-0.0789112816470128
-0.12800746657434567
-0.08838634872628125
2.801682497111102e-13
0.08838634872646359
0.12800746657412337
0.07891128164620945
-0.03308960369274279
-0.41590549390155596
-0.5175682359450187
-0.4257929817159283
-0.2364986366936154
6.754180548185218e-13
0.23649863669439722
0.4257929817160043
0.5175682359441125
0.41590549390072495
-0.9328051602624071
-1.0493594257653236
-0.7878553499629731
-0.41253251989981427
1.0321465904183924e-12
0.4125325199007371
0.7878553499633334
1.04935942576516
0.9328051602618799
-1.2597415457643748
-1.4284910822857078
-1.0633448404102919
-0.5498796651901102
1.3944678745048122e-12
0.5498796651913886
1.0633448404111125
1.4284910822862222
1.2597415457640222
-1.3682262241768395
-1.5610651749553268
-1.1639244037120187
-0.6010190514154139
1.1691064782937133e-12
0.6010190514170239
1.1639244037133152
1.5610651749561026
1.3682262241766936
-1.2597415457720973
-1.4284910822948063
-1.063344840416834
-0.5498796651939137
6.835643162617089e-13
0.5498796651953168
1.0633448404179935
1.4284910822956052
1.2597415457723025
-0.9328051602746438
-1.049359425778826
-0.7878553499728884
-0.41253251990542783
4.2425091217879185e-13
0.4125325199061741
0.7878553499736718
1.049359425779793
0.9328051602751453
-0.41590549391237297
-0.5175682359558331
-0.42579298172407515
-0.23649863669830262
1.26627874852403e-13
0.23649863669856036
0.42579298172505686
0.5175682359572996
0.4159054939130825
0.03308960368748956
-0.07891128165123916
-0.12800746657772802
-0.08838634872835158
-1.0248399351375781e-13
0.0883863487284326
0.12800746657882514
0.07891128165258932
-0.033089603687138404
0.16857448772966668
0.0735048858987689
-0.010660776022548066
-0.02484884009761027
-3.0046538174177684e-13
0.024848840097517363
0.010660776023489419
-0.07350488589810769
-0.16857448773006348
0.1360380259649096
0.07480900742046989
0.008576415576648688
-0.010480009453206273
-1.7895190537742245e-13
0.010480009453039806
-0.00857641557622027
-0.07480900742036511
-0.13603802596553935
0.09243198270113462
0.06681954005084821
0.02355329104240818
0.002742247980545499
2.968118372609352e-13
-0.0027422479807414314
-0.02355329104283304
-0.06681954005085254
-0.09243198270123218
0.052419458798333526
0.0465168712072309
0.023702176079855777
0.0075668398317981595
5.436135482733695e-13
-0.007566839832014711
-0.02370217608085961
-0.04651687120761978
-0.052419458798225
0.0327572991960627
0.030696642484294927
0.01879897061574039
0.007848564525441313
5.654421158726719e-13
-0.007848564525494142
-0.01879897061687096
-0.030696642485165654
-0.032757299196406096
0.02569940307519088
0.02277841167868036
0.015041461064532902
0.0071687393069605355
4.3593535899166813e-13
-0.007168739306805713
-0.015041461065435597
-0.022778411679334545
-0.02569940307549785
0.02548168997239398
0.021278860964969275
0.014484587445004478
0.007429959382609839
1.477848876260679e-13
-0.0074299593822903555
-0.014484587445343797
-0.021278860965179693
-0.025481689972209034
0.02895940049343538
0.024571994905388285
0.017478894516326178
0.009398428646858654
-1.5775206661794439e-13
-0.009398428646366419
-0.017478894515985707
-0.024571994905514385
-0.028959400493154645
0.03487005989969398
0.03195569348944749
0.02421958842361863
0.013484414268287082
-2.403537438522285e-13
-0.013484414267972596
-0.024219588423246445
-0.03195569348955525
-0.034870059899636915
0.043004693820716415
0.04363979823158913
0.035266980502312355
0.02015598706330236
-1.248259308417321e-13
-0.020155987063267457
-0.03526698050218804
-0.043639798231433484
-0.043004693820718455
0.05365302394234844
0.06045123393397337
0.051576641403005274
0.030041545533834105
-9.648488605296102e-14
-0.030041545533786147
-0.05157664140283638
-0.060451233933749696
-0.05365302394227864
0.06710566727843721
0.08339104263404438
0.0742581252484143
0.04383919729879888
-1.2164141222070768e-13
-0.0438391972987478
-0.07425812524818604
-0.08339104263391345
-0.06710566727839695
0.08293983416967983
0.11296323688377166
0.10411680869426725
0.06208254310894434
-8.788889754862694e-14
-0.062082543108955036
-0.10411680869405708
-0.11296323688366058
-0.08293983416977307
0.09882812282995
0.14825917485348833
0.14105840846426898
0.08479699374142587
-3.553754512886087e-14
-0.08479699374146267
-0.1410584084641332
-0.1482591748533839
-0.09882812283006413
0.10856181600218817
0.18645780317175278
0.1837637997165656
0.11112525572636549
1.9997892231060632e-14
-0.11112525572640178
-0.18376379971655665
-0.1864578031716631
-0.10856181600221057
0.10286917142805804
0.22553913189653896
0.2311653167620712
0.1384154733160655
2.9677649227011216e-14
-0.13841547331605442
-0.23116531676209026
-0.22553913189649158
-0.10286917142803156
0.07364628185326158
0.28288492564813716
0.2798764102179292
0.16450612608536924
-1.6431300764452317e-14
-0.16450612608536452
-0.2798764102179294
-0.2828849256481387
-0.07364628185325751
0.22447378588175398
0.3871792661128678
0.338551338221251
0.1900389277048256
-1.8342966034978758e-14
-0.19003892770484573
-0.33855133822126016
-0.3871792661128891
-0.22447378588178782
0.39067785008980777
0.3600226193817363
0.2920633111238786
0.15533463022813915
2.258609965721803e-15
-0.15533463022814642
-0.29206331112387846
-0.3600226193817381
-0.39067785008983097
0.3758343306004627
0.3535212531656402
0.26695697651779876
0.1404638921894605
3.915270885279654e-15
-0.14046389218945837
-0.2669569765177888
-0.3535212531656294
-0.3758343306004696
0.42554095816504567
0.4837035123629184
0.34981468251004966
0.18417287462486148
-8.326672684688674e-16
-0.18417287462486193
-0.34981468251004405
-0.483703512362912
-0.42554095816504567
0.5108843539582115
0.5569206519749316
0.39482505312243804
0.2032416517677311
-6.012551567735613e-15
-0.20324165176773684
-0.3948250531224401
-0.5569206519749347
-0.5108843539582136
0.5456886432492236
0.6011162854555467
0.4237774046367203
0.2161220738947272
-3.573530360512223e-15
-0.21612207389472735
-0.42377740463671926
-0.6011162854555496
-0.5456886432492258
0.5537782836665298
0.6149452246073339
0.43438153999475676
0.2209707325946977
6.245004513516506e-17
-0.2209707325946988
-0.4343815399947572
-0.6149452246073331
-0.5537782836665284
0.5456886432499859
0.6011162854557068
0.4237774046367788
0.21612207389473956
2.5292268279741847e-15
-0.21612207389474608
-0.42377740463678254
-0.6011162854557026
-0.545688643249987
0.5108843539603634
0.5569206519752703
0.39482505312240573
0.20324165176765632
7.008282842946301e-16
-0.20324165176766534
-0.39482505312240707
-0.5569206519752609
-0.5108843539603631
0.4255409581684117
0.48370351236390347
0.34981468251016745
0.18417287462482698
-5.0306980803327406e-15
-0.18417287462483897
-0.3498146825101694
-0.4837035123638964
-0.4255409581684101
0.3758343306074825
0.3535212531683847
0.2669569765188594
0.1404638921899024
-4.777428452840127e-15
-0.1404638921899074
-0.26695697651885864
-0.35352125316838096
-0.3758343306074787
-0.405738777933452
-0.5144144441902845
-0.6751598099463922
-0.7307248427643027
-0.742019054012923
-0.7307248427631271
-0.6751598099424911
-0.5144144441849959
-0.4057387779236389
-0.29405654336734394
-0.7095463640607593
-0.9927555498406342
-1.1156178483090495
-1.1472064608763288
-1.115617848306868
-0.9927555498345669
-0.70954636405262
-0.2940565433581451
-0.14171668594094575
-0.5953698637198318
-0.9168660191689844
-1.0712150309561002
-1.1162124386422856
-1.0712150309521966
-0.9168660191601735
-0.5953698637092898
-0.141716685934332
-0.13081166082919743
-0.4175023604680699
-0.6870578736502106
-0.8295722765373043
-0.8731958941395095
-0.8295722765328838
-0.68705787364116
-0.4175023604591435
-0.13081166082532375
-0.1136171338552462
-0.29007445981136176
-0.4789104588579733
-0.5905958093438012
-0.6260001169096351
-0.5905958093398511
-0.4789104588504455
-0.2900744598049019
-0.11361713385215408
-0.09201438823302745
-0.19703305715056746
-0.3219826757445012
-0.39995570284284476
-0.425777374578142
-0.39995570283973997
-0.3219826757388144
-0.19703305714591474
-0.0920143882302176
-0.07022452566577866
-0.1290255695319892
-0.20941819261125366
-0.2608195969930177
-0.2781304213459813
-0.2608195969908033
-0.20941819260721084
-0.12902556952860414
-0.07022452566312062
-0.05175035609247243
-0.08051027883580866
-0.13119515730818068
-0.16396065911461585
-0.1750605851178163
-0.16396065911324342
-0.1311951573054745
-0.08051027883338474
-0.051750356090067624
-0.03747023930616997
-0.04702888138160793
-0.07826595976712311
-0.09863463861861665
-0.10553233395432293
-0.09863463861776255
-0.07826595976543006
-0.047028881380144924
-0.03747023930432357
-0.027018582934094083
-0.02474362295984662
-0.04331343120033186
-0.05553549521149769
-0.05965029123592362
-0.055535495210864635
-0.04331343119920282
-0.024743622958995255
-0.027018582932559487
-0.019639465176546682
-0.010502358738200266
-0.02065332767820707
-0.027307681596411823
-0.029491583346155346
-0.027307681595688596
-0.02065332767695359
-0.010502358737328268
-0.019639465174904072
-0.01473530775513996
-0.001976940822294468
-0.005975597944197782
-0.00822006416200255
-0.008817862981935114
-0.008220064161103612
-0.005975597943059063
-0.0019769408215432197
-0.014735307753503978
-0.012256464224358313
0.002288839265874521
0.00409171659630557
0.006540625214142533
0.007703249533947595
0.006540625214986256
0.00409171659719489
0.002288839266474195
-0.012256464223069804
-0.013146918545633948
0.0029649574692312323
0.012689476322624061
0.021887538779555293
0.025592207482010094
0.021887538780719234
0.012689476324263229
0.0029649574702660135
-0.013146918544691893
-0.01998270028565361
0.00042209133958932225
0.0239907778525607
0.04427407896844118
0.05197516235529322
0.04427407896984538
0.023990777854601988
0.0004220913408584711
-0.01998270028487434
-0.03734928906470908
-0.0034728048929730856
0.0454927637809568
0.08364417995949802
0.09752448832699198
0.08364417996087789
0.04549276378287058
-0.0034728048915479695
-0.03734928906424696
-0.0700120343442871
0.0004517358803472239
0.09159342569787768
0.15718020703344582
0.18041182792652216
0.1571802070353594
0.09159342570048888
0.000451735882581036
-0.0700120343440484
-0.10314755145670342
0.0319133182712036
0.1892191092624489
0.29588177094247264
0.33192779634673375
0.2958817709452765
0.1892191092665619
0.03191331827472426
-0.10314755145624424
-0.10503863265873191
0.17847284712643652
0.49145386955337145
0.6768371360676859
0.7364964932774197
0.6768371360721819
0.4914538695607349
0.1784728471334388
-0.10503863265624193
0.4797558036303929
0.5220588101936758
0.4076361055339709
0.21840077354547419
-1.140407213107153e-14
-0.21840077354547568
-0.40763610553395574
-0.5220588101936705
-0.47975580363038545
0.6865844576529136
0.7854543284929494
0.5869346121596164
0.3104153784966352
-1.558822515512759e-14
-0.3104153784966531
-0.5869346121596085
-0.7854543284929383
-0.6865844576529071
0.8653372104474659
0.9536736064034238
0.6937753633919282
0.3589779539060341
-5.891120924417237e-15
-0.35897795390604825
-0.6937753633919268
-0.9536736064034164
-0.8653372104474655
0.9477798632061505
1.0508890470412926
0.7597266279039349
0.38944177208923425
-2.2950391587173158e-15
-0.3894417720892448
-0.7597266279039401
-1.0508890470412962
-0.9477798632061528
0.9692204636639519
1.0812445372626345
0.7825628534024748
0.40029147649834834
-3.9898639947466563e-16
-0.40029147649835173
-0.7825628534024774
-1.0812445372626411
-0.9692204636639533
0.9477798632047078
1.0508890470398615
0.7597266279030601
0.38944177208884556
-1.842276331487369e-15
-0.3894417720888502
-0.7597266279030628
-1.0508890470398684
-0.9477798632047126
0.8653372104436245
0.9536736064004845
0.6937753633903998
0.3589779539054227
-8.449838051483027e-15
-0.35897795390543313
-0.6937753633904011
-0.9536736064004894
-0.8653372104436314
0.6865844576472213
0.7854543284883886
0.5869346121574188
0.3104153784957643
-6.8660355179162025e-15
-0.3104153784957725
-0.5869346121574149
-0.7854543284883873
-0.6865844576472286
0.4797558036213226
0.5220588101874792
0.40763610553090035
0.21840077354413912
-8.239936510889834e-17
-0.21840077354414544
-0.40763610553089763
-0.5220588101874789
-0.4797558036213398
0.47760722706331776
0.6514299900851037
0.541592267903765
0.2982384262005974
-2.7483224029900555e-14
-0.2982384262005915
-0.5415922679037295
-0.6514299900850948
-0.47760722706329595
0.9475261496389729
1.121657664739761
0.8786357221183453
0.47113347946282896
-3.191891195797325e-14
-0.4711334794628548
-0.8786357221183325
-1.1216576647397491
-0.9475261496389559
1.2853066740357797
1.4613358396306844
1.1038066817424403
0.579016928982202
-1.6379259060173013e-14
-0.5790169289822316
-1.1038066817424435
-1.4613358396306775
-1.2853066740357808
1.454697601578194
1.6566379385893724
1.24121876770969
0.6449327138753147
-8.049116928532385e-15
-0.6449327138753365
-1.2412187677096937
-1.656637938589374
-1.4546976015782032
1.503093486128075
1.7182388133480153
1.2874624185900345
0.6676606040179249
8.881784197001252e-16
-0.6676606040179329
-1.2874624185900374
-1.7182388133480304
-1.5030934861280887
1.4546976015746713
1.6566379385850005
1.2412187677066733
0.6449327138738956
4.093947403305265e-15
-0.6449327138739072
-1.2412187677066924
-1.6566379385850265
-1.4546976015746904
1.285306674027796
1.461335839622159
1.103806681736959
0.5790169289797038
-5.797445856714489e-15
-0.5790169289797173
-1.1038066817369696
-1.4613358396221765
-1.2853066740278076
0.9475261496282094
1.1216576647284997
0.8786357221113413
0.471133479459654
-1.3187367864375688e-14
-0.4711334794596648
-0.8786357221113393
-1.1216576647285041
-0.9475261496282108
0.47760722705221126
0.6514299900742804
0.5415922678970486
0.2982384261974828
-1.6117315815300515e-14
-0.2982384261974995
-0.5415922678970553
-0.6514299900742935
-0.47760722705222863
0.3359345522710592
0.5555843500774025
0.4993709606549927
0.283732592903424
-2.3722343533982837e-14
-0.28373259290341446
-0.49937096065497333
-0.5555843500773907
-0.3359345522710204
0.846856328147235
1.0779839865451435
0.8909615371140707
0.4894788907513289
-1.9068080447937064e-14
-0.4894788907513532
-0.8909615371141049
-1.0779839865451537
-0.8468563281472101
1.2434015379353367
1.4969064075505565
1.1839824728908535
0.6356040227847639
-1.6653345369377348e-15
-0.6356040227847972
-1.1839824728908952
-1.4969064075505552
-1.243401537935336
1.4564150535427416
1.7468329788225407
1.366433282997824
0.7262744850476841
3.656797087359109e-15
-0.7262744850477091
-1.366433282997847
-1.7468329788225327
-1.4564150535427527
1.5215168648247799
1.8275373411335325
1.427959183354673
0.7573396463094189
9.228728892196614e-16
-0.7573396463094273
-1.4279591833546945
-1.8275373411335663
-1.5215168648248079
1.4564150535370506
1.7468329788155539
1.36643328299267
0.7262744850451371
-2.8102520310824275e-15
-0.7262744850451479
-1.3664332829927077
-1.7468329788156058
-1.45641505353708
1.2434015379238768
1.4969064075377463
1.1839824728817285
0.6356040227802707
-6.737665980693919e-15
-0.6356040227802924
-1.1839824728817652
-1.4969064075377694
-1.2434015379238816
0.8468563281337127
1.0779839865302239
0.8909615371034134
0.48947889074605044
-1.683722605783089e-14
-0.489478890746082
-0.8909615371034321
-1.077983986530213
-0.8468563281337043
0.3359345522616921
0.555584350066191
0.4993709606466458
0.28373259289922276
-2.1083829127022113e-14
-0.28373259289924246
-0.4993709606466583
-0.5555843500661856
-0.33593455226168956
0.2736443647880647
0.4491491253797985
0.419959864896995
0.24413080628604647
1.3945442023377552e-14
-0.2441308062860366
-0.4199598648970205
-0.44914912537981044
-0.2736443647880517
0.6505112673623572
0.8932968306080384
0.7718376574241406
0.43467582668921473
1.8273577095939686e-14
-0.43467582668923155
-0.7718376574242038
-0.8932968306080695
-0.6505112673623645
0.9929305532600734
1.2747634754257713
1.0549254522097895
0.5808151024288205
1.5459855617905305e-14
-0.5808151024288486
-1.0549254522098581
-1.2747634754258081
-0.9929305532601085
1.1930243558791593
1.5160432783780506
1.2376135008641511
0.6745157085755338
5.7870375158586285e-15
-0.674515708575562
-1.2376135008641989
-1.5160432783780886
-1.1930243558792013
1.2567905818163672
1.5963941482612127
1.3002969991285502
0.7069067264177928
-1.532107773982716e-14
-0.7069067264178148
-1.3002969991285922
-1.5963941482612833
-1.2567905818164238
1.1930243558727422
1.5160432783700686
1.237613500858021
0.6745157085723599
-3.395200787181807e-14
-0.6745157085724048
-1.2376135008580804
-1.5160432783701228
-1.1930243558727849
0.9929305532480894
1.2747634754118882
1.0549254521992835
0.5808151024233381
-3.557570904533236e-14
-0.5808151024234172
-1.0549254521993523
-1.2747634754118775
-0.9929305532481074
0.6505112673500867
0.89329683059334
0.7718376574127281
0.4346758266831744
-2.8064356394352785e-14
-0.43467582668326343
-0.7718376574127697
-0.8932968305932727
-0.6505112673500935
0.2736443647812691
0.44914912537019736
0.41995986488903075
0.2441308062817496
3.309852392163748e-15
-0.24413080628178946
-0.41995986488905557
-0.44914912537013363
-0.27364436478126014
0.22084135244954245
0.3535797590711177
0.33312290752318585
0.1963202803764491
9.614704865601453e-15
-0.19632028037648622
-0.3331229075232328
-0.35357975907117656
-0.22084135244958805
0.476320884587393
0.6859983020376399
0.6130352058182017
0.3517925982853022
2.86541623761849e-14
-0.3517925982853435
-0.6130352058182367
-0.6859983020376641
-0.47632088458745514
0.7254561649549176
0.9794778463135847
0.8430488231388942
0.4744829137946111
1.4953316362920077e-15
-0.4744829137946676
-0.8430488231389508
-0.9794778463136364
-0.725456164954984
0.8836361264582624
1.17452326317975
0.9958456882708786
0.5550584748837021
-1.7024576193236385e-14
-0.555058474883758
-0.995845688270923
-1.1745232631798217
-0.8836361264583226
0.9358808032863764
1.241385722839969
1.0491821265734365
0.5832210137239526
-4.0842329518397946e-14
-0.5832210137240295
-1.049182126573492
-1.2413857228400706
-0.9358808032864637
0.883636126452382
1.1745232631722051
0.9958456882648598
0.5550584748804618
-5.983408213339203e-14
-0.555058474880588
-0.9958456882649542
-1.1745232631722848
-0.8836361264524468
0.7254561649445642
0.9794778463009166
0.8430488231287891
0.4744829137891391
-5.5094817597023393e-14
-0.4744829137892737
-0.8430488231288547
-0.979477846300896
-0.725456164944588
0.47632088457761534
0.6859983020248067
0.6130352058075665
0.35179259827946197
-4.4488718264901195e-14
-0.35179259827958353
-0.6130352058075917
-0.6859983020247122
-0.47632088457762783
0.2208413524439951
0.353579759062976
0.33312290751600926
0.19632028037242624
-7.42114703022878e-15
-0.1963202803725018
-0.33312290751601215
-0.3535797590628721
-0.22084135244401012
0.170495522372193
0.2676344110148453
0.25222496218326385
0.14941287575359274
-4.005910186899442e-14
-0.1494128757536831
-0.25222496218330903
-0.26763441101495156
-0.1704955223722934
0.3364872722308164
0.5009445093495875
0.4583570601567534
0.26676573828628986
-1.0061396160665481e-14
-0.26676573828635214
-0.45835706015675926
-0.50094450934964
-0.33648727223090935
0.5045012512286076
0.7064179342142722
0.6266860931269891
0.35918674190887
-4.5026482542454005e-14
-0.3591867419089702
-0.6266860931270261
-0.7064179342143124
-0.5045012512286673
0.6163397558206267
0.8473006155762535
0.7402011640656238
0.42045929858342224
-6.370598493177226e-14
-0.4204592985835264
-0.7402011640656807
-0.8473006155763052
-0.6163397558206416
0.6544886317335008
0.8966447342495363
0.7803527462910704
0.44204783215747284
-9.4989988097538e-14
-0.44204783215761484
-0.780352746291183
-0.8966447342496722
-0.6544886317335363
0.6163397558159278
0.8473006155699537
0.7402011640603694
0.42045929858051595
-1.009435590670904e-13
-0.4204592985807031
-0.7402011640604953
-0.8473006155700689
-0.6163397558159335
0.5045012512205782
0.7064179342038888
0.6266860931182405
0.35918674190398153
-8.669107098846496e-14
-0.3591867419041731
-0.6266860931182836
-0.7064179342038908
-0.5045012512205816
0.33648727222331487
0.500944509339097
0.4583570601475442
0.26676573828103833
-9.60672513761196e-14
-0.26676573828123357
-0.4583570601475335
-0.5009445093390308
-0.33648727222337893
0.17049552236742288
0.2676344110079777
0.25222496217698154
0.14941287574993828
-6.87817858224804e-14
-0.14941287575005877
-0.25222496217691004
-0.2676344110078844
-0.1704955223675299
0.12604514266857264
0.19480627967587716
0.1831946144779452
0.1087268496399561
-2.7066023033928133e-15
-0.10872684963999028
-0.18319461447799462
-0.19480627967593994
-0.12604514266868524
0.22903947617375742
0.3509754370001914
0.32703662697013103
0.19233488902399762
-2.4884608262887298e-14
-0.19233488902402054
-0.3270366269701295
-0.3509754370002697
-0.22903947617389
0.3373509835288937
0.4862821957998907
0.4418107006361665
0.2569250826201832
-8.95446911064468e-14
-0.25692508262025016
-0.441810700636153
-0.48628219579993587
-0.33735098352894094
0.41147068365149453
0.5808303434850011
0.5195404549930399
0.29966114889067785
-1.2512213487525514e-13
-0.29966114889077755
-0.5195404549930531
-0.5808303434850393
-0.4114706836514436
0.43716790142768636
0.6143978469050647
0.547260342394608
0.31477075441932534
-1.6249848688865143e-13
-0.3147707544194871
-0.5472603423946996
-0.6143978469051803
-0.4371679014276255
0.41147068364809697
0.5808303434802415
0.519540454988814
0.2996611488883185
-1.476683358925257e-13
-0.2996611488885029
-0.5195404549889036
-0.5808303434802692
-0.41147068364797146
0.337350983523107
0.4862821957920272
0.44181070062912586
0.25692508261617597
-1.3811868315727338e-13
-0.25692508261637753
-0.44181070062915917
-0.4862821957919889
-0.33735098352303083
0.22903947616824508
0.3509754369920346
0.3270366269626415
0.19233488901962167
-1.5445110468359502e-13
-0.1923348890198161
-0.3270366269625793
-0.3509754369919792
-0.22903947616829792
0.12604514266461364
0.19480627967023678
0.18319461447272517
0.10872684963688288
-1.2234007210065734e-13
-0.1087268496369787
-0.18319461447256594
-0.1948062796701387
-0.1260451426647089
0.09022706610940011
0.13713783274708902
0.1283246575023442
0.07615150350225815
5.505621999968291e-14
-0.07615150350225602
-0.12832465750241165
-0.13713783274711042
-0.09022706610950965
0.14993191746125883
0.23689174736505178
0.22428810614072767
0.13300685421733116
1.074661193367632e-14
-0.13300685421732444
-0.2242881061407807
-0.2368917473651207
-0.1499319174613848
0.2171022995326513
0.32143295628215407
0.29821348295372785
0.1755538708503932
-1.3533618670180658e-13
-0.17555387085045748
-0.2982134829537589
-0.3214329562823054
-0.2171022995327008
0.2641441909030566
0.38150675766658904
0.3481515868130717
0.20340110296610686
-1.963672280336226e-13
-0.20340110296617106
-0.34815158681302616
-0.38150675766673403
-0.26414419090301183
0.28059915272532154
0.4030464746410993
0.36606123024569404
0.21324436296132082
-1.852823450221308e-13
-0.21324436296142618
-0.36606123024567194
-0.40304647464119003
-0.28059915272527625
0.2641441909006682
0.38150675766322173
0.3481515868099042
0.20340110296427008
-1.5940547493098478e-13
-0.2034011029644262
-0.34815158680996156
-0.38150675766320685
-0.26414419090057534
0.21710229952862853
0.32143295627648427
0.2982134829484249
0.17555387084734567
-1.1565227941989775e-13
-0.17555387084747492
-0.2982134829484891
-0.3214329562764452
-0.21710229952852547
0.1499319174573276
0.23689174735887375
0.22428810613497543
0.1330068542140206
-1.0111529669121211e-13
-0.13300685421408023
-0.22428810613490224
-0.23689174735879553
-0.1499319174572607
0.09022706610619793
0.13713783274253807
0.12832465749824315
0.07615150349992945
-1.1896516757814446e-13
-0.07615150349991823
-0.1283246574980405
-0.13713783274239605
-0.09022706610613476
0.06324514590678207
0.0940530653176011
0.08719209613815529
0.051617163656042506
5.2954168827668013e-14
-0.05161716365610973
-0.08719209613825368
-0.09405306531767638
-0.06324514590683836
0.09397079630457753
0.1542477521513473
0.1484099681451339
0.0886523156293548
-1.8009031765853223e-14
-0.08865231562934435
-0.14840996814516416
-0.1542477521514296
-0.09397079630456377
0.13370565870868475
0.20388519142406908
0.19324345191878461
0.11509670659509723
-1.62155879002146e-13
-0.11509670659512977
-0.19324345191877323
-0.20388519142426187
-0.13370565870867418
0.1624203911382581
0.24003702507345004
0.2233261050884903
0.13205666520488687
-1.8196642109780115e-13
-0.13205666520487247
-0.22332610508844064
-0.24003702507368113
-0.1624203911382604
0.1725337895994338
0.25314427490222396
0.23417769175780995
0.13803176670078746
-1.2196493814897735e-13
-0.1380317667007415
-0.23417769175778977
-0.2531442749023897
-0.17253378959947346
0.16242039113657308
0.2400370250711434
0.2233261050862703
0.13205666520351753
-1.0077615825165864e-13
-0.132056665203461
-0.22332610508624073
-0.24003702507119412
-0.16242039113657558
0.13370565870576342
0.2038851914200262
0.19324345191503595
0.11509670659282233
-5.945851450084305e-14
-0.11509670659279925
-0.19324345191501252
-0.20388519142005135
-0.13370565870580003
0.09397079630154681
0.15424775214671005
0.1484099681409753
0.08865231562685975
-3.235259282696745e-14
-0.0886523156268928
-0.1484099681408891
-0.15424775214659042
-0.09397079630158196
0.06324514590400865
0.09405306531401705
0.08719209613511539
0.051617163654268834
-6.502415793308014e-14
-0.0516171636542475
-0.08719209613492382
-0.09405306531374372
-0.06324514590393501
0.0438812935092437
0.06336799547736208
0.057858948265411284
0.034067416195579445
7.094672072049946e-14
-0.03406741619580025
-0.057858948265664824
-0.06336799547724667
-0.04388129350911607
0.05580797737746659
0.09673252009727817
0.09484100640124107
0.05706391065823895
-3.205075094214749e-14
-0.05706391065829769
-0.09484100640123923
-0.09673252009724415
-0.05580797737736584
0.07753583039341198
0.12300606514995721
0.11968023042118645
0.07223093068767739
-8.428154008033317e-14
-0.07223093068766143
-0.11968023042103862
-0.12300606514999696
-0.07753583039341122
0.09408615634143935
0.14302784491327775
0.1361050094146548
0.08157648171183644
-8.271768686674008e-14
-0.08157648171180876
-0.13610500941462342
-0.14302784491343748
-0.09408615634153003
0.0999587134556088
0.15041240699984876
0.14208065476192513
0.08484007803754105
-3.1911105702331355e-14
-0.084840078037418
-0.14208065476195428
-0.15041240700008454
-0.09995871345574302
0.09408615634026177
0.1430278449116663
0.1361050094131964
0.08157648171089474
-5.286743265386917e-14
-0.08157648171066693
-0.13610500941301923
-0.14302784491178644
-0.09408615634037548
0.07753583039118098
0.12300606514698834
0.11968023041860422
0.07223093068599179
-1.0040232534258564e-13
-0.07223093068590672
-0.11968023041839262
-0.12300606514712985
-0.07753583039148247
0.055807977374967274
0.09673252009377814
0.09484100639835696
0.057063910656369246
-6.577290795339863e-14
-0.05706391065638445
-0.09484100639816004
-0.09673252009378845
-0.055807977375326334
0.04388129350670871
0.06336799547453248
0.05785894826334065
0.0340674161942853
-6.64253808208004e-14
-0.034067416194224286
-0.0578589482631159
-0.06336799547432996
-0.043881293506828185
0.0305442527827531
0.04250693484488359
0.03796133666021829
0.022138942603288338
-4.7596475372113645e-17
-0.022138942603563895
-0.03796133666034503
-0.042506934844424665
-0.030544252782557072
0.030696957434390486
0.05810173033783901
0.058431639586067737
0.03544672439967121
-1.054169772307656e-13
-0.03544672439984388
-0.05843163958601615
-0.05810173033765088
-0.030696957434433157
0.040477315077457526
0.06866934356853245
0.06951666198810752
0.04273230443595609
-1.0610999925941833e-13
-0.04273230443596845
-0.06951666198787004
-0.06866934356853474
-0.04047731507772545
0.04871075285901739
0.0775893787724343
0.07641518781032461
0.04670039813527799
-1.2700777929364193e-13
-0.046700398135179746
-0.07641518781013464
-0.0775893787726998
-0.048710752859341344
0.051642344768351986
0.08098535488468933
0.0789572459203337
0.04803616526014995
-1.4752261912054365e-13
-0.04803616525995244
-0.07895724592022378
-0.08098535488519096
-0.05164234476857127
0.04871075285823781
0.0775893787711072
0.07641518780934987
0.046700398134615705
-1.7103809688001625e-13
-0.04670039813446647
-0.07641518780913925
-0.07758937877155861
-0.048710752858483995
0.04047731507592713
0.06866934356635669
0.06951666198630557
0.042732304434752164
-1.4268187326083037e-13
-0.042732304434768456
-0.06951666198603113
-0.06866934356667934
-0.040477315076349635
0.030696957432616176
0.05810173033534568
0.05843163958406453
0.03544672439831166
-7.84303177958634e-14
-0.03544672439829803
-0.05843163958380855
-0.05810173033556196
-0.03069695743305332
0.03054425278063157
0.04250693484265265
0.03796133665886864
0.022138942602326683
-1.4218053817627307e-13
-0.022138942602105083
-0.03796133665854804
-0.04250693484277225
-0.030544252780802247
0.021962359498529746
0.029323406286600094
0.025401553357242476
0.014560413669412561
-1.0396859154854221e-13
-0.014560413669582255
-0.025401553356977538
-0.029323406286069456
-0.021962359498499562
0.014919029287464398
0.033101013323506547
0.03451942456662792
0.021127570108105006
-2.4355365814410224e-13
-0.021127570108240547
-0.03451942456648181
-0.0331010133234086
-0.014919029287650619
0.016051899275043878
0.03221850877091181
0.035383138784445614
0.02248704314565049
-2.376705603157614e-13
-0.022487043145555618
-0.03538313878423561
-0.032218508771092495
-0.016051899275372757
0.01779025115900576
0.032523027088182006
0.03485539480403393
0.02223533883186059
-1.2921445597530168e-13
-0.022235338831505774
-0.03485539480379248
-0.03252302708863617
-0.017790251159394407
0.01834944384104701
0.032736245614724276
0.03465914897462719
0.02202933289714018
-2.0746165202423228e-13
-0.022029332896834754
-0.03465914897445588
-0.032736245615476764
-0.018349443841353563
0.0177902511583473
0.0325230270869843
0.03485539480335244
0.02223533883127364
-2.458467457389091e-13
-0.022235338831131116
-0.03485539480316212
-0.03252302708777559
-0.01779025115872872
0.016051899274004446
0.03221850876926752
0.03538313878320567
0.02248704314468612
-1.4768969467532367e-13
-0.022487043144673063
-0.03538313878310158
-0.0322185087698999
-0.0160518992744407
0.014919029286464457
0.033101013321778346
0.03451942456513134
0.021127570106945985
-9.137460753316784e-14
-0.021127570107008543
-0.03451942456522557
-0.0331010133222844
-0.014919029286727607
0.021962359497045468
0.029323406285004995
0.025401553356209222
0.014560413668468216
-1.1369670396138565e-13
-0.014560413668252076
-0.025401553356129803
-0.029323406285303815
-0.021962359496987896
0.01763650082244715
0.02253796617777368
0.0186207539502921
0.01027295884062594
-1.0444607418530483e-14
-0.010272958840803308
-0.018620753950182558
-0.022537966177333668
-0.017636500822399644
0.00587993364765488
0.017644684480477756
0.019130132535692547
0.011688497603370365
-9.582455271980872e-14
-0.011688497603454216
-0.01913013253568108
-0.01764468448031255
-0.0058799336476597205
-0.001026917272039369
0.006193938055339304
0.010568307985315353
0.007600464111470025
-1.4483143959305445e-13
-0.007600464111419163
-0.010568307985308233
-0.006193938055358599
0.001026917271971033
-0.006016092712794595
-0.0022234988965933187
0.0026177350353459566
0.0031608815844796387
-3.841900213762128e-14
-0.0031608815843205294
-0.0026177350354009135
0.0022234988962960443
0.006016092712476067
-0.00800979525738578
-0.005342576332917826
-0.0003978012837719796
0.001381871854448451
-1.2466275841477303e-13
-0.0013818718543432574
0.0003978012838517595
0.005342576332358767
0.008009795256909051
-0.006016092713552005
-0.002223498897552599
0.002617735034962137
0.003160881583952117
-1.5439643378904744e-13
-0.0031608815837585054
-0.0026177350346187466
0.002223498896948786
0.006016092713085883
-0.0010269172730589613
0.006193938053975548
0.01056830798441619
0.007600464110539992
-8.381964284980004e-14
-0.007600464110427338
-0.010568307984446157
-0.006193938054836751
0.0010269172725295332
0.005879933646852236
0.017644684479106006
0.019130132534440625
0.011688497602237115
-3.4359017367369127e-14
-0.011688497602333314
-0.0191301325350431
-0.017644684480076465
-0.0058799336472079265
0.01763650082134155
0.022537966176659548
0.018620753949416726
0.010272958839806516
7.760214996641035e-14
-0.01027295883970433
-0.018620753949946472
-0.022537966177175153
-0.017636500821312767
0.018215313233122726
0.021829673217199256
0.01640422658715996
0.008234817057510708
6.677546970229598e-14
-0.008234817057793636
-0.0164042265875161
-0.02182967321702743
-0.018215313233124066
0.001859532181011557
0.00828913776653602
0.008385612764485986
0.004589863565398301
7.155197658328949e-14
-0.0045898635656015565
-0.00838561276476888
-0.008289137766257263
-0.0018595321808504298
-0.01584527635918808
-0.016902826733081414
-0.011972111334620852
-0.006130115213041812
-3.064928410893841e-14
0.006130115212877516
0.011972111334559395
0.016902826733425608
0.015845276359316724
-0.030279654134176232
-0.037206158817854385
-0.029742709742756522
-0.015986794712702902
-1.537931837002765e-13
0.01598679471249552
0.029742709742724825
0.0372061588178441
0.0302796541339175
-0.035880914578323736
-0.044909323392024594
-0.03653696339682135
-0.01983452667666938
-2.3258337530224216e-13
0.019834526676588783
0.03653696339696687
0.04490932339170673
0.03588091457790049
-0.03027965413489636
-0.03720615881885379
-0.029742709743351897
-0.0159867947132386
-1.0504506878054876e-13
0.01598679471346143
0.02974270974370022
0.037206158818414506
0.03027965413475939
-0.01584527636027419
-0.016902826734499207
-0.011972111335803039
-0.006130115214094847
1.0910329172227062e-13
0.0061301152142425935
0.011972111335629157
0.01690282673347586
0.015845276359944642
0.0018595321801684725
0.008289137765377113
0.008385612763212792
0.004589863564315205
3.103371509424746e-13
-0.0045898635642887195
-0.00838561276415854
-0.008289137766686765
-0.0018595321806569487
0.018215313232414404
0.021829673216533667
0.016404226586430877
0.008234817057077671
4.4400756942647446e-13
-0.008234817056905031
-0.016404226587419357
-0.0218296732173714
-0.018215313232666855
0.025761578713815715
0.027312673780139237
0.016957223879862496
0.006795344792881752
5.842459220410656e-14
-0.0067953447931666305
-0.016957223880432967
-0.027312673780391566
-0.025761578714053966
0.0010693374050799315
0.0006369047463836109
-0.0030733159779204417
-0.003755134433635156
7.391637757599157e-14
0.0037551344334283724
0.0030733159774826288
-0.0006369047463952028
-0.0010693374050444598
-0.035118148947896666
-0.04697102536387397
-0.041562834599141604
-0.02426725826735265
5.037208714378516e-14
0.02426725826725433
0.0415628345991612
0.04697102536418374
0.03511814894801452
-0.0648849139883135
-0.08612632462198112
-0.07441599120109932
-0.04222181996572459
-7.15417308727595e-14
0.042221819965532426
0.07441599120138837
0.08612632462228878
0.06488491398809912
-0.07616071350266206
-0.10096549410010441
-0.08696842230384752
-0.04916151732471563
-1.4286488658754593e-13
0.04916151732452277
0.08696842230399875
0.10096549410007491
0.07616071350228112
-0.06488491398913075
-0.08612632462363004
-0.07441599120254604
-0.04222181996654996
-5.399326818977812e-17
0.042221819966664326
0.07441599120247669
0.08612632462315087
0.06488491398921954
-0.03511814894902386
-0.04697102536599835
-0.041562834601134864
-0.024267258268575904
3.135533282669356e-13
0.024267258268926846
0.04156283460069212
0.04697102536484568
0.035118148949086395
0.0010693374044863724
0.0006369047451199724
-0.0030733159794458665
-0.0037551344345111105
6.54253317104378e-13
0.0037551344348736157
0.0030733159784379935
-0.0006369047464297832
-0.0010693374046808072
0.025761578713894555
0.02731267377995964
0.016957223879187636
0.006795344792746203
7.196754314448689e-13
-0.006795344792528315
-0.01695722388030852
-0.02731267378085068
-0.025761578714033777
0.04310571822352204
0.03740954299528851
0.0157913933669986
0.002629970387704579
9.627839974921115e-14
-0.0026299703877901257
-0.015791393367603334
-0.037409542995836056
-0.04310571822355611
-0.0010780717072115774
-0.014216742328152936
-0.024853572386384144
-0.019340905372959627
8.894645545272362e-14
0.019340905372812058
0.02485357238596418
0.01421674232790453
0.0010780717072141881
-0.07041106686865879
-0.1001857068976029
-0.09265402277987189
-0.055089394177092986
2.1651517384535524e-13
0.055089394177074674
0.092654022779943
0.10018570689779228
0.07041106686856871
-0.12501303223119586
-0.16962724874986285
-0.1491617856832623
-0.08544759975994666
2.2281005165880607e-13
0.08544759975980208
0.1491617856835383
0.1696272487502004
0.125013032230816
-0.14515205178932916
-0.19561878314552453
-0.17060328123430668
-0.09709132285548933
1.8585653849267914e-13
0.09709132285522701
0.1706032812342033
0.19561878314556316
0.14515205178890875
-0.12501303223250945
-0.16962724875222643
-0.14916178568540722
-0.08544759976099278
2.096213827518234e-13
0.08544759976108557
0.1491617856849892
0.16962724875176094
0.12501303223247928
-0.07041106687054871
-0.10018570690081977
-0.09265402278268459
-0.05508939417853721
3.387251416853143e-13
0.05508939417901849
0.09265402278210841
0.10018570689970915
0.07041106687051424
-0.001078071708387967
-0.014216742330115316
-0.02485357238826765
-0.019340905373856358
6.244399257653716e-13
0.01934090537431491
0.02485357238748897
0.014216742329007392
0.001078071708270495
0.043105718223681644
0.037409542995199156
0.015791393366422296
0.0026299703874788968
6.634958153641651e-13
-0.0026299703874071464
-0.01579139336733674
-0.03740954299576539
-0.04310571822360891
0.069532089041176
0.043192138295587615
0.0028595666019342984
-0.009914782987935158
2.329939355599081e-13
0.009914782988160096
-0.002859566602559891
-0.043192138296145315
-0.06953208904093078
-0.0185470736581355
-0.05582070327027437
-0.0739480354659161
-0.051270769369005986
2.453213413661226e-13
0.05127076936901699
0.07394803546543494
0.05582070326994522
0.018547073658245556
-0.14322457635223074
-0.2047151089215387
-0.18789056788810488
-0.11024455012533341
3.6078865589539433e-13
0.11024455012539751
0.18789056788798392
0.20471510892139236
0.1432245763520911
-0.23630497620197288
-0.32113632949023185
-0.28055399170529094
-0.15915727890225734
4.4744503241433975e-13
0.15915727890231227
0.2805539917053259
0.321136329490212
0.23630497620166602
-0.26988714239841904
-0.3640485842195823
-0.3153887607284368
-0.1777951823355446
5.386351087377506e-13
0.17779518233566832
0.31538876072831934
0.3640485842195978
0.2698871423982635
-0.23630497620449892
-0.32113632949335247
-0.2805539917079082
-0.15915727890351306
3.931160952319601e-13
0.1591572789038207
0.28055399170769857
0.32113632949296395
0.23630497620427351
-0.1432245763561262
-0.2047151089262144
-0.18789056789182623
-0.1102445501272662
2.1309473283159797e-13
0.11024455012762695
0.18789056789162562
0.20471510892532419
0.1432245763555179
-0.018547073661044952
-0.055820703273659504
-0.07394803546858476
-0.05127076937031893
4.046527652887266e-13
0.05127076937074744
0.07394803546852512
0.0558207032731098
0.01854707366070932
0.06953208904068237
0.04319213829484331
0.0028595666011260006
-0.009914782988389513
4.139238864858674e-13
0.009914782988486706
-0.002859566601342297
-0.04319213829491731
-0.06953208904074351
0.08408755196065801
0.021544012065858386
-0.03583498698426271
-0.03642934711244053
4.71034723812519e-13
0.03642934711285021
0.035834986983842604
-0.021544012066233707
-0.08408755196062022
-0.08261811801215763
-0.16097039742018365
-0.1728516807876106
-0.10859369761023138
6.188968608433765e-13
0.10859369761064808
0.1728516807871527
0.16097039741968502
0.08261811801204584
-0.2965389006811674
-0.4109388228214632
-0.3577849535146826
-0.20203722127225576
6.706961375169129e-13
0.20203722127265597
0.3577849535143654
0.4109388228209986
0.2965389006810646
-0.4490013478978032
-0.6001112993181745
-0.5048020267438924
-0.2780252426986244
7.92161475304809e-13
0.27802524269899187
0.5048020267438482
0.600111299318154
0.44900134789778323
-0.5022982084160478
-0.6685647645461896
-0.5594911184889058
-0.30678475330168203
8.375782706293577e-13
0.30678475330215504
0.5594911184892323
0.6685647645466355
0.5022982084160694
-0.4490013479022311
-0.6001112993229343
-0.5048020267473445
-0.2780252427006198
3.8316572137375715e-13
0.27802524270107615
0.5048020267479489
0.6001112993230451
0.4490013479018966
-0.29653890068774236
-0.4109388228287157
-0.35778495352003237
-0.20203722127533918
-8.673790852231633e-14
0.20203722127546062
0.3577849535206794
0.4109388228285673
0.29653890068697714
-0.08261811801697833
-0.16097039742582342
-0.1728516807918149
-0.1085936976123768
2.0426802610495898e-14
0.1085936976127028
0.1728516807928027
0.16097039742631314
0.08261811801677264
0.08408755195958464
0.021544012063912554
-0.03583498698591535
-0.0364293471132057
-1.2271542289277182e-14
0.03642934711338369
0.035834986986702705
-0.021544012063449424
-0.0840875519597704
0.05839196562122318
-0.03950100240422767
-0.09571792336938259
-0.07105446969813478
4.345597232752185e-13
0.07105446969844499
0.09571792336917308
0.03950100240368304
-0.05839196562171844
-0.27370640974146004
-0.3764285008108321
-0.3317481840896307
-0.1905176314171973
7.569257720607681e-13
0.19051763141790407
0.3317481840894915
0.37642850081007695
0.27370640974085386
-0.6666863674150576
-0.7984743587034069
-0.6267235362736838
-0.3355191865802856
9.672974227159514e-13
0.33551918658104796
0.6267235362737023
0.7984743587030962
0.6666863674147165
-0.9244650617917314
-1.1048085264548297
-0.8542799155788905
-0.45019251524284554
1.1976843128369552e-12
0.45019251524371784
0.854279915579286
1.1048085264551568
0.9244650617915842
-1.0111796517510485
-1.2130184464188078
-0.9378340560740427
-0.49312182086117706
1.0425549312742532e-12
0.4931218208622335
0.9378340560749941
1.2130184464195601
1.011179651750981
-0.9244650617983216
-1.1048085264623269
-0.8542799155841756
-0.4501925152460199
4.841196887817034e-13
0.45019251524696846
0.8542799155853164
1.1048085264629783
0.9244650617982767
-0.6666863674251577
-0.7984743587146258
-0.6267235362818673
-0.3355191865850534
4.611415416189146e-14
0.3355191865853959
0.6267235362827963
0.7984743587153025
0.6666863674251042
-0.27370640974974225
-0.3764285008197281
-0.33174818409629525
-0.1905176314209128
-6.860137458097881e-14
0.1905176314211004
0.3317481840975049
0.3764285008209922
0.27370640975008
0.05839196561833008
-0.039501002407638416
-0.09571792337216778
-0.0710544696996707
-1.8779834458360067e-13
0.07105446969978324
0.09571792337336084
0.03950100240868695
-0.05839196561824395

SCALARS STRESS_ZX float 1
LOOKUP_TABLE default
-21.271257071738905
0.25814998034997355
-0.25814998034952674
21.271257071665637
21.271257071738923
-0.25814998035016484
0.2581499803498398
-21.271257071665712
-12.702885952617024
-2.455778464971703
-0.2571818931906201
0.44505892719794926
0.6855107114509473
0.7513479209301062
0.747013521988789
0.7170762582195388
0.6817195612308627
0.6488771228227811
0.6200805739638484
0.5934108042696931
0.5649892545259266
0.5298084141267743
0.48292340887073887
0.4230105352177837
0.363291947867532
0.3548417935595449
0.31563863158700156
0.23901868952455008
0.2018370558186346
0.14263190886160249
0.06713078311109431
1.1922789144858115e-12
-0.06713078310817486
-0.14263190885827814
-0.20183705581619055
-0.23901868952347977
-0.31563863158680106
-0.3548417935590976
-0.36329194786520924
-0.42301053521410614
-0.4829234088670471
-0.529808414123805
-0.564989254523051
-0.5934108042668461
-0.620080573961953
-0.6488771228211507
-0.6817195612293505
-0.7170762582185708
-0.7470135219888053
-0.7513479209328044
-0.6855107114590706
-0.4450589272144487
0.2571818931583793
2.4557784649054666
12.7028859525356
18.73562931804673
13.964429252262644
9.39660182400203
4.7111589393942275
1.1560152834988457e-10
-4.711158939178259
-9.396601823838727
-13.9644292521826
-18.735629318066252
12.702885952617052
2.455778464971707
0.2571818931906364
-0.44505892719790846
-0.6855107114509676
-0.7513479209302121
-0.747013521988997
-0.7170762582196387
-0.6817195612308118
-0.6488771228229604
-0.620080573964048
-0.5934108042696686
-0.5649892545259063
-0.5298084141264543
-0.48292340887039553
-0.4230105352176105
-0.3632919478675631
-0.3548417935598741
-0.31563863158724137
-0.23901868952479727
-0.20183705581878614
-0.14263190886163815
-0.0671307831113868
-1.6223550280969334e-12
0.06713078310824647
0.14263190885878824
0.2018370558162571
0.23901868952343766
0.3156386315868486
0.3548417935590798
0.36329194786510477
0.42301053521359466
0.48292340886687896
0.5298084141237306
0.5649892545226209
0.5934108042663162
0.6200805739616311
0.6488771228209571
0.681719561229106
0.7170762582185117
0.7470135219886586
0.7513479209325435
0.6855107114588832
0.44505892721429374
-0.2571818931585016
-2.45577846490553
-12.70288595253567
-18.73562931804681
-13.964429252262734
-9.396601824002119
-4.711158939394294
-1.1564305069100556e-10
4.711158939178238
9.396601823838733
13.96442925218262
18.735629318066273
-18.426680590797808
-12.739399931782964
-7.749019052693928
-3.7054639730774874
4.007905118896815e-14
3.7054639730775514
7.74901905269396
12.739399931782994
18.426680590797837
0.34478888097789984
0.39482887636400443
0.29007557532644335
0.1481414543085152
1.3307410728913283e-13
-0.14814145430828016
-0.2900755753265407
-0.39482887636420294
-0.34478888097799454
-0.3447888809763925
-0.3948288763614244
-0.29007557532372996
-0.14814145430659592
8.091444181346219e-14
0.14814145430668502
0.29007557532369904
0.3948288763604878
0.3447888809756515
18.426680590755893
12.739399931777836
7.749019052694502
3.705463973078121
-6.428191312579656e-14
-3.705463973078263
-7.74901905269466
-12.739399931777982
-18.426680590755993
-11.107782669757507
-8.203857401413506
-5.5346103451926085
-2.7856910257832475
6.667333352083915e-11
2.7856910259051126
5.5346103452768105
8.203857401439008
11.107782669713286
-1.9585286126094725
-1.2543411868839567
-0.8468045076462704
-0.43325560222608744
8.612727718515512e-12
0.43325560223835113
0.8468045076439902
1.254341186860248
1.9585286125585772
-0.03340068263744443
0.1996378786903405
0.17556941313119664
0.09542319759718008
-2.199736920394102e-12
-0.095423197602743
-0.1755694131399798
-0.19963787870338962
0.0334006826136949
0.4849263386770092
0.4974267628584779
0.3884867592072494
0.20640477109493197
-3.743502036135382e-12
-0.20640477110215127
-0.3884867592134439
-0.4974267628636757
-0.48492633868773805
0.6195956233260986
0.5049365797033029
0.37657801874395636
0.19962461001008508
-3.1270160072427444e-12
-0.19962461001558124
-0.3765780187472599
-0.5049365797046804
-0.6195956233306036
0.6265285794055088
0.44268935221708183
0.31374710886233703
0.1637842741049402
-2.2320929826680214e-12
-0.16378427410861568
-0.31374710886381507
-0.4426893522165061
-0.6265285794062475
0.5902400938542713
0.3709292729919162
0.2489107025604361
0.12685031032883012
-1.512814179482902e-12
-0.12685031033120653
-0.24891070256100112
-0.3709292729907342
-0.590240093853396
0.543678669693448
0.30779757211496556
0.19502110211680435
0.09650983345424273
-9.82812789485088e-13
-0.09650983345573352
-0.19502110211701174
-0.3077975721139007
-0.5436786696921998
0.5002480149423929
0.25788246213412547
0.1540784354472561
0.07376347677486872
-5.758553356383089e-13
-0.07376347677572784
-0.1540784354472785
-0.25788246213319005
-0.5002480149409622
0.46417333490408863
0.2206542488536126
0.12454681719455657
0.05758800274592759
-2.8990178313481607e-13
-0.057588002746317354
-0.12454681719442104
-0.2206542488528188
-0.46417333490271506
0.4351948592924039
0.19370960337845755
0.10399728283661423
0.046549692600536874
-1.161640228453109e-13
-0.04654969260062629
-0.10399728283623796
-0.19370960337748444
-0.4351948592908327
0.41091779939474415
0.17428003469413678
0.09019087653334258
0.03942544757620972
3.069766663088558e-14
-0.039425447576107435
-0.09019087653290314
-0.17428003469296902
-0.4109177993925207
0.3880611696263156
0.16009776549489246
0.08167316723508339
0.03551542093112541
1.052742962248665e-13
-0.03551542093098192
-0.08167316723492393
-0.16009776549428412
-0.38806116962439074
0.36328628062928925
0.150124992761951
0.07826343654202439
0.0348679287993791
1.164190271962795e-13
-0.03486792879910525
-0.07826343654168252
-0.15012499276142466
-0.3632862806274627
0.3343746670536089
0.14548676472457533
0.08150682506331236
0.03837833502689403
2.108027294389636e-13
-0.038378335026470894
-0.08150682506279917
-0.14548676472384753
-0.33437466705133606
0.3029374160635683
0.15053502601888613
0.09451896903365697
0.04740663027975157
3.2875091537931667e-13
-0.04740663027919991
-0.09451896903321932
-0.15053502601845814
-0.30293741606151625
0.28070055946168687
0.1716588556907248
0.11892266496013672
0.06240426138666833
5.788477336343689e-13
-0.06240426138559324
-0.11892266495934126
-0.1716588556904162
-0.2807005594605161
0.28990209332807687
0.20065094118995117
0.14583596444500357
0.07754411530320773
1.0720122706198154e-12
-0.07754411530127212
-0.1458359644436988
-0.20065094118947752
-0.28990209332782074
0.2722849500535808
0.20803986424829501
0.1501954040147588
0.07544304422597968
1.2725306919314505e-12
-0.07544304422330667
-0.15019540401231846
-0.20803986424673654
-0.27228495005296194
-12.619587468933823
-10.54533816622959
-6.752562575839098
-3.28271417734781
4.923839114212569e-14
3.2827141773478825
6.752562575839114
10.545338166229607
12.61958746893386
-4.402062627315718
-5.931173203914069
-4.482496831891157
-2.3064952885959022
7.55506768257419e-14
2.3064952885960026
4.482496831891149
5.931173203914046
4.402062627315732
-1.0493699898092332
-2.1583047881597692
-2.1510403267624136
-1.2403030880241177
1.2265188864546417e-13
1.2403030880242716
2.1510403267624145
2.158304788159723
1.049369989809225
0.28265286251685373
-0.1507497015797989
-0.47417767722802545
-0.3735013573885577
1.015194872611147e-13
0.3735013573886832
0.47417767722803306
0.15074970157973272
-0.28265286251688326
0.8214860236619254
0.791263295993587
0.4500656071040998
0.17138837824480396
8.68749516769185e-14
-0.17138837824465392
-0.45006560710404886
-0.7912632959936005
-0.8214860236619366
1.0130255705826803
1.182517381213685
0.8811567999487867
0.4467648295797053
1.823957651581054e-13
-0.44676482957948327
-0.88115679994869
-1.182517381213576
-1.0130255705826812
1.0523248524301332
1.305791205507155
1.0426406839967752
0.55900431152726
1.816324868286756e-13
-0.5590043115271166
-1.042640683996677
-1.3057912055069014
-1.0523248524301199
1.0292902018697836
1.3092583989877151
1.0737238421730257
0.5878271036099488
6.890321646579878e-14
-0.5878271036098163
-1.0737238421728927
-1.3092583989874687
-1.0292902018696564
0.985918672337114
1.266361736346786
1.0496266063875432
0.5795539569796954
-1.3766765505351941e-14
-0.5795539569794772
-1.0496266063872004
-1.2663617363465873
-0.985918672337001
0.9401317571797627
1.2105724141863123
1.006602853497545
0.557471105244408
-7.553679903793409e-14
-0.55747110524427
-1.0066028534971359
-1.2105724141862257
-0.9401317571799614
0.8974105244103203
1.154341918057694
0.9595688006870459
0.5316598432067784
-1.6456280782506383e-13
-0.5316598432068945
-0.9595688006869296
-1.1543419180578707
-0.8974105244106647
0.8568203043836816
1.0995246086303023
0.9126743681118524
0.5054744768898772
-1.554312234475219e-14
-0.505474476889822
-0.912674368111825
-1.0995246086304742
-0.8568203043837979
0.8142550416515373
1.043266051954216
0.8655247574666811
0.4794592002828192
2.162783840908844e-13
-0.47945920028235245
-0.8655247574665923
-1.0432660519543695
-0.814255041651519
0.764538973886699
0.9819305852746643
0.8172015482153886
0.4537931649913946
2.416955524608966e-13
-0.45379316499085
-0.8172015482152402
-0.9819305852748477
-0.764538973886568
0.7038891073168545
0.914780383012188
0.7691142238944011
0.4296275433293838
1.5699247457590104e-13
-0.42962754332905567
-0.769114223894344
-0.914780383012504
-0.7038891073168846
0.6345873913417803
0.8478857442888074
0.7255353487492348
0.4082642815058251
2.197270143611263e-13
-0.40826428150550365
-0.7255353487492484
-0.8478857442890266
-0.6345873913417975
0.5733760974254332
0.7931732326369567
0.6858361133898118
0.3858256173599472
4.20274925971853e-13
-0.3858256173593876
-0.6858361133897476
-0.7931732326370448
-0.5733760974254617
0.5469518642230052
0.736744007191772
0.620496674403449
0.3423160916734845
4.428471478412632e-13
-0.3423160916728105
-0.6204966744034031
-0.7367440071921774
-0.5469518642233901
0.44528758326831164
0.5488898374506873
0.43247129697150966
0.22975156256693768
2.725319969698603e-13
-0.2297515625664503
-0.4324712969715321
-0.548889837451074
-0.4452875832685809
0.3022841252969569
0.33130176276697615
0.24086722328865312
0.12340228144110511
9.305403669834789e-14
-0.1234022814409361
-0.24086722328883503
-0.3313017627672799
-0.30228412529712634
0.23354808840857813
0.23336365274523962
0.16270056270644798
0.08281672869949606
1.454548287371793e-13
-0.08281672869939548
-0.1627005627067798
-0.23336365274566667
-0.23354808840879399
0.16458317589524413
0.16085337189362636
0.10773394160740021
0.05346182396604472
1.9651381216734265e-13
-0.05346182396583532
-0.1077339416076166
-0.16085337189396748
-0.16458317589537383
0.08098047724003508
0.08201232194511983
0.054709537520735436
0.02669508150699887
2.32165849045618e-13
-0.026695081506693804
-0.05470953752075525
-0.08201232194514914
-0.08098047724011792
1.546689859521777e-12
1.4178311302792679e-12
6.691357537502718e-13
3.7467706888449914e-13
3.366781679836617e-13
-2.1145585282766888e-13
-8.40622710329697e-13
-1.2995941128801647e-12
-1.6454615447969445e-12
-0.0809804772367971
-0.0820123219423805
-0.05470953751912228
-0.02669508150598887
1.268898180972755e-13
0.026695081506054624
0.054709537518983775
0.08201232194232498
0.08098047723685474
-0.16458317589202637
-0.16085337189098553
-0.10773394160540425
-0.05346182396482699
-1.8996783313074417e-13
0.053461823964868836
0.10773394160556396
0.16085337189088708
0.16458317589225507
-0.23354808840598806
-0.23336365274274973
-0.16270056270438302
-0.08281672869832489
-1.1445358549799778e-13
0.08281672869836837
0.1627005627045336
0.23336365274267828
0.23354808840595725
-0.3022841252951397
-0.33130176276451556
-0.24086722328628343
-0.12340228143955671
6.07708328104195e-14
0.12340228143965015
0.24086722328628982
0.3313017627639898
0.3022841252946191
-0.4452875832670742
-0.5488898374479813
-0.43247129696831355
-0.22975156256467316
1.8104615029379545e-13
0.2297515625648872
0.43247129696826414
0.5488898374471222
0.44528758326632123
-0.5469518642217055
-0.7367440071890395
-0.6204966744002673
-0.34231609167125315
3.8508085609123555e-13
0.3423160916716389
0.6204966743999722
0.7367440071881888
0.5469518642211416
-0.5733760974226138
-0.7931732326337299
-0.6858361133870943
-0.3858256173582194
3.1193103655624554e-13
0.38582561735848553
0.685836113386618
0.7931732326327909
0.5733760974220531
-0.6345873913377343
-0.8478857442848626
-0.7255353487464611
-0.4082642815044168
5.387357226993572e-14
0.4082642815043386
0.7255353487458542
0.8478857442837973
0.6345873913368878
-0.7038891073125132
-0.9147803830075523
-0.769114223890975
-0.4296275433277734
-1.4170609130559342e-13
0.42962754332744946
0.7691142238905286
0.9147803830068888
0.7038891073120297
-0.7645389738825853
-0.9819305852696016
-0.8172015482112291
-0.4537931649891282
-2.5933422076462875e-13
0.4537931649886635
0.81720154821091
0.9819305852693232
0.7645389738823836
-0.814255041647471
-1.0432660519491745
-0.8655247574624454
-0.4794592002804128
-2.9793528755206466e-13
0.47945920027984
0.8655247574619096
1.0432660519488843
0.8142550416472265
-0.8568203043797611
-1.0995246086255401
-0.9126743681078711
-0.5054744768877173
-3.7855829582156275e-13
0.5054744768870542
0.9126743681073219
1.0995246086252675
0.8568203043794881
-0.8974105244072552
-1.1543419180535446
-0.9595688006833725
-0.5316598432047164
-3.7854441803375494e-13
0.5316598432040516
0.9595688006828702
1.1543419180532593
0.897410524407025
-0.94013175717709
-1.2105724141826808
-1.006602853494353
-0.557471105242695
-3.845396223667308e-13
0.557471105241957
1.006602853493737
1.210572414182291
0.9401317571768658
-0.9859186723348029
-1.2663617363440771
-1.0496266063856332
-0.5795539569789029
-3.747419041744138e-13
0.5795539569781221
1.0496266063848845
1.2663617363435193
0.9859186723344657
-1.029290201868504
-1.3092583989870334
-1.0737238421738236
-0.587827103610982
-2.7691737791712967e-13
0.5878271036104019
1.073723842173289
1.3092583989866433
1.0292902018683154
-1.0523248524314153
-1.3057912055115337
-1.0426406840033182
-0.5590043115319654
-2.1309343178899098e-13
0.559004311531558
1.0426406840029507
1.3057912055112557
1.0523248524312367
-1.0130255705896878
-1.1825173812281955
-0.8811567999655353
-0.4467648295905908
-1.839361996047728e-13
0.44676482959020464
0.8811567999651283
1.1825173812278735
1.0130255705894402
-0.8214860236791126
-0.7912632960239845
-0.4500656071351825
-0.1713883782638227
-1.7616463843239671e-13
0.17138837826346365
0.45006560713482635
0.7912632960236788
0.8214860236788863
-0.28265286254898336
0.15074970152888628
0.4741776771817786
0.37350135736257456
-1.6456801199549176e-13
-0.37350135736285783
-0.474177677182037
-0.15074970152915723
0.28265286254877453
1.0493699897560766
2.158304788089617
2.151040326709296
1.2403030879975971
-1.2713441410738824e-13
-1.2403030879978556
-2.1510403267095377
-2.158304788089834
-1.049369989756245
4.402062627239551
5.931173203844031
4.482496831850326
2.306495288577822
-8.08242361927114e-14
-2.306495288578035
-4.4824968318505505
-5.931173203844203
-4.402062627239663
12.619587468869431
10.54533816619613
6.752562575824989
3.2827141773422652
-6.505906924303417e-14
-3.2827141773424247
-6.75256257582517
-10.545338166196288
-12.619587468869534
16.216199236290386
11.203155921569264
6.822737116761646
3.266113099723623
-6.089573290068984e-14
-3.266113099723759
-6.822737116761797
-11.203155921569401
-16.216199236290485
12.055856083620858
8.299759657009727
5.055505595318291
2.4215816436267503
-5.5344617777564054e-14
-2.4215816436268716
-5.0555055953184205
-8.299759657009844
-12.05585608362096
8.100607845784005
5.55914874109071
3.376974957520721
1.6146566865898033
-4.601874437071274e-14
-1.6146566865898984
-3.3769749575208214
-5.5591487410908105
-8.100607845784097
4.065750316280952
2.79297154303672
1.6943718291550236
0.8091161403979372
-3.189115638235762e-14
-0.8091161403980063
-1.694371829155099
-2.7929715430367974
-4.065750316281024
9.986372839776436e-11
6.877615144063043e-11
4.1813802420520574e-11
1.9974841225511852e-11
-1.9109713811360507e-14
-2.0023593894080705e-11
-4.1869618883083604e-11
-6.882755476667057e-11
-9.990996918674e-11
-4.065750316093615
-2.7929715429068045
-1.6943718290758318
-0.8091161403600587
-1.0075273948473296e-14
0.8091161403600297
1.6943718290757992
2.792971542906778
4.065750316093592
-8.100607845639207
-5.5591487409866875
-3.376974957456578
-1.6146566865589966
-4.746203430272544e-15
1.6146566865589886
3.376974957456571
5.559148740986679
8.100607845639205
-12.055856083542572
-8.299759656945476
-5.0555055952773715
-2.421581643606954
7.605027718682322e-15
2.421581643606972
5.055505595277386
8.299759656945483
12.055856083542588
-16.21619923629038
-11.203155921550461
-6.822737116747205
-3.2661130997164123
2.8976820942716586e-14
3.2661130997164607
6.822737116747232
11.203155921550486
16.216199236290407
11.107782669757531
8.203857401413527
5.534610345192614
2.78569102578323
-6.670365648719923e-11
-2.7856910259051544
-5.534610345276873
-8.203857401439071
-11.107782669713348
1.958528612609487
1.2543411868839758
0.8468045076462805
0.43325560222608495
-8.620506218581792e-12
-0.43325560223835446
-0.8468045076440035
-1.2543411868602818
-1.9585286125586303
0.033400682637472964
-0.199637878690313
-0.1755694131311783
-0.09542319759716404
2.2045767988920772e-12
0.09542319760273893
0.1755694131399839
0.19963787870339578
-0.03340068261375809
-0.48492633867695
-0.4974267628584249
-0.3884867592072271
-0.2064047710949223
3.7432487665078895e-12
0.20640477110213573
0.3884867592134291
0.4974267628636503
0.4849263386876361
-0.6195956233260813
-0.5049365797032641
-0.3765780187439365
-0.19962461001006343
3.120396302458417e-12
0.1996246100155331
0.3765780187472008
0.5049365797045694
0.6195956233304294
-0.6265285794055281
-0.44268935221705125
-0.3137471088623493
-0.16378427410493332
2.1936272243117116e-12
0.1637842741084934
0.3137471088637127
0.4426893522164236
0.6265285794060691
-0.5902400938542958
-0.370929272991799
-0.24891070256040349
-0.12685031032885
1.4241628709665832e-12
0.12685031033107866
0.24891070256097156
0.3709292729907484
0.5902400938533124
-0.5436786696934063
-0.30779757211484937
-0.1950211021167962
-0.09650983345428515
8.926331895864337e-13
0.09650983345564856
0.1950211021170143
0.3077975721138925
0.5436786696921386
-0.5002480149423144
-0.2578824621341051
-0.1540784354473213
-0.07376347677488489
5.464326907622663e-13
0.07376347677564837
0.15407843544723726
0.2578824621331141
0.5002480149407716
-0.46417333490420376
-0.2206542488536951
-0.12454681719463961
-0.05758800274593319
3.0709809695217416e-13
0.057588002746278
0.12454681719427993
0.22065424885263027
0.46417333490253476
-0.4351948592925986
-0.1937096033785946
-0.10399728283668835
-0.04654969260060056
5.3751274264879356e-14
0.04654969260052057
0.10399728283600589
0.1937096033772246
0.4351948592905688
-0.4109177993947258
-0.17428003469409753
-0.09019087653333596
-0.03942544757626487
-1.0164351998964705e-13
0.03942544757594313
0.0901908765326033
0.17428003469262102
0.4109177993920856
-0.3880611696262417
-0.16009776549475133
-0.08167316723502047
-0.035515420931195335
-1.8691992398345292e-13
0.035515420930834936
0.08167316723460345
0.16009776549385155
0.3880611696239428
-0.3632862806290391
-0.15012499276176094
-0.07826343654192223
-0.0348679287994389
-2.0124960725675933e-13
0.034867928799034616
0.07826343654154344
0.15012499276119745
0.3632862806272895
-0.33437466705330426
-0.14548676472438965
-0.08150682506335032
-0.038378335027057064
-3.173503126951971e-13
0.038378335026389945
0.08150682506269485
0.14548676472362132
0.3343746670510834
-0.30293741606344826
-0.15053502601891056
-0.09451896903378781
-0.04740663027988267
-4.613141466047743e-13
0.04740663027900523
0.0945189690330703
0.15053502601828517
0.3029374160611163
-0.2807005594617088
-0.17165885569074582
-0.11892266496017785
-0.06240426138675374
-6.446995715059245e-13
0.062404261385586496
0.11892266495940323
0.17165885569055492
0.2807005594605408
-0.28990209332833594
-0.20065094119013674
-0.14583596444520947
-0.07754411530335019
-9.4406600592567e-13
0.07754411530162242
0.1458359644441385
0.20065094118987328
0.28990209332796263
-0.2722849500538725
-0.20803986424859777
-0.15019540401497744
-0.07544304422616116
-1.3215695898738389e-12
0.07544304422360662
0.15019540401289427
0.20803986424704496
0.2722849500529735
-11.03233808541097
-9.228189608988703
-5.92398503081578
-2.8841595574623926
3.855249453010856e-14
2.884159557462451
5.923985030815796
9.228189608988718
11.032338085411002
-8.126345117970198
-6.784728301105841
-4.363907218415116
-2.127816939990373
1.1671219546371958e-14
2.1278169399903972
4.363907218415129
6.784728301105845
8.126345117970214
-5.464394437098808
-4.539495554609969
-2.910949604881444
-1.4175872863794357
-6.390721285498557e-15
1.4175872863794259
2.910949604881436
4.53949555460996
5.464394437098806
-2.7505513966733752
-2.283009208049686
-1.461042244012547
-0.7105995307329849
-1.071365218763276e-14
0.7105995307329485
1.4610422440125075
2.28300920804966
2.750551396673355
6.570799460092758e-11
5.4388521464332484e-11
3.4744179755463733e-11
1.6874335262428986e-11
-1.85268467234323e-14
-1.692879170178685e-11
-3.480807309053091e-11
-5.444189543624134e-11
-6.574865651920447e-11
2.7505513967941386
2.283009208150566
1.461042244077425
0.7105995307645907
-3.2557290197132716e-14
-0.7105995307646644
-1.46104224407751
-2.283009208150651
-2.7505513967942004
5.464394437184838
4.539495554685235
2.9109496049312558
1.4175872864039778
-4.535954944984155e-14
-1.417587286404074
-2.9109496049313632
-4.539495554685343
-5.46439443718492
8.126345118002657
6.784728301142041
4.363907218441805
2.1278169400039855
-4.997391389593986e-14
-2.1278169400041005
-4.363907218441936
-6.784728301142161
-8.126345118002746
11.03233808538026
9.228189608979399
5.923985030815737
2.884159557463422
-5.775935285612377e-14
-2.8841595574635637
-5.923985030815898
-9.228189608979541
-11.032338085380356
-3.6763052464928383
-5.074107341668738
-3.87226520630011
-1.999649084639758
5.533073998975624e-14
1.9996490846398327
3.8722652063001104
5.074107341668729
3.6763052464928547
-2.513904186302635
-3.5834879203225913
-2.7726419076877336
-1.4400428053709498
9.874046025259986e-15
1.4400428053709724
2.7726419076877464
3.583487920322595
2.5139041863026477
-1.6693078623338058
-2.36265992343349
-1.8254900510038294
-0.9487825781463106
-1.9033385978417527e-14
0.9487825781462873
1.8254900510038254
2.3626599234334895
1.6693078623338102
-0.8431293414284502
-1.1849939157915685
-0.912314523226288
-0.4736273365663488
-2.2511506547751026e-14
0.47362733656629596
0.912314523226244
1.184993915791548
0.8431293414284421
1.8021112380139925e-11
2.5933408198675068e-11
1.9916027160782335e-11
1.0291219265656792e-11
-2.4773585960424782e-14
-1.0357159574425623e-11
-1.9988108390656123e-11
-2.598793402697197e-11
-1.8048618155575014e-11
0.8431293414580444
1.184993915836636
0.9123145232616988
0.4736273365848267
-3.3639757646142243e-14
-0.47362733658490735
-0.9123145232618007
-1.184993915836735
-0.8431293414580903
1.6693078623441635
2.3626599234578887
1.8254900510255656
0.9487825781582048
-4.5977111007289295e-14
-0.9487825781583049
-1.8254900510256982
-2.3626599234580237
-1.6693078623442272
2.513904186284243
3.5834879203155796
2.772641907688364
1.4400428053726038
-5.5913607077684446e-14
-1.4400428053727294
-2.7726419076885134
-3.5834879203157253
-2.5139041862843254
3.676305246437578
5.074107341621442
3.8722652062740837
1.9996490846286643
-7.037426197342711e-14
-1.9996490846288424
-3.872265206274274
-5.074107341621602
-3.67630524643768
-0.7152775118301624
-1.7174838740529303
-1.7855930371911641
-1.0426146591424517
7.336492524601113e-14
1.0426146591425467
1.7855930371911692
1.7174838740529041
0.715277511830167
-0.2720540401777108
-1.0288615412036444
-1.1718903152556235
-0.7026008490313925
-4.427014310692812e-15
0.7026008490313984
1.171890315255627
1.028861541203641
0.2720540401777281
-0.11890865791228442
-0.6106239234829957
-0.7274857102944359
-0.44239172392140697
-3.259371939012823e-14
0.4423917239213689
0.7274857102944203
0.610623923482997
0.11890865791230479
-0.0490208443654703
-0.29213232105347486
-0.35298993050641614
-0.21564211986272183
-3.759015668181043e-14
0.21564211986265924
0.3529899305063748
0.2921323210534626
0.04902084436548239
6.788979101113313e-13
5.650412429614171e-12
6.9886266912400075e-12
4.247756660302748e-12
-3.9739912749414685e-14
-4.324597971394617e-12
-7.051643990951817e-12
-5.692168958404409e-12
-6.923385476031996e-13
0.049020844364318555
0.29213232106087234
0.3529899305171497
0.21564211986952658
-3.6330747438251265e-14
-0.21564211986961235
-0.3529899305172558
-0.2921323210609674
-0.04902084436435912
0.11890865790399238
0.610623923478959
0.7274857102953958
0.4423917239230267
-3.9039951826858044e-14
-0.44239172392312476
-0.7274857102955571
-0.6106239234791199
-0.11890865790404898
0.2720540401585875
1.0288615411813606
1.1718903152406897
0.7026008490245108
-5.0796172823552865e-14
-0.7026008490246396
-1.1718903152408688
-1.0288615411815376
-0.27205404015865997
0.7152775117909222
1.7174838740013543
1.7855930371524564
1.0426146591232466
-9.337669526487957e-14
-1.0426146591234526
-1.7855930371526654
-1.717483874001546
-0.7152775117910489
0.3694760556367166
0.00078336322790723
-0.32246360280626996
-0.28152334112375876
4.203430138682851e-14
0.28152334112382554
0.3224636028062903
-0.0007833632279278802
-0.3694760556367034
0.45144518148632423
0.19703917115526517
-0.09844611899411426
-0.13861394092434573
-3.521900653058463e-14
0.13861394092433038
0.09844611899412392
-0.19703917115524278
-0.45144518148626517
0.375284272736526
0.21530879375455764
-0.004617286155501166
-0.06192949239810562
-3.977330617632724e-14
0.06192949239806515
0.004617286155477546
-0.21530879375453854
-0.37528427273647275
0.20516292354679214
0.1289815737446368
0.013653645642353426
-0.022894834514205997
-3.9454984418485495e-14
0.02289483451414464
-0.013653645642394498
-0.12898157374463715
-0.20516292354676846
-3.7419824183704264e-12
-2.3917517272264988e-12
-2.920979430554027e-13
3.820407531995862e-13
-4.4477442562307345e-14
-4.647931345358458e-13
2.36501790373822e-13
2.364747286875968e-12
3.732163883496398e-12
-0.20516292355459045
-0.12898157375077562
-0.013653645644601413
0.022894834513947093
-3.8680864067330845e-14
-0.022894834514035838
0.013653645644499064
0.12898157375068386
0.2051629235545432
-0.375284272745116
-0.21530879376475617
0.00461728614815432
0.06192949239463841
-3.1525997090664504e-14
-0.06192949239472789
-0.004617286148318897
0.21530879376458947
0.3752842727450485
-0.4514451814974916
-0.19703917117379902
0.09844611897716646
0.13861394091493212
-3.725925817876785e-14
-0.13861394091506518
-0.09844611897736744
0.1970391711736194
0.4514451814974044
-0.3694760556594151
-0.0007833632654459244
0.3224636027715897
0.28152334110417987
-1.0839593111988677e-13
-0.28152334110441135
-0.3224636027718264
0.0007833632652233247
0.36947605565925506
0.7604752150864162
0.760199558593137
0.4552597922870237
0.18427744404504168
3.2479444481148256e-14
-0.18427744404496435
-0.4552597922869773
-0.7601995585931014
-0.7604752150863735
0.6379435950641201
0.6684171584925249
0.42811642882974005
0.18675087491877504
-3.23567127952229e-14
-0.18675087491880193
-0.4281164288297231
-0.6684171584924351
-0.6379435950640223
0.4770616048205191
0.50489387887377
0.3306121660883338
0.14823133342082362
-3.808715495767778e-14
-0.14823133342088513
-0.3306121660883689
-0.5048938788737045
-0.47706160482043203
0.2542446713082415
0.2711156149117986
0.17929031402068213
0.08127087379124398
-4.782936199876353e-14
-0.08127087379132092
-0.17929031402074297
-0.2711156149117946
-0.25424467130819495
-3.9950126540233555e-12
-4.283309817942893e-12
-2.856825886965453e-12
-1.3159759740255517e-12
-5.188861493254926e-14
1.218421197268782e-12
2.7815492964489152e-12
4.235604922353531e-12
3.973606166329802e-12
-0.25424467131557676
-0.2711156149202301
-0.17929031402680606
-0.08127087379425772
-4.6984551665962826e-14
0.08127087379414946
0.17929031402668877
0.27111561492009933
0.2542446713154779
-0.4770616048261062
-0.5048938788821498
-0.3306121660960243
-0.14823133342522254
-5.782787443342485e-14
0.1482313334250815
0.33061216609585065
0.504893878881963
0.47706160482598037
-0.6379435950691819
-0.6684171585035237
-0.42811642884194223
-0.18675087492646125
-8.031162540556025e-14
0.1867508749262338
0.4281164288417089
0.6684171585033604
0.6379435950690492
-0.7604752150978249
-0.7601995586151028
-0.45525979231034375
-0.18427744405953606
-1.3680376276248296e-13
0.1842774440592148
0.45525979231003444
0.7601995586148766
0.7604752150976364
0.8679556626821606
1.043735394801491
0.7958658637536657
0.40890656253215796
1.233596558236627e-13
-0.4089065625320173
-0.795865863753586
-1.0437353948013683
-0.8679556626821101
0.6333983565334926
0.7906794096105108
0.6225580219899103
0.32621888433043267
2.4067553505702222e-14
-0.32621888433042384
-0.6225580219898779
-0.7906794096103897
-0.6333983565334039
0.44426118997233455
0.5515492150933751
0.43532476556969735
0.22913814327880988
-3.03819469582578e-14
-0.2291381432788723
-0.4353247655697342
-0.5515492150933147
-0.4442611899722755
0.2314416205557719
0.2864748408151985
0.2255682663069185
0.11867968991103005
-5.681696432779937e-14
-0.1186796899111218
-0.22556826630699506
-0.2864748408152169
-0.23144162055574527
-3.1351657381328835e-12
-3.880555599078406e-12
-3.0977234666274e-12
-1.664420337665895e-12
-5.93947634131009e-14
1.5394560626269538e-12
2.9822255775968642e-12
3.8011399583481875e-12
3.0864512334805028e-12
-0.23144162056114115
-0.2864748408222015
-0.2255682663128161
-0.11867968991432568
-5.719036355600338e-14
0.11867968991416906
0.22556826631265559
0.28647484082205
0.23144162056098966
-0.44426118997532377
-0.5515492150986028
-0.435324765575148
-0.22913814328224325
-7.792030909392622e-14
0.22913814328200796
0.4353247655749165
0.551549215098404
0.44426118997514796
-0.6333983565347332
-0.7906794096153607
-0.622558021996528
-0.3262188843350475
-1.0482933965327845e-13
0.32621888433472135
0.6225580219962306
0.7906794096151946
0.633398356534602
-0.86795566268615
-1.0437353948114907
-0.795865863766007
-0.40890656254041335
-1.5119502871918655e-13
0.40890656254004765
0.7958658637656539
1.0437353948112644
0.8679556626859732
0.860972105936605
1.1063633128514478
0.9050099355330398
0.4911522110151032
1.4157078287446723e-13
-0.4911522110150034
-0.9050099355329613
-1.1063633128512436
-0.8609721059365332
0.568339627936987
0.7682887399152892
0.6528955523962638
0.3616382727919852
5.148312332003968e-14
-0.36163827279193916
-0.6528955523962239
-0.7682887399151885
-0.5683396279368734
0.375995087933846
0.5055003710520609
0.4315898474498898
0.24044213801536957
-1.5926496232943066e-14
-0.24044213801537095
-0.43158984744988993
-0.5055003710520363
-0.37599508793379044
0.19065878965227828
0.2549557375437933
0.21695432258987668
0.12080110139010994
-4.4470069987534444e-14
-0.12080110139017218
-0.21695432258990277
-0.2549557375438065
-0.19065878965229313
-2.219793793223346e-12
-2.9156399516949705e-12
-2.510817942447119e-12
-1.4460689590212183e-12
-5.250921225607996e-14
1.3219130651220823e-12
2.4097147888202386e-12
2.8420529818440343e-12
2.1313402431832884e-12
-0.19065878965588184
-0.25495573754874645
-0.21695432259433078
-0.12080110139275058
-6.698331125876145e-14
0.12080110139256679
0.21695432259415032
0.25495573754860784
0.19065878965574304
-0.3759950879352438
-0.5055003710548469
-0.43158984745303475
-0.24044213801745307
-8.604228440844963e-14
0.24044213801718695
0.4315898474527865
0.5055003710546951
0.37599508793514547
-0.5683396279364273
-0.7682887399164251
-0.6528955523987685
-0.3616382727939932
-1.2126064041773077e-13
0.36163827279363286
0.6528955523984284
0.7682887399162399
0.5683396279363504
-0.8609721059366723
-1.106363312854025
-0.9050099355376142
-0.491152211018575
-1.8405416080113923e-13
0.4911522110181746
0.9050099355372441
1.1063633128537727
0.8609721059365322
0.8134477946955248
1.07709615661308
0.9073055343434984
0.5032455012454695
6.215167269729704e-14
-0.5032455012453505
-0.9073055343433998
-1.077096156612921
-0.8134477946953867
0.49306997312124345
0.6975310392030352
0.6159969160548031
0.35009962375975234
4.5276282722994665e-14
-0.3500996237596472
-0.6159969160547183
-0.6975310392029557
-0.4930699731211309
0.30797995450685034
0.4350111661744759
0.3880735970977773
0.2226308659150424
2.4581031654591357e-14
-0.22263086591498102
-0.3880735970977076
-0.4350111661744135
-0.3079799545068167
0.15149215589405318
0.2128667958563026
0.189541725149788
0.10884132046490369
2.196593601455632e-15
-0.10884132046491343
-0.18954172514977868
-0.21286679585628726
-0.15149215589408022
-1.4790599300873453e-12
-2.0016419077784064e-12
-1.7680058805868981e-12
-1.0488953455789485e-12
-4.3339030281197566e-14
9.62093252288021e-13
1.7157213150209571e-12
1.9504051151919555e-12
1.3915570085121232e-12
-0.15149215589636755
-0.21286679585953877
-0.18954172515274906
-0.10884132046670696
-1.1864901422464769e-13
0.1088413204665045
0.18954172515262208
0.21286679585941612
0.1514921558962456
-0.30797995450743926
-0.435011166175742
-0.3880735970992984
-0.22263086591608827
-1.5692482036033795e-13
0.2226308659157713
0.38807359709906974
0.4350111661756111
0.30797995450737825
-0.49306997312012024
-0.6975310392024088
-0.6159969160550081
-0.3500996237601717
-2.1558102525354172e-13
0.35009962375972886
0.6159969160546195
0.6975310392021874
0.4930699731200561
-0.813447794694008
-1.077096156612081
-0.9073055343437741
-0.5032455012461139
-2.7723309758975745e-13
0.5032455012455637
0.9073055343432648
1.0770961566117208
0.8134477946938536
0.7579474302889393
1.0176117581795767
0.8683174413018757
0.4862019659031076
-1.2871648191747909e-14
-0.486201965902893
-0.8683174413015922
-1.0176117581794646
-0.757947430288844
0.4262288962310401
0.6204293943738758
0.5598592610649623
0.322506324122698
1.2833484275276419e-14
-0.3225063241225459
-0.5598592610647732
-0.6204293943737985
-0.4262288962310024
0.2516003179945603
0.36768988195515806
0.33726057514772223
0.19686894795111198
3.397802872395772e-14
-0.1968689479510624
-0.3372605751476256
-0.3676898819550468
-0.2516003179945627
0.11977010347104387
0.17438888687558862
0.16003326641307358
0.09369121547300892
9.12204339842404e-15
-0.0936912154730302
-0.16003326641309132
-0.17438888687556767
-0.11977010347104367
-9.363846503740447e-13
-1.3161138845418918e-12
-1.149164097213884e-12
-6.909195437998505e-13
-7.55962133169863e-14
5.609054887223408e-13
1.055891485357563e-12
1.2002690508161606e-12
8.446767590930548e-13
-0.11977010347245257
-0.17438888687755166
-0.1600332664148542
-0.09369121547415721
-1.7814872840804519e-13
0.09369121547387321
0.16003326641472193
0.1743888868773773
0.11977010347226488
-0.25160031799468
-0.36768988195544583
-0.33726057514822105
-0.1968689479515554
-1.886719946941895e-13
0.19686894795118778
0.3372605751479981
0.3676898819553118
0.2516003179945693
-0.42622889622974447
-0.6204293943724863
-0.5598592610640742
-0.3225063241223046
-2.2828613999159586e-13
0.32250632412184743
0.5598592610636548
0.6204293943722634
0.4262288962296742
-0.7579474302868405
-1.017611758177192
-0.8683174413001652
-0.4862019659023319
-3.3557184808685747e-13
0.48620196590167375
0.8683174412995178
1.0176117581767399
0.757947430286618
0.7071311232779596
0.9546383489958215
0.8185787470190256
0.4600612654202532
-7.260511636353328e-14
-0.46006126542012266
-0.8185787470186998
-0.954638348995811
-0.7071311232781292
0.3728767552084321
0.5527966536985413
0.5050199511133119
0.29300135344669964
-6.263566054709457e-14
-0.2930013534466478
-0.5050199511131719
-0.5527966536986049
-0.37287675520856256
0.20869677636915218
0.3125312808380388
0.2920125211237128
0.17231925311948823
-4.53933765576231e-14
-0.1723192531195328
-0.2920125211237164
-0.3125312808380935
-0.20869677636924389
0.09610107469321905
0.14373163314595516
0.1347334564821865
0.07991063002093236
-7.899627132990084e-14
-0.07991063002106022
-0.13473345648226723
-0.1437316331460447
-0.09610107469327955
-5.31274677029181e-13
-7.64110996698264e-13
-6.678373132285031e-13
-4.5137157900221325e-13
-1.2127538556727657e-13
2.339448079702322e-13
5.395180829870228e-13
6.257182272317863e-13
4.336427050777303e-13
-0.09610107469394649
-0.1437316331469703
-0.13473345648310037
-0.07991063002159912
-1.1372109851026657e-13
0.07991063002134038
0.13473345648296844
0.14373163314685106
0.09610107469379447
-0.2086967763689846
-0.31253128083778414
-0.29201252112359855
-0.17231925311956298
-1.162611673599656e-13
0.17231925311925828
0.29201252112336207
0.31253128083762116
0.20869677636879913
-0.3728767552071808
-0.5527966536968382
-0.505019951111896
-0.29300135344597344
-1.5858321600337177e-13
0.2930013534456195
0.5050199511115013
0.5527966536965603
0.37287675520700814
-0.7071311232757357
-0.9546383489928083
-0.8185787470163739
-0.4600612654188111
-2.884394112445676e-13
0.46006126541825854
0.8185787470158459
0.9546383489924519
0.707131123275553
0.6638612101271556
0.897140179116892
0.7699363153466179
0.43311941288960765
-8.393633010861379e-14
-0.4331194128896534
-0.7699363153465926
-0.8971401791171394
-0.6638612101274872
0.33231385796079305
0.49826775918974814
0.4582673152285313
0.26682445774584773
-5.760322774328586e-14
-0.2668244577458907
-0.45826731522863867
-0.49826775919004135
-0.33231385796103274
0.1776441366619566
0.2706077931825881
0.2559157262365361
0.15204081350401932
-1.3445841662296232e-13
-0.15204081350423798
-0.2559157262367643
-0.2706077931828432
-0.17764413666210474
0.0793694274020721
0.12107882028275777
0.11518961396982022
0.06891675748400286
-1.4687730198748028e-13
-0.06891675748431333
-0.11518961397007495
-0.12107882028295625
-0.0793694274022113
-2.064737270046635e-13
-3.2044158992938776e-13
-3.1652458432063213e-13
-2.4735248571605695e-13
-1.3035059143184924e-13
-5.078229503574505e-14
1.147953260227652e-13
1.9421096675298344e-13
8.298396692030252e-14
-0.079369427402268
-0.12107882028308137
-0.11518961397019922
-0.0689167574843807
-1.1998561866288782e-13
0.06891675748406342
0.11518961396996716
0.12107882028299696
0.07936942740216552
-0.17764413666147627
-0.27060779318200634
-0.2559157262361521
-0.1520408135039846
-1.3305676005437306e-13
0.152040813503642
0.25591572623581454
0.2706077931818197
0.17764413666130166
-0.3323138579593705
-0.49826775918785665
-0.4582673152269422
-0.2668244577450567
-1.7392684514838663e-13
0.26682445774469776
0.45826731522654995
0.49826775918757515
0.33231385795916624
-0.6638612101246704
-0.8971401791135108
-0.7699363153436385
-0.43311941288795086
-2.8814450825365157e-13
0.4331194128874358
0.7699363153432013
0.8971401791132375
0.6638612101244752
0.626358903665921
0.8456172750350492
0.7251823993875217
0.40788742657930577
-1.6719264861464467e-14
-0.407887426579332
-0.7251823993876578
-0.8456172750352811
-0.626358903666017
0.3018445322866733
0.45554516103458054
0.42038336916611563
0.24517006516708523
-1.191564208413709e-13
-0.24517006516729684
-0.4203833691663856
-0.4555451610347977
-0.3018445322866934
0.1560702435328097
0.24032288123275589
0.22890964366385028
0.1365239243381089
-2.233161572329223e-13
-0.13652392433850677
-0.2289096436641459
-0.24032288123291898
-0.15607024353284843
0.0682343392992755
0.10543122164734302
0.1012094936415999
0.060869219061677776
-1.7156762122105818e-13
-0.06086921906208475
-0.1012094936418936
-0.10543122164749577
-0.06823433929939754
6.9414959891211936e-15
-4.655650864826555e-14
-7.572588389681556e-14
-1.3418433031375798e-13
-1.381763627128496e-13
-1.7274549846124643e-13
-1.557608209079575e-13
-1.193819348932479e-13
-1.456187601056591e-13
-0.06823433929914348
-0.10543122164718946
-0.10120949364153647
-0.060869219061846926
-1.2892941922415524e-13
0.060869219061612245
0.10120949364129268
0.10543122164696878
0.0682343392989787
-0.1560702435321359
-0.2403228812318225
-0.22890964366308514
-0.13652392433784993
-7.949630537185115e-14
0.1365239243377021
0.22890964366288147
0.24032288123161888
0.15607024353191773
-0.3018445322849951
-0.4555451610324215
-0.4203833691642842
-0.2451700651661184
-1.315735714824129e-13
0.2451700651658938
0.42038336916409524
0.45554516103229736
0.3018445322847928
-0.6263589036628312
-0.8456172750312423
-0.7251823993843256
-0.40788742657755284
-2.9056965167306714e-13
0.40788742657704996
0.7251823993839354
0.8456172750310699
0.6263589036626189
0.5910205539608284
0.7973314445880686
0.6836514656157316
0.38464081481916734
1.025672602406047e-13
-0.38464081481896756
-0.683651465615762
-0.7973314445881434
-0.5910205539607388
0.27883872178789776
0.42235450858929346
0.39047104120681014
0.22796375514437478
-8.635800408107741e-14
-0.22796375514451017
-0.3904710412069096
-0.4223545085892507
-0.27883872178773395
0.14226903661444015
0.22013140007164944
0.21027785299119245
0.12561615577279173
-1.4163843709003032e-13
-0.12561615577298313
-0.21027785299122181
-0.22013140007162213
-0.1422690366144018
0.061863805307472236
0.09601223751231938
0.09240453747325852
0.055663922090974274
-8.770024637061447e-14
-0.05566392209115837
-0.09240453747335067
-0.0960122375123987
-0.06186380530759076
1.1310744008063978e-13
9.396823597018766e-14
7.959258252476786e-14
-2.0355245267111854e-14
-1.3151155511814672e-14
-5.968229382924406e-14
-2.466915560717098e-13
-3.116500113531373e-13
-2.7140008990178544e-13
-0.06186380530724691
-0.09601223751193677
-0.0924045374728369
-0.055663922090833935
5.600142745365577e-14
0.05566392209093355
0.09240453747272633
0.09601223751161722
0.06186380530700805
-0.14226903661396847
-0.2201314000706511
-0.21027785299009782
-0.12561615577219784
2.8706204080464204e-14
0.12561615577228707
0.21027785299007418
0.2201314000703794
0.14226903661362073
-0.27883872178659674
-0.42235450858716106
-0.39047104120478116
-0.22796375514317285
-8.069066248506118e-14
0.2279637551430279
0.3904710412046891
0.422354508587011
0.27883872178625824
-0.5910205539578538
-0.7973314445841252
-0.6836514656123374
-0.38464081481719536
-2.1605980893291132e-13
0.38464081481676
0.6836514656119701
0.797331444583934
0.5910205539575866
0.5543220573270927
0.7497563138707006
0.6447486703624632
0.363576465893042
1.8287801828442696e-13
-0.3635764658926522
-0.6447486703623322
-0.749756313870771
-0.5543220573269623
0.2621781632994082
0.3979138645452431
0.36846516445966593
0.21541070168159185
8.64707611070159e-14
-0.21541070168140358
-0.36846516445954103
-0.39791386454518335
-0.26217816329927646
0.13611214291867113
0.21005082864907512
0.20018153580693876
0.11947517875693087
8.056055822436292e-15
-0.11947517875686317
-0.20018153580682324
-0.2100508286490244
-0.13611214291862517
0.060349539300241804
0.09295839123093452
0.08889989297538194
0.053379345907283035
-7.169612126212144e-15
-0.05337934590731555
-0.0888998929753923
-0.09295839123093887
-0.060349539300291036
1.821424955306128e-13
1.706464830553145e-13
1.0704458153210084e-13
7.51915890662147e-14
9.102050710363407e-14
-4.6710031675889496e-14
-2.6825069943114954e-13
-3.087998606821074e-13
-2.640439950019058e-13
-0.06034953929988981
-0.09295839123048753
-0.08889989297492369
-0.05337934590700542
1.2955478703724488e-13
0.05337934590713131
0.08889989297476587
0.09295839123017732
0.060349539299698426
-0.13611214291818907
-0.2100508286481832
-0.20018153580584447
-0.11947517875624689
-4.093080041567276e-15
0.11947517875624776
0.20018153580575154
0.2100508286478622
0.13611214291789642
-0.2621781632983009
-0.39791386454328576
-0.36846516445769456
-0.21541070168033052
-1.184902870265958e-13
0.21541070168004645
0.36846516445746824
0.39791386454301775
0.26217816329798005
-0.5543220573242409
-0.7497563138668275
-0.6447486703591553
-0.363576465891129
-1.963151863293433e-13
0.36357646589067966
0.6447486703588078
0.7497563138665527
0.5543220573239738
0.5149338977184994
0.7035403057255827
0.6101973134362991
0.3458589270326219
1.2087900125301587e-13
-0.3458589270323157
-0.61019731343613
-0.7035403057257992
-0.5149338977185471
0.2535659416170535
0.38448070011086477
0.3562089957836325
0.20847844810774485
1.1073607308897948e-13
-0.20847844810746127
-0.35620899578339255
-0.38448070011094854
-0.25356594161711155
0.13956011380306219
0.21212236420431888
0.1999048650238639
0.11865617223723714
1.2014608058441567e-13
-0.1186561722370143
-0.19990486502372284
-0.2121223642043522
-0.13956011380315286
0.06478157855574149
0.09733065401718885
0.09129361967087092
0.05423890599712543
7.420257984447343e-14
-0.0542389059970019
-0.09129361967081354
-0.0973306540171538
-0.064781578555796
4.0065260137334135e-13
5.279457426787815e-13
4.1576291021083733e-13
2.700712917191872e-13
5.886654011466597e-14
-2.163390994125436e-13
-4.206426873487601e-13
-4.300292760772706e-13
-3.5626189498483285e-13
-0.06478157855506354
-0.09733065401622809
-0.0912936196699035
-0.054238905996449246
6.502762738003209e-14
0.05423890599650159
0.09129361966988742
0.09733065401624919
0.06478157855504756
-0.13956011380247052
-0.21212236420333458
-0.19990486502255234
-0.11865617223629625
-2.1073420786166253e-14
0.1186561722362866
0.1999048650225334
0.2121223642031985
0.1395601138023126
-0.25356594161602164
-0.38448070010917174
-0.35620899578181286
-0.2084784481065956
-1.1497053309383887e-13
0.20847844810637312
0.3562089957815817
0.38448070010884167
0.2535659416157021
-0.5149338977156112
-0.7035403057221234
-0.6101973134335263
-0.3458589270312022
-1.361792623111313e-13
0.3458589270308682
0.6101973134330956
0.7035403057215639
0.5149338977151583
0.476954135766794
0.664703855649871
0.5836957689123603
0.3325771377225277
1.929428838920444e-13
-0.33257713772222997
-0.5836957689122677
-0.664703855650061
-0.4769541357669117
0.25817371657320726
0.38672515749400016
0.3558018460012602
0.20756963759417135
1.7004626873262652e-13
-0.2075696375938846
-0.3558018460011043
-0.38672515749420955
-0.258173716573468
0.1558688688922637
0.22865743642398126
0.20995695909617948
0.12290265695310028
1.8908138943452002e-13
-0.12290265695278679
-0.20995695909609863
-0.22865743642419875
-0.15586886889250307
0.07650325233371338
0.1098906741369234
0.09948034977578493
0.057909954628821245
1.524628947396911e-13
-0.057909954628532226
-0.09948034977570955
-0.10989067413699458
-0.07650325233378893
6.980544614565432e-13
1.0683919027254518e-12
9.858294736098117e-13
6.48775304312732e-13
6.256041691632408e-14
-4.594232980159596e-13
-7.953516317771303e-13
-8.797528677773059e-13
-6.393826440520556e-13
-0.07650325233259622
-0.10989067413509754
-0.09948034977387421
-0.057909954627486215
3.454138017278119e-14
0.057909954627586926
0.09948034977413064
0.10989067413540829
0.07650325233261937
-0.15586886889159385
-0.22865743642269765
-0.20995695909448345
-0.12290265695185962
1.5546591791704145e-14
0.12290265695192246
0.20995695909462633
0.22865743642276515
0.15586886889149126
-0.2581737165724841
-0.3867251574925782
-0.3558018459995977
-0.2075696375930945
1.6583956430338276e-15
0.20756963759315883
0.35580184599953996
0.38672515749226105
0.2581737165722009
-0.4769541357642986
-0.6647038556470026
-0.5836957689100819
-0.33257713772130115
3.5377950569071004e-14
0.33257713772130015
0.5836957689096951
0.6647038556462248
0.4769541357636713
0.4530840651935171
0.6405782050424031
0.5629679102907426
0.3194571391990496
3.872006881788792e-13
-0.31945713919858004
-0.5629679102907459
-0.6405782050425284
-0.4530840651935675
0.2807117749010184
0.404379081124271
0.36218955350870496
0.2078928990808498
3.2752446588180106e-13
-0.20789289908044428
-0.3621895535087065
-0.4043790811244623
-0.2807117749011406
0.184893641182249
0.256009927120143
0.22464340217111683
0.12793955039826127
2.661603576425975e-13
-0.12793955039786578
-0.22464340217102208
-0.2560099271202926
-0.18489364118238458
0.09471232710076433
0.1277774620789533
0.10985998320638674
0.06190819886056243
1.4242990467594474e-13
-0.0619081988602909
-0.10985998320620795
-0.12777746207893095
-0.09471232710083435
9.878833862053682e-13
1.5208737047522902e-12
1.501588783869856e-12
8.972336762447242e-13
6.213779490948923e-15
-6.967629598286784e-13
-1.0767862296257036e-12
-1.2188184489447806e-12
-9.49301401376168e-13
-0.09471232709897048
-0.1277774620761563
-0.10985998320357143
-0.06190819885884505
-1.6505460193050325e-14
0.061908198859032926
0.10985998320415978
0.12777746207672147
0.09471232709914831
-0.18489364118098622
-0.25600992711801296
-0.22464340216877532
-0.12793955039671565
7.011839026072053e-14
0.12793955039699778
0.22464340216928336
0.2560099271184445
0.18489364118115267
-0.2807117749002041
-0.40437908112248805
-0.3621895535066549
-0.207892899079399
2.0655352428455842e-13
0.20789289907992486
0.3621895535070662
0.40437908112249477
0.28071177490018817
-0.45308406519175
-0.6405782050398606
-0.5629679102883615
-0.31945713919746044
2.9641220034015703e-13
0.3194571391979164
0.5629679102883081
0.6405782050392913
0.4530840651914059
0.4504793716714454
0.6111847100127599
0.5176896214782463
0.2868367619692066
4.4357052753074555e-13
-0.28683676196859154
-0.5176896214783566
-0.6111847100131994
-0.4504793716717326
0.3073266015425158
0.4118354892736454
0.34680743292888866
0.19216434387702092
4.653066126847349e-13
-0.19216434387648315
-0.34680743292907545
-0.4118354892739882
-0.30732660154269215
0.21287214459547837
0.2725663473871208
0.22243974047692433
0.1212885478093689
3.6550016485614734e-13
-0.12128854780892159
-0.22243974047690368
-0.2725663473872642
-0.2128721445956635
0.11079976345706487
0.13863918010342913
0.11093304794164624
0.059703183369774315
1.560529049732251e-13
-0.05970318336945835
-0.11093304794135088
-0.13863918010334852
-0.11079976345719098
1.5420251880948754e-12
2.046626756957437e-12
1.8213278107914732e-12
9.728320579660554e-13
2.3710634150519994e-14
-7.369695131931309e-13
-1.2695903356396698e-12
-1.5682212473056012e-12
-1.3392377484766627e-12
-0.11079976345419842
-0.13863918009953227
-0.11093304793822525
-0.05970318336796644
-5.8153351925605e-14
0.05970318336809141
0.1109330479388402
0.13863918010031498
0.11079976345472448
-0.21287214459330672
-0.27256634738385144
-0.2224397404739123
-0.12128854780761884
1.159402435169099e-14
0.12128854780788237
0.22243974047455092
0.2725663473845545
0.2128721445938429
-0.3073266015411742
-0.41183548927097796
-0.3468074329260533
-0.19216434387509412
1.963602891397187e-13
0.19216434387570897
0.3468074329267108
0.41183548927126085
0.307326601541416
-0.45047937167030117
-0.6111847100101455
-0.5176896214752325
-0.2868367619670792
3.2915510594921926e-13
0.28683676196764074
0.5176896214753882
0.6111847100097221
0.4504793716700254
0.3781834216632369
0.460389716090725
0.36164074361673904
0.1926295881619376
2.7415222869642264e-13
-0.19262958816149567
-0.36164074361690546
-0.4603897160912117
-0.3781834216635353
0.2757118388306643
0.3203525241057299
0.2453315443987408
0.1299581632172194
3.270569579050253e-13
-0.12995816321689854
-0.2453315443990895
-0.32035252410622916
-0.2757118388309725
0.19410455231875812
0.21735420320663645
0.16040179781838543
0.08315296733118516
2.740147518609515e-13
-0.08315296733091054
-0.16040179781859054
-0.21735420320698048
-0.19410455231900567
0.09874194646612355
0.11098290028907337
0.08088072608681746
0.04131131836601655
1.9466698218673084e-13
-0.04131131836569773
-0.08088072608671384
-0.11098290028911578
-0.09874194646623619
1.7371035165858473e-12
1.8852593097751225e-12
1.2738751026253325e-12
6.772147946587648e-13
2.2132144207598348e-13
-4.4411523070220227e-13
-1.116329251260595e-12
-1.5632564687173556e-12
-1.5853950097177716e-12
-0.0987419464627486
-0.11098290028549443
-0.0808807260842495
-0.04131131836463163
3.909112616939936e-14
0.041311318364672694
0.08088072608438021
0.1109829002858479
0.09874194646312329
-0.1941045523158355
-0.21735420320343604
-0.1604017978157856
-0.08315296732971758
-1.3080422162081717e-13
0.08315296732977341
0.16040179781609248
0.21735420320369148
0.19410455231625856
-0.27571183882849964
-0.3203525241028911
-0.24533154439609617
-0.12995816321559425
-1.5433834765765653e-14
0.1299581632158335
0.24533154439646643
0.3203525241030031
0.2757118388286503
-0.3781834216617383
-0.4603897160880399
-0.3616407436138021
-0.19262958815994005
1.3348610411467732e-13
0.19262958816020534
0.3616407436139292
0.46038971608759405
0.37818342166130287

SCALARS STRAIN_EQV float 1
LOOKUP_TABLE default
0.0008339237051737922
0.00012671914026725792
0.00012671914026817638
0.0008339237051734098
0.0008339237051737918
0.00012671914026725857
0.00012671914026814125
0.0008339237051734113
0.0007448753247549622
0.0006205413679361666
0.0005711785053409205
0.0005439914578774668
0.0005175995236798979
0.0004900097255552296
0.00046045495434331635
0.0004292302224922613
0.0003967713325268429
0.000363493154885483
0.0003297307258738768
0.0002957457496062831
0.00026174811740339377
0.00022791689536713372
0.00019441409700682124
0.0001614040376768503
0.00012939098331220375
0.00010108118567860258
0.00010757165555376678
0.00017840273701087017
0.00025140171330709617
0.00028298851957238573
0.000297594490486712
0.0003019290346884191
0.0002975944904869401
0.0002829885195728669
0.00025140171330792396
0.00017840273701184752
0.00010757165555426313
0.00010108118567827949
0.00012939098331122547
0.00016140403767540335
0.00019441409700494245
0.00022791689536482646
0.0002617481174007636
0.0002957457496035365
0.00032973072587117163
0.00036349315488289167
0.00039677133252440723
0.00042923022249003747
0.0004604549543414224
0.0004900097255537958
0.0005175995236789707
0.0005439914578769898
0.0005711785053407021
0.0006205413679361604
0.0007448753247548452
0.0007008816252482584
0.0004766022979194967
0.0003054733692197898
0.0001503027206418015
7.502375335624478e-05
0.0001503027206347068
0.0003054733692136831
0.0004766022979150513
0.0007008816252466812
0.0007448753247549623
0.0006205413679361668
0.0005711785053409205
0.0005439914578774662
0.0005175995236798975
0.0004900097255552309
0.0004604549543433186
0.00042923022249226307
0.00039677133252684615
0.00036349315488548627
0.00032973072587387823
0.0002957457496062873
0.00026174811740339843
0.00022791689536713508
0.00019441409700682603
0.00016140403767684954
0.0001293909833121991
0.0001010811856786077
0.00010757165555377125
0.00017840273701086898
0.0002514017133071062
0.0002829885195724105
0.00029759449048674365
0.0003019290346884443
0.00029759449048694304
0.00028298851957285584
0.000251401713307913
0.00017840273701182617
0.00010757165555424074
0.00010108118567826494
0.00012939098331121447
0.00016140403767539132
0.00019441409700493106
0.00022791689536481925
0.00026174811740075157
0.0002957457496035237
0.00032973072587116453
0.00036349315488288993
0.00039677133252440414
0.0004292302224900347
0.00046045495434141883
0.0004900097255537931
0.0005175995236789696
0.0005439914578769894
0.0005711785053407025
0.0006205413679361614
0.0007448753247548465
0.0007008816252482601
0.0004766022979194984
0.00030547336921979147
0.00015030272064180285
7.50237533562448e-05
0.00015030272063470604
0.00030547336921368286
0.00047660229791505137
0.000700881625246681
0.0007941745171299353
0.0007404205214730324
0.0007223003524737207
0.0007170789906519497
0.0007159729902164445
0.0007170789906519493
0.0007223003524737201
0.000740420521473032
0.0007941745171299349
0.0001266412708411075
0.00012645546185929206
0.00012639145298490675
0.00012650057954067173
0.00012656577541515237
0.00012650057954065498
0.0001263914529848873
0.00012645546185928309
0.0001266412708411062
0.00012664127084200945
0.00012645546186018067
0.00012639145298580314
0.00012650057954157563
0.0001265657754160583
0.00012650057954156365
0.00012639145298579636
0.00012645546186017308
0.00012664127084198456
0.000794174517129946
0.0007404205214734071
0.0007223003524740243
0.0007170789906521906
0.0007159729902166648
0.0007170789906521915
0.0007223003524740254
0.0007404205214734082
0.0007941745171299473
0.0006428822886461869
0.0004583773656338134
0.00030627609503824466
0.0001790249247603439
0.00012136313817683712
0.00017902492476563393
0.000306276095043524
0.00045837736563774306
0.0006428822886476453
0.0005572526162166306
0.0004332532291351306
0.0003230761077845436
0.00024193016625449933
0.0002102507107139707
0.00024193016625723797
0.0003230761077881273
0.00043325322913786535
0.0005572526162176245
0.0005175458009261237
0.00042159673825341635
0.0003468585912100041
0.00029600324120457913
0.00027756967998512417
0.0002960032412061433
0.0003468585912121753
0.00042159673825509637
0.0005175458009266193
0.0004951648855015692
0.00041297161990970564
0.0003585342813225744
0.0003269196465990724
0.00031637565724699265
0.00032691964659996254
0.00035853428132387883
0.00041297161991075336
0.0004951648855017072
0.00047460442648643915
0.0004051124366680598
0.00036453890709356625
0.0003446660902222377
0.0003388699103006219
0.0003446660902227403
0.00036453890709433386
0.00040511243666862325
0.0004746044264861342
0.00045320132318982535
0.00039625723617917914
0.00036729814652191727
0.0003556784656454147
0.00035288218978100656
0.0003556784656456823
0.0003672981465223001
0.00039625723617929423
0.0004532013231890338
0.0004299719506275228
0.0003855398236743532
0.00036735081080309297
0.0003626609026820967
0.0003622108841950171
0.00036266090268219944
0.0003673508108031706
0.0003855398236740635
0.00042997195062627867
0.00040506620437649147
0.0003730274714876502
0.0003652010011920162
0.00036689137172013893
0.000368533497770829
0.00036689137172013053
0.0003652010011918784
0.0003730274714870629
0.0004050662043749169
0.00037892870572293853
0.00035918111679064283
0.00036141369716174537
0.0003691505263216104
0.0003727498129819701
0.0003691505263215402
0.00036141369716148104
0.0003591811167898702
0.00037892870572115355
0.00035203341302066863
0.00034453748866387554
0.000356546260944727
0.00037004228360369105
0.0003754933514898089
0.000370042283603598
0.00035654626094440607
0.0003445374886630027
0.00035203341301874407
0.0003247766240922612
0.0003295571655289991
0.0003510803656439625
0.0003700899121087856
0.0003773109016769934
0.0003700899121087188
0.00035108036564366295
0.0003295571655281066
0.0003247766240902544
0.0002974472910639178
0.00031456321972668006
0.0003454012172257853
0.00036978327694044697
0.0003787417263611374
0.00036978327694042496
0.00034540121722554713
0.00031456321972582
0.0002974472910618941
0.0002702169837495282
0.00029971855899569455
0.0003398156467888805
0.0003696272651292219
0.0003803745045764427
0.0003696272651293013
0.00033981564678879373
0.0002997185589949721
0.00027021698374762334
0.00024313786826276546
0.00028504199628242633
0.0003346068479185772
0.0003701710299316363
0.00038285351543264676
0.00037017102993186436
0.00033460684791873635
0.0002850419962819777
0.000243137868261159
0.00021619055090429614
0.00027054129761000696
0.0003301253685213545
0.00037190563763012953
0.0003866761286359078
0.0003719056376305242
0.0003301253685218142
0.0002705412976099142
0.0002161905509030841
0.00018955542387045184
0.0002566755706638825
0.00032684754095452923
0.00037472269094069254
0.00039139463123620457
0.0003747226909412835
0.00032684754095534314
0.0002566755706642069
0.00018955542386966349
0.00016466715196789195
0.0002454665259985473
0.00032493307196296365
0.0003762255623443978
0.0003935747121365789
0.0003762255623451256
0.00032493307196410353
0.000245466525999386
0.00016466715196763318
0.0001474186699404864
0.00024178994806819344
0.0003212633272777955
0.0003678667024169861
0.0003830304922125744
0.000367866702417685
0.00032126332727904926
0.0002417899480695015
0.00014741866994090146
0.00016013539344839398
0.0002470287565742637
0.00030061312131168555
0.00032860017720988513
0.00033733249360200966
0.0003286001772103128
0.0003006131213125356
0.00024702875657541955
0.00016013539344927126
0.0007311462075698621
0.0007024365858518441
0.0006813091276346164
0.000672743677883127
0.0006703251818159472
0.0006727436778831264
0.0006813091276346157
0.0007024365858518438
0.0007311462075698621
0.0006342969470922862
0.0006389884054718676
0.0006230605923122591
0.000612852315817492
0.0006095077317057949
0.0006128523158174913
0.0006230605923122579
0.0006389884054718669
0.0006342969470922862
0.0005843731536496156
0.0005976349904889737
0.0005941553115259846
0.0005883762958463026
0.0005861441476602723
0.0005883762958463019
0.0005941553115259834
0.0005976349904889725
0.0005843731536496153
0.0005536720610598081
0.0005660880408939086
0.0005682740655360443
0.0005668110255610868
0.0005658973375957527
0.0005668110255610866
0.0005682740655360436
0.0005660880408939079
0.0005536720610598077
0.0005244683788414528
0.0005343909035763741
0.0005382120314381691
0.000538942974512897
0.0005389064592991966
0.0005389429745128976
0.0005382120314381698
0.0005343909035763747
0.0005244683788414526
0.0004945432253312684
0.0005016926592776936
0.0005053992959616597
0.0005068072019666068
0.0005071244054579735
0.0005068072019666064
0.0005053992959616609
0.0005016926592776939
0.0004945432253312685
0.00046323245895382134
0.0004679460043667312
0.0004708450832828757
0.00047216441496131505
0.00047252070852601405
0.00047216441496131397
0.00047084508328287523
0.0004679460043667314
0.0004632324589538226
0.00043073761010636554
0.0004335215702530157
0.00043547360171971027
0.00043641227689680535
0.00043667549313975286
0.00043641227689680763
0.00043547360171971206
0.0004335215702530175
0.00043073761010636765
0.0003973874691776934
0.00039873480301787906
0.0003998416535272309
0.00040035283548625926
0.0004004883641252711
0.0004003528354862609
0.00039984165352723413
0.0003987348030178823
0.0003973874691776966
0.0003634922456091526
0.0003638107878211603
0.0003642532745564955
0.0003643940515279586
0.0003644117932524242
0.00036439405152795853
0.00036425327455649737
0.0003638107878211642
0.00036349224560915664
0.0003293021497459514
0.00032890285112340743
0.0003288663309400391
0.00032872607519871764
0.00032865161714614474
0.00032872607519871504
0.0003288663309400378
0.00032890285112340884
0.00032930214974595355
0.0002950184456096443
0.0002941316820220807
0.0002937789677418136
0.00029344646264745853
0.0002933072122424428
0.00029344646264745257
0.00029377896774181075
0.0002941316820220823
0.00029501844560964784
0.0002608173724064138
0.00025962121574422796
0.0002590855543021538
0.0002586331140148139
0.00025845092350434095
0.00025863311401481053
0.0002590855543021536
0.00025962121574423284
0.0002608173724064191
0.00022687434100138995
0.00022552674522783578
0.00022490740993907416
0.00022437887087716068
0.00022416462569619885
0.00022437887087716193
0.00022490740993907451
0.00022552674522783507
0.0002268743410013904
0.00019338092239278059
0.0001920485302852899
0.0001913988490398192
0.00019079930758378373
0.00019055022987976802
0.00019079930758378205
0.0001913988490398163
0.0001920485302852873
0.0001933809223927826
0.0001605564180935503
0.00015942243173191535
0.0001587340930988853
0.00015804071784507006
0.00015774931444594942
0.00015804071784506678
0.00015873409309888128
0.00015942243173191456
0.00016055641809355043
0.0001288993419037787
0.00012809822739810113
0.00012733861846179556
0.00012657426162286742
0.0001262600406229904
0.0001265742616228604
0.00012733861846178624
0.0001280982273980929
0.00012889934190377233
0.00010088136602285204
0.00010036581421276063
9.966119740179437e-05
9.903604981055392e-05
9.87997868759378e-05
9.903604981055022e-05
9.966119740178919e-05
0.00010036581421275561
0.00010088136602285215
0.00010747309927046909
0.0001071720167255719
0.00010683584084436603
0.00010665580093642015
0.00010660941064808012
0.00010665580093641532
0.00010683584084435918
0.00010717201672556911
0.00010747309927047115
0.00017715186751313
0.00017527828316882087
0.0001744355776476202
0.00017415855882736968
0.00017410153068174997
0.00017415855882736188
0.00017443557764760853
0.0001752782831688148
0.0001771518675131281
0.00024777910786678587
0.00024274978578527274
0.00024062842913995193
0.00023961807565424107
0.00023932236217265405
0.00023961807565424473
0.00024062842913994477
0.0002427497857852708
0.0002477791078667939
0.0002773547319843535
0.0002698088031561457
0.0002667851491983951
0.000265173680592129
0.0002646737247034488
0.0002651736805921471
0.0002667851491983963
0.00026980880315613997
0.0002773547319843662
0.00029076436116098577
0.0002816388562274074
0.0002779683392681846
0.00027595628536019494
0.00027531937280358113
0.0002759562853602125
0.0002779683392681986
0.00028163885622740226
0.00029076436116099477
0.00029471500990172904
0.0002850585732347572
0.00028114353610918913
0.0002789848227305753
0.00027829873459724714
0.00027898482273057293
0.00028114353610918783
0.0002850585732347519
0.0002947150099017361
0.0002907643611611852
0.0002816388562275797
0.0002779683392683606
0.0002759562853603571
0.0002753193728037121
0.0002759562853603269
0.0002779683392683292
0.0002816388562275654
0.0002907643611611834
0.0002773547319848069
0.0002698088031565637
0.00026678514919881044
0.0002651736805925426
0.0002646737247038249
0.00026517368059249214
0.0002667851491987616
0.0002698088031565389
0.00027735473198479494
0.0002477791078675974
0.00024274978578606217
0.00024062842914073553
0.00023961807565502948
0.0002393223621734261
0.00023961807565498687
0.00024062842914068978
0.000242749785786033
0.00024777910786758124
0.00017715186751409326
0.0001752782831697709
0.00017443557764857274
0.00017415855882832955
0.0001741015306827079
0.00017415855882830624
0.00017443557764855005
0.0001752782831697539
0.00017715186751407345
0.00010747309927093746
0.00010717201672600281
0.0001068358408447913
0.00010665580093685692
0.00010660941064852183
0.00010665580093685163
0.00010683584084479089
0.00010717201672599949
0.00010747309927092134
0.00010088136602249954
0.00010036581421236029
9.966119740137624e-05
9.90360498101408e-05
9.87997868755311e-05
9.903604981014168e-05
9.966119740137265e-05
0.00010036581421234988
0.0001008813660224853
0.00012889934190279145
0.000128098227397093
0.00012733861846077107
0.0001265742616218359
0.0001262600406219594
0.0001265742616218352
0.00012733861846076291
0.00012809822739707954
0.00012889934190277874
0.0001605564180921024
0.0001594224317304574
0.00015873409309740788
0.00015804071784357993
0.00015774931444445842
0.00015804071784358202
0.00015873409309740723
0.00015942243173045026
0.00016055641809209102
0.00019338092239089242
0.00019204853028338665
0.00019139884903790285
0.00019079930758185437
0.00019055022987783492
0.00019079930758185667
0.0001913988490379018
0.00019204853028337933
0.00019338092239088177
0.00022687434099906808
0.00022552674522549612
0.00022490740993672773
0.00022437887087480544
0.000224164625693837
0.00022437887087480132
0.00022490740993672093
0.0002255267452254905
0.00022687434099906255
0.00026081737240377014
0.000259621215741565
0.0002590855542994777
0.00025863311401212665
0.0002584509235016502
0.000258633114012121
0.00025908555429946873
0.0002596212157415585
0.0002608173724037618
0.0002950184456068799
0.00029413168201928853
0.00029377896773900185
0.00029344646264463055
0.0002933072122396125
0.0002934464626446299
0.00029377896773899643
0.0002941316820192823
0.00029501844560687066
0.0003293021497432213
0.0003289028511206374
0.00032886633093724167
0.0003287260751959007
0.00032865161714332305
0.00032872607519590066
0.00032886633093723696
0.00032890285112063166
0.0003293021497432155
0.0003634922456065279
0.00036381078781847767
0.0003642532745537721
0.00036439405152521084
0.00036441179324966797
0.00036439405152520715
0.00036425327455376604
0.0003638107878184724
0.0003634922456065248
0.0003973874691752106
0.000398734803015315
0.00039984165352461204
0.00040035283548361077
0.0004004883641226125
0.00040035283548360735
0.0003998416535246071
0.0003987348030153104
0.00039738746917520706
0.0004307376101040744
0.00043352157025061493
0.0004354736017172465
0.00043641227689431196
0.00043667549313724944
0.0004364122768943099
0.00043547360171724187
0.00043352157025061027
0.00043073761010407104
0.0004632324589518339
0.00046794600436460515
0.0004708450832806893
0.00047216441495910843
0.0004725207085238028
0.00047216441495910686
0.0004708450832806866
0.0004679460043646019
0.0004632324589518302
0.0004945432253297184
0.0005016926592759921
0.0005053992959599229
0.0005068072019648766
0.0005071244054562506
0.0005068072019648757
0.0005053992959599213
0.0005016926592759899
0.0004945432253297157
0.0005244683788403995
0.0005343909035751824
0.0005382120314369919
0.0005389429745117709
0.0005389064592980945
0.000538942974511771
0.0005382120314369904
0.00053439090357518
0.000524468378840398
0.0005536720610592105
0.0005660880408932181
0.0005682740655354417
0.0005668110255605805
0.0005658973375952827
0.0005668110255605805
0.0005682740655354415
0.0005660880408932176
0.00055367206105921
0.0005843731536493101
0.0005976349904886622
0.0005941553115258317
0.0005883762958462599
0.0005861441476602625
0.0005883762958462596
0.0005941553115258323
0.000597634990488663
0.0005843731536493107
0.0006342969470922407
0.0006389884054719166
0.000623060592312483
0.000612852315817765
0.0006095077317060767
0.0006128523158177658
0.000623060592312484
0.0006389884054719178
0.0006342969470922418
0.0007311462075699325
0.0007024365858521663
0.0006813091276349839
0.0006727436778834605
0.0006703251818162663
0.0006727436778834614
0.0006813091276349851
0.0007024365858521676
0.0007311462075699339
0.0006644340110297884
0.0006144403583430685
0.0005968553723169615
0.0005916314065116698
0.0005904463882642353
0.0005916314065116704
0.0005968553723169624
0.0006144403583430694
0.0006644340110297897
0.0004476705999658208
0.00040803999322506184
0.00039448088917964756
0.0003908423912752426
0.000390064088629169
0.00039084239127524275
0.00039448088917964794
0.00040803999322506254
0.000447670599965822
0.00028915064168142084
0.0002695657964784659
0.000267024388158718
0.0002684843255371575
0.0002692235535707591
0.00026848432553715755
0.00026702438815871804
0.00026956579647846623
0.00028915064168142193
0.00015654044204432404
0.00017153201960467103
0.00018630642954900074
0.00019516804592362822
0.00019800910851175052
0.00019516804592362817
0.00018630642954900042
0.00017153201960467065
0.00015654044204432453
9.542729572517188e-05
0.00013155223748849
0.0001561154689790635
0.00016886840095152038
0.00017277950082779473
0.00016886840095152006
0.00015611546897906274
0.00013155223748848884
9.54272957251712e-05
0.00015654044203864466
0.00017153201960098374
0.00018630642954612248
0.00019516804592107034
0.0001980091085092805
0.00019516804592106977
0.0001863064295461217
0.00017153201960098252
0.0001565404420386435
0.0002891506416758029
0.0002695657964737007
0.0002670243881544988
0.00026848432553319484
0.0002692235535668708
0.0002684843255331945
0.00026702438815449843
0.0002695657964737001
0.0002891506416758023
0.0004476705999613407
0.00040803999322063477
0.0003944808891753631
0.0003908423912710365
0.0003900640886249863
0.00039084239127103664
0.00039448088917536295
0.0004080399932206344
0.00044767059996134054
0.0006644340110278868
0.000614440358340846
0.0005968553723147645
0.0005916314065095052
0.0005904463882620811
0.0005916314065095052
0.0005968553723147642
0.0006144403583408457
0.0006644340110278866
0.0006428822886461868
0.0004583773656338131
0.00030627609503824373
0.00017902492476034245
0.00012136313817683595
0.00017902492476563382
0.00030627609504352467
0.00045837736563774403
0.0006428822886476466
0.0005572526162166303
0.0004332532291351297
0.000323076107784542
0.00024193016625449694
0.0002102507107139683
0.00024193016625723634
0.0003230761077881265
0.000433253229137865
0.0005572526162176252
0.0005175458009261228
0.0004215967382534151
0.0003468585912100023
0.0002960032412045766
0.0002775696799851218
0.0002960032412061416
0.00034685859121217407
0.00042159673825509507
0.000517545800926619
0.0004951648855015683
0.0004129716199097051
0.0003585342813225736
0.00032691964659907057
0.00031637565724699016
0.0003269196465999604
0.00035853428132387704
0.00041297161991075146
0.0004951648855017061
0.00047460442648643926
0.0004051124366680601
0.0003645389070935659
0.0003446660902222359
0.000338869910300619
0.00034466609022273747
0.00036453890709433077
0.00040511243666862
0.0004746044264861322
0.0004532013231898262
0.00039625723617917887
0.0003672981465219147
0.00035567846564540993
0.0003528821897810007
0.000355678465645676
0.0003672981465222939
0.0003962572361792897
0.00045320132318903074
0.00042997195062752306
0.0003855398236743514
0.0003673508108030887
0.00036266090268208956
0.0003622108841950084
0.00036266090268219017
0.00036735081080316214
0.0003855398236740564
0.0004299719506262739
0.0004050662043764906
0.0003730274714876474
0.00036520100119201085
0.00036689137172013107
0.0003685334977708211
0.00036689137172012045
0.00036520100119186584
0.0003730274714870508
0.0004050662043749102
0.0003789287057229396
0.00035918111679064137
0.0003614136971617405
0.00036915052632160154
0.0003727498129819619
0.0003691505263215327
0.0003614136971614721
0.00035918111678986085
0.0003789287057211475
0.0003520334130206697
0.0003445374886638744
0.00035654626094472466
0.0003700422836036868
0.00037549335148980527
0.0003700422836035963
0.0003565462609444066
0.00034453748866300276
0.0003520334130187423
0.00032477662409225903
0.00032955716552899585
0.00035108036564396696
0.00037008991210879625
0.00037731090167700244
0.00037008991210872317
0.0003510803656436632
0.00032955716552810377
0.00032477662409024886
0.00029744729106391597
0.0003145632197266743
0.00034540121722578517
0.00036978327694045163
0.00037874172636114824
0.0003697832769404414
0.00034540121722556003
0.000314563219725824
0.0002974472910618873
0.0002702169837495246
0.000299718558995687
0.00033981564678887646
0.00036962726512921717
0.00038037450457644063
0.0003696272651293016
0.0003398156467888027
0.0002997185589949824
0.00027021698374761873
0.00024313786826276403
0.0002850419962824274
0.00033460684791858033
0.00037017102993163435
0.0003828535154326421
0.0003701710299318562
0.00033460684791873505
0.00028504199628198333
0.00024313786826115697
0.00021619055090430492
0.0002705412976100204
0.0003301253685213658
0.00037190563763013344
0.0003866761286359092
0.0003719056376305255
0.0003301253685218128
0.0002705412976099108
0.000216190550903076
0.0001895554238704538
0.000256675570663886
0.0003268475409545323
0.00037472269094069796
0.0003913946312362113
0.0003747226909412857
0.00032684754095534205
0.000256675570664208
0.00018955542386965858
0.00016466715196788802
0.0002454665259985446
0.00032493307196295937
0.0003762255623443954
0.00039357471213658575
0.0003762255623451378
0.0003249330719641137
0.00024546652599939065
0.00016466715196762836
0.0001474186699404876
0.00024178994806819384
0.0003212633272777931
0.0003678667024169768
0.0003830304922125687
0.00036786670241768717
0.00032126332727905414
0.00024178994806950307
0.00014741866994089363
0.00016013539344839355
0.0002470287565742669
0.00030061312131169374
0.00032860017720989267
0.00033733249360201536
0.00032860017721030895
0.00030061312131252885
0.0002470287565754198
0.00016013539344926283
0.0006327555493104911
0.0006111668539991444
0.0005954137015860494
0.0005895081858745718
0.0005878938666005382
0.0005895081858745718
0.0005954137015860488
0.000611166853999144
0.000632755549310491
0.0004545901412550422
0.0004458215740463169
0.00043990997512150084
0.0004388440762936206
0.00043870843356060235
0.0004388440762936209
0.00043990997512150084
0.00044582157404631645
0.0004545901412550418
0.0003107332231566125
0.00031758698475385937
0.00032274220865880036
0.0003269717789127399
0.0003284427587406174
0.00032697177891273966
0.0003227422086588
0.00031758698475385866
0.00031073322315661157
0.00019784861874362394
0.00022862559031815893
0.0002476632778783439
0.00025799026583449834
0.0002612328438217225
0.0002579902658344977
0.0002476632778783428
0.0002286255903181575
0.00019784861874362245
0.0001490461826348293
0.00019382323707584304
0.00022014381314538282
0.000233452432565419
0.0002375344858989369
0.00023345243256541853
0.00022014381314538174
0.00019382323707584166
0.00014904618263482798
0.0001978486187480607
0.000228625590321325
0.0002476632778809206
0.00025799026583683555
0.0002612328438239925
0.0002579902658368354
0.00024766327788092017
0.0002286255903213244
0.0001978486187480603
0.00031073322316153916
0.0003175869847581296
0.0003227422086626158
0.0003269717789163403
0.00032844275874415385
0.0003269717789163403
0.0003227422086626158
0.00031758698475812966
0.0003107332231615395
0.0004545901412589271
0.0004458215740500521
0.00043990997512506245
0.00043884407629708093
0.00043870843356403017
0.000438844076297081
0.00043990997512506267
0.0004458215740500526
0.0004545901412589279
0.0006327555493120791
0.0006111668540008817
0.0005954137015877796
0.0005895081858762583
0.0005878938666022079
0.0005895081858762587
0.0005954137015877803
0.0006111668540008828
0.0006327555493120803
0.0005737703158957539
0.0005861705554894213
0.0005783381214106066
0.0005727794102527672
0.0005709356730882866
0.0005727794102527671
0.0005783381214106059
0.0005861705554894207
0.0005737703158957537
0.00045378128928823746
0.0004782592403384236
0.00048374533736575474
0.00048592642875643695
0.0004865713140168675
0.00048592642875643733
0.00048374533736575485
0.0004782592403384232
0.00045378128928823665
0.0003466958633147764
0.00038025094948823505
0.00039556543225182414
0.0004033716217434904
0.0004057986591147932
0.00040337162174349016
0.00039556543225182397
0.00038025094948823435
0.000346695863314775
0.0002696484259977503
0.0003124793413005499
0.00033591853460616694
0.00034798836889136464
0.0003517316654304937
0.0003479883688913641
0.00033591853460616597
0.0003124793413005483
0.0002696484259977482
0.00024022401924400172
0.0002876225587951412
0.00031458122893177835
0.00032837984712107165
0.00033264502619483613
0.00032837984712107105
0.00031458122893177705
0.0002876225587951394
0.0002402240192439996
0.00026964842600028327
0.0003124793413026904
0.00033591853460802554
0.00034798836889308733
0.0003517316654321756
0.0003479883688930866
0.00033591853460802445
0.0003124793413026893
0.00026964842600028197
0.00034669586331817476
0.00038025094949125217
0.0003955654322545317
0.00040337162174603305
0.00040579865911728464
0.0004033716217460326
0.00039556543225453117
0.00038025094949125163
0.00034669586331817406
0.0004537812892908379
0.00047825924034077607
0.0004837453373679121
0.00048592642875847254
0.00048657131401886255
0.00048592642875847254
0.00048374533736791225
0.0004782592403407761
0.00045378128929083776
0.0005737703158966655
0.0005861705554902825
0.0005783381214114897
0.0005727794102536278
0.0005709356730891346
0.0005727794102536282
0.0005783381214114903
0.0005861705554902833
0.0005737703158966664
0.0005319424561909668
0.0005489373433108564
0.000550095010005034
0.0005475110896931458
0.0005463677345421262
0.000547511089693146
0.0005500950100050338
0.0005489373433108556
0.0005319424561909662
0.0004380040756853694
0.0004616238350353731
0.0004713849024496333
0.000474849701226244
0.0004757658545066452
0.00047484970122624407
0.00047138490244963324
0.00046162383503537264
0.00043800407568536843
0.0003647016246834476
0.0003933529004883959
0.0004099299137286699
0.0004182718589362729
0.00042084503323510617
0.00041827185893627167
0.00040992991372866875
0.0003933529004883949
0.0003647016246834462
0.00031497619794295403
0.0003472125374924866
0.00036834170755369977
0.00037984412820062194
0.000383480761597488
0.00037984412820062037
0.00036834170755369814
0.00034721253749248515
0.000314976197942952
0.0002970455391578705
0.00033072724794656395
0.0003535586840655678
0.0003661980574414923
0.0003702118443143598
0.0003661980574414911
0.00035355868406556626
0.00033072724794656265
0.0002970455391578687
0.00031497619794441966
0.0003472125374937577
0.00036834170755480734
0.0003798441282016299
0.0003834807615984646
0.00037984412820162906
0.0003683417075548061
0.00034721253749375714
0.0003149761979444187
0.00036470162468547613
0.0003933529004901509
0.00040992991373019894
0.00041827185893766146
0.0004208450332364498
0.0004182718589376614
0.0004099299137301988
0.00039335290049015046
0.00036470162468547516
0.0004380040756869013
0.00046162383503665894
0.0004713849024507537
0.00047484970122726317
0.0004757658545076308
0.0004748497012272638
0.0004713849024507544
0.00046162383503665845
0.00043800407568690003
0.0005319424561913461
0.0005489373433111271
0.0005500950100053316
0.0005475110896934679
0.0005463677345424538
0.000547511089693468
0.0005500950100053323
0.0005489373433111275
0.0005319424561913459
0.0005051760880435247
0.0005192036817549567
0.0005238706328418553
0.0005242930579516083
0.0005240649231439395
0.0005242930579516091
0.0005238706328418556
0.0005192036817549564
0.000505176088043524
0.00042324585731723987
0.0004398121394556284
0.0004490532556509164
0.0004531082351681947
0.00045421414322103934
0.0004531082351681947
0.0004490532556509165
0.00043981213945562796
0.00042324585731723916
0.00036854796541332957
0.0003865559177405061
0.00039940823072728013
0.0004065055799792427
0.00040874488448085244
0.000406505579979242
0.00039940823072727894
0.0003865559177405047
0.0003685479654133285
0.0003365669333591038
0.0003552794616783457
0.0003704358456639805
0.00037950303430927374
0.00038247908052814266
0.0003795030343092734
0.00037043584566397907
0.0003552794616783439
0.0003365669333591022
0.000325849535499027
0.0003447520441711352
0.00036069454102773796
0.00037043628865447085
0.0003736641698446748
0.00037043628865447036
0.0003606945410277367
0.0003447520441711335
0.00032584953549902486
0.00033656693335992917
0.00035527946167903984
0.000370435845664559
0.000379503034309777
0.00038247908052861993
0.0003795030343097765
0.00037043584566455825
0.0003552794616790389
0.0003365669333599275
0.00036854796541451644
0.0003865559177414735
0.00039940823072807317
0.00040650557997992627
0.00040874488448149917
0.00040650557997992654
0.00039940823072807355
0.000386555917741473
0.00036854796541451487
0.00042324585731814203
0.00043981213945629843
0.0004490532556514502
0.0004531082351686552
0.0004542141432214763
0.00045310823516865584
0.00044905325565145057
0.00043981213945629724
0.00042324585731814
0.0005051760880435265
0.0005192036817548043
0.0005238706328417025
0.0005242930579514863
0.0005240649231438299
0.0005242930579514861
0.0005238706328417021
0.0005192036817548032
0.0005051760880435254
0.0004809894738058741
0.000490905967182457
0.0004958187155525854
0.0004975474810363404
0.000497894944207115
0.0004975474810363415
0.0004958187155525869
0.000490905967182458
0.00048098947380587444
0.00041018717539809504
0.00041943334942063737
0.0004260530389035341
0.0004295553829883101
0.0004306094728826961
0.0004295553829883103
0.0004260530389035355
0.00041943334942063835
0.00041018717539809536
0.0003680118997380161
0.00037587307560982264
0.0003834767062174101
0.00038830311038569754
0.00038991406717375424
0.0003883031103856983
0.00038347670621741126
0.0003758730756098232
0.000368011899738016
0.00034688350878076625
0.0003535507605459566
0.0003616886828827868
0.00036734268647113373
0.00036930860092931265
0.0003673426864711348
0.00036168868288278774
0.00035355076054595683
0.0003468835087807654
0.00034060700011152433
0.00034680103792510857
0.00035510463147090147
0.0003610379305877741
0.00036312458416153516
0.00036103793058777343
0.00035510463147090103
0.0003468010379251076
0.00034060700011152216
0.0003468835087812245
0.00035355076054632145
0.00036168868288306535
0.00036734268647135447
0.00036930860092951215
0.00036734268647135306
0.00036168868288306285
0.000353550760546319
0.00034688350878122216
0.0003680118997386924
0.00037587307561032614
0.00038347670621777637
0.0003883031103859791
0.00038991406717400626
0.0003883031103859777
0.00038347670621777436
0.00037587307561032425
0.0003680118997386901
0.00041018717539853034
0.00041943334942086446
0.00042605303890363804
0.0004295553829883521
0.0004306094728827192
0.0004295553829883516
0.00042605303890363695
0.0004194333494208623
0.0004101871753985275
0.00048098947380543534
0.0004909059671818438
0.0004958187155519314
0.0004975474810356931
0.0004978949442064749
0.0004975474810356931
0.0004958187155519296
0.0004909059671818409
0.00048098947380543306
0.00045660897870098056
0.000462532053200039
0.00046635112707295865
0.0004681473606010491
0.00046863993924412277
0.00046814736060104927
0.0004663511270729594
0.000462532053200039
0.0004566089787009808
0.000397203942765668
0.00040010177842765825
0.0004035468450697161
0.00040578128684462143
0.0004065217910529701
0.0004057812868446212
0.00040354684506971593
0.0004001017784276583
0.000397203942765668
0.0003658419490744068
0.0003654618507428571
0.00036793538170524424
0.0003701708741899105
0.00037100893482815107
0.0003701708741899115
0.00036793538170524424
0.00036546185074285635
0.0003658419490744051
0.0003525688532391646
0.00034989917640712614
0.00035161852027014456
0.00035376998189484194
0.00035464203523073316
0.0003537699818948431
0.00035161852027014483
0.0003498991764071249
0.0003525688532391612
0.0003491869617902259
0.00034570676106152043
0.00034715700908500793
0.00034927326986363447
0.00035015430988084866
0.0003492732698636339
0.00034715700908500755
0.00034570676106151967
0.00034918696179022215
0.00035256885323940024
0.000349899176407293
0.0003516185202702467
0.00035376998189490076
0.00035464203523077626
0.0003537699818949004
0.0003516185202702447
0.00034989917640729055
0.00035256885323939596
0.0003658419490747211
0.0003654618507430374
0.0003679353817053156
0.0003701708741899161
0.0003710089348281339
0.00037017087418991573
0.0003679353817053142
0.0003654618507430347
0.00036584194907471633
0.00039720394276567927
0.000400101778427493
0.00040354684506943773
0.0004057812868442851
0.0004065217910526166
0.0004057812868442853
0.0004035468450694368
0.00040010177842749
0.00039720394276567493
0.00045660897870007113
0.0004625320531989593
0.00046635112707180994
0.0004681473605998806
0.0004686399392429518
0.00046814736059988044
0.0004663511270718081
0.0004625320531989559
0.00045660897870006766
0.00043113648085677783
0.0004337198330705002
0.00043603142022178594
0.00043731119170633116
0.00043769819802405807
0.0004373111917063309
0.0004360314202217848
0.0004337198330704992
0.0004311364808567777
0.0003834416452213795
0.0003813471204078121
0.000381809498446057
0.00038257894306826574
0.0003828896632916359
0.00038257894306826514
0.00038180949844605514
0.00038134712040781033
0.00038344164522137794
0.00036242158904423557
0.0003558964842719898
0.00035405194078870776
0.00035388075364365025
0.000353958226968487
0.00035388075364365084
0.00035405194078870646
0.00035589648427198695
0.0003624215890442319
0.0003559552595630922
0.00034659833661250864
0.0003431743322306534
0.00034228173921721066
0.00034216187075404515
0.00034228173921721185
0.0003431743322306521
0.0003465983366125046
0.0003559552595630861
0.0003549101287207662
0.0003446042837224098
0.0003406460226153138
0.00033950188883230103
0.00033931092663227894
0.00033950188883230027
0.0003406460226153111
0.0003446042837224044
0.0003549101287207583
0.000355955259563174
0.00034659833661254355
0.0003431743322306432
0.0003422817392171705
0.00034216187075399333
0.0003422817392171693
0.0003431743322306396
0.0003465983366125375
0.0003559552595631656
0.00036242158904426457
0.00035589648427192266
0.0003540519407885612
0.0003538807536434546
0.0003539582269682735
0.0003538807536434535
0.000354051940788559
0.00035589648427191887
0.00036242158904425774
0.0003834416452210118
0.00038134712040730786
0.0003818094984454589
0.0003825789430676152
0.00038288966329096835
0.00038257894306761446
0.00038180949844545634
0.0003813471204073038
0.0003834416452210059
0.000431136480855441
0.00043371983306901785
0.00043603142022022616
0.00043731119170473674
0.0004376981980224536
0.0004373111917047356
0.0004360314202202228
0.00043371983306901346
0.00043113648085543635
0.00040459748718052235
0.0004045823495757132
0.0004054359557117475
0.000406026122405126
0.0004062162625536314
0.000406026122405128
0.0004054359557117489
0.0004045823495757144
0.0004045974871805226
0.0003687550935520354
0.00036292848014941973
0.0003608988646548652
0.00036030686051162996
0.0003601902363959487
0.0003603068605116305
0.00036089886465486573
0.00036292848014941973
0.0003687550935520337
0.0003579095504570508
0.00034702104144439315
0.00034183718627852353
0.00033967458720075556
0.00033909878501116515
0.0003396745872007554
0.0003418371862785221
0.00034702104144439065
0.0003579095504570467
0.00035784801286447264
0.0003439387120983601
0.000336716479845287
0.0003334382011094876
0.00033251621271631536
0.00033343820110948576
0.0003367164798452813
0.00034393871209835415
0.00035784801286446635
0.0003589297476642386
0.0003440491727083603
0.0003361580067394624
0.0003325009809272621
0.00033145829623467104
0.0003325009809272576
0.0003361580067394531
0.0003440491727083501
0.00035892974766422997
0.0003578480128644535
0.00034393871209831425
0.00033671647984521167
0.0003334382011093931
0.0003325162127162139
0.0003334382011093884
0.00033671647984520267
0.0003439387120983031
0.00035784801286444266
0.00035790955045688223
0.0003470210414441628
0.0003418371862782386
0.00033967458720043486
0.00033909878501083024
0.0003396745872004296
0.0003418371862782317
0.0003470210414441546
0.0003579095504568713
0.0003687550935513938
0.000362928480148681
0.0003608988646540539
0.0003603068605107741
0.00036019023639507624
0.0003603068605107698
0.00036089886465404776
0.0003629284801486734
0.00036875509355138345
0.00040459748717888136
0.00040458234957396093
0.00040543595570992407
0.000406026122403265
0.0004062162625517575
0.00040602612240326263
0.00040543595570991854
0.00040458234957395443
0.00040459748717887496
0.0003772894514681172
0.0003753273912401453
0.0003749507448154106
0.00037488188242783326
0.0003748668604918404
0.00037488188242783483
0.0003749507448154131
0.0003753273912401474
0.00037728945146811853
0.00035337426026602504
0.00034482493706001577
0.0003408401884764038
0.00033911108322119373
0.0003386242598682049
0.00033911108322119563
0.0003408401884764054
0.00034482493706001615
0.0003533742602660243
0.00035254860213758307
0.0003386524200983176
0.00033101744121054994
0.00032732158670957523
0.00032622962408126587
0.00032732158670957637
0.00033101744121054994
0.0003386524200983157
0.0003525486021375792
0.0003586306230378808
0.0003417340455266119
0.0003318579347000467
0.000326836419604861
0.00032531434110870036
0.00032683641960485715
0.00033185793470004075
0.00034173404552660566
0.00035863062303787306
0.000361721128574093
0.00034389314551419467
0.00033330152782819287
0.0003278409028635302
0.00032617259693284615
0.0003278409028635231
0.00033330152782818224
0.00034389314551418486
0.0003617211285740845
0.00035863062303780513
0.0003417340455265214
0.00033185793469993764
0.0003268364196047381
0.000325314341108573
0.0003268364196047336
0.0003318579346999281
0.0003417340455265111
0.00035863062303779684
0.00035254860213730025
0.00033865242009799534
0.0003310174412101886
0.0003273215867091866
0.00032622962408086667
0.0003273215867091835
0.00033101744121018174
0.0003386524200979857
0.00035254860213729055
0.00035337426026521546
0.0003448249370591372
0.00034084018847546806
0.0003391110832202213
0.00033862425986722
0.0003391110832202205
0.00034084018847546486
0.0003448249370591299
0.0003533742602652061
0.00037728945146628504
0.00037532739123823035
0.0003749507448134356
0.000374881882425824
0.00037486686048982096
0.00037488188242582314
0.0003749507448134327
0.00037532739123822547
0.0003772894514662793
0.000349550334972622
0.0003461488608351344
0.0003448025482062927
0.0003441809612993119
0.0003439872909317312
0.0003441809612993121
0.00034480254820629477
0.00034614886083513674
0.00034955033497262354
0.00033763983347473697
0.00032711378415973896
0.00032164427141963606
0.000319017848485078
0.0003182325441647625
0.0003190178484850782
0.00032164427141963855
0.00032711378415973977
0.00033763983347473566
0.0003466440147851514
0.00033071136359556156
0.0003213368078756536
0.0003165144606574362
0.00031503626412911136
0.00031651446065743564
0.00032133680787565567
0.0003307113635955619
0.000346644014785149
0.00035861369428913517
0.0003398158234233228
0.000328161524491878
0.00032193046620559345
0.00031998442529949575
0.00032193046620559084
0.0003281615244918763
0.0003398158234233194
0.00035861369428913023
0.0003636106016213336
0.00034394955412587477
0.0003315861542156115
0.00032489983699578233
0.0003227986220592317
0.00032489983699577946
0.00033158615421560695
0.0003439495541258681
0.000363610601621328
0.00035861369428903797
0.0003398158234232159
0.0003281615244917583
0.0003219304662054629
0.00031998442529936283
0.00032193046620546204
0.0003281615244917551
0.000339815823423211
0.0003586136942890348
0.00034664401478481634
0.00033071136359519705
0.0003213368078752609
0.00031651446065702186
0.00031503626412868896
0.00031651446065702045
0.00032133680787525777
0.00033071136359519315
0.0003466440147848149
0.0003376398334738342
0.0003271137841587816
0.00032164427141863545
0.00031901784848404637
0.00031823254416372
0.0003190178484840468
0.0003216442714186331
0.000327113784158778
0.0003376398334738328
0.0003495503349706612
0.0003461488608331104
0.00034480254820422286
0.0003441809612972132
0.000343987290929624
0.0003441809612972132
0.0003448025482042197
0.0003461488608331065
0.00034955033497065875
0.0003216719290486948
0.00031720216794605137
0.00031511806483719326
0.00031406218556947964
0.0003137253433515472
0.0003140621855694805
0.0003151180648371946
0.0003172021679460521
0.00032167192904869376
0.00032186963747564087
0.00030989636111942835
0.00030331280516848215
0.0002999975361020565
0.0002989800746837243
0.00029999753610205975
0.0003033128051684848
0.0003098963611194278
0.0003218696374756377
0.0003404983354127315
0.00032320203138802453
0.0003126204812689171
0.0003069965422651676
0.00030523987958705023
0.00030699654226516807
0.0003126204812689161
0.00032320203138802323
0.00034049833541273324
0.00035811550444171826
0.0003381412939708903
0.0003253391955918832
0.0003183056343150693
0.0003160743686135035
0.000318305634315071
0.0003253391955918805
0.0003381412939708887
0.0003581155044417247
0.00036493190465780904
0.0003441697626358828
0.0003306932402485384
0.00032321496036366115
0.0003208300578633885
0.0003232149603636629
0.0003306932402485347
0.00034416976263588225
0.0003649319046578163
0.0003581155044416448
0.0003381412939708052
0.00032533919559178713
0.0003183056343149627
0.00031607436861339183
0.0003183056343149631
0.00032533919559178475
0.00033814129397080595
0.0003581155044416494
0.00034049833541241643
0.00032320203138767856
0.0003126204812685439
0.0003069965422647749
0.0003052398795866492
0.00030699654226477483
0.0003126204812685438
0.00032320203138767997
0.0003404983354124178
0.000321869637474719
0.00030989636111845365
0.0003033128051674676
0.0002999975361010162
0.00029898007468267304
0.00029999753610101626
0.0003033128051674681
0.0003098963611184552
0.00032186963747471875
0.0003216719290466575
0.0003172021679439626
0.00031511806483506784
0.0003140621855673307
0.00031372534334939134
0.0003140621855673317
0.00031511806483506643
0.00031720216794396043
0.00032167192904665394
0.00029387449563810045
0.000288605140045405
0.0002859691597874719
0.00028458225619596475
0.0002841347726955117
0.00028458225619596323
0.00028596915978747173
0.0002886051400454049
0.0002938744956380991
0.00030629571106498765
0.0002932517703389823
0.00028583075353584363
0.0002819902635773089
0.0002807943583576008
0.0002819902635773095
0.0002858307535358431
0.0002932517703389814
0.0003062957110649842
0.0003343768010748922
0.0003161771695017713
0.0003047739500296234
0.000298594761636704
0.00029664357729370397
0.00029859476163669946
0.0003047739500296192
0.0003161771695017736
0.00033437680107489484
0.000357484582123936
0.00033680062813220516
0.0003232897573115686
0.0003157521922363699
0.00031334023880658665
0.0003157521922363654
0.0003232897573115669
0.0003368006281322098
0.00035748458212394153
0.00036607643856151285
0.00034467185987010866
0.00033053376980245056
0.0003225773386094803
0.0003200197065923874
0.0003225773386094788
0.00033053376980245197
0.00034467185987011343
0.0003660764385615211
0.00035748458212391286
0.00033680062813217393
0.00032328975731152386
0.00031575219223631783
0.00031334023880653494
0.0003157521922363183
0.0003232897573115269
0.00033680062813218
0.0003574845821239247
0.00033437680107464287
0.000316177169501496
0.0003047739500293204
0.0002985947616363833
0.00029664357729337996
0.00029859476163638277
0.0003047739500293212
0.0003161771695015032
0.00033437680107465447
0.00030629571106410055
0.00029325177033804597
0.0002858307535348689
0.0002819902635763092
0.00028079435835659094
0.0002819902635763061
0.00028583075353486856
0.00029325177033805324
0.0003062957110641076
0.00029387449563605077
0.0002886051400433111
0.0002859691597853465
0.000284582256193818
0.00028413477269335793
0.0002845822561938163
0.00028596915978534485
0.00028860514004331163
0.0002938744956360477
0.0002662973635981807
0.0002604378909753033
0.00025739188805396943
0.00025575202625073784
0.0002552183148973086
0.0002557520262507352
0.0002573918880539696
0.00026043789097530517
0.0002662973635981794
0.0002910346070441276
0.00027720597377422384
0.00026915181029377
0.0002649091532865692
0.00026357597844148435
0.0002649091532865691
0.0002691518102937743
0.00027720597377422677
0.00029103460704412343
0.0003285083980498052
0.0003097238780995879
0.0002977804210320342
0.0002912345933059865
0.000289154951436349
0.00029123459330598813
0.00029778042103204255
0.0003097238780995932
0.00032850839804980333
0.0003571249238131968
0.0003360166114460242
0.0003221046800849679
0.0003142869958122261
0.0003117752718493922
0.0003142869958122303
0.0003221046800849789
0.0003360166114460288
0.000357124923813193
0.00036752491082512386
0.0003457428480349736
0.0003312539168876512
0.0003230521730989837
0.0003204068914188084
0.0003230521730989903
0.0003312539168876608
0.0003457428480349762
0.0003675249108251212
0.0003571249238132719
0.00033601661144608735
0.00032210468008501796
0.0003142869958122689
0.00031177527184943416
0.0003142869958122719
0.00032210468008502186
0.00033601661144608643
0.00035712492381327003
0.00032850839804970694
0.00030972387809946036
0.0002977804210318782
0.0002912345933058125
0.00028915495143616793
0.0002912345933058102
0.000297780421031878
0.0003097238780994621
0.00032850839804971237
0.0002910346070433824
0.0002772059737734309
0.00026915181029293596
0.00026490915328570967
0.0002635759784406144
0.0002649091532857036
0.0002691518102929328
0.00027720597377343416
0.00029103460704339
0.000266297363596254
0.0002604378909733376
0.00025739188805197456
0.0002557520262487236
0.0002552183148952868
0.0002557520262487168
0.00025739188805196816
0.00026043789097333523
0.00026629736359625063
0.00023899624622551356
0.00023274089568426392
0.0002293903496656519
0.00022754850174565934
0.00022694347134028035
0.00022754850174565644
0.0002293903496656475
0.00023274089568426083
0.00023899624622551198
0.0002760935903601352
0.0002617300780094246
0.0002532064669460116
0.00024866242511206575
0.0002472268879131122
0.00024866242511206255
0.00025320646694600976
0.00026173007800942493
0.0002760935903601359
0.00032312401156635653
0.00030398557032653307
0.00029173087316837406
0.00028498398529673997
0.0002828361896956626
0.0002849839852967441
0.0002917308731683802
0.00030398557032653675
0.00032312401156635924
0.0003575070548385887
0.00033613505279694715
0.00032206120815093475
0.0003141565648791391
0.00031161773930476436
0.00031415656487914813
0.0003220612081509444
0.0003361350527969516
0.00035750705483858893
0.00036983511581516865
0.00034780407481905466
0.00033320031446498484
0.0003249518767748414
0.00032229455806013433
0.00032495187677484736
0.0003332003144649909
0.00034780407481905986
0.0003698351158151689
0.00035750705483880593
0.00033613505279714957
0.00032206120815113327
0.00031415656487933266
0.00031161773930494954
0.00031415656487932854
0.0003220612081511281
0.00033613505279714946
0.0003575070548388036
0.0003231240115664965
0.0003039855703266392
0.0002917308731684587
0.0002849839852968099
0.00028283618969572176
0.0002849839852968028
0.00029173087316845255
0.0003039855703266399
0.0003231240115664982
0.0002760935903596597
0.00026173007800889584
0.0002532064669454417
0.0002486624251114731
0.00024722688791250873
0.0002486624251114653
0.00025320646694543876
0.0002617300780088991
0.00027609359035966495
0.0002389962462238833
0.0002327408956825922
0.00022939034966395295
0.000227548501743943
0.00022694347133855373
0.00022754850174393546
0.00022939034966394764
0.00023274089568259054
0.0002389962462238815
0.00021198585528169024
0.00020555079513585092
0.0002019766608909725
0.0001999666313327602
0.00019930037149619163
0.00019996663133275668
0.00020197666089096696
0.00020555079513584848
0.0002119858552816955
0.0002614888403956308
0.00024684972386872
0.00023803079921081273
0.000233304854454549
0.0002318111750436563
0.000233304854454544
0.00023803079921080742
0.00024684972386872076
0.00026148884039564027
0.0003185343916183264
0.0002992341102685158
0.0002869152254528254
0.00028016387292058526
0.0002780221007572517
0.0002801638729205827
0.00028691522545282454
0.0002992341102685185
0.0003185343916183342
0.0003590575690938779
0.00033751094604393965
0.00032352093196645257
0.0003157481022046378
0.00031326673200662077
0.00031574810220463486
0.00032352093196645376
0.00033751094604394003
0.0003590575690938789
0.0003734332475718768
0.0003512000593019856
0.0003367185387068642
0.0003286442123955766
0.0003260610994735444
0.0003286442123955691
0.00033671853870686325
0.0003512000593019834
0.00037343324757187435
0.0003590575690942578
0.00033751094604430253
0.00032352093196681226
0.0003157481022049925
0.0003132667320069702
0.00031574810220498425
0.0003235209319668071
0.00033751094604430085
0.0003590575690942575
0.0003185343916187592
0.00029923411026891076
0.0002869152254531996
0.00028016387292094196
0.00027802210075760143
0.00028016387292093816
0.00028691522545319604
0.0002992341102689132
0.0003185343916187614
0.0002614888403955068
0.0002468497238685398
0.00023803079921058833
0.0002333048544542943
0.000231811175043392
0.00023330485445429358
0.00023803079921058716
0.00024684972386854046
0.0002614888403955064
0.00021198585528045698
0.00020555079513457722
0.00020197666088966532
0.00019996663133142864
0.00019930037149485156
0.00019996663133142945
0.00020197666088966372
0.00020555079513457188
0.00021198585528044972
0.00018549068167335965
0.00017913543542916882
0.0001754299020939827
0.00017331153741961195
0.0001726082020333281
0.00017331153741961016
0.00017542990209398187
0.00017913543542917137
0.00018549068167336282
0.0002476877637341398
0.00023309114038931554
0.00022426166062847875
0.0002195715004970365
0.00021810200371134858
0.00021957150049703737
0.00022426166062848357
0.00023309114038932155
0.00024768776373414457
0.0003151913519702939
0.00029595684360464805
0.00028395006572198427
0.00027750045870594684
0.00027547931019116206
0.00027750045870594825
0.0002839500657219905
0.0002959568436046534
0.0003151913519702966
0.00036163352748786126
0.0003400198165747839
0.00032647468686367487
0.00031915024165213497
0.0003168463786914573
0.0003191502416521327
0.00032647468686367465
0.0003400198165747865
0.00036163352748786533
0.00037783493325040606
0.0003554597875926335
0.0003414468524514085
0.00033386020989244376
0.0003314710548027274
0.0003338602098924367
0.0003414468524514027
0.00035545978759263415
0.0003778349332504114
0.0003616335274884331
0.0003400198165753273
0.0003264746868642019
0.0003191502416526506
0.00031684637869196805
0.0003191502416526453
0.00032647468686419637
0.0003400198165753258
0.0003616335274884341
0.000315191351971082
0.0002959568436053911
0.00028395006572269366
0.0002775004587066339
0.0002754793101918423
0.0002775004587066335
0.00028395006572269176
0.0002959568436053888
0.00031519135197108014
0.00024768776373444213
0.00023309114038956824
0.00022426166062868317
0.00021957150049721252
0.00021810200371151836
0.0002195715004972154
0.0002242616606286848
0.00023309114038956677
0.00024768776373444197
0.00018549068167256113
0.0001791354354283399
0.00017542990209311617
0.00017331153741872318
0.00017260820203243628
0.00017331153741872662
0.00017542990209311684
0.00017913543542833531
0.00018549068167255563
0.00016094474036948802
0.0001549785751501292
0.00015136254031903083
0.00014932420440398305
0.00014865814969907543
0.00014932420440397364
0.0001513625403190216
0.00015497857515012293
0.0001609447403694829
0.00023673641785925886
0.00022268218587357224
0.00021442321231492003
0.00021019361568835296
0.0002088988687740365
0.0002101936156883438
0.00021442321231491187
0.00022268218587357058
0.0002367364178592583
0.0003133085659551242
0.0002945909606994504
0.0002835749548389493
0.00027792256274625986
0.00027619307726623474
0.0002779225627462525
0.0002835749548389435
0.00029459096069945343
0.00031330856595512585
0.0003629107460929556
0.00034158059512872236
0.0003291371716006495
0.0003227507343743274
0.000320792385963286
0.0003227507343743216
0.0003291371716006449
0.00034158059512872426
0.0003629107460929564
0.0003796870571591735
0.0003574847177037118
0.0003445843959771493
0.0003379694274479158
0.0003359400961671892
0.0003379694274479158
0.0003445843959771503
0.00035748471770371523
0.0003796870571591787
0.00036291074609366605
0.00034158059512940243
0.00032913717160130805
0.0003227507343749771
0.00032079238596393743
0.0003227507343749806
0.000329137171601312
0.000341580595129404
0.0003629107460936723
0.00031330856595623797
0.0002945909607005216
0.0002835749548399948
0.00027792256274729245
0.0002761930772672671
0.00027792256274729603
0.0002835749548399934
0.0002945909607005142
0.00031330856595623965
0.00023673641786007044
0.00022268218587433798
0.0002144232123156575
0.0002101936156890772
0.00020889886877476304
0.0002101936156890831
0.0002144232123156563
0.00022268218587432752
0.0002367364178600668
0.00016094474036921233
0.00015497857514981905
0.00015136254031869413
0.0001493242044036353
0.00014865814969873138
0.00014932420440363898
0.00015136254031869074
0.0001549785751498068
0.0001609447403692022
0.00014422035538946268
0.00013912570309375724
0.00013616024308631892
0.00013460987580578854
0.00013412863078801184
0.0001346098758057823
0.00013616024308631195
0.00013912570309374878
0.0001442203553894585
0.00023376227239598277
0.00022135029194531052
0.00021474776270083272
0.00021160018920671659
0.00021067084017861298
0.00021160018920670802
0.0002147477627008212
0.0002213502919452979
0.00023376227239597702
0.00031012496895002834
0.00029313290069103964
0.0002843141627365327
0.0002800913150713574
0.00027883349542946295
0.0002800913150713454
0.00028431416273652025
0.00029313290069102966
0.00031012496895002227
0.00035479175195210326
0.00033501211867720943
0.00032492926067278653
0.0003201090456523976
0.00031866700582641706
0.00032010904565239057
0.00032492926067278127
0.0003350121186772002
0.00035479175195209133
0.00036929876604021
0.00034857342788836534
0.0003380664325034862
0.0003330521377746452
0.00033155122645120666
0.00033305213777465347
0.0003380664325034914
0.0003485734278883602
0.00036929876604020154
0.00035479175195277313
0.0003350121186778437
0.0003249292606734075
0.0003201090456530152
0.0003186670058270486
0.0003201090456530324
0.00032492926067342225
0.00033501211867784716
0.00035479175195277297
0.0003101249689512332
0.00029313290069218505
0.00028431416273766506
0.0002800913150724925
0.00027883349543061367
0.0002800913150725101
0.0002843141627376842
0.00029313290069219366
0.0003101249689512368
0.00023376227239724066
0.00022135029194650702
0.0002147477627020194
0.00021160018920790867
0.0002106708401798185
0.00021160018920792542
0.00021474776270203396
0.0002213502919465082
0.00023376227239723909
0.00014422035538984141
0.0001391257030940839
0.0001361602430866286
0.00013460987580610182
0.0001341286307883365
0.00013460987580611117
0.0001361602430866318
0.000139125703094074
0.00014422035538983017
0.00015806462306006727
0.00015487717785225497
0.00015323476857604718
0.00015250918805014167
0.0001523093419809583
0.00015250918805014032
0.0001532347685760437
0.00015487717785225063
0.00015806462306006488
0.00024146340726665706
0.00023334853211075604
0.00022957364674459858
0.00022785092529256542
0.00022735356335839703
0.00022785092529256724
0.0002295736467445944
0.00023334853211074767
0.00024146340726665457
0.0002924425336404819
0.0002808280612725042
0.0002756475659746229
0.00027316998771831043
0.0002724290200631082
0.00027316998771831455
0.00027564756597461945
0.0002808280612724937
0.0002924425336404801
0.0003188122862418652
0.0003049948519177467
0.0002989152877940915
0.0002959735564366494
0.0002950818458467659
0.00029597355643665537
0.00029891528779409527
0.00030499485191773964
0.00031881228624186227
0.00032701017288650836
0.00031244830653314387
0.0003060490408204927
0.0003029464128580262
0.00030200350497035163
0.00030294641285803065
0.00030604904082049214
0.00031244830653314056
0.000327010172886509
0.00031881228624225936
0.00030499485191810654
0.00029891528779444894
0.00029597355643700037
0.00029508184584711174
0.000295973556436996
0.00029891528779444113
0.00030499485191810686
0.00031881228624225936
0.0002924425336412862
0.0002808280612732531
0.0002756475659753644
0.000273169987719058
0.0002724290200638507
0.0002731699877190432
0.0002756475659753569
0.00028082806127325676
0.0002924425336412851
0.00024146340726777457
0.00023334853211182637
0.0002295736467456636
0.0002278509252936428
0.00022735356335947486
0.00022785092529362932
0.00022957364674565573
0.00023334853211182534
0.00024146340726777476
0.0001580646230609157
0.0001548771778530668
0.00015323476857685405
0.00015250918805096025
0.00015230934198178165
0.0001525091880509528
0.0001532347685768494
0.00015487717785306207
0.00015806462306090815

SCALARS STRAIN_XX float 1
LOOKUP_TABLE default
-0.0004989333650061794
-2.7610940472280743e-05
2.761094047209079e-05
0.0004989333650071968
-0.0004989333650061794
-2.7610940472279008e-05
2.761094047208125e-05
0.0004989333650071977
-0.0004915107399649549
-0.0004618638546086691
-0.0004283432560448433
-0.0004067348549083939
-0.00038596147030862157
-0.0003643607502735865
-0.00034143183495711723
-0.00031733027113444324
-0.00029232421949030576
-0.0002666716324041872
-0.00024058149270063606
-0.00021422010557185399
-0.00018773652423499784
-0.0001613023165479674
-0.00013516258344438425
-0.00010967109289742889
-8.525463804082926e-05
-6.179865895055304e-05
-3.8918930849623275e-05
-2.308233366112196e-05
-1.68128828850454e-05
-1.2378897854778111e-05
-6.519154501124971e-06
-1.1069704181077e-16
6.519154500922225e-06
1.237889785462925e-05
1.6812882884932644e-05
2.308233366097104e-05
3.89189308492785e-05
6.179865894992594e-05
8.525463803992677e-05
0.00010967109289621501
0.00013516258344284642
0.00016130231654612167
0.00018773652423292484
0.00021422010556971854
0.0002405814926985648
0.00026667163240222565
0.0002923242194884752
0.00031733027113277747
0.00034143183495569823
0.0003643607502725114
0.00038596147030792725
0.0004067348549080356
0.00042834325604469757
0.00046186385460874593
0.0004915107399655814
0.00041805586674723493
0.00028318334662592274
0.00018130782130982277
8.867157765468139e-05
2.2057483335495565e-15
-8.867157765037831e-05
-0.00018130782130599394
-0.00028318334662290996
-0.00041805586674544497
-0.000491510739964955
-0.0004618638546086694
-0.0004283432560448435
-0.0004067348549083933
-0.0003859614703086208
-0.00036436075027358717
-0.00034143183495711897
-0.0003173302711344441
-0.00029232421949030836
-0.0002666716324041911
-0.00024058149270063845
-0.0002142201055718579
-0.00018773652423499957
-0.00016130231654796568
-0.00013516258344438382
-0.00010967109289742975
-8.525463804083012e-05
-6.179865895055521e-05
-3.891893084962414e-05
-2.3082333661121092e-05
-1.6812882885045184e-05
-1.2378897854776485e-05
-6.519154501123561e-06
-1.117812439832555e-16
6.519154500918972e-06
1.2378897854623829e-05
1.6812882884925488e-05
2.3082333660962365e-05
3.891893084926462e-05
6.179865894991076e-05
8.525463803991332e-05
0.00010967109289620287
0.00013516258344283601
0.00016130231654610996
0.0001877365242329153
0.00021422010556970987
0.0002405814926985583
0.0002666716324022237
0.0002923242194884739
0.0003173302711327764
0.0003414318349556963
0.0003643607502725097
0.0003859614703079267
0.00040673485490803527
0.0004283432560446978
0.0004618638546087464
0.0004915107399655822
0.0004180558667472358
0.0002831833466259235
0.00018130782130982345
8.867157765468197e-05
2.2062023432092848e-15
-8.867157765037806e-05
-0.00018130782130599394
-0.0002831833466229101
-0.000418055866745445
-0.0004716037791483064
-0.0004450093789153141
-0.00044733218017383716
-0.0004500869571112499
-0.0004512541184150201
-0.00045008695711124945
-0.0004473321801738367
-0.00044500937891531385
-0.0004716037791483063
-2.8495910591366542e-05
-2.993221636896559e-05
-3.089884605998565e-05
-3.154844559060321e-05
-3.178275108871222e-05
-3.1548445590601475e-05
-3.089884605998782e-05
-2.9932216368967757e-05
-2.8495910591365674e-05
2.8495910591183095e-05
2.9932216368790815e-05
3.0898846059813044e-05
3.1548445590431906e-05
3.178275108854352e-05
3.154844559043017e-05
3.089884605981044e-05
2.9932216368785177e-05
2.8495910591173988e-05
0.0004716037791495254
0.0004450093789167193
0.0004473321801752288
0.00045008695711264276
0.0004512541184164126
0.000450086957112643
0.00044733218017522895
0.00044500937891671924
0.00047160377914952584
-0.00042144785645807246
-0.00029378558306900467
-0.00018660828187088915
-9.099293604155122e-05
2.1594156313347462e-15
9.099293604577415e-05
0.00018660828187467312
0.0002937855830719273
0.0004214478564595879
-0.0004078409658785589
-0.0002975488026530611
-0.00019072569995181492
-9.306951469423913e-05
2.004381496932897e-15
9.306951469815294e-05
0.00019072569995527575
0.00029754880265553
0.00040784096587951485
-0.00038048759775420035
-0.00028370622922845783
-0.00018658544982011536
-9.202506914061514e-05
1.78156439795997e-15
9.202506914405078e-05
0.0001865854498230102
0.0002837062292303023
0.0003804875977547312
-0.0003608069039037681
-0.0002697086022081443
-0.00017935713346015452
-8.936479060949292e-05
1.5378662427713297e-15
8.936479061241113e-05
0.0001793571334624959
0.0002697086022095102
0.0003608069039039938
-0.00034215598856099675
-0.00025566288095872094
-0.0001703867692870745
-8.519563803461611e-05
1.2796567191303287e-15
8.519563803700933e-05
0.00017038676928890977
0.00025566288095966414
0.0003421559885608711
-0.00032300078314610725
-0.00024126948862291406
-0.00016073937650344425
-8.039575376342923e-05
1.0273560973293738e-15
8.03957537653213e-05
0.00016073937650481094
0.00024126948862344846
0.0003230007831456021
-0.00030279070886586005
-0.00022623211747240337
-0.0001506372328174593
-7.530977490766716e-05
7.866835438283259e-16
7.53097749090849e-05
0.00015063723281838592
0.00022623211747254833
0.00030279070886499995
-0.00028156202737065073
-0.00021050391357553777
-0.00014013369016482183
-7.003290770967631e-05
5.697617941682886e-16
7.003290771067019e-05
0.00014013369016536363
0.00021050391357535514
0.0002815620273695175
-0.00025950511765402394
-0.0001941568579646477
-0.000129257790961412
-6.45861426338689e-05
3.83102837647753e-16
6.458614263450002e-05
0.00012925779096163085
0.00019415685796420458
0.0002595051176526947
-0.00023683140972781012
-0.00017730638458628628
-0.00011805129170831336
-5.897968739229363e-05
2.2032343397621057e-16
5.8979687392608226e-05
0.00011805129170825297
0.00017730638458562378
0.0002368314097263215
-0.00021372093882960675
-0.00016006010947240842
-0.00010655209934738562
-5.321872321238815e-05
8.073240426870187e-17
5.3218723212430986e-05
0.0001065520993470847
0.00016006010947155775
0.0002137209388279835
-0.0001903118560458299
-0.00014248770142219762
-9.476822284195638e-05
-4.729126126358259e-05
-3.684932133735108e-17
4.72912612633971e-05
9.476822284145418e-05
0.0001424877014211943
0.00019031185604411241
-0.00016670711776245256
-0.00012460082240498156
-8.265288487147374e-05
-4.115357814646525e-05
-1.332891045799367e-16
4.115357814609582e-05
8.265288487082094e-05
0.00012460082240389086
0.000166707117760742
-0.0001429900946356697
-0.00010633932475179338
-7.00907371994139e-05
-3.47254194479608e-05
-1.9361140295159895e-16
3.472541944748112e-05
7.009073719869101e-05
0.0001063393247507159
0.00014299009463410617
-0.00011924543474169124
-8.757426277467711e-05
-5.692625339652295e-05
-2.7921713144931027e-05
-2.1637964857379455e-16
2.7921713144417738e-05
5.692625339580646e-05
8.757426277368626e-05
0.00011924543474035106
-9.558133837807683e-05
-6.818120154227555e-05
-4.3121803809949126e-05
-2.0781893189597523e-05
-2.0710971999904348e-16
2.078189318911302e-05
4.3121803809292153e-05
6.818120154140276e-05
9.558133837697669e-05
-7.218183213860709e-05
-4.836025681574001e-05
-2.9235943950147716e-05
-1.377861642221388e-05
-1.6745502554038616e-16
1.3778616421822971e-05
2.923594394961559e-05
4.836025681502747e-05
7.218183213775198e-05
-4.949698329284754e-05
-2.983791742547197e-05
-1.746300427842354e-05
-8.231831706858938e-06
-1.2015670576570603e-16
8.23183170659198e-06
1.746300427807714e-05
2.983791742499015e-05
4.949698329225177e-05
-3.074886981709133e-05
-1.904233138061808e-05
-1.2451613176197554e-05
-6.2862341685658726e-06
-1.0454419448191477e-16
6.28623416836207e-06
1.2451613176002127e-05
1.9042331380389422e-05
3.074886981678645e-05
-0.0004787746757938997
-0.00046256589659145165
-0.0004590261714327924
-0.00045923500310482467
-0.000459510844904123
-0.00045923500310482407
-0.00045902617143279176
-0.00046256589659145143
-0.0004787746757938998
-0.0004680900023754037
-0.000469988882176625
-0.0004635044452148196
-0.00046047148010981676
-0.0004595956840011059
-0.0004604714801098161
-0.0004635044452148188
-0.0004699888821766246
-0.00046809000237540375
-0.00043807161335901424
-0.00044846878852419623
-0.00044757508557876084
-0.0004450799975139452
-0.0004441474302455759
-0.00044507999751394484
-0.00044757508557876025
-0.0004484687885241957
-0.0004380716133590142
-0.00041440159177701113
-0.00042469921567059234
-0.000427449009287651
-0.00042720010690992544
-0.0004268322979401052
-0.00042720010690992533
-0.00042744900928765056
-0.0004246992156705918
-0.00041440159177701065
-0.00039139522271394354
-0.00039961923472043356
-0.0004034003346984373
-0.00040458623444090383
-0.0004047812938065347
-0.00040458623444090405
-0.0004034003346984374
-0.0003996192347204332
-0.00039139522271394283
-0.00036799617378512875
-0.00037396679965527645
-0.00037749797846715124
-0.00037914496873173067
-0.00037959598254304024
-0.00037914496873173045
-0.000377497978467152
-0.0003739667996552761
-0.0003679961737851283
-0.00034377789882391555
-0.00034787709334819627
-0.0003507026154546568
-0.00035225854801601596
-0.000352742089128397
-0.00035225854801601596
-0.0003507026154546567
-0.00034787709334819616
-0.0003437778988239164
-0.0003187935703121117
-0.00032149020568949583
-0.00032356492448862805
-0.00032482050673132386
-0.0003252347063746041
-0.0003248205067313257
-0.00032356492448862913
-0.0003214902056894969
-0.000318793570312113
-0.0002932041878029762
-0.0002949137807955152
-0.0002963567822903959
-0.000297289141397651
-0.00029760812368989436
-0.00029728914139765287
-0.0002963567822903988
-0.0002949137807955176
-0.0002932041878029785
-0.0002671784377780075
-0.0002682285577057839
-0.0002692033286637559
-0.0002698686939157941
-0.00027010260276381676
-0.0002698686939157954
-0.00026920332866375786
-0.00026822855770578674
-0.0002671784377780113
-0.0002408592493777609
-0.0002414953244280917
-0.00024215976361820018
-0.00024263776895197368
-0.000242809653468844
-0.00024263776895197217
-0.00024215976361819953
-0.00024149532442809354
-0.00024085924937776372
-0.00021436857165972926
-0.00021477372406456083
-0.00021526471748542476
-0.00021563364205700783
-0.00021576825952468242
-0.00021563364205700567
-0.0002152647174854239
-0.000214773724064563
-0.00021436857165973294
-0.0001878306530402761
-0.00018814880013422663
-0.00018858034536472622
-0.00018890619106693438
-0.00018902450982731544
-0.00018890619106693438
-0.00018858034536472666
-0.00018814880013422815
-0.00018783065304027783
-0.00016141002072652343
-0.00016176629593429121
-0.0001622278614559526
-0.00016255620579667712
-0.000162671555644952
-0.0001625562057966769
-0.00016222786145595153
-0.00016176629593428948
-0.0001614100207265217
-0.00013535987592279983
-0.00013587150230484298
-0.00013641689232314212
-0.0001367627841258191
-0.00013687761981382384
-0.00013676278412581735
-0.00013641689232313952
-0.00013587150230483995
-0.0001353598759227981
-0.00011004814135222264
-0.00011081245353657078
-0.00011143552756597464
-0.00011177866134806083
-0.00011188598483029668
-0.00011177866134805866
-0.00011143552756597268
-0.00011081245353656882
-0.00011004814135222177
-8.588023932030032e-05
-8.691576426042872e-05
-8.754230272361302e-05
-8.785505482358639e-05
-8.79511921210328e-05
-8.785505482358596e-05
-8.75423027236115e-05
-8.691576426042699e-05
-8.58802393203001e-05
-6.262165957446352e-05
-6.383081697032577e-05
-6.443098675302573e-05
-6.475397847991327e-05
-6.486295719605305e-05
-6.475397847991197e-05
-6.443098675302226e-05
-6.383081697032404e-05
-6.262165957446461e-05
-3.980439805555168e-05
-4.115156393827901e-05
-4.1933999014570145e-05
-4.2435221989522206e-05
-4.26157085649814e-05
-4.243522198952004e-05
-4.1933999014568844e-05
-4.115156393827966e-05
-3.980439805555255e-05
-2.4205227637204242e-05
-2.5957749327842677e-05
-2.7009195545255266e-05
-2.765176669748139e-05
-2.7872519346850647e-05
-2.7651766697482042e-05
-2.7009195545258302e-05
-2.5957749327844412e-05
-2.420522763720359e-05
-1.8201301829235132e-05
-2.0296744708887164e-05
-2.1416341649740196e-05
-2.2022351912409817e-05
-2.2215789169689358e-05
-2.202235191241101e-05
-2.1416341649740738e-05
-2.0296744708886948e-05
-1.8201301829234807e-05
-1.3572807815133631e-05
-1.537478393053807e-05
-1.632183369612122e-05
-1.6813102121784516e-05
-1.6965386936913796e-05
-1.6813102121783702e-05
-1.6321833696119e-05
-1.53747839305365e-05
-1.3572807815132439e-05
-7.174727656904142e-06
-8.177535787367923e-06
-8.715964986879236e-06
-8.99202641366597e-06
-9.076893615625432e-06
-8.992026413665103e-06
-8.715964986879507e-06
-8.177535787367706e-06
-7.174727656902651e-06
-1.23300892065914e-16
-1.4246416546459528e-16
-1.530622417006411e-16
-1.5867298794325357e-16
-1.5864588288894144e-16
-1.5664010886984325e-16
-1.5322487202651391e-16
-1.4181364416110398e-16
-1.2259616065379841e-16
7.174727656679306e-06
8.177535787108365e-06
8.715964986600352e-06
8.99202641338023e-06
9.076893615341073e-06
8.992026413383184e-06
8.71596498660431e-06
8.177535787110642e-06
7.1747276566779775e-06
1.3572807814971489e-05
1.5374783930354624e-05
1.632183369592601e-05
1.6813102121588275e-05
1.6965386936719452e-05
1.6813102121588925e-05
1.632183369592883e-05
1.5374783930354027e-05
1.357280781496661e-05
1.8201301829120532e-05
2.0296744708770287e-05
2.1416341649622235e-05
2.2022351912292506e-05
2.2215789169571722e-05
2.2022351912290555e-05
2.1416341649619416e-05
2.0296744708765083e-05
1.8201301829113593e-05
2.4205227637058525e-05
2.5957749327704767e-05
2.700919554512039e-05
2.76517666973476e-05
2.787251934671729e-05
2.7651766697345433e-05
2.7009195545116488e-05
2.5957749327698478e-05
2.4205227637050285e-05
3.9804398055211894e-05
4.1151563937943557e-05
4.193399901423404e-05
4.2435221989188705e-05
4.2615708564650284e-05
4.243522198918567e-05
4.193399901423014e-05
4.115156393793705e-05
3.9804398055200184e-05
6.262165957384141e-05
6.383081696970539e-05
6.44309867524021e-05
6.475397847929094e-05
6.486295719543072e-05
6.475397847928704e-05
6.443098675239624e-05
6.38308169696978e-05
6.262165957382905e-05
8.588023931940477e-05
8.691576425953924e-05
8.75423027227218e-05
8.785505482269301e-05
8.795119212013833e-05
8.78550548226917e-05
8.754230272271834e-05
8.691576425953426e-05
8.588023931939501e-05
0.00011004814135101679
0.00011081245353537533
0.00011143552756478006
0.00011177866134686387
0.0001118859848291008
0.0001117786613468656
0.00011143552756478006
0.000110812453535371
0.00011004814135100703
0.0001353598759212683
0.00013587150230332185
0.00013641689232162532
0.00013676278412430055
0.0001368776198123051
0.00013676278412430207
0.00013641689232162424
0.00013587150230331513
0.00013535987592125788
0.00016141002072467877
0.00016176629593245046
0.0001622278614541162
0.00016255620579484092
0.00016267155564311428
0.00016255620579483918
0.00016222786145411337
0.00016176629593244569
0.00016141002072466945
0.00018783065303820158
0.00018814880013215017
0.00018858034536264824
0.00018890619106485423
0.00018902450982523377
0.00018890619106485228
0.000188580345362645
0.00018814880013214605
0.0001878306530381942
0.0002143685716575871
0.0002147737240624076
0.00021526471748326264
0.0002156336420548377
0.00021576825952251012
0.0002156336420548379
0.00021526471748326025
0.00021477372406240305
0.00021436857165758037
0.00024085924937567468
0.0002414953244259799
0.0002421597636160706
0.00024263776894983304
0.00024280965346670032
0.00024263776894983325
0.0002421597636160695
0.0002414953244259774
0.00024085924937567002
0.0002671784377760223
0.00026822855770375635
0.00026920332866169853
0.00026986869391372004
0.0002701026027617367
0.0002698686939137186
0.00026920332866169625
0.0002682285577037547
0.0002671784377760206
0.0002932041878011103
0.0002949137807935876
0.0002963567822884264
0.0002972891413956587
0.0002976081236878939
0.00029728914139565675
0.0002963567822884234
0.00029491378079358555
0.0002932041878011091
0.000318793570310395
0.0003214902056876939
0.0003235649244867745
0.0003248205067294468
0.00032523470637271985
0.000324820506729446
0.000323564924486772
0.0003214902056876912
0.00031879357031039347
0.0003437778988224239
0.00034787709334659295
0.0003507026154530008
0.00035225854801434326
0.00035274208912672127
0.0003522585480143425
0.00035070261545299926
0.0003478770933465909
0.00034377789882242163
0.0003679961737839605
0.00037396679965398115
0.00037749797846581994
0.00037914496873040296
0.0003795959825417185
0.0003791449687304022
0.00037749797846581886
0.00037396679965397974
0.0003679961737839588
0.00039139522271314616
0.0003996192347195173
0.0004034003346975239
0.00040458623444002676
0.0004047812938056754
0.0004045862344400269
0.00040340033469752284
0.0003996192347195157
0.00039139522271314535
0.00041440159177656087
0.0004246992156700715
0.000427449009287192
0.0004272001069095285
0.0004268322979397297
0.0004272001069095284
0.0004274490092871919
0.0004246992156700711
0.0004144015917765605
0.0004380716133588406
0.00044846878852406434
0.00044757508557873623
0.0004450799975139685
0.00044414743024560915
0.00044507999751396794
0.0004475750855787363
0.0004484687885240648
0.00043807161335884104
0.0004680900023755974
0.00046998888217700583
0.000463504445215271
0.00046047148011026204
0.00045959568400154505
0.00046047148011026215
0.0004635044452152709
0.0004699888821770061
0.0004680900023755979
0.0004787746757947322
0.0004625658965925056
0.00045902617143385053
0.0004592350031058644
0.00045951084490515625
0.0004592350031058646
0.0004590261714338506
0.0004625658965925057
0.00047877467579473263
0.0003915796597011837
0.00036410794023553604
0.00036357258652776515
0.0003646290418299557
0.00036522533842032074
0.00036462904182995594
0.0003635725865277653
0.0003641079402355361
0.00039157965970118417
0.0002611471211845268
0.00023659051830216877
0.0002333464646454069
0.00023256691448788675
0.0002325110405461665
0.00023256691448788697
0.00023334646464540706
0.00023659051830216888
0.00026114712118452724
0.0001665040773669266
0.00014982431451908879
0.00014729089867622437
0.000146504512790482
0.00014637552384266236
0.00014650451279048205
0.00014729089867622443
0.00014982431451908892
0.00016650407736692704
8.122838262689306e-05
7.28258006039649e-05
7.150752569491368e-05
7.106616258531186e-05
7.098368738962145e-05
7.106616258531193e-05
7.150752569491377e-05
7.282580060396504e-05
8.122838262689344e-05
2.0197636152550352e-15
1.811501930447726e-15
1.7810629544551954e-15
1.7711645274335816e-15
1.7694823200003346e-15
1.7712797239144082e-15
1.7811357992886592e-15
1.8115730812152953e-15
2.0200482183253127e-15
-8.122838262293239e-05
-7.282580060038982e-05
-7.150752569139671e-05
-7.106616258181276e-05
-7.098368738612524e-05
-7.106616258181269e-05
-7.150752569139671e-05
-7.282580060038982e-05
-8.122838262293224e-05
-0.000166504077363343
-0.00014982431451578669
-0.000147290898672968
-0.00014650451278723614
-0.00014637552383941758
-0.00014650451278723617
-0.00014729089867296805
-0.00014982431451578674
-0.00016650407736334302
-0.00026114712118159274
-0.00023659051829933014
-0.0002333464646425826
-0.0002325669144850573
-0.00023251104054333426
-0.0002325669144850573
-0.00023334646464258257
-0.00023659051829933017
-0.0002611471211815929
-0.00039157965969928286
-0.0003641079402335333
-0.0003635725865257655
-0.00036462904182794773
-0.00036522533841831025
-0.00036462904182794746
-0.0003635725865257653
-0.0003641079402335332
-0.00039157965969928286
-0.0004214478564580727
-0.00029378558306900483
-0.00018660828187088912
-9.099293604155102e-05
2.159801878358694e-15
9.099293604577468e-05
0.00018660828187467378
0.00029378558307192805
0.0004214478564595887
-0.00040784096587855907
-0.00029754880265306106
-0.0001907256999518149
-9.306951469423893e-05
2.004771132088634e-15
9.306951469815345e-05
0.00019072569995527645
0.0002975488026555308
0.0004078409658795155
-0.0003804875977542001
-0.0002837062292284573
-0.00018658544982011512
-9.202506914061495e-05
1.7819370924567618e-15
9.202506914405133e-05
0.00018658544982301078
0.0002837062292303027
0.0003804875977547314
-0.00036080690390376746
-0.00026970860220814377
-0.0001793571334601542
-8.936479060949285e-05
1.5379069003527979e-15
8.936479061241137e-05
0.00017935713346249618
0.00026970860220951014
0.00036080690390399346
-0.0003421559885609964
-0.00025566288095872115
-0.0001703867692870748
-8.519563803461628e-05
1.2793585635328952e-15
8.519563803700898e-05
0.00017038676928890942
0.00025566288095966376
0.0003421559885608706
-0.0003230007831461078
-0.00024126948862291476
-0.00016073937650344514
-8.039575376342999e-05
1.0264684068006513e-15
8.039575376532016e-05
0.00016073937650480964
0.0002412694886234471
0.0003230007831456006
-0.00030279070886586167
-0.00022623211747240467
-0.0001506372328174605
-7.530977490766845e-05
7.853011860584069e-16
7.53097749090834e-05
0.0001506372328183843
0.00022623211747254649
0.000302790708864998
-0.0002815620273706518
-0.00021050391357553923
-0.00014013369016482353
-7.003290770967801e-05
5.679999656379997e-16
7.003290771066803e-05
0.0001401336901653612
0.0002105039135753526
0.0002815620273695157
-0.00025950511765402643
-0.00019415685796465008
-0.00012925779096141434
-6.458614263387122e-05
3.8082601308553343e-16
6.458614263449762e-05
0.00012925779096162798
0.0001941568579642017
0.00025950511765269275
-0.00023683140972781424
-0.00017730638458629018
-0.0001180512917083164
-5.897968739229633e-05
2.1780266392518177e-16
5.897968739260607e-05
0.00011805129170825015
0.00017730638458562014
0.0002368314097263187
-0.00021372093882960936
-0.00016006010947241048
-0.00010655209934738686
-5.32187232123903e-05
7.739848258830895e-17
5.321872321242753e-05
0.00010655209934708085
0.00016006010947155255
0.0002137209388279772
-0.00019031185604583294
-0.00014248770142219914
-9.476822284195773e-05
-4.7291261263584936e-05
-4.025100565352435e-17
4.729126126339268e-05
9.476822284144924e-05
0.000142487701421189
0.00019031185604410526
-0.00016670711776245364
-0.00012460082240498254
-8.265288487147553e-05
-4.115357814646681e-05
-1.3501027552875744e-16
4.115357814609284e-05
8.265288487081633e-05
0.00012460082240388414
0.00016670711776073334
-0.0001429900946356685
-0.00010633932475179392
-7.009073719941537e-05
-3.4725419447962275e-05
-1.957662547694139e-16
3.472541944747849e-05
7.00907371986876e-05
0.00010633932475070983
0.0001429900946340963
-0.00011924543474169157
-8.757426277467895e-05
-5.692625339652534e-05
-2.7921713144933412e-05
-2.193069944395054e-16
2.7921713144413998e-05
5.692625339580261e-05
8.757426277368181e-05
0.00011924543474034315
-9.558133837807867e-05
-6.818120154227848e-05
-4.3121803809951836e-05
-2.078189318960018e-05
-2.1041653662512427e-16
2.0781893189109117e-05
4.312180380928684e-05
6.818120154139528e-05
9.558133837696639e-05
-7.218183213860817e-05
-4.836025681574153e-05
-2.9235943950149668e-05
-1.3778616422216293e-05
-1.7027395118884847e-16
1.3778616421819312e-05
2.9235943949609084e-05
4.836025681501739e-05
7.218183213773951e-05
-4.949698329284797e-05
-2.9837917425471427e-05
-1.746300427842495e-05
-8.23183170686051e-06
-1.2037354620020313e-16
8.231831706590246e-06
1.746300427807199e-05
2.9837917424980608e-05
4.9496983292238e-05
-3.074886981709155e-05
-1.904233138061808e-05
-1.2451613176197988e-05
-6.286234168566089e-06
-1.0467971975347545e-16
6.286234168360416e-06
1.245161317599779e-05
1.90423313803814e-05
3.074886981677431e-05
-0.0004090473617539887
-0.00039259717473642976
-0.0003879027286800281
-0.0003872278583370275
-0.00038719774173695337
-0.0003872278583370271
-0.00038790272868002764
-0.0003925971747364297
-0.0004090473617539889
-0.0002832686190581672
-0.0002685362712312551
-0.00026309136818000387
-0.00026148353165534563
-0.0002611052143658641
-0.0002614835316553456
-0.0002630913681800038
-0.0002685362712312552
-0.0002832686190581673
-0.00017940526058434403
-0.0001691228274464063
-0.00016501647073096206
-0.0001636319834137852
-0.00016327444096066006
-0.00016363198341378532
-0.00016501647073096217
-0.0001691228274464064
-0.00017940526058434405
-8.7363901367208e-05
-8.216146749621085e-05
-8.003917107740413e-05
-7.929131893960088e-05
-7.909236402395045e-05
-7.929131893960088e-05
-8.003917107740422e-05
-8.216146749621092e-05
-8.736390136720788e-05
2.0687136492768612e-15
1.94099124522628e-15
1.8915414617655738e-15
1.8746905883128967e-15
1.870328368634537e-15
1.8748159491890903e-15
1.8916329413238772e-15
1.9410742544551107e-15
2.068966065095143e-15
8.736390137127132e-05
8.21614675000469e-05
8.003917108114985e-05
7.929131894331613e-05
7.909236402765788e-05
7.929131894331628e-05
8.003917108115004e-05
8.216146750004704e-05
8.736390137127166e-05
0.0001794052605880387
0.00016912282744996652
0.00016501647073446257
0.00016363198341726653
0.00016327444096413674
0.00016363198341726664
0.00016501647073446273
0.0001691228274499667
0.0001794052605880391
0.00028326861906111816
0.0002685362712342281
0.0002630913681829681
0.0002614835316583075
0.00026110521436882605
0.00026148353165830773
0.0002630913681829683
0.0002685362712342284
0.00028326861906111876
0.00040904736175565587
0.00039259717473826456
0.00038790272868187496
0.0003872278583388685
0.0003871977417387923
0.00038722785833886876
0.0003879027286818751
0.0003925971747382647
0.0004090473617556565
-0.00041381300115225393
-0.00041605983939141486
-0.0004104170713833329
-0.0004077094685616202
-0.00040691943671345516
-0.00040770946856161965
-0.00041041707138333235
-0.0004160598393914147
-0.00041381300115225404
-0.0003022913521503
-0.00030419195652364164
-0.0002997897381803386
-0.00029756536019006794
-0.000296901255419203
-0.00029756536019006784
-0.00029978973818033854
-0.00030419195652364175
-0.0003022913521503
-0.0001937207588415688
-0.0001946145224738543
-0.00019132089111434928
-0.0001896090602075628
-0.00018908956540281303
-0.000189609060207563
-0.00019132089111434955
-0.00019461452247385443
-0.00019372075884156877
-9.454975135311238e-05
-9.492901372027462e-05
-9.319450875454305e-05
-9.228141721728942e-05
-9.200185635405641e-05
-9.228141721728963e-05
-9.319450875454324e-05
-9.49290137202747e-05
-9.454975135311229e-05
2.0357200219154117e-15
2.041096987064582e-15
2.0008781686630533e-15
1.980435875514018e-15
1.974233900274222e-15
1.9803935238666553e-15
2.0008713923994753e-15
2.0411749140957294e-15
2.0359792139972716e-15
9.454975135709489e-05
9.492901372428419e-05
9.319450875848687e-05
9.228141722119845e-05
9.200185635795479e-05
9.228141722119862e-05
9.31945087584871e-05
9.49290137242844e-05
9.454975135709523e-05
0.00019372075884511544
0.00019461452247747667
0.00019132089111795035
0.00018960906021114714
0.00018908956540639188
0.00018960906021114752
0.00019132089111795086
0.000194614522477477
0.00019372075884511585
0.0003022913521528764
0.00030419195652635805
0.000299789738183091
0.00029756536019282323
0.0002969012554219579
0.00029756536019282366
0.00029978973818309154
0.00030419195652635854
0.000302291352152877
0.0004138130011533273
0.0004160598393926678
0.0004104170713846529
0.0004077094685629424
0.000406919436714775
0.0004077094685629426
0.00041041707138465307
0.0004160598393926682
0.00041381300115332794
-0.00038994788653568246
-0.0004005987842018338
-0.00040069341665801975
-0.0003988895962406543
-0.0003981817522517722
-0.0003988895962406543
-0.0004006934166580195
-0.0004005987842018333
-0.0003899478865356821
-0.0002916410529615931
-0.0003011145796287674
-0.0003021515577706116
-0.0003012495180576732
-0.00030084920313692975
-0.00030124951805767344
-0.0003021515577706117
-0.0003011145796287673
-0.0002916410529615927
-0.00019192230812769444
-0.0001983294309822969
-0.00019908870228127267
-0.00019851797488448986
-0.00019825824073575467
-0.00019851797488448997
-0.00019908870228127278
-0.00019832943098229693
-0.00019192230812769434
-9.468980585069299e-05
-9.786708896574427e-05
-9.82112041566863e-05
-9.790677404581627e-05
-9.777077514897766e-05
-9.79067740458164e-05
-9.821120415668639e-05
-9.786708896574427e-05
-9.468980585069288e-05
1.8339771026701715e-15
1.8960036313317094e-15
1.901372126151407e-15
1.8940791724755476e-15
1.8909468446366012e-15
1.893867414238734e-15
1.901214578023218e-15
1.8960612295721227e-15
1.834251541345082e-15
9.46898058542281e-05
9.786708896940342e-05
9.821120416036598e-05
9.790677404948775e-05
9.777077515264499e-05
9.79067740494878e-05
9.821120416036607e-05
9.786708896940365e-05
9.468980585422852e-05
0.000191922308130669
0.00019832943098538848
0.0001990887022844089
0.0001985179748876343
0.0001982582407389001
0.00019851797488763475
0.00019908870228440938
0.00019832943098538878
0.00019192230813066941
0.00029164105296347685
0.000301114579630739
0.00030215155777265154
0.0003012495180597383
0.00030084920313900026
0.0003012495180597386
0.0003021515577726519
0.0003011145796307393
0.00029164105296347717
0.00038994788653620596
0.000400598784202411
0.00040069341665868946
0.00039888959624136404
0.0003981817522524904
0.0003988895962413638
0.00040069341665868957
0.0004005987842024114
0.0003899478865362063
-0.0003682812925831136
-0.00037871055966927033
-0.00038213343162018566
-0.0003824350804849378
-0.0003822687358055861
-0.00038243508048493803
-0.00038213343162018555
-0.00037871055966926995
-0.00036828129258311304
-0.00027610754701258463
-0.00028549870792439404
-0.00028931992376833387
-0.0002902382176460739
-0.0002903275117872434
-0.0002902382176460743
-0.0002893199237683341
-0.00028549870792439393
-0.0002761075470125842
-0.0001837964994348495
-0.0001904321372233762
-0.00019332710627009816
-0.00019415436229881843
-0.00019428292109464852
-0.00019415436229881843
-0.00019332710627009827
-0.0001904321372233762
-0.0001837964994348492
-9.160887622522207e-05
-9.497928908735555e-05
-9.647845209058741e-05
-9.692823261426634e-05
-9.700517738111767e-05
-9.69282326142663e-05
-9.647845209058747e-05
-9.497928908735559e-05
-9.160887622522203e-05
1.576724726259568e-15
1.6351293420386465e-15
1.6609028605577003e-15
1.6682110608266104e-15
1.6692817104719399e-15
1.6681670151133532e-15
1.6608791436351772e-15
1.6352004928062158e-15
1.5768060414225044e-15
9.160887622820845e-05
9.497928909044813e-05
9.647845209373203e-05
9.692823261742828e-05
9.700517738428293e-05
9.692823261742827e-05
9.647845209373226e-05
9.497928909044857e-05
9.160887622820881e-05
0.0001837964994372273
0.0001904321372258226
0.0001933271062725936
0.0001941543623013367
0.00019428292109717265
0.0001941543623013366
0.00019332710627259378
0.00019043213722582303
0.00018379649943722767
0.00027610754701393295
0.0002854987079257444
0.00028931992376972414
0.0002902382176474937
0.00029032751178867204
0.00029023821764749346
0.0002893199237697238
0.0002854987079257443
0.000276107547013933
0.00036828129258326863
0.0003787105596693714
0.00038213343162033474
0.00038243508048513454
0.00038226873580579895
0.0003824350804851344
0.0003821334316203344
0.000378710559669371
0.0003682812925832683
-0.0003474390131308899
-0.00035568356244981754
-0.0003598474347026217
-0.0003613765861993711
-0.0003617033901923509
-0.00036137658619937117
-0.0003598474347026218
-0.00035568356244981765
-0.00034743901313088977
-0.00026020611456432344
-0.0002676276641878326
-0.00027186195344885695
-0.00027368282445759467
-0.0002741477222232146
-0.0002736828244575946
-0.0002718619534488572
-0.00026762766418783303
-0.00026020611456432376
-0.00017358679233400596
-0.0001789384806994964
-0.00018217247222493762
-0.0001836549799753985
-0.00018405516151897715
-0.00018365497997539868
-0.00018217247222493808
-0.00017893848069949671
-0.00017358679233400615
-8.683044080339192e-05
-8.95914017547841e-05
-9.130090026283357e-05
-9.210679751255876e-05
-9.232935443685087e-05
-9.210679751255898e-05
-9.130090026283392e-05
-8.959140175478445e-05
-8.683044080339218e-05
1.3043799167947873e-15
1.3463046595520861e-15
1.3723017947692151e-15
1.3843872608606395e-15
1.3876974656185093e-15
1.3843804845970614e-15
1.3721493288387093e-15
1.3460573259314879e-15
1.3041088662516659e-15
8.683044080582466e-05
8.959140175728611e-05
9.130090026538192e-05
9.210679751513008e-05
9.232935443942859e-05
9.210679751513012e-05
9.130090026538193e-05
8.959140175728613e-05
8.68304408058245e-05
0.00017358679233585008
0.00017893848070136436
0.000182172472226833
0.00018365497997731224
0.00018405516152089678
0.00018365497997731208
0.00018217247222683286
0.00017893848070136442
0.00017358679233584994
0.000260206114565228
0.0002676276641886919
0.00027186195344971705
0.00027368282445846875
0.0002741477222240952
0.00027368282445846843
0.0002718619534497164
0.00026762766418869134
0.00026020611456522766
0.00034743901313068
0.00035568356244950643
0.0003598474347023058
0.0003613765861990799
0.00036170339019207223
0.0003613765861990798
0.0003598474347023048
0.0003556835624495052
0.00034743901313067933
-0.00032652921182121925
-0.00033247156978143924
-0.00033619448639086807
-0.00033802888163519734
-0.00033855428955520525
-0.00033802888163519685
-0.0003361944863908685
-0.00033247156978143935
-0.0003265292118212192
-0.000244308186322765
-0.00024963835605590817
-0.0002532719927073477
-0.0002551924292070295
-0.0002557707010885637
-0.0002551924292070291
-0.00025327199270734765
-0.00024963835605590866
-0.00024430818632276575
-0.0001628952522096408
-0.00016677389387730046
-0.00016954980862387545
-0.00017107184984487884
-0.00017154074228077051
-0.0001710718498448789
-0.0001695498086238755
-0.00016677389387730098
-0.00016289525220964169
-8.150374744243563e-05
-8.35223639448906e-05
-8.500202821437553e-05
-8.582866763343361e-05
-8.608626560645548e-05
-8.582866763343398e-05
-8.500202821437591e-05
-8.352236394489106e-05
-8.150374744243631e-05
1.041565922052512e-15
1.0676172673782652e-15
1.086861855939883e-15
1.097500589757397e-15
1.100644776057605e-15
1.0972058222917525e-15
1.0864146225437327e-15
1.0670887188191785e-15
1.0408374737178733e-15
8.150374744434788e-05
8.352236394684122e-05
8.500202821635645e-05
8.582866763543205e-05
8.608626560845914e-05
8.582866763543181e-05
8.500202821635572e-05
8.352236394684032e-05
8.150374744434692e-05
0.00016289525221100325
0.00016677389387866038
0.0001695498086252415
0.00017107184984625214
0.00017154074228214653
0.0001710718498462517
0.0001695498086252403
0.00016677389387865916
0.00016289525221100212
0.00024430818632325825
0.00024963835605634006
0.000253271992707755
0.0002551924292074329
0.00025577070108896797
0.0002551924292074324
0.00025327199270775363
0.00024963835605633865
0.00024430818632325695
0.0003265292118206366
0.0003324715697807466
0.0003361944863901377
0.00033802888163446447
0.0003385542895544756
0.0003380288816344638
0.0003361944863901365
0.00033247156978074514
0.000326529211820635
-0.000305065047164017
-0.0003091236310325042
-0.0003120349597397097
-0.0003136835892863942
-0.00031420513569620353
-0.000313683589286394
-0.0003120349597397093
-0.0003091236310325042
-0.000305065047164018
-0.00022819241894300865
-0.00023181877455268662
-0.00023458957628910202
-0.00023622341054130476
-0.00023675249719616484
-0.0002362234105413046
-0.00023458957628910162
-0.00023181877455268684
-0.0002281924189430097
-0.00015203412498229692
-0.0001546834734860109
-0.00015679273016564116
-0.00015806764769672299
-0.00015848576488705087
-0.00015806764769672296
-0.00015679273016564103
-0.0001546834734860111
-0.00015203412498229781
-7.603011999083044e-05
-7.741518637539353e-05
-7.854259385894452e-05
-7.923343773758447e-05
-7.946159543407324e-05
-7.923343773758452e-05
-7.854259385894463e-05
-7.741518637539379e-05
-7.60301199908313e-05
7.942458539814123e-16
8.088283732013424e-16
8.209036748973997e-16
8.283507885696595e-16
8.306411656590351e-16
8.279916466000237e-16
8.204090076562032e-16
8.082320620064753e-16
7.93195533126817e-16
7.603011999225741e-05
7.741518637683885e-05
7.854259386040602e-05
7.923343773905668e-05
7.946159543554876e-05
7.923343773905578e-05
7.854259386040486e-05
7.741518637683755e-05
7.603011999225596e-05
0.00015203412498321502
0.00015468347348691577
0.00015679273016654035
0.00015806764769762152
0.0001584857648879493
0.00015806764769762022
0.00015679273016653845
0.00015468347348691382
0.0001520341249832133
0.0002281924189431186
0.0002318187745527385
0.0002345895762891206
0.0002362234105413099
0.0002367524971961663
0.00023622341054130866
0.00023458957628911875
0.00023181877455273644
0.00022819241894311666
0.00030506504716309573
0.00030912363103148603
0.0003120349597386417
0.0003136835892853083
0.0003142051356951136
0.0003136835892853074
0.0003120349597386401
0.00030912363103148397
0.00030506504716309356
-0.00028297973101404676
-0.0002856392178066841
-0.0002877457782782701
-0.0002890422264128899
-0.0002894738972251659
-0.00028904222641289146
-0.00028774577827827094
-0.00028563921780668514
-0.00028297973101404817
-0.00021172737588281577
-0.00021409571531169356
-0.00021606494396342256
-0.00021730913956651433
-0.0002177289836394773
-0.0002173091395665151
-0.00021606494396342316
-0.00021409571531169432
-0.00021172737588281702
-0.0001410088771614267
-0.0001427428345384907
-0.00014423467772344204
-0.0001451941383284035
-0.00014552052612887278
-0.00014519413832840376
-0.00014423467772344277
-0.00014274283453849135
-0.00014100887716142775
-7.048548185050805e-05
-7.139434857886909e-05
-7.219171353072477e-05
-7.27099021465861e-05
-7.288701839812094e-05
-7.270990214658615e-05
-7.21917135307254e-05
-7.139434857887005e-05
-7.048548185050938e-05
5.73570054299144e-16
5.811188119250743e-16
5.87745997704392e-16
5.922454367202068e-16
5.937294384437963e-16
5.918524134326808e-16
5.870209375015423e-16
5.799329657989183e-16
5.719640798311498e-16
7.048548185150522e-05
7.139434857987341e-05
7.219171353173641e-05
7.270990214760317e-05
7.28870183991396e-05
7.270990214760191e-05
7.219171353173501e-05
7.139434857987186e-05
7.048548185150322e-05
0.00014100887716195942
0.0001427428345390081
0.00014423467772394993
0.0001451941383289072
0.00014552052612937493
0.0001451941383289057
0.00014423467772394823
0.00014274283453900627
0.00014100887716195714
0.00021172737588260682
0.0002140957153114381
0.00021606494396313544
0.00021730913956621146
0.0002177289836391692
0.00021730913956621032
0.0002160649439631339
0.000214095715311436
0.00021172737588260438
0.0002829797310128703
0.0002856392178054335
0.0002877457782769722
0.0002890422264115696
0.00028947389722383846
0.0002890422264115688
0.0002877457782769702
0.00028563921780543094
0.00028297973101286823
-0.00026035736143139866
-0.00026203739862434817
-0.000263485732193634
-0.0002644316988237329
-0.0002647571253001212
-0.00026443169882373453
-0.00026348573219363595
-0.00026203739862434947
-0.00026035736143140045
-0.0001948938142989037
-0.0001963853372851016
-0.0001977188868396916
-0.00019860538501280967
-0.00019891290028328
-0.00019860538501281067
-0.00019771888683969247
-0.00019638533728510212
-0.00019489381429890518
-0.00012978754680220532
-0.0001308816029018094
-0.00013188641055824303
-0.00013256278814943777
-0.00013279865834300985
-0.00013256278814943842
-0.00013188641055824406
-0.00013088160290181073
-0.00012978754680220724
-6.486107618594415e-05
-6.543582295210433e-05
-6.597215817588921e-05
-6.633595955345654e-05
-6.646323892132419e-05
-6.633595955345738e-05
-6.597215817589057e-05
-6.543582295210628e-05
-6.486107618594647e-05
3.8462749695281073e-16
3.878936559974233e-16
3.9126823525928445e-16
3.936805850930647e-16
3.9418880486141727e-16
3.92759013246452e-16
3.8983166738074115e-16
3.860369597770419e-16
3.824184350263715e-16
6.486107618657562e-05
6.543582295273711e-05
6.597215817652431e-05
6.63359595540935e-05
6.646323892196119e-05
6.633595955409262e-05
6.597215817652273e-05
6.543582295273527e-05
6.486107618657345e-05
0.0001297875468024167
0.00013088160290200752
0.00013188641055843155
0.00013256278814962032
0.00013279865834319002
0.0001325627881496199
0.00013188641055843033
0.00013088160290200565
0.0001297875468024142
0.00019489381429844187
0.00019638533728460575
0.0001977188868391704
0.00019860538501227358
0.00019891290028273875
0.00019860538501227347
0.0001977188868391696
0.00019638533728460393
0.00019489381429843924
0.00026035736143003934
0.0002620373986229353
0.0002634857321921834
0.00026443169882226137
0.00026475712529864235
0.0002644316988222603
0.00026348573219218144
0.0002620373986229333
0.00026035736143003744
-0.00023732196297844224
-0.00023834876374382306
-0.00023931466379702046
-0.0002399784896931515
-0.00024021266305083408
-0.00023997848969315263
-0.00023931466379702193
-0.00023834876374382506
-0.0002373219629784457
-0.00017773222495574245
-0.0001786399957518321
-0.0001795137670863731
-0.0001801208767678097
-0.00018033614554133912
-0.00018012087676781075
-0.00017951376708637433
-0.00017863999575183382
-0.00017773222495574563
-0.00011836028918859576
-0.00011902817375668376
-0.00011968183939618072
-0.00012013931617758277
-0.00012030201440729388
-0.00012013931617758388
-0.00011968183939618232
-0.0001190281737566861
-0.00011836028918859871
-5.9141216224752765e-05
-5.949330554037984e-05
-5.9841368321857706e-05
-6.0086045400522236e-05
-6.0173220180877275e-05
-6.008604540052357e-05
-5.984136832185973e-05
-5.949330554038229e-05
-5.914121622475544e-05
2.2086553506245332e-16
2.222953266774186e-16
2.237996571917422e-16
2.2457892750321617e-16
2.2455859871248207e-16
2.2351505412146477e-16
2.2166513416466138e-16
2.1982876673501406e-16
2.1839219885647077e-16
5.914121622506701e-05
5.949330554069378e-05
5.984136832217141e-05
6.0086045400835395e-05
6.017322018118995e-05
6.008604540083534e-05
5.9841368322169976e-05
5.949330554069154e-05
5.914121622506485e-05
0.00011836028918853019
0.0001190281737566083
0.00011968183939609696
0.00012013931617749319
0.00012030201440720186
0.00012013931617749357
0.0001196818393960962
0.00011902817375660619
0.00011836028918852759
0.00017773222495506705
0.00017863999575113272
0.00017951376708565553
0.0001801208767670806
0.00018033614554060522
0.0001801208767670805
0.00017951376708565483
0.00017863999575113074
0.00017773222495506388
0.0002373219629769332
0.00023834876374227698
0.00023931466379544788
0.00023997848969156352
0.0002402126630492403
0.00023997848969156254
0.0002393146637954463
0.0002383487637422753
0.00023732196297693075
-0.00021398930635138972
-0.00021460450559745742
-0.0002152492335511942
-0.0002157150535130706
-0.0002158829772454943
-0.0002157150535130693
-0.00021524923355119448
-0.0002146045055974602
-0.00021398930635139286
-0.0001602955392062844
-0.00016083456346995098
-0.0001614004029370538
-0.0001618112011933151
-0.00016195975451226396
-0.00016181120119331525
-0.00016140040293705587
-0.0001608345634699546
-0.00016029553920628734
-0.0001067273890631901
-0.00010712691536834184
-0.00010754471398687941
-0.00010784802354179551
-0.00010795777106752146
-0.00010784802354179648
-0.00010754471398688169
-0.00010712691536834458
-0.00010672738906319199
-5.331219484603663e-05
-5.352457328519167e-05
-5.3745984663054795e-05
-5.390660120088963e-05
-5.3964713166367765e-05
-5.390660120088991e-05
-5.374598466305625e-05
-5.352457328519367e-05
-5.331219484603866e-05
8.095602096677701e-17
8.141680689008335e-17
8.141680689008335e-17
8.120674271916428e-17
8.131516293641283e-17
8.103055986613539e-17
8.018352691888109e-17
7.913320606428575e-17
7.798124125601991e-17
5.3312194846078935e-05
5.3524573285232916e-05
5.374598466309447e-05
5.390660120092785e-05
5.396471316640566e-05
5.390660120092784e-05
5.374598466309377e-05
5.352457328523071e-05
5.331219484607574e-05
0.00010672738906288581
0.00010712691536803062
0.00010754471398656174
0.00010784802354147323
0.00010795777106719712
0.00010784802354147312
0.00010754471398656125
0.00010712691536802883
0.00010672738906288264
0.00016029553920542594
0.00016083456346907728
0.00016140040293616725
0.0001618112011924198
0.0001619597545113652
0.00016181120119241889
0.000161400402936166
0.00016083456346907538
0.0001602955392054221
0.00021398930634975377
0.00021460450559579886
0.0002152492335495188
0.0002157150535113843
0.00021588297724380463
0.00021571505351138375
0.00021524923354951738
0.00021460450559579653
0.0002139893063497492
-0.00019045459462298757
-0.000190836222276912
-0.00019129444645445896
-0.00019164044599565645
-0.00019176711043607318
-0.00019164044599565515
-0.00019129444645445907
-0.00019083622227691432
-0.00019045459462299055
-0.00014261741730948644
-0.00014294464562555377
-0.00014332310675775492
-0.0001436090946419952
-0.0001437141338228126
-0.00014360909464199498
-0.00014332310675775595
-0.00014294464562555578
-0.00014261741730948817
-9.487258863729884e-05
-9.512013467585486e-05
-9.539184848058582e-05
-9.559475702814799e-05
-9.566913201419268e-05
-9.55947570281481e-05
-9.539184848058647e-05
-9.512013467585602e-05
-9.487258863730022e-05
-4.7350027295183053e-05
-4.748450059026343e-05
-4.76270138147648e-05
-4.7732293493655224e-05
-4.7770767211524195e-05
-4.773229349365523e-05
-4.7627013814764975e-05
-4.748450059026438e-05
-4.7350027295185005e-05
-3.6713796065790394e-17
-3.6991622872489804e-17
-3.7533723958732557e-17
-3.813681141717762e-17
-3.8868647883605334e-17
-3.853661096828165e-17
-3.8008062409194965e-17
-3.8563716022593786e-17
-3.9654694458657325e-17
4.7350027294997235e-05
4.748450059007603e-05
4.762701381457553e-05
4.773229349346424e-05
4.777076721133148e-05
4.773229349346301e-05
4.76270138145745e-05
4.7484500590073945e-05
4.735002729499337e-05
9.487258863679466e-05
9.512013467534618e-05
9.539184848007289e-05
9.559475702763189e-05
9.566913201367454e-05
9.559475702763029e-05
9.539184848007156e-05
9.512013467534436e-05
9.487258863679078e-05
0.00014261741730847927
0.00014294464562453852
0.00014332310675673209
0.00014360909464096705
0.00014371413382178208
0.0001436090946409652
0.00014332310675672992
0.00014294464562453608
0.00014261741730847515
0.0001904545946212644
0.0001908362222751784
0.00019129444645271627
0.0001916404459939065
0.00019176711043432078
0.00019164044599390563
0.00019129444645271367
0.00019083622227517445
0.0001904545946212587
-0.00016679690167040434
-0.0001670826671397306
-0.0001674623830104568
-0.00016775177721749972
-0.00016785743711519153
-0.00016775177721750075
-0.00016746238301045777
-0.00016708266713973168
-0.00016679690167040542
-0.00012469017233727786
-0.0001249258603864013
-0.00012520850037449924
-0.00012542395304873286
-0.00012550310385169608
-0.00012542395304873357
-0.00012520850037449946
-0.0001249258603864014
-0.00012469017233727856
-8.273683966127462e-05
-8.292313158589625e-05
-8.311565168684742e-05
-8.325779485245964e-05
-8.330975505194146e-05
-8.325779485245953e-05
-8.311565168684685e-05
-8.292313158589617e-05
-8.273683966127587e-05
-4.1205184296845196e-05
-4.131067427527138e-05
-4.14097700973492e-05
-4.14806927940029e-05
-4.1506403496625284e-05
-4.148069279400342e-05
-4.14097700973496e-05
-4.1310674275272026e-05
-4.120518429684648e-05
-1.3284864744736447e-16
-1.3250983426846275e-16
-1.3322134194415636e-16
-1.3454271334187307e-16
-1.3525422101756668e-16
-1.3472567245848e-16
-1.3410225620930083e-16
-1.3406837489141066e-16
-1.345698183961852e-16
4.1205184296476534e-05
4.1310674274902706e-05
4.1409770096978675e-05
4.1480692793629914e-05
4.1506403496250774e-05
4.148069279362982e-05
4.140977009697792e-05
4.131067427490109e-05
4.120518429647395e-05
8.273683966062226e-05
8.292313158524256e-05
8.311565168619097e-05
8.325779485180129e-05
8.330975505128202e-05
8.325779485180042e-05
8.311565168618975e-05
8.292313158524069e-05
8.27368396606186e-05
0.0001246901723361871
0.0001249258603853087
0.00012520850037340333
0.00012542395304763495
0.0001255031038505973
0.0001254239530476342
0.0001252085003734012
0.00012492586038530517
0.00012469017233618157
0.00016679690166869287
0.00016708266713801728
0.00016746238300874105
0.00016775177721578164
0.0001678574371134721
0.00016775177721578056
0.00016746238300873823
0.000167082667138013
0.00016679690166868593
-0.00014309291451224294
-0.00014340072364223984
-0.00014378343945986919
-0.00014405824451560071
-0.0001441553230071266
-0.00014405824451560023
-0.00014378343945986718
-0.00014340072364223735
-0.00014309291451224132
-0.00010644900513939005
-0.00010669550007072286
-0.00010694798380771366
-0.00010712736718397023
-0.000107191081366972
-0.00010712736718396915
-0.00010694798380771106
-0.00010669550007072042
-0.00010644900513938956
-7.020272366318063e-05
-7.04067296192034e-05
-7.056811540411239e-05
-7.067489106551806e-05
-7.071230043427046e-05
-7.06748910655172e-05
-7.056811540411123e-05
-7.040672961920261e-05
-7.02027236631812e-05
-3.47966792357518e-05
-3.491648403289883e-05
-3.499811188650091e-05
-3.504844475245674e-05
-3.506569477416651e-05
-3.504844475245689e-05
-3.499811188650152e-05
-3.491648403289968e-05
-3.479667923575293e-05
-1.936385080059111e-16
-1.9370627064169144e-16
-1.9443810710811915e-16
-1.9530546884610755e-16
-1.9531902137326362e-16
-1.953325739004197e-16
-1.955494143349168e-16
-1.954342178540902e-16
-1.9552230928060466e-16
3.47966792352728e-05
3.491648403242006e-05
3.499811188602049e-05
3.5048444751975015e-05
3.506569477368534e-05
3.504844475197598e-05
3.499811188602001e-05
3.491648403241829e-05
3.4796679235270504e-05
7.020272366246012e-05
7.040672961848443e-05
7.056811540339164e-05
7.067489106479639e-05
7.071230043354974e-05
7.06748910647974e-05
7.056811540339137e-05
7.040672961848216e-05
7.020272366245681e-05
0.00010644900513831571
0.00010669550006965134
0.00010694798380664079
0.0001071273671828959
0.00010719108136589766
0.00010712736718289628
0.00010694798380663976
0.00010669550006964744
0.00010644900513830991
0.00014309291451068142
0.00014340072364068184
0.00014378343945831287
0.00014405824451404353
0.0001441553230055683
0.00014405824451404272
0.0001437834394583107
0.00014340072364067696
0.00014309291451067302
-0.00011943518331358359
-0.00011987559057824915
-0.00012030954130842276
-0.00012058375583600241
-0.00012067467832618106
-0.00012058375583600067
-0.00012030954130841967
-0.00011987559057824584
-0.0001194351833135824
-8.777190143277705e-05
-8.812667668608331e-05
-8.838963608481061e-05
-8.854680457011447e-05
-8.859815025189687e-05
-8.854680457011279e-05
-8.838963608480735e-05
-8.812667668608038e-05
-8.777190143277711e-05
-5.711957448985099e-05
-5.741838290153494e-05
-5.7582452193992244e-05
-5.7667543465373224e-05
-5.769405276265238e-05
-5.7667543465371544e-05
-5.7582452193989805e-05
-5.7418382901533666e-05
-5.71195744898521e-05
-2.804179173758299e-05
-2.8218737544910406e-05
-2.8302838726925356e-05
-2.8341371653842838e-05
-2.835267061342082e-05
-2.834137165384227e-05
-2.830283872692453e-05
-2.8218737544910853e-05
-2.8041791737584888e-05
-2.1732832547471936e-16
-2.1849384281014128e-16
-2.1833121248426846e-16
-2.1746385074628005e-16
-2.1766713865362108e-16
-2.1898173378775976e-16
-2.1964580761840713e-16
-2.1982199047143602e-16
-2.1963225509125106e-16
2.8041791737068726e-05
2.8218737544394732e-05
2.830283872640971e-05
2.834137165332852e-05
2.8352670612906625e-05
2.834137165332619e-05
2.830283872640689e-05
2.821873754439255e-05
2.8041791737065907e-05
5.711957448913609e-05
5.741838290082132e-05
5.7582452193277836e-05
5.76675434646583e-05
5.7694052761937404e-05
5.76675434646567e-05
5.7582452193275045e-05
5.741838290081809e-05
5.711957448913257e-05
8.777190143179021e-05
8.812667668510037e-05
8.838963608382642e-05
8.854680456912769e-05
8.859815025090862e-05
8.854680456912687e-05
8.838963608382485e-05
8.812667668509658e-05
8.777190143178544e-05
0.00011943518331224894
0.00011987559057692208
0.00012030954130709727
0.00012058375583467442
0.00012067467832485189
0.00012058375583467486
0.00012030954130709629
0.00011987559057691672
0.0001194351833122408
-9.594547847281785e-05
-9.661642779648666e-05
-9.710340518857353e-05
-9.736322992635416e-05
-9.744288650097473e-05
-9.736322992635193e-05
-9.710340518857222e-05
-9.661642779648622e-05
-9.594547847281839e-05
-6.854450824319831e-05
-6.910345887980828e-05
-6.939629445843642e-05
-6.953197617528395e-05
-6.957046624918978e-05
-6.953197617528227e-05
-6.93962944584355e-05
-6.910345887980871e-05
-6.854450824320021e-05
-4.3455065329634385e-05
-4.39283453402875e-05
-4.412383198625471e-05
-4.419795119046707e-05
-4.42166022396797e-05
-4.4197951190465935e-05
-4.412383198625341e-05
-4.392834534028739e-05
-4.3455065329636174e-05
-2.0982186624886155e-05
-2.1261227291915932e-05
-2.1367696570000344e-05
-2.1403554571986394e-05
-2.141169052762895e-05
-2.1403554571985622e-05
-2.136769656999934e-05
-2.1261227291915742e-05
-2.0982186624887754e-05
-2.0991509312034973e-16
-2.1342519765377155e-16
-2.133574350179912e-16
-2.1194797219376005e-16
-2.1169047417779474e-16
-2.128830965675288e-16
-2.1376401083267327e-16
-2.133574350179912e-16
-2.1164981659632653e-16
2.0982186624398223e-05
2.126122729142384e-05
2.1367696569508563e-05
2.140355457149597e-05
2.1411690527137913e-05
2.1403554571492473e-05
2.1367696569504904e-05
2.1261227291421577e-05
2.0982186624395323e-05
4.345506532897836e-05
4.392834533963256e-05
4.4123831985599634e-05
4.4197951189810534e-05
4.4216602239021156e-05
4.419795118980663e-05
4.41238319855944e-05
4.3928345339627924e-05
4.345506532897359e-05
6.854450824232998e-05
6.91034588789446e-05
6.93962944575715e-05
6.9531976174416e-05
6.957046624832042e-05
6.953197617441415e-05
6.939629445756884e-05
6.910345887894091e-05
6.854450824232396e-05
9.594547847172459e-05
9.661642779540153e-05
9.710340518748797e-05
9.736322992526578e-05
9.744288649988662e-05
9.736322992526632e-05
9.710340518748759e-05
9.661642779539817e-05
9.594547847171657e-05
-7.279557602024405e-05
-7.374798407472127e-05
-7.42512561358487e-05
-7.448526156115257e-05
-7.455465909816884e-05
-7.448526156115094e-05
-7.42512561358468e-05
-7.374798407472067e-05
-7.27955760202447e-05
-4.8965185881226525e-05
-4.981862175086225e-05
-5.016329167235482e-05
-5.0293743227586925e-05
-5.032803166547491e-05
-5.0293743227584865e-05
-5.016329167235374e-05
-4.981862175086328e-05
-4.89651858812281e-05
-2.9767580263797096e-05
-3.050012567428029e-05
-3.076980084144813e-05
-3.086025411050579e-05
-3.088194130922904e-05
-3.086025411050511e-05
-3.0769800841448376e-05
-3.0500125674281457e-05
-2.9767580263798696e-05
-1.4090248162956041e-05
-1.4520395191254277e-05
-1.46788123412457e-05
-1.4730720225321334e-05
-1.4742726246961456e-05
-1.4730720225321158e-05
-1.4678812341245592e-05
-1.4520395191254317e-05
-1.4090248162957383e-05
-1.717782817031721e-16
-1.7806665430358803e-16
-1.801672960127787e-16
-1.806009768817729e-16
-1.8093979006067462e-16
-1.809533425878307e-16
-1.8065518699039718e-16
-1.7875783318854754e-16
-1.7370274055933388e-16
1.4090248162559454e-05
1.4520395190849774e-05
1.467881234083861e-05
1.4730720224912834e-05
1.4742726246551479e-05
1.4730720224910814e-05
1.4678812340835221e-05
1.4520395190845654e-05
1.4090248162555456e-05
2.9767580263265133e-05
3.0500125673748815e-05
3.076980084091655e-05
3.086025410997274e-05
3.0881941308694746e-05
3.086025410997052e-05
3.076980084091243e-05
3.050012567374315e-05
2.976758026325871e-05
4.896518588051903e-05
4.9818621750160285e-05
5.016329167165302e-05
5.029374322688447e-05
5.0328031664772404e-05
5.0293743226883006e-05
5.016329167165085e-05
4.9818621750156e-05
4.89651858805109e-05
7.279557601939593e-05
7.37479840738796e-05
7.425125613500595e-05
7.448526156030857e-05
7.455465909732436e-05
7.448526156030716e-05
7.425125613500357e-05
7.374798407387543e-05
7.279557601938671e-05
-5.0353754747356244e-05
-5.157013635561053e-05
-5.211218653948784e-05
-5.238322259975561e-05
-5.2471818629891854e-05
-5.2383222599754306e-05
-5.211218653948459e-05
-5.15701363556089e-05
-5.035375474735657e-05
-3.0734412655196235e-05
-3.196653370215926e-05
-3.244899891930044e-05
-3.265958848130691e-05
-3.272333864341064e-05
-3.2659588481305556e-05
-3.24489989192987e-05
-3.196653370215888e-05
-3.073441265519629e-05
-1.824288500319149e-05
-1.9324259718935113e-05
-1.9752427294282717e-05
-1.9930888506006244e-05
-1.9982676133357405e-05
-1.9930888506004835e-05
-1.975242729428155e-05
-1.9324259718935492e-05
-1.8242885003192765e-05
-8.678983704065281e-06
-9.308446992013512e-06
-9.56709703778865e-06
-9.673875709881332e-06
-9.704315626940491e-06
-9.673875709879977e-06
-9.56709703778697e-06
-9.308446992013539e-06
-8.67898370406669e-06
-1.2588942475272313e-16
-1.342919915894858e-16
-1.3926576905576304e-16
-1.4264034831762418e-16
-1.432366595124912e-16
-1.4140706834642192e-16
-1.3896761345832953e-16
-1.3575566452234122e-16
-1.2700073197952078e-16
8.678983703788796e-06
9.308446991723366e-06
9.56709703749139e-06
9.673875709579802e-06
9.70431562663823e-06
9.673875709580358e-06
9.567097037490387e-06
9.30844699172033e-06
8.678983703786167e-06
1.8242885002841674e-05
1.9324259718581067e-05
1.9752427293927614e-05
1.9930888505650788e-05
1.9982676133002084e-05
1.9930888505650056e-05
1.9752427293925472e-05
1.9324259718577028e-05
1.824288500283666e-05
3.0734412654718536e-05
3.196653370168655e-05
3.244899891882957e-05
3.265958848083734e-05
3.272333864294113e-05
3.265958848083534e-05
3.244899891882561e-05
3.1966533701680315e-05
3.073441265471008e-05
5.035375474676671e-05
5.157013635502582e-05
5.2112186538902264e-05
5.238322259917144e-05
5.247181862930747e-05
5.2383222599168187e-05
5.211218653889695e-05
5.157013635501823e-05
5.035375474675516e-05
-3.179074820112548e-05
-3.333500680947671e-05
-3.415311416764147e-05
-3.463451707297284e-05
-3.480019284445642e-05
-3.463451707297219e-05
-3.4153114167641144e-05
-3.333500680947703e-05
-3.1790748201125695e-05
-2.0261422493330944e-05
-2.2030152170881125e-05
-2.2882979198198114e-05
-2.3328311294308016e-05
-2.34704549279383e-05
-2.33283112943078e-05
-2.288297919819741e-05
-2.2030152170880637e-05
-2.026142249333089e-05
-1.3505965749965702e-05
-1.5046209401075477e-05
-1.5787507807502092e-05
-1.615703201192752e-05
-1.627114888726766e-05
-1.6157032011925975e-05
-1.5787507807499734e-05
-1.504620940107442e-05
-1.3505965749965973e-05
-6.873741854347064e-06
-7.745300131875463e-06
-8.176302199948399e-06
-8.387854374743126e-06
-8.452455073211502e-06
-8.38785437474131e-06
-8.17630219994699e-06
-7.745300131875219e-06
-6.873741854347145e-06
-1.1442398677868892e-16
-1.2900650599861896e-16
-1.3749038799831803e-16
-1.4259969073615597e-16
-1.425048230460635e-16
-1.398891853049422e-16
-1.36501053515925e-16
-1.2895229588999468e-16
-1.1413938370841148e-16
6.873741854125927e-06
7.745300131628143e-06
8.176302199686578e-06
8.387854374475166e-06
8.452455072944693e-06
8.387854374478039e-06
8.176302199689464e-06
7.745300131629037e-06
6.873741854124965e-06
1.3505965749760653e-05
1.5046209400856008e-05
1.5787507807275847e-05
1.6157032011700678e-05
1.6271148887042093e-05
1.6157032011700678e-05
1.5787507807276524e-05
1.5046209400854408e-05
1.3505965749756614e-05
2.0261422493102828e-05
2.2030152170654093e-05
2.288297919797195e-05
2.3328311294082828e-05
2.3470454927712787e-05
2.3328311294080117e-05
2.288297919796718e-05
2.2030152170647533e-05
2.026142249309524e-05
3.1790748200825805e-05
3.3335006809183105e-05
3.415311416734917e-05
3.463451707268238e-05
3.480019284416661e-05
3.463451707267924e-05
3.415311416734375e-05
3.333500680917541e-05
3.179074820081518e-05

SCALARS STRAIN_YY float 1
LOOKUP_TABLE default
9.449559989151512e-05
2.5603639338921125e-05
-2.560363933901827e-05
-9.449559989210897e-05
9.449559989151517e-05
2.5603639338928064e-05
-2.560363933901133e-05
-9.449559989210918e-05
0.00013228281740644175
0.00015875568738011348
0.00014343315605259554
0.00013543188692646932
0.0001277185356768762
0.00012017310764612281
0.000112390656655434
0.0001043476238575731
9.60725938131536e-05
8.761506348379253e-05
7.902004090147357e-05
7.032375445980947e-05
6.155615795466751e-05
5.275044368835066e-05
4.396532799697938e-05
3.5323322842228944e-05
2.719635954830709e-05
2.038167450684608e-05
2.1516538400595878e-05
3.1492225623626705e-05
3.6465338914749845e-05
2.9959270317856182e-05
1.648612921202261e-05
2.723515857283587e-16
-1.6486129211547296e-05
-2.995927031759424e-05
-3.646533891476719e-05
-3.1492225623751605e-05
-2.151653840061149e-05
-2.0381674506689956e-05
-2.719635954800178e-05
-3.532332284180654e-05
-4.396532799644248e-05
-5.275044368771315e-05
-6.155615795397015e-05
-7.0323754459103e-05
-7.902004090078836e-05
-8.761506348314201e-05
-9.607259381254687e-05
-0.0001043476238570258
-0.0001123906566549808
-0.00012017310764579235
-0.00012771853567666793
-0.00013543188692637402
-0.0001434331560525769
-0.00015875568738041518
-0.00013228281740703887
-6.880932559096502e-05
-3.2200516035013924e-05
-1.580496605019133e-05
-6.716412972744095e-06
-2.1213262537626149e-16
6.716412972270448e-06
1.5804966049577634e-05
3.2200516034195894e-05
6.880932559020224e-05
0.0001322828174064418
0.0001587556873801135
0.00014343315605259575
0.00013543188692646975
0.00012771853567687685
0.0001201731076461239
0.00011239065665543508
0.0001043476238575744
9.607259381315446e-05
8.76150634837921e-05
7.902004090147357e-05
7.032375445980904e-05
6.155615795466751e-05
5.275044368835153e-05
4.396532799698198e-05
3.532332284223241e-05
2.7196359548306223e-05
2.038167450684608e-05
2.1516538400601082e-05
3.1492225623626705e-05
3.646533891474464e-05
2.9959270317852713e-05
1.6486129212027814e-05
2.8622937353617317e-16
-1.6486129211535153e-05
-2.995927031758383e-05
-3.646533891474811e-05
-3.149222562373426e-05
-2.1516538400606286e-05
-2.0381674506686487e-05
-2.7196359548000912e-05
-3.532332284180914e-05
-4.3965327996445085e-05
-5.2750443687712284e-05
-6.155615795396668e-05
-7.032375445909953e-05
-7.902004090078575e-05
-8.761506348314158e-05
-9.607259381254774e-05
-0.0001043476238570258
-0.00011239065665498015
-0.00012017310764579235
-0.00012771853567666825
-0.00013543188692637413
-0.00014343315605257716
-0.00015875568738041567
-0.0001322828174070392
-6.880932559096524e-05
-3.220051603501409e-05
-1.580496605019142e-05
-6.716412972744141e-06
-2.1213093131036698e-16
6.716412972270482e-06
1.5804966049577667e-05
3.220051603419599e-05
6.880932559020235e-05
9.63488299946509e-05
0.00010080170545179549
0.00010469947532210096
0.00010664697855483998
0.00010729635727128237
0.00010664697855483984
0.00010469947532210066
0.00010080170545179534
9.634882999465092e-05
2.6120694874459324e-05
2.6190576803230767e-05
2.5206211366143177e-05
2.435734267653561e-05
2.404566581724714e-05
2.4357342676530405e-05
2.5206211366141443e-05
2.6190576803230767e-05
2.612069487446106e-05
-2.6120694874558203e-05
-2.6190576803322707e-05
-2.520621136621777e-05
-2.435734267660153e-05
-2.4045665817314793e-05
-2.4357342676599794e-05
-2.5206211366212566e-05
-2.6190576803315768e-05
-2.6120694874551265e-05
-9.634882999526207e-05
-0.00010080170545244436
-0.00010469947532278296
-0.0001066469785555407
-0.00010729635727198898
-0.00010664697855554072
-0.00010469947532278311
-0.0001008017054524445
-9.634882999526224e-05
0.00010246213887224959
5.582311090174429e-05
2.934091127708371e-05
1.2845344293330587e-05
-3.363373015968958e-16
-1.284534429407147e-05
-2.9340911277995867e-05
-5.582311090282528e-05
-0.00010246213887312152
0.00013375226457264838
8.733534250982893e-05
5.0544323435878106e-05
2.3098665715613814e-05
-5.220026884703022e-16
-2.309866571672252e-05
-5.054432343709809e-05
-8.733534251099422e-05
-0.00013375226457333124
0.0001279672535842162
9.456860336683082e-05
6.007832092180758e-05
2.8783690771798986e-05
-5.819726211359066e-16
-2.878369077297376e-05
-6.007832092291898e-05
-9.456860336763849e-05
-0.00012796725358449595
0.00012100016812088393
9.152312383082844e-05
6.0947429231908776e-05
3.0202330874490627e-05
-5.432937086324863e-16
-3.0202330875538997e-05
-6.094742923278161e-05
-9.152312383134848e-05
-0.00012100016812098855
0.00011399192500465423
8.636621565422602e-05
5.813290720040694e-05
2.921231906943887e-05
-4.588343593958655e-16
-2.9212319070297016e-05
-5.8132907201062446e-05
-8.636621565455855e-05
-0.00011399192500462642
0.0001070385039036309
8.08039655141922e-05
5.434161491029517e-05
2.7351741462349312e-05
-3.6353298843438964e-16
-2.7351741463014145e-05
-5.434161491076701e-05
-8.080396551437316e-05
-0.00010703850390347608
9.998666794768288e-05
7.52288634359886e-05
5.0415899212987434e-05
2.5327720475519424e-05
-2.690989792109022e-16
-2.53277204759994e-05
-5.041589921329188e-05
-7.522886343602775e-05
-9.998666794740186e-05
9.277804538793707e-05
6.966091473497443e-05
4.6546493362331414e-05
2.333204690886919e-05
-1.8659119388475531e-16
-2.3332046909190873e-05
-4.6546493362496755e-05
-6.966091473489724e-05
-9.277804538755598e-05
8.540474950487036e-05
6.405666535689897e-05
4.271768700958296e-05
2.1376765975539324e-05
-1.209969624493823e-16
-2.137676597573643e-05
-4.271768700964194e-05
-6.405666535673786e-05
-8.540474950442301e-05
7.788221177403541e-05
5.83769629816397e-05
3.8873913441057634e-05
1.9427201777639548e-05
-6.526897078362737e-17
-1.9427201777729103e-05
-3.887391344102424e-05
-5.8376962981409415e-05
-7.788221177353755e-05
7.022947648167204e-05
5.259034124028509e-05
3.495716388794766e-05
1.7440899944035386e-05
-1.734723475976807e-17
-1.7440899944030832e-05
-3.4957163887831865e-05
-5.2590341239991704e-05
-7.022947648112994e-05
6.24573476080228e-05
4.665727316500979e-05
3.090077308249314e-05
1.53690424315523e-05
2.3852447794681098e-17
-1.536904243146578e-05
-3.0900773082302756e-05
-4.6657273164657856e-05
-6.245734760744535e-05
5.456186412510465e-05
4.0512885238099764e-05
2.6614864497988278e-05
1.3150117996138435e-05
6.071532165918825e-17
-1.3150117995979708e-05
-2.661486449773154e-05
-4.051288523770121e-05
-5.4561864124516146e-05
4.652533658291817e-05
3.4062578913960674e-05
2.1990691703508217e-05
1.0718117956466048e-05
7.892991815694472e-17
-1.0718117956272193e-05
-2.1990691703220686e-05
-3.406257891355345e-05
-4.6525336582364796e-05
3.833758523929306e-05
2.7225663866385554e-05
1.697543699525142e-05
8.062508044196209e-06
7.719519468096792e-17
-8.062508044007557e-06
-1.69754369949756e-05
-2.7225663866008252e-05
-3.833758523881167e-05
3.0079752403843352e-05
2.0130209062927708e-05
1.1833168345409383e-05
5.411821783484448e-06
6.418476861114186e-17
-5.411821783325287e-06
-1.1833168345175196e-05
-2.0130209062604616e-05
-3.007975240344827e-05
2.2253014787723853e-05
1.3739473562599316e-05
7.82182623845426e-06
3.6127293677043135e-06
4.85722573273506e-17
-3.6127293675889544e-06
-7.821826238295967e-06
-1.3739473562376838e-05
-2.2253014787440226e-05
1.6885020364849467e-05
1.1749971511122118e-05
8.4302729949008e-06
4.572143554078777e-06
6.938893903907228e-17
-4.572143553959948e-06
-8.430272994827941e-06
-1.1749971511061403e-05
-1.6885020364734108e-05
2.335475077821711e-05
2.4521447075898442e-05
2.023578144998931e-05
1.127228761898906e-05
1.8388068845354155e-16
-1.1272287618679412e-05
-2.0235781449840992e-05
-2.4521447075924463e-05
-2.3354750778273488e-05
0.00013574318551416115
0.00014271034928480824
0.00014819462305011588
0.00015112245397099085
0.0001520728067894858
0.00015112245397099058
0.0001481946230501155
0.000142710349284808
0.0001357431855141611
0.00016409950852572475
0.00017341797281841289
0.00017995323137714715
0.0001837247074626172
0.00018493556813642975
0.00018372470746261664
0.00017995323137714634
0.00017341797281841232
0.00016409950852572458
0.00014828229653074295
0.00015640126469885143
0.00016190029445581667
0.00016522156806140934
0.0001663136395999978
0.00016522156806140888
0.0001619002944558155
0.00015640126469885045
0.00014828229653074282
0.00013886114723578357
0.00014488704888574654
0.0001492521634281863
0.0001519191361198963
0.00015281763560981556
0.00015191913611989615
0.00014925216342818537
0.00014488704888574632
0.00013886114723578405
0.00013002133196322435
0.00013417548893708932
0.0001373546108146268
0.00013936386524933446
0.0001400453584940219
0.00013936386524933462
0.0001373546108146267
0.00013417548893709046
0.00013002133196322565
0.00012167208663415208
0.00012442897185287432
0.00012662552532511392
0.00012805757882759187
0.00012855098508852308
0.00012805757882759143
0.00012662552532511392
0.0001244289718528754
0.00012167208663415338
0.00011334761030449615
0.00011512599308641073
0.00011658216809100786
0.0001175573704832063
0.00011789782700365951
0.000117557370483205
0.00011658216809100721
0.00011512599308641149
0.00011334761030449734
0.00010494963621458559
0.00010607011025923815
0.0001070016986893694
0.00010764040459744582
0.00010786598376303128
0.00010764040459744603
0.00010700169868936918
0.00010607011025923793
0.00010494963621458624
9.644740733208575e-05
9.713838649916197e-05
9.771422582323928e-05
9.811803072200492e-05
9.826216194483688e-05
9.81180307220047e-05
9.771422582323885e-05
9.713838649916024e-05
9.64474073320851e-05
8.784686260218254e-05
8.826449027819045e-05
8.86082944925291e-05
8.885545432930496e-05
8.894463850935854e-05
8.885545432930323e-05
8.86082944925291e-05
8.826449027819002e-05
8.784686260218167e-05
7.916314773201579e-05
7.941182785990513e-05
7.961127666452814e-05
7.975918138915174e-05
7.981321060649793e-05
7.975918138914979e-05
7.961127666452879e-05
7.941182785990621e-05
7.916314773201579e-05
7.041414298656094e-05
7.056534681529466e-05
7.068308227558282e-05
7.077331790027175e-05
7.080663336665391e-05
7.077331790026958e-05
7.068308227558195e-05
7.05653468152951e-05
7.041414298656072e-05
6.16219181329143e-05
6.173143048757504e-05
6.181544845632742e-05
6.187884210669429e-05
6.190196996472361e-05
6.187884210669516e-05
6.181544845632698e-05
6.173143048757634e-05
6.162191813291603e-05
5.282291081648788e-05
5.294764315051789e-05
5.303930784069039e-05
5.309896641249399e-05
5.3119225500019174e-05
5.309896641249789e-05
5.303930784069126e-05
5.294764315051702e-05
5.282291081648918e-05
4.409247552307569e-05
4.430670878890087e-05
4.444288402162544e-05
4.4512569853131286e-05
4.453316619164099e-05
4.451256985313085e-05
4.444288402162197e-05
4.430670878889653e-05
4.4092475523076127e-05
3.5583695327446284e-05
3.5987188878909386e-05
3.618811146871787e-05
3.626209395630369e-05
3.627827492032635e-05
3.626209395629935e-05
3.618811146871006e-05
3.5987188878905917e-05
3.558369532744845e-05
2.7691209575670447e-05
2.83774691383948e-05
2.8606287178523614e-05
2.8635149480368566e-05
2.8626603277445272e-05
2.8635149480363796e-05
2.860628717851624e-05
2.83774691383909e-05
2.7691209575669146e-05
2.1112807605068538e-05
2.1990421041098197e-05
2.2069152650055785e-05
2.1923449440406414e-05
2.1845494959604056e-05
2.1923449440401643e-05
2.2069152650053183e-05
2.1990421041094728e-05
2.1112807605065502e-05
2.2186977774160677e-05
2.2676416326698062e-05
2.2151592335703692e-05
2.158823834572804e-05
2.136870752571674e-05
2.1588238345723702e-05
2.2151592335703692e-05
2.2676416326697195e-05
2.2186977774160677e-05
3.2376276112872776e-05
3.270920301417894e-05
3.1527134783148995e-05
3.0539565279593534e-05
3.0182940419128113e-05
3.05395652795918e-05
3.152713478314726e-05
3.270920301417547e-05
3.237627611286931e-05
3.792381394919324e-05
3.883417800730569e-05
3.7577800646197354e-05
3.646371569124198e-05
3.605789712106573e-05
3.646371569124285e-05
3.757780064619475e-05
3.8834178007300484e-05
3.792381394918717e-05
3.144075284129428e-05
3.262511220153679e-05
3.1755414322211586e-05
3.0831560674158404e-05
3.0480281742237443e-05
3.083156067415927e-05
3.175541432220812e-05
3.2625112201535925e-05
3.144075284129341e-05
1.7372588440690145e-05
1.816973605499924e-05
1.7778143697480542e-05
1.727761894800093e-05
1.7079374941680707e-05
1.7277618948000062e-05
1.777814369748401e-05
1.816973605500618e-05
1.7372588440696217e-05
2.905661822261152e-16
3.1051550219984847e-16
3.1051550219984847e-16
3.0791341698588326e-16
3.0270924655795284e-16
3.0617869350990645e-16
3.191891195797325e-16
3.217912047936977e-16
3.0270924655795284e-16
-1.737258844018274e-05
-1.8169736054458874e-05
-1.7778143696946247e-05
-1.727761894747791e-05
-1.7079374941164627e-05
-1.7277618947478778e-05
-1.7778143696946247e-05
-1.816973605445974e-05
-1.7372588440176667e-05
-3.144075284101759e-05
-3.262511220124883e-05
-3.17554143219349e-05
-3.083156067389646e-05
-3.0480281741979837e-05
-3.083156067389993e-05
-3.1755414321939235e-05
-3.262511220124796e-05
-3.144075284101065e-05
-3.792381394921319e-05
-3.883417800733171e-05
-3.7577800646226844e-05
-3.6463715691274073e-05
-3.605789712109956e-05
-3.646371569127841e-05
-3.7577800646223375e-05
-3.883417800731263e-05
-3.7923813949191504e-05
-3.237627611300201e-05
-3.2709203014309046e-05
-3.152713478326869e-05
-3.053956527970542e-05
-3.0182940419240002e-05
-3.053956527970629e-05
-3.152713478326175e-05
-3.2709203014293434e-05
-3.2376276112984666e-05
-2.218697777417976e-05
-2.2676416326714542e-05
-2.2151592335706294e-05
-2.1588238345721968e-05
-2.136870752571067e-05
-2.158823834571763e-05
-2.215159233570109e-05
-2.2676416326711073e-05
-2.218697777417629e-05
-2.111280760492152e-05
-2.199042104095812e-05
-2.20691526499079e-05
-2.1923449440250722e-05
-2.1845494959446196e-05
-2.1923449440245085e-05
-2.206915264990313e-05
-2.1990421040955083e-05
-2.1112807604918484e-05
-2.769120957537728e-05
-2.837746913811291e-05
-2.860628717823695e-05
-2.8635149480078e-05
-2.8626603277154272e-05
-2.8635149480075832e-05
-2.8606287178235216e-05
-2.8377469138110307e-05
-2.7691209575374676e-05
-3.558369532703255e-05
-3.5987188878503894e-05
-3.618811146831021e-05
-3.626209395589603e-05
-3.6278274919921295e-05
-3.6262093955896895e-05
-3.6188111468311076e-05
-3.598718887850606e-05
-3.558369532703559e-05
-4.40924755225427e-05
-4.4306708788372645e-05
-4.444288402110025e-05
-4.45125698526074e-05
-4.453316619111754e-05
-4.451256985260957e-05
-4.444288402110112e-05
-4.4306708788373946e-05
-4.4092475522545735e-05
-5.282291081585254e-05
-5.2947643149886016e-05
-5.3039307840061986e-05
-5.3098966411865584e-05
-5.31192254993873e-05
-5.3098966411865584e-05
-5.3039307840060685e-05
-5.2947643149884715e-05
-5.2822910815852105e-05
-6.162191813222084e-05
-6.173143048688462e-05
-6.181544845563309e-05
-6.187884210599476e-05
-6.190196996402279e-05
-6.187884210599607e-05
-6.181544845563006e-05
-6.173143048688028e-05
-6.162191813221737e-05
-7.041414298585556e-05
-7.056534681458776e-05
-7.068308227486724e-05
-7.077331789954533e-05
-7.08066333659275e-05
-7.077331789954924e-05
-7.068308227486291e-05
-7.056534681458017e-05
-7.041414298585057e-05
-7.916314773132515e-05
-7.941182785920495e-05
-7.961127666381799e-05
-7.975918138842988e-05
-7.981321060577238e-05
-7.975918138842858e-05
-7.961127666381235e-05
-7.941182785919888e-05
-7.916314773132147e-05
-8.784686260152248e-05
-8.826449027751239e-05
-8.860829449183587e-05
-8.885545432860066e-05
-8.89446385086499e-05
-8.88554543285972e-05
-8.86082944918324e-05
-8.826449027751e-05
-8.784686260152139e-05
-9.64474073314645e-05
-9.713838649851275e-05
-9.771422582256729e-05
-9.811803072131906e-05
-9.826216194414646e-05
-9.811803072131797e-05
-9.771422582256577e-05
-9.71383864985121e-05
-9.644740733146515e-05
-0.00010494963621401714
-0.00010607011025862915
-0.00010700169868872798
-0.00010764040459678445
-0.00010786598376236276
-0.00010764040459678402
-0.0001070016986887269
-0.00010607011025862839
-0.00010494963621401703
-0.00011334761030401303
-0.00011512599308587167
-0.00011658216809042488
-0.00011755737048259579
-0.00011789782700304
-0.00011755737048259535
-0.0001165821680904238
-0.0001151259930858708
-0.00011334761030401238
-0.0001216720866337815
-0.00012442897185243197
-0.00012662552532461812
-0.00012805757882706343
-0.0001285509850879838
-0.00012805757882706267
-0.00012662552532461714
-0.00012442897185243164
-0.0001216720866337815
-0.00013002133196296864
-0.00013417548893675116
-0.00013735461081423102
-0.00013936386524890523
-0.0001400453584935811
-0.00013936386524890436
-0.00013735461081423026
-0.0001341754889367511
-0.0001300213319629689
-0.00013886114723564034
-0.00014488704888552346
-0.00014925216342791112
-0.00015191913611959176
-0.00015281763560950147
-0.00015191913611959133
-0.00014925216342791058
-0.00014488704888552357
-0.00013886114723564067
-0.00014828229653069262
-0.0001564012646987451
-0.00016190029445567252
-0.00016522156806124646
-0.00016631363959982972
-0.00016522156806124646
-0.0001619002944556726
-0.00015640126469874537
-0.00014828229653069295
-0.00016409950852602564
-0.00017341797281870792
-0.00017995323137743767
-0.00018372470746290956
-0.00018493556813672362
-0.0001837247074629099
-0.0001799532313774381
-0.00017341797281870817
-0.00016409950852602594
-0.0001357431855147749
-0.00014271034928545388
-0.00014819462305078814
-0.0001511224539716801
-0.0001520728067901808
-0.00015112245397168035
-0.00014819462305078846
-0.00014271034928545407
-0.0001357431855147751
-6.993671663448162e-05
-7.266222322617095e-05
-7.511839721569021e-05
-7.638836864639768e-05
-7.68002816357586e-05
-7.638836864639771e-05
-7.511839721569035e-05
-7.266222322617109e-05
-6.993671663448178e-05
-3.246723925498331e-05
-3.3179660259463696e-05
-3.393314843693674e-05
-3.437526127734796e-05
-3.4509583724797114e-05
-3.437526127734798e-05
-3.393314843693683e-05
-3.3179660259463804e-05
-3.2467239254983446e-05
-1.5875556350886326e-05
-1.615766911812754e-05
-1.6525805323258497e-05
-1.675791629149865e-05
-1.683341352115407e-05
-1.6757916291498655e-05
-1.6525805323258507e-05
-1.6157669118127545e-05
-1.5875556350886367e-05
-6.71960236740665e-06
-6.803334000529964e-06
-6.960168702521331e-06
-7.07485251562485e-06
-7.1132438651977645e-06
-7.07485251562484e-06
-6.9601687025213005e-06
-6.803334000529947e-06
-6.719602367406673e-06
-2.0875381094966408e-16
-2.063456962806201e-16
-2.0864623776536279e-16
-2.107756785947601e-16
-2.116023827512803e-16
-2.1080955991265027e-16
-2.0864115556767926e-16
-2.063440022147256e-16
-2.0876312831208388e-16
6.719602366938846e-06
6.803334000064587e-06
6.960168702049474e-06
7.074852515148204e-06
7.113243864719381e-06
7.074852515148211e-06
6.960168702049529e-06
6.80333400006463e-06
6.719602366938868e-06
1.5875556350275724e-05
1.615766911751326e-05
1.6525805322632512e-05
1.675791629086538e-05
1.6833413520518473e-05
1.6757916290865454e-05
1.6525805322632577e-05
1.615766911751331e-05
1.5875556350275768e-05
3.246723925416124e-05
3.31796602586205e-05
3.393314843606654e-05
3.4375261276463324e-05
3.450958372390799e-05
3.4375261276463344e-05
3.3933148436066554e-05
3.3179660258620545e-05
3.246723925416133e-05
6.993671663370552e-05
7.266222322535857e-05
7.511839721484178e-05
7.63883686455301e-05
7.6800281634885e-05
7.638836864553002e-05
7.511839721484163e-05
7.26622232253585e-05
6.993671663370557e-05
0.00010246213887224969
5.58231109017444e-05
2.934091127708372e-05
1.2845344293330631e-05
-3.3629579698248036e-16
-1.2845344294071566e-05
-2.934091127799605e-05
-5.5823110902825576e-05
-0.00010246213887312187
0.00013375226457264846
8.733534250982908e-05
5.054432343587811e-05
2.309866571561387e-05
-5.219484783616779e-16
-2.309866571672269e-05
-5.0544323437098294e-05
-8.733534251099452e-05
-0.00013375226457333167
0.00012796725358421628
9.4568603366831e-05
6.00783209218077e-05
2.878369077179904e-05
-5.819048585001263e-16
-2.878369077297391e-05
-6.007832092291905e-05
-9.456860336763838e-05
-0.00012796725358449597
0.00012100016812088414
9.152312383082866e-05
6.094742923190894e-05
3.020233087449071e-05
-5.429684479807406e-16
-3.0202330875538726e-05
-6.0947429232781504e-05
-9.152312383134796e-05
-0.00012100016812098812
0.00011399192500465493
8.636621565422635e-05
5.813290720040699e-05
2.921231906943925e-05
-4.581296279837499e-16
-2.921231907029615e-05
-5.813290720106147e-05
-8.636621565455736e-05
-0.00011399192500462593
0.00010703850390363198
8.080396551419285e-05
5.434161491029571e-05
2.735174146235007e-05
-3.6266562669640123e-16
-2.7351741463012952e-05
-5.4341614910765603e-05
-8.080396551437175e-05
-0.00010703850390347542
9.998666794768353e-05
7.522886343598937e-05
5.041589921298863e-05
2.532772047552029e-05
-2.6812319725566525e-16
-2.5327720475998208e-05
-5.04158992132909e-05
-7.522886343602623e-05
-9.998666794740045e-05
9.277804538793805e-05
6.966091473497519e-05
4.654649336233228e-05
2.3332046908870058e-05
-1.8518173106052416e-16
-2.3332046909189247e-05
-4.654649336249502e-05
-6.966091473489518e-05
-9.2778045387555e-05
8.540474950487166e-05
6.405666535689984e-05
4.271768700958383e-05
2.1376765975541275e-05
-1.1904539853890839e-16
-2.1376765975734697e-05
-4.2717687009638256e-05
-6.405666535673439e-05
-8.54047495044228e-05
7.788221177403606e-05
5.837696298164035e-05
3.8873913441058285e-05
1.9427201777641716e-05
-6.375108774214766e-17
-1.9427201777728453e-05
-3.887391344102164e-05
-5.837696298140573e-05
-7.788221177353581e-05
7.022947648167225e-05
5.259034124028379e-05
3.495716388794657e-05
1.744089994403582e-05
-1.5829351718288365e-17
-1.7440899944028664e-05
-3.495716388783035e-05
-5.259034123999062e-05
-7.022947648112842e-05
6.245734760802193e-05
4.665727316500567e-05
3.0900773082489456e-05
1.5369042431550347e-05
2.45029690981724e-17
-1.536904243146101e-05
-3.090077308229712e-05
-4.66572731646546e-05
-6.245734760744362e-05
5.456186412510335e-05
4.051288523809456e-05
2.661486449798264e-05
1.3150117996133664e-05
5.898059818321144e-17
-1.3150117995977106e-05
-2.6614864497726768e-05
-4.0512885237693405e-05
-5.4561864124510074e-05
4.652533658291817e-05
3.406257891395764e-05
2.1990691703503012e-05
1.0718117956460844e-05
7.762887554996212e-17
-1.0718117956270892e-05
-2.1990691703220686e-05
-3.4062578913548244e-05
-4.652533658235916e-05
3.833758523929479e-05
2.7225663866384253e-05
1.697543699524795e-05
8.062508044194474e-06
7.806255641895632e-17
-8.062508044006256e-06
-1.6975436994974297e-05
-2.722566386600565e-05
-3.833758523881124e-05
3.007975240384552e-05
2.013020906292554e-05
1.1833168345406781e-05
5.411821783485749e-06
6.635317295611287e-17
-5.411821783324854e-06
-1.1833168345171292e-05
-2.0130209062598978e-05
-3.007975240344827e-05
2.225301478772342e-05
1.3739473562595847e-05
7.821826238452526e-06
3.6127293677073492e-06
4.9439619065339e-17
-3.6127293675876533e-06
-7.821826238289028e-06
-1.3739473562365562e-05
-2.225301478743372e-05
1.6885020364848166e-05
1.1749971511118215e-05
8.430272994901233e-06
4.572143554083547e-06
6.895525817007808e-17
-4.572143553957346e-06
-8.430272994815365e-06
-1.1749971511042755e-05
-1.688502036472153e-05
2.335475077821711e-05
2.4521447075894105e-05
2.0235781449988444e-05
1.1272287618994264e-05
1.9081958235744878e-16
-1.1272287618671606e-05
-2.0235781449827982e-05
-2.4521447075903646e-05
-2.3354750778257875e-05
0.00010479578094231094
0.00010955665843881223
0.00011341229756253924
0.00011551244395632869
0.00011618418665283106
0.00011551244395632854
0.000113412297562539
0.00010955665843881208
0.00010479578094231097
5.659881744107495e-05
5.8376160331303164e-05
6.0047231605229776e-05
6.1022545120527534e-05
6.132842371279631e-05
6.1022545120527656e-05
6.0047231605229796e-05
5.8376160331303164e-05
5.659881744107504e-05
2.9542201798968008e-05
3.0214835403477853e-05
3.1041409195280934e-05
3.156919880131531e-05
3.174175769817221e-05
3.156919880131547e-05
3.104140919528111e-05
3.0214835403477947e-05
2.954220179896804e-05
1.2875804921825291e-05
1.3087932919986843e-05
1.3434309230501926e-05
1.3683532509734859e-05
1.376804684811955e-05
1.368353250973489e-05
1.3434309230502035e-05
1.3087932919986938e-05
1.2875804921825337e-05
-3.3440394889478788e-16
-3.348329710825722e-16
-3.401574201890127e-16
-3.4486099414511584e-16
-3.465889413575146e-16
-3.448508297497488e-16
-3.40168431617327e-16
-3.3484906470857e-16
-3.343916669170527e-16
-1.2875804922564361e-05
-1.3087932920731488e-05
-1.3434309231260839e-05
-1.3683532510504306e-05
-1.3768046848892644e-05
-1.368353251050428e-05
-1.343430923126081e-05
-1.308793292073147e-05
-1.2875804922564407e-05
-2.954220179988495e-05
-3.0214835404413187e-05
-3.104140919623989e-05
-3.15691988022889e-05
-3.17417576991504e-05
-3.1569198802288964e-05
-3.1041409196239924e-05
-3.0214835404413194e-05
-2.954220179988504e-05
-5.6598817442172467e-05
-5.8376160332442355e-05
-6.004723160640954e-05
-6.10225451217297e-05
-6.132842371400538e-05
-6.102254512172973e-05
-6.004723160640968e-05
-5.837616033244257e-05
-5.6598817442172724e-05
-0.00010479578094320305
-0.00010955665843974872
-0.00011341229756351493
-0.00011551244395732647
-0.00011618418665383593
-0.00011551244395732655
-0.00011341229756351516
-0.00010955665843974896
-0.00010479578094320334
0.00013771114530940855
0.00014491931938789973
0.00015025088205918504
0.00015331587751344988
0.00015429860363816027
0.00015331587751344958
0.00015025088205918458
0.00014491931938789937
0.0001377111453094085
8.901888786787843e-05
9.262674783210267e-05
9.583051393592468e-05
9.77174474740206e-05
9.832492951446941e-05
9.771744747402086e-05
9.583051393592471e-05
9.262674783210262e-05
8.901888786787852e-05
5.10332019408659e-05
5.248111045120833e-05
5.4172953416943385e-05
5.526739693124755e-05
5.562902748517141e-05
5.526739693124779e-05
5.417295341694357e-05
5.248111045120845e-05
5.1033201940865964e-05
2.3203446501043832e-05
2.368684009980462e-05
2.4399907393481054e-05
2.4908902189539797e-05
2.5083442505252862e-05
2.4908902189539824e-05
2.4399907393481257e-05
2.3686840099804856e-05
2.3203446501043934e-05
-5.218671631987415e-16
-5.274711331777759e-16
-5.391398590591512e-16
-5.484030113703242e-16
-5.516420653606247e-16
-5.481997234629832e-16
-5.389772287332784e-16
-5.274067586737846e-16
-5.218298937490623e-16
-2.3203446502156227e-05
-2.368684010093628e-05
-2.4399907394641685e-05
-2.4908902190720913e-05
-2.5083442506441026e-05
-2.4908902190720798e-05
-2.439990739464159e-05
-2.3686840100936255e-05
-2.320344650215632e-05
-5.103320194210152e-05
-5.248111045248368e-05
-5.41729534182599e-05
-5.526739693258932e-05
-5.5629027486521304e-05
-5.526739693258946e-05
-5.417295341825997e-05
-5.248111045248368e-05
-5.103320194210164e-05
-8.901888786907254e-05
-9.262674783335539e-05
-9.58305139372261e-05
-9.771744747534978e-05
-9.832492951580732e-05
-9.771744747535e-05
-9.583051393722642e-05
-9.262674783335571e-05
-8.901888786907287e-05
-0.00013771114531010802
-0.0001449193193886288
-0.0001502508820599367
-0.00015331587751421616
-0.00015429860363893173
-0.00015331587751421646
-0.00015025088205993713
-0.00014491931938862912
-0.0001377111453101084
0.0001318397367358097
0.0001387323434724241
0.00014376865371803113
0.00014676963846823297
0.00014775443655784868
0.00014676963846823294
0.00014376865371803084
0.00013873234347242373
0.00013183973673580964
9.655817958355311e-05
0.00010076704366591696
0.00010450265267939788
0.0001067617190959021
0.00010750446436456719
0.0001067617190959025
0.00010450265267939806
0.00010076704366591707
9.655817958355329e-05
6.077315209812265e-05
6.269765232449756e-05
6.4881908383507e-05
6.63183547328026e-05
6.68002140731488e-05
6.631835473280274e-05
6.488190838350687e-05
6.269765232449753e-05
6.0773152098122755e-05
2.89644091947435e-05
2.9654176446703654e-05
3.060956627462023e-05
3.129215158661899e-05
3.1528395899716764e-05
3.129215158661896e-05
3.060956627462041e-05
2.9654176446703803e-05
2.8964409194743515e-05
-5.825418272764615e-16
-5.908224213688196e-16
-6.059334891478363e-16
-6.17304059431778e-16
-6.212885024156622e-16
-6.171549816330613e-16
-6.055675709146224e-16
-5.906191334614785e-16
-5.825079459585714e-16
-2.896440919592362e-05
-2.965417644790793e-05
-3.060956627585907e-05
-3.1292151587882097e-05
-3.15283959009884e-05
-3.129215158788203e-05
-3.060956627585907e-05
-2.9654176447908e-05
-2.8964409195923736e-05
-6.07731520992497e-05
-6.269765232566327e-05
-6.488190838471206e-05
-6.631835473403252e-05
-6.680021407438704e-05
-6.631835473403269e-05
-6.488190838471229e-05
-6.269765232566327e-05
-6.077315209924967e-05
-9.655817958437873e-05
-0.00010076704366677669
-0.00010450265268028487
-0.00010676171909680564
-0.00010750446436547604
-0.00010676171909680592
-0.00010450265268028509
-0.00010076704366677664
-9.65581795843786e-05
-0.0001318397367360807
-0.00013873234347267844
-0.00014376865371827389
-0.00014676963846847095
-0.0001477544365580856
-0.00014676963846847112
-0.00014376865371827408
-0.0001387323434726786
-0.0001318397367360808
0.00012385718423837377
0.000129147372638819
0.00013324685623425893
0.00013575282094826737
0.00013659247434979143
0.00013575282094826743
0.0001332468562342587
0.0001291473726388191
0.0001238571842383741
9.318429217786196e-05
9.675324011473396e-05
0.0001000300771074969
0.00010208856200220195
0.00010277798949398265
0.0001020885620022022
0.00010003007710749712
9.67532401147341e-05
9.318429217786213e-05
6.163991412670335e-05
6.350464288860477e-05
6.560848346991524e-05
6.702239939930318e-05
6.750471861448763e-05
6.702239939930318e-05
6.560848346991497e-05
6.350464288860453e-05
6.163991412670333e-05
3.0412628435242937e-05
3.1141375268633936e-05
3.211540351547731e-05
3.281547872186112e-05
3.305997495404008e-05
3.2815478721860686e-05
3.211540351547707e-05
3.114137526863384e-05
3.0412628435242856e-05
-5.4421528047909895e-16
-5.518589057951218e-16
-5.651945925166935e-16
-5.754403030466815e-16
-5.792621157046929e-16
-5.757113535898029e-16
-5.651674874623813e-16
-5.517640381050293e-16
-5.440662026803822e-16
-3.0412628436295806e-05
-3.114137526970605e-05
-3.21154035165771e-05
-3.281547872298121e-05
-3.30599749551677e-05
-3.281547872298137e-05
-3.211540351657748e-05
-3.1141375269706266e-05
-3.041262843629567e-05
-6.163991412758473e-05
-6.350464288950729e-05
-6.560848347084006e-05
-6.702239940024334e-05
-6.750471861543327e-05
-6.702239940024356e-05
-6.560848347084036e-05
-6.350464288950705e-05
-6.163991412758438e-05
-9.318429217838219e-05
-9.675324011525362e-05
-0.00010003007710801635
-0.00010208856200272234
-0.0001027779894945032
-0.0001020885620027221
-0.00010003007710801597
-9.6753240115253e-05
-9.318429217838158e-05
-0.00012385718423844967
-0.00012914737263884486
-0.00013324685623425055
-0.00013575282094823997
-0.00013659247434975766
-0.0001357528209482395
-0.00013324685623425
-0.00012914737263884478
-0.00012385718423844956
0.00011594747611427128
0.00011964975321834801
0.00012265926279475146
0.00012457006508160372
0.0001252180837865124
0.00012457006508160355
0.0001226592627947511
0.00011964975321834855
0.00011594747611427217
8.757740545950609e-05
9.020888278187631e-05
9.269873668867642e-05
9.432212932825937e-05
9.487595557813229e-05
9.432212932825921e-05
9.269873668867637e-05
9.02088827818762e-05
8.757740545950612e-05
5.869607165027551e-05
6.019277895729969e-05
6.188784358559846e-05
6.305316299438032e-05
6.345696063201893e-05
6.305316299438013e-05
6.188784358559829e-05
6.019277895729931e-05
5.869607165027521e-05
2.940526840841364e-05
3.00365270122275e-05
3.086217885623759e-05
3.1460356526996104e-05
3.167119161858332e-05
3.146035652699532e-05
3.086217885623702e-05
3.0036527012227364e-05
2.9405268408413775e-05
-4.595119857536689e-16
-4.6485168145316e-16
-4.742029251908475e-16
-4.815212898551247e-16
-4.842046902320263e-16
-4.816026050180611e-16
-4.742029251908475e-16
-4.647161561815993e-16
-4.590511998303626e-16
-2.9405268409273737e-05
-3.0036527013098304e-05
-3.0862178857125254e-05
-3.146035652789664e-05
-3.1671191619488874e-05
-3.146035652789656e-05
-3.086217885712523e-05
-3.003652701309817e-05
-2.9405268409273168e-05
-5.869607165093229e-05
-6.019277895796078e-05
-6.188784358626573e-05
-6.305316299505282e-05
-6.345696063269366e-05
-6.305316299505296e-05
-6.188784358626567e-05
-6.01927789579601e-05
-5.869607165093126e-05
-8.757740545982905e-05
-9.020888278217908e-05
-9.269873668896214e-05
-9.432212932853566e-05
-9.487595557840559e-05
-9.432212932853555e-05
-9.269873668896176e-05
-9.020888278217807e-05
-8.757740545982777e-05
-0.00011594747611421018
-0.00011964975321822655
-0.00012265926279458547
-0.0001245700650814119
-0.00012521808378631192
-0.00012457006508141157
-0.0001226592627945849
-0.00011964975321822604
-0.00011594747611420975
0.0001083287790343767
0.00011080029165672724
0.00011287322487185496
0.00011423450778618019
0.00011470409497698242
0.0001142345077861797
0.00011287322487185431
0.00011080029165672729
0.00010832877903437746
8.163785671527963e-05
8.344694182725213e-05
8.518451838814255e-05
8.635220203730398e-05
8.675750303645995e-05
8.635220203730343e-05
8.51845183881418e-05
8.344694182725154e-05
8.163785671527968e-05
5.47567863442737e-05
5.5842632969978255e-05
5.707079289924604e-05
5.792983948267605e-05
5.823140132856414e-05
5.7929839482675615e-05
5.707079289924544e-05
5.5842632969977605e-05
5.475678634427365e-05
2.750496756106e-05
2.7985667560413588e-05
2.860441823409422e-05
2.9056135712495835e-05
2.92165764178595e-05
2.9056135712495347e-05
2.860441823409368e-05
2.7985667560412992e-05
2.7504967561060053e-05
-3.6347877832576536e-16
-3.65972443322482e-16
-3.71285033967661e-16
-3.754592123317302e-16
-3.7686867515596134e-16
-3.7535079211448164e-16
-3.710139834245396e-16
-3.6570139277936065e-16
-3.629366772395226e-16
-2.7504967561724507e-05
-2.7985667561081402e-05
-2.860441823476968e-05
-2.9056135713177635e-05
-2.9216576418543525e-05
-2.905613571317693e-05
-2.8604418234768703e-05
-2.798566756107994e-05
-2.7504967561723043e-05
-5.475678634474278e-05
-5.584263297044186e-05
-5.707079289970612e-05
-5.792983948313526e-05
-5.8231401329023296e-05
-5.792983948313488e-05
-5.707079289970547e-05
-5.5842632970440397e-05
-5.4756786344741046e-05
-8.16378567154479e-05
-8.344694182739411e-05
-8.518451838826203e-05
-8.635220203741061e-05
-8.675750303656295e-05
-8.635220203741131e-05
-8.518451838826236e-05
-8.344694182739292e-05
-8.163785671544616e-05
-0.00010832877903419163
-0.00011080029165648627
-0.00011287322487157063
-0.00011423450778586973
-0.00011470409497666377
-0.00011423450778587016
-0.00011287322487157046
-0.00011080029165648524
-0.00010832877903419066
0.00010081951906904739
0.00010241763460409144
0.00010378136072430752
0.00010470218947268778
0.00010502455651453108
0.00010470218947268638
0.00010378136072430606
0.00010241763460409106
0.00010081951906904782
7.578557538119623e-05
7.697822186670096e-05
7.812408765637744e-05
7.891119722635887e-05
7.918837554696039e-05
7.891119722635735e-05
7.81240876563757e-05
7.697822186669972e-05
7.578557538119612e-05
5.070726387725131e-05
5.145057046475386e-05
5.22812994787924e-05
5.2867983997849084e-05
5.307588142610558e-05
5.2867983997848e-05
5.228129947879083e-05
5.145057046475256e-05
5.070726387725142e-05
2.5440606408272772e-05
2.57800424960627e-05
2.6208221096688867e-05
2.6521758696548836e-05
2.6633667850819054e-05
2.652175869654824e-05
2.6208221096688e-05
2.5780042496061832e-05
2.5440606408272772e-05
-2.683942477987866e-16
-2.6850266801603517e-16
-2.7072528246963046e-16
-2.7273105648872864e-16
-2.732731575749714e-16
-2.7251421605423154e-16
-2.704000218178848e-16
-2.681774073642895e-16
-2.677437264952953e-16
-2.544060640875123e-05
-2.578004249653991e-05
-2.6208221097167976e-05
-2.65217586970306e-05
-2.663366785130147e-05
-2.6521758697029354e-05
-2.6208221097166512e-05
-2.5780042496537797e-05
-2.544060640874928e-05
-5.070726387755174e-05
-5.1450570465045946e-05
-5.228129947907771e-05
-5.286798399813114e-05
-5.3075881426386986e-05
-5.286798399813065e-05
-5.2281299479076517e-05
-5.145057046504383e-05
-5.0707263877550006e-05
-7.57855753812235e-05
-7.697822186670465e-05
-7.81240876563608e-05
-7.89111972263297e-05
-7.918837554692798e-05
-7.891119722633019e-05
-7.81240876563609e-05
-7.69782218667034e-05
-7.578557538122176e-05
-0.00010081951906874273
-0.00010241763460374221
-0.00010378136072392247
-0.00010470218947228034
-0.00010502455651411664
-0.00010470218947228034
-0.00010378136072392198
-0.00010241763460374091
-0.00010081951906874115
9.330800321394046e-05
9.431508312570351e-05
9.517721002779751e-05
9.5773756472269e-05
9.598529810040594e-05
9.577375647226835e-05
9.517721002779664e-05
9.431508312570313e-05
9.3308003213941e-05
7.002685956014127e-05
7.079051078779318e-05
7.151251290920445e-05
7.201635228734214e-05
7.219589594655295e-05
7.201635228734068e-05
7.151251290920326e-05
7.079051078779232e-05
7.002685956014121e-05
4.6746307729162264e-05
4.7237897704946507e-05
4.77730574174364e-05
4.8151233602732393e-05
4.828602568449119e-05
4.815123360273104e-05
4.777305741743537e-05
4.723789770494564e-05
4.674630772916221e-05
2.341234639134719e-05
2.364191329508607e-05
2.3922746344459277e-05
2.412742601780966e-05
2.4200540063047606e-05
2.412742601780939e-05
2.3922746344459222e-05
2.364191329508672e-05
2.3412346391348167e-05
-1.861575130157611e-16
-1.8534436138639698e-16
-1.8577804225539118e-16
-1.8718750507962234e-16
-1.8702487475374951e-16
-1.857238321467669e-16
-1.8480226030015423e-16
-1.8382647834491728e-16
-1.842059491052872e-16
-2.341234639166714e-05
-2.3641913295402656e-05
-2.3922746344775267e-05
-2.4127426018127006e-05
-2.420054006336468e-05
-2.4127426018125163e-05
-2.3922746344773695e-05
-2.3641913295401084e-05
-2.3412346391665187e-05
-4.674630772932316e-05
-4.723789770509938e-05
-4.7773057417583686e-05
-4.815123360287583e-05
-4.8286025684633326e-05
-4.815123360287529e-05
-4.7773057417582656e-05
-4.723789770509797e-05
-4.674630772932153e-05
-7.002685956005486e-05
-7.079051078768932e-05
-7.151251290908524e-05
-7.201635228721166e-05
-7.219589594641932e-05
-7.201635228721231e-05
-7.151251290908524e-05
-7.079051078768812e-05
-7.002685956005296e-05
-9.330800321354272e-05
-9.431508312527352e-05
-9.517721002734052e-05
-9.577375647179455e-05
-9.598529809992597e-05
-9.577375647179477e-05
-9.517721002733987e-05
-9.431508312527238e-05
-9.330800321354164e-05
8.57394782320471e-05
8.63598283199281e-05
8.688336488477956e-05
8.72545561815143e-05
8.738783227410106e-05
8.725455618151365e-05
8.688336488477967e-05
8.635982831992778e-05
8.573947823204743e-05
6.429682276720976e-05
6.477575332714013e-05
6.521104805649728e-05
6.551824851885109e-05
6.562892740146647e-05
6.551824851884957e-05
6.521104805649696e-05
6.477575332714078e-05
6.429682276721052e-05
4.285482540733606e-05
4.317455241879852e-05
4.3506126292365034e-05
4.373786458816947e-05
4.382061762411621e-05
4.37378645881686e-05
4.350612629236547e-05
4.317455241879993e-05
4.2854825407337145e-05
2.1433844881928155e-05
2.1586372656938815e-05
2.1763765898527598e-05
2.1890892685686543e-05
2.1936075099879293e-05
2.189089268568871e-05
2.1763765898529875e-05
2.158637265694055e-05
2.1433844881929998e-05
-1.2067170179763664e-16
-1.1980434005964824e-16
-1.199127602768968e-16
-1.2110538266663085e-16
-1.2067170179763664e-16
-1.1882855810441129e-16
-1.1796119636642288e-16
-1.1752751549742868e-16
-1.1806961658367143e-16
-2.1433844882123637e-05
-2.1586372657131044e-05
-2.1763765898718417e-05
-2.1890892685877687e-05
-2.193607510006968e-05
-2.189089268587693e-05
-2.176376589871679e-05
-2.158637265712866e-05
-2.143384488212136e-05
-4.285482540739103e-05
-4.317455241884655e-05
-4.350612629240808e-05
-4.373786458820926e-05
-4.38206176241547e-05
-4.3737864588208825e-05
-4.350612629240862e-05
-4.31745524188459e-05
-4.285482540738821e-05
-6.429682276704171e-05
-6.477575332695918e-05
-6.521104805630505e-05
-6.55182485186504e-05
-6.562892740126394e-05
-6.551824851865225e-05
-6.521104805630722e-05
-6.477575332695874e-05
-6.429682276703878e-05
-8.573947823158827e-05
-8.635982831944693e-05
-8.68833648842792e-05
-8.725455618100093e-05
-8.738783227358455e-05
-8.725455618100212e-05
-8.68833648842792e-05
-8.635982831944628e-05
-8.573947823158794e-05
7.809387198267324e-05
7.846857357620947e-05
7.87725986641951e-05
7.899428526694633e-05
7.907498816660881e-05
7.89942852669446e-05
7.877259866419576e-05
7.846857357621045e-05
7.809387198267367e-05
5.853765439951613e-05
5.883562094246772e-05
5.908566535432107e-05
5.926307827432175e-05
5.932772190754337e-05
5.926307827432012e-05
5.9085665354321505e-05
5.883562094247e-05
5.853765439951754e-05
3.8971697235010995e-05
3.9181611241846204e-05
3.938053591618284e-05
3.9515207388176135e-05
3.956308439871474e-05
3.951520738817624e-05
3.9380535916184035e-05
3.918161124184859e-05
3.897169723501251e-05
1.9470005283399316e-05
1.957325514742711e-05
1.9682687340646997e-05
1.9758029352698694e-05
1.9784385529799612e-05
1.9758029352701947e-05
1.968268734065025e-05
1.957325514742852e-05
1.9470005283400726e-05
-6.461844948013606e-17
-6.407634839389331e-17
-6.429318882839041e-17
-6.451002926288751e-17
-6.429318882839041e-17
-6.277530578691071e-17
-6.136584296267955e-17
-6.158268339717665e-17
-6.288372600415926e-17
-1.9470005283487787e-05
-1.9573255147513845e-05
-1.9682687340732323e-05
-1.9758029352783153e-05
-1.9784385529883854e-05
-1.9758029352784346e-05
-1.968268734073059e-05
-1.957325514751016e-05
-1.9470005283485727e-05
-3.897169723497522e-05
-3.918161124180522e-05
-3.938053591613709e-05
-3.951520738812843e-05
-3.9563084398666604e-05
-3.9515207388128755e-05
-3.938053591613861e-05
-3.918161124180479e-05
-3.8971697234972615e-05
-5.853765439928075e-05
-5.883562094222258e-05
-5.908566535406748e-05
-5.926307827406273e-05
-5.932772190728414e-05
-5.926307827406479e-05
-5.908566535407073e-05
-5.883562094222334e-05
-5.853765439927793e-05
-7.809387198216746e-05
-7.846857357568895e-05
-7.877259866366168e-05
-7.899428526640282e-05
-7.907498816606335e-05
-7.899428526640336e-05
-7.877259866366103e-05
-7.846857357568765e-05
-7.809387198216594e-05
7.036582916272543e-05
7.059058106815978e-05
7.075912783027988e-05
7.088635395775214e-05
7.093343254748418e-05
7.088635395775084e-05
7.075912783028097e-05
7.059058106816162e-05
7.036582916272608e-05
5.270499968477885e-05
5.2895856235506285e-05
5.3032503410198675e-05
5.312814025559419e-05
5.3163328032530886e-05
5.31281402555943e-05
5.303250341020095e-05
5.2895856235509104e-05
5.2704999684778956e-05
3.503518913510525e-05
3.5183038190759086e-05
3.530068995848774e-05
3.5374007049278604e-05
3.539949618083739e-05
3.53740070492798e-05
3.5300689958490234e-05
3.518303819076104e-05
3.503518913510503e-05
1.747828240000911e-05
1.7555260218149048e-05
1.762307824484889e-05
1.766551454812106e-05
1.767972818686003e-05
1.7665514548123335e-05
1.762307824485171e-05
1.755526021814948e-05
1.7478282400008784e-05
-1.6263032587282567e-17
-1.6371452804531117e-17
-1.691355389077387e-17
-1.5937771935536915e-17
-1.474514954580286e-17
-1.3010426069826053e-17
-1.2902005852577503e-17
-1.3877787807814457e-17
-1.496198998029996e-17
-1.7478282400004122e-05
-1.7555260218143085e-05
-1.762307824484141e-05
-1.7665514548112168e-05
-1.7679728186850165e-05
-1.7665514548112276e-05
-1.7623078244839892e-05
-1.755526021813853e-05
-1.747828240000022e-05
-3.503518913498794e-05
-3.518303819063722e-05
-3.5300689958362515e-05
-3.537400704915338e-05
-3.5399496180712055e-05
-3.5374007049154246e-05
-3.530068995836468e-05
-3.518303819063722e-05
-3.5035189134985985e-05
-5.270499968448156e-05
-5.289585623520271e-05
-5.303250340989e-05
-5.312814025528324e-05
-5.316332803222091e-05
-5.312814025528422e-05
-5.3032503409891955e-05
-5.289585623520477e-05
-5.270499968448167e-05
-7.036582916217888e-05
-7.059058106760564e-05
-7.075912782971696e-05
-7.088635395718066e-05
-7.093343254691215e-05
-7.088635395718164e-05
-7.075912782971458e-05
-7.05905810676026e-05
-7.036582916217715e-05
6.255185311507608e-05
6.269407544939518e-05
6.278669057576064e-05
6.28585206701918e-05
6.288545246552245e-05
6.285852067019104e-05
6.278669057576151e-05
6.26940754493955e-05
6.255185311507521e-05
4.6753421846838675e-05
4.689376924337885e-05
4.6967829389633117e-05
4.7014735563818684e-05
4.7031780306460726e-05
4.701473556381944e-05
4.696782938963626e-05
4.689376924337928e-05
4.6753421846835205e-05
3.097891791863485e-05
3.1105621832238934e-05
3.117904607843555e-05
3.121537814573924e-05
3.122684504430881e-05
3.121537814574065e-05
3.1179046078437934e-05
3.1105621832238826e-05
3.097891791863181e-05
1.5411566359050375e-05
1.5483807475990424e-05
1.552943557459345e-05
1.5551876935111807e-05
1.5558407386469003e-05
1.5551876935112783e-05
1.5529435574594534e-05
1.5483807475988906e-05
1.541156635904788e-05
2.5045070184415152e-17
2.461138931542095e-17
2.45029690981724e-17
2.6346112791397758e-17
2.7321894746634712e-17
2.8189256484623115e-17
2.7647155398380363e-17
2.667137344314341e-17
2.5478751053409354e-17
-1.5411566358963205e-05
-1.5483807475902278e-05
-1.5529435574503352e-05
-1.5551876935020518e-05
-1.555840738637728e-05
-1.5551876935019325e-05
-1.5529435574501834e-05
-1.548380747589794e-05
-1.5411566358957784e-05
-3.097891791844251e-05
-3.110562183204237e-05
-3.117904607823779e-05
-3.1215378145543e-05
-3.1226845044112026e-05
-3.1215378145542025e-05
-3.1179046078238875e-05
-3.1105621832042693e-05
-3.097891791843882e-05
-4.6753421846482514e-05
-4.6893769243018025e-05
-4.696782938927175e-05
-4.701473556345851e-05
-4.703178030610153e-05
-4.7014735563457536e-05
-4.696782938927327e-05
-4.6893769243020736e-05
-4.675342184648197e-05
-6.255185311449744e-05
-6.269407544881394e-05
-6.278669057517366e-05
-6.285852066959972e-05
-6.288545246493243e-05
-6.285852066960232e-05
-6.2786690575173e-05
-6.269407544881134e-05
-6.255185311449527e-05
5.464354173012652e-05
5.475854243322401e-05
5.481985628125619e-05
5.4863917161641386e-05
5.487998729206871e-05
5.486391716163965e-05
5.481985628125489e-05
5.4758542433221624e-05
5.4643541730124354e-05
4.062037806389172e-05
4.076292131670713e-05
4.0811828801251126e-05
4.083160324725322e-05
4.083752063573304e-05
4.08316032472517e-05
4.0811828801251126e-05
4.0762921316703444e-05
4.0620378063885645e-05
2.6719155484303736e-05
2.686821376756527e-05
2.6925420249367983e-05
2.694020017025996e-05
2.69425409062953e-05
2.6940200170260612e-05
2.6925420249368417e-05
2.6868213767563534e-05
2.67191554842994e-05
1.3213065521221461e-05
1.3305433860865551e-05
1.3344042515814423e-05
1.3354636685601303e-05
1.3356043014999723e-05
1.3354636685600219e-05
1.3344042515813772e-05
1.3305433860864033e-05
1.3213065521217775e-05
6.071532165918825e-17
5.963111948670274e-17
6.071532165918825e-17
6.331740687315346e-17
6.288372600415926e-17
6.310056643865636e-17
6.418476861114186e-17
6.288372600415926e-17
6.028164079019405e-17
-1.3213065521062951e-05
-1.3305433860706824e-05
-1.334404251565331e-05
-1.3354636685439106e-05
-1.3356043014838828e-05
-1.3354636685437371e-05
-1.3344042515650058e-05
-1.3305433860703571e-05
-1.3213065521060132e-05
-2.6719155484046346e-05
-2.6868213767305927e-05
-2.6925420249109726e-05
-2.6940200170003873e-05
-2.694254090603726e-05
-2.6940200169999103e-05
-2.6925420249107558e-05
-2.6868213767307662e-05
-2.6719155484044828e-05
-4.062037806349013e-05
-4.076292131630337e-05
-4.081182880085127e-05
-4.083160324685597e-05
-4.083752063533579e-05
-4.0831603246853365e-05
-4.081182880085214e-05
-4.076292131630554e-05
-4.0620378063486225e-05
-5.46435417295378e-05
-5.475854243263529e-05
-5.481985628066704e-05
-5.486391716105158e-05
-5.4879987291481074e-05
-5.486391716105353e-05
-5.481985628066877e-05
-5.4758542432633986e-05
-5.464354172953281e-05
4.6629793526384864e-05
4.677671288274687e-05
4.684318312129848e-05
4.6878032955177847e-05
4.68888749633994e-05
4.687803295517503e-05
4.6843183121293925e-05
4.6776712882741446e-05
4.6629793526382695e-05
3.4223727995570186e-05
3.443113873748539e-05
3.448384070488318e-05
3.448808810998052e-05
3.448589520798381e-05
3.44880881099764e-05
3.4483840704878626e-05
3.443113873748062e-05
3.422372799556628e-05
2.216094088459985e-05
2.23888948084523e-05
2.2452533128305236e-05
2.2453300024508028e-05
2.2448133343618048e-05
2.245330002450651e-05
2.2452533128304152e-05
2.238889480845165e-05
2.2160940884596815e-05
1.0825457741136559e-05
1.0971696172430712e-05
1.1016281985944338e-05
1.1019022768205206e-05
1.1016076383575223e-05
1.101902276820217e-05
1.1016281985942603e-05
1.0971696172430061e-05
1.0825457741132872e-05
7.958043946043603e-17
7.892991815694472e-17
7.871307772244762e-17
8.023096076392733e-17
8.088148206741863e-17
8.304988641238964e-17
8.435092901937224e-17
8.196568423990414e-17
7.892991815694472e-17
-1.082545774094227e-05
-1.0971696172236206e-05
-1.1016281985748964e-05
-1.1019022768009833e-05
-1.1016076383380717e-05
-1.1019022768004412e-05
-1.1016281985740074e-05
-1.0971696172230568e-05
-1.0825457740940535e-05
-2.2160940884314922e-05
-2.2388894808168455e-05
-2.2452533128021175e-05
-2.245330002422657e-05
-2.244813334333572e-05
-2.2453300024220064e-05
-2.2452533128016622e-05
-2.2388894808168672e-05
-2.2160940884316006e-05
-3.422372799516426e-05
-3.443113873708185e-05
-3.448384070448289e-05
-3.4488088109581316e-05
-3.448589520758374e-05
-3.4488088109578064e-05
-3.4483840704483976e-05
-3.4431138737084236e-05
-3.422372799516144e-05
-4.662979352583149e-05
-4.677671288219566e-05
-4.684318312075139e-05
-4.687803295463076e-05
-4.688887496285209e-05
-4.6878032954632276e-05
-4.684318312075334e-05
-4.677671288219436e-05
-4.6629793525826716e-05
3.8520169689282594e-05
3.877685832766125e-05
3.887746107214432e-05
3.8910671460930983e-05
3.891738329362218e-05
3.891067146092773e-05
3.88774610721389e-05
3.8776858327656044e-05
3.8520169689281944e-05
2.750692795616791e-05
2.786441033516846e-05
2.794105821565698e-05
2.792941203051246e-05
2.7917336254096098e-05
2.7929412030508775e-05
2.7941058215652645e-05
2.7864410335166076e-05
2.7506927956167044e-05
1.72734694793258e-05
1.765931104478146e-05
1.774713832874931e-05
1.7732239870250303e-05
1.771732320916342e-05
1.77322398702464e-05
1.7747138328746276e-05
1.7659311044781675e-05
1.7273469479324715e-05
8.250832963951297e-06
8.498360654395683e-06
8.560363599702768e-06
8.554550933472481e-06
8.545938092623757e-06
8.554550933469228e-06
8.560363599700816e-06
8.498360654397201e-06
8.250832963951297e-06
7.979727989493313e-17
8.109832250191573e-17
7.849623728795052e-17
7.741203511546502e-17
7.936359902593892e-17
8.304988641238964e-17
8.456776945386935e-17
8.239936510889834e-17
7.936359902593892e-17
-8.25083296375961e-06
-8.498360654202695e-06
-8.560363599511948e-06
-8.55455093328318e-06
-8.545938092434455e-06
-8.554550933274289e-06
-8.560363599497854e-06
-8.49836065419619e-06
-8.250832963759393e-06
-1.7273469479055182e-05
-1.7659311044514094e-05
-1.774713832847826e-05
-1.77322398699786e-05
-1.7717323208891935e-05
-1.7732239869972096e-05
-1.774713832847002e-05
-1.7659311044509107e-05
-1.7273469479053448e-05
-2.7506927955797114e-05
-2.7864410334803736e-05
-2.7941058215290955e-05
-2.7929412030143182e-05
-2.7917336253723782e-05
-2.7929412030140797e-05
-2.794105821529334e-05
-2.786441033480547e-05
-2.7506927955794945e-05
-3.852016968880403e-05
-3.8776858327187885e-05
-3.8877461071674425e-05
-3.891067146045957e-05
-3.891738329314968e-05
-3.8910671460461524e-05
-3.887746107167703e-05
-3.87768583271881e-05
-3.852016968880338e-05
3.042819809559471e-05
3.089765828984299e-05
3.104174846574976e-05
3.1060828382850885e-05
3.105683262654042e-05
3.106082838284568e-05
3.104174846574369e-05
3.0897658289840606e-05
3.0428198095596012e-05
2.0630914677501272e-05
2.12498037044e-05
2.1351734550563136e-05
2.1304689330473546e-05
2.1273896676544685e-05
2.130468933047051e-05
2.13517345505601e-05
2.124980370439935e-05
2.063091467750084e-05
1.2347111179115185e-05
1.2993914285338182e-05
1.3112719985710177e-05
1.306605376728354e-05
1.303344212100102e-05
1.3066053767280721e-05
1.3112719985708225e-05
1.299391428533905e-05
1.2347111179114969e-05
5.731897358643911e-06
6.142245458081808e-06
6.22867248426277e-06
6.2060754313522735e-06
6.187323876539249e-06
6.206075431352707e-06
6.228672484264721e-06
6.142245458085494e-06
5.73189735864673e-06
6.917209860457518e-17
7.502679033599691e-17
7.35089072945172e-17
7.134050294954619e-17
7.3075226425523e-17
7.697835424647081e-17
7.827939685345342e-17
7.48099499014998e-17
6.938893903907228e-17
-5.731897358479329e-06
-6.142245457912672e-06
-6.228672484094935e-06
-6.206075431184005e-06
-6.18732387636968e-06
-6.2060754311768496e-06
-6.228672484082359e-06
-6.142245457907468e-06
-5.731897358479763e-06
-1.2347111178887286e-05
-1.2993914285115487e-05
-1.3112719985482928e-05
-1.3066053767051737e-05
-1.3033442120767699e-05
-1.3066053767045232e-05
-1.3112719985472737e-05
-1.2993914285107464e-05
-1.2347111178882516e-05
-2.0630914677188805e-05
-2.1249803704097292e-05
-2.135173455025674e-05
-2.1304689330162163e-05
-2.1273896676230917e-05
-2.130468933016238e-05
-2.1351734550261077e-05
-2.124980370409816e-05
-2.063091467718425e-05
-3.0428198095207868e-05
-3.089765828946612e-05
-3.104174846537246e-05
-3.106082838247055e-05
-3.105683262616095e-05
-3.106082838247293e-05
-3.104174846537658e-05
-3.089765828946786e-05
-3.0428198095207868e-05
2.287684026968436e-05
2.3654364611104886e-05
2.3795635453998298e-05
2.3747893438841317e-05
2.3712579440249423e-05
2.3747893438834594e-05
2.3795635453989624e-05
2.3654364611100332e-05
2.287684026968306e-05
1.4580484923712661e-05
1.5569708014162706e-05
1.5651234280271388e-05
1.551425230180109e-05
1.5443955786558156e-05
1.5514252301797836e-05
1.565123428026705e-05
1.5569708014160103e-05
1.458048492371006e-05
8.657470070970235e-06
9.671495105149962e-06
9.795114909832026e-06
9.672244084680268e-06
9.60413465650998e-06
9.672244084679617e-06
9.79511490983311e-06
9.671495105152781e-06
8.657470070970669e-06
4.123644233993817e-06
4.7590461163878484e-06
4.859133091781589e-06
4.795706030729036e-06
4.7566790103887886e-06
4.795706030732939e-06
4.859133091785492e-06
4.759046116391101e-06
4.123644233997069e-06
5.659535340374333e-17
6.830473686658678e-17
7.155734338404329e-17
7.112366251504909e-17
7.177418381854039e-17
7.45931094670027e-17
7.48099499014998e-17
6.808789643208968e-17
5.637851296924623e-17
-4.123644233870001e-06
-4.759046116253624e-06
-4.859133091643028e-06
-4.795706030586572e-06
-4.75667901024459e-06
-4.79570603058462e-06
-4.859133091633704e-06
-4.759046116244951e-06
-4.123644233866748e-06
-8.657470070816495e-06
-9.67149510500186e-06
-9.795114909681973e-06
-9.672244084525878e-06
-9.604134656352988e-06
-9.67224408452089e-06
-9.795114909673516e-06
-9.671495104992102e-06
-8.657470070808256e-06
-1.4580484923499941e-05
-1.556970801396061e-05
-1.5651234280067775e-05
-1.5514252301594656e-05
-1.5443955786351724e-05
-1.5514252301596608e-05
-1.565123428007146e-05
-1.5569708013959526e-05
-1.4580484923491701e-05
-2.2876840269411575e-05
-2.3654364610844027e-05
-2.3795635453734403e-05
-2.374789343857265e-05
-2.371257943998206e-05
-2.3747893438574386e-05
-2.3795635453736138e-05
-2.3654364610842075e-05
-2.2876840269405938e-05
1.782556627021861e-05
1.88596843273838e-05
1.8820755866471748e-05
1.857818823532446e-05
1.8468121216884186e-05
1.8578188235320123e-05
1.882075586646611e-05
1.885968432737816e-05
1.7825566270214706e-05
1.3022087061182819e-05
1.4388337128288554e-05
1.428312228370413e-05
1.3932721653049955e-05
1.3781670384026105e-05
1.3932721653049304e-05
1.428312228370066e-05
1.4388337128283567e-05
1.3022087061177832e-05
9.667846020579643e-06
1.106787681368483e-05
1.1067418341890664e-05
1.0766158292956811e-05
1.062781448324412e-05
1.0766158292957462e-05
1.1067418341891098e-05
1.1067876813686565e-05
9.66784602058116e-06
5.312642089181025e-06
6.1806416970853865e-06
6.226267569885103e-06
6.065262825564457e-06
5.986133281247943e-06
6.065262825566192e-06
6.2262675698846696e-06
6.180641697089073e-06
5.31264208918753e-06
7.914675859144182e-17
9.432558900623889e-17
1.0126448291014611e-16
1.0234868508263162e-16
1.0018028073766061e-16
1.0061396160665481e-16
1.0321604682062002e-16
9.73613550891983e-17
8.001412032943023e-17
-5.312642089047234e-06
-6.1806416969305625e-06
-6.226267569722039e-06
-6.065262825400526e-06
-5.98613328108683e-06
-6.065262825403995e-06
-6.2262675697177024e-06
-6.1806416969238404e-06
-5.312642089043765e-06
-9.667846020502448e-06
-1.1067876813603515e-05
-1.1067418341811951e-05
-1.0766158292878966e-05
-1.0627814483163672e-05
-1.076615829287723e-05
-1.1067418341809132e-05
-1.106787681359636e-05
-9.667846020490522e-06
-1.3022087061127091e-05
-1.4388337128238898e-05
-1.4283122283654907e-05
-1.393272165299813e-05
-1.3781670383971895e-05
-1.3932721652998347e-05
-1.4283122283652088e-05
-1.438833712822979e-05
-1.3022087061111262e-05
-1.7825566270111923e-05
-1.885968432728492e-05
-1.8820755866365496e-05
-1.8578188235211053e-05
-1.8468121216770562e-05
-1.8578188235209535e-05
-1.8820755866360726e-05
-1.8859684327276896e-05
-1.7825566270101515e-05
2.4342519214030824e-05
2.5067919960742712e-05
2.4378895563479958e-05
2.369305601368629e-05
2.3433873172053112e-05
2.3693056013684554e-05
2.4378895563478657e-05
2.5067919960739243e-05
2.4342519214027355e-05
2.600163764235634e-05
2.7224071576383447e-05
2.6464907771448203e-05
2.565811809130585e-05
2.5352735583669683e-05
2.565811809130715e-05
2.6464907771446035e-05
2.7224071576378243e-05
2.60016376423507e-05
2.1702078973072185e-05
2.3083145978740078e-05
2.2591200094506693e-05
2.19164492281489e-05
2.1648413728611246e-05
2.19164492281502e-05
2.2591200094504525e-05
2.308314597873921e-05
2.170207897307262e-05
1.2145294189560597e-05
1.3030824820767922e-05
1.2830317833885645e-05
1.2465345482704209e-05
1.2313404179040838e-05
1.2465345482703342e-05
1.2830317833885645e-05
1.303082482077356e-05
1.214529418956797e-05
1.981921571303502e-16
2.1640675362810669e-16
2.203098814490545e-16
2.194425197110661e-16
2.1467203015212988e-16
2.1597307275911248e-16
2.250803710079907e-16
2.246466901389965e-16
2.0556473190325164e-16
-1.2145294189224928e-05
-1.3030824820401462e-05
-1.2830317833517884e-05
-1.246534548234382e-05
-1.2313404178687388e-05
-1.246534548234729e-05
-1.2830317833517884e-05
-1.3030824820401028e-05
-1.2145294189221025e-05
-2.1702078972910856e-05
-2.3083145978566606e-05
-2.259120009434146e-05
-2.1916449227993642e-05
-2.1648413728456856e-05
-2.1916449227995377e-05
-2.2591200094344496e-05
-2.3083145978564437e-05
-2.170207897290088e-05
-2.6001637642384962e-05
-2.7224071576416407e-05
-2.6464907771482898e-05
-2.565811809134011e-05
-2.535273558370221e-05
-2.565811809134141e-05
-2.6464907771477694e-05
-2.7224071576399493e-05
-2.6001637642363712e-05
-2.434251921409284e-05
-2.506791996080733e-05
-2.4378895563533735e-05
-2.3693056013731825e-05
-2.3433873172098215e-05
-2.3693056013730524e-05
-2.4378895563526362e-05
-2.506791996079432e-05
-2.434251921407853e-05

SCALARS STRAIN_ZZ float 1
LOOKUP_TABLE default
8.488454785698394e-05
1.8120666900194318e-06
-1.812066689876733e-06
-8.488454785714203e-05
8.488454785698388e-05
1.8120666900202488e-06
-1.8120666898731094e-06
-8.488454785714203e-05
0.0001204892678588874
0.00014854460732956754
0.00013876781653092288
0.00013353408481939325
0.0001273436045670045
0.00012061405446768998
0.00011323774622287367
0.00010535947605945773
9.711548746687827e-05
8.862509095592922e-05
7.99802812025852e-05
7.125368217804079e-05
6.251108477305394e-05
5.3826045213830275e-05
4.528995113647353e-05
3.698812517846102e-05
2.8870721703776242e-05
2.0073535806420102e-05
8.561047819835958e-06
-2.1320505345906033e-06
-7.211602145453303e-06
-7.318030531674701e-06
-4.291412993953733e-06
-7.491921715169561e-17
4.291412993833109e-06
7.318030531637268e-06
7.211602145520453e-06
2.132050534720829e-06
-8.561047819658169e-06
-2.007353580617998e-05
-2.8870721703468573e-05
-3.6988125178061194e-05
-4.52899511359686e-05
-5.382604521322424e-05
-6.251108477237147e-05
-7.125368217732676e-05
-7.998028120188226e-05
-8.86250909552603e-05
-9.71154874662519e-05
-0.0001053594760588865
-0.00011323774622238299
-0.00012061405446730884
-0.00012734360456674904
-0.00013353408481925707
-0.0001387678165308692
-0.00014854460732962801
-0.00012048926785904013
-7.545818961127198e-05
-5.699124388719603e-05
-3.8309857294895964e-05
-1.9103905226036748e-05
-4.53173638209365e-16
1.9103905225162654e-05
3.8309857294154525e-05
5.699124388666706e-05
7.545818961098447e-05
0.0001204892678588874
0.00014854460732956754
0.00013876781653092277
0.0001335340848193933
0.00012734360456700445
0.00012061405446769016
0.00011323774622287437
0.00010535947605945803
9.711548746687933e-05
8.862509095593048e-05
7.998028120258462e-05
7.125368217804026e-05
6.251108477305363e-05
5.382604521382873e-05
4.528995113647124e-05
3.6988125178458953e-05
2.887072170377507e-05
2.007353580641939e-05
8.561047819835998e-06
-2.1320505345885556e-06
-7.211602145450457e-06
-7.318030531674122e-06
-4.29141299395514e-06
-7.597843185223711e-17
4.291412993831163e-06
7.318030531632251e-06
7.211602145515417e-06
2.1320505347209574e-06
-8.561047819652658e-06
-2.007353580617392e-05
-2.887072170346576e-05
-3.698812517805925e-05
-4.528995113596441e-05
-5.38260452132196e-05
-6.251108477236775e-05
-7.125368217732387e-05
-7.998028120188054e-05
-8.862509095525899e-05
-9.711548746625103e-05
-0.00010535947605888626
-0.00011323774622238223
-0.00012061405446730773
-0.00012734360456674858
-0.00013353408481925702
-0.00013876781653086927
-0.0001485446073296282
-0.00012048926785904018
-7.545818961127206e-05
-5.699124388719617e-05
-3.830985729489607e-05
-1.9103905226036843e-05
-4.53266811833563e-16
1.910390522516259e-05
3.830985729415452e-05
5.6991243886667125e-05
7.54581896109845e-05
6.518469713709236e-05
3.8520907110102606e-05
2.8703588590307244e-05
2.4655239638535995e-05
2.3460269899461903e-05
2.4655239638535886e-05
2.8703588590307166e-05
3.8520907110102606e-05
6.518469713709233e-05
2.586352732636395e-06
4.897625021010684e-06
7.85867096677547e-06
1.0097697221250317e-05
1.0912663775717315e-05
1.0097697221250703e-05
7.858670966775943e-06
4.897625021010983e-06
2.586352732637403e-06
-2.5863527325093823e-06
-4.897625020912838e-06
-7.858670966698356e-06
-1.0097697221184228e-05
-1.0912663775656524e-05
-1.0097697221185475e-05
-7.858670966697027e-06
-4.8976250209074264e-06
-2.5863527325036005e-06
-6.518469713735969e-05
-3.852090711044347e-05
-2.8703588590587686e-05
-2.465523963878069e-05
-2.3460269899695603e-05
-2.4655239638780716e-05
-2.8703588590587673e-05
-3.8520907110443404e-05
-6.518469713735966e-05
0.00010711036541845177
8.071684275793287e-05
5.4139418816226414e-05
2.7041950986974973e-05
-6.206523806722743e-16
-2.7041950988166793e-05
-5.413941881722472e-05
-8.071684275862378e-05
-0.00010711036541879191
0.0001318250738281802
9.881153673437355e-05
6.602702091231091e-05
3.301978998118642e-05
-7.063780441650402e-16
-3.3019789982534416e-05
-6.602702091341915e-05
-9.881153673510185e-05
-0.0001318250738284721
0.00012264352530842667
9.12096228949113e-05
6.069370366066723e-05
3.0322070067625322e-05
-5.790130880182001e-16
-3.0322070068725055e-05
-6.069370366155595e-05
-9.120962289546234e-05
-0.00012264352530858287
0.00011771337929591892
8.716949059064506e-05
5.788221000903864e-05
2.8869420845765698e-05
-4.903660078903541e-16
-2.8869420846694554e-05
-5.788221000977895e-05
-8.716949059108149e-05
-0.00011771337929598544
0.0001122624501433241
8.309433381999775e-05
5.512890934437999e-05
2.74886761351173e-05
-4.082935974990959e-16
-2.748867613588445e-05
-5.512890934497202e-05
-8.309433382030763e-05
-0.00011226245014327308
0.00010643138852714698
7.889151880050055e-05
5.2356833373076546e-05
2.610961599740123e-05
-3.3209027839936275e-16
-2.6109615998016725e-05
-5.2356833373525596e-05
-7.889151880068118e-05
-0.00010643138852697139
0.00010003745748607198
7.42974848967338e-05
4.9349815249519874e-05
2.461979710338011e-05
-2.5996457590771183e-16
-2.461979710385223e-05
-4.934981524983377e-05
-7.429748489679234e-05
-0.00010003745748578342
9.317441248328547e-05
6.932933379709187e-05
4.6094210787395855e-05
2.300684885034969e-05
-1.9293885879147904e-16
-2.3006848850689673e-05
-4.609421078758789e-05
-6.932933379704476e-05
-9.317441248290776e-05
8.595628686648243e-05
6.405758677676073e-05
4.262635445478967e-05
2.1285786029996934e-05
-1.326961815168587e-16
-2.1285786030218297e-05
-4.262635445487337e-05
-6.405758677662422e-05
-8.595628686603772e-05
7.849253681674734e-05
5.856599690753528e-05
3.899933290586108e-05
1.948191996734609e-05
-8.010983505246996e-17
-1.94819199674636e-05
-3.899933290585056e-05
-5.856599690732331e-05
-7.849253681624884e-05
7.08708664624791e-05
5.292653064745794e-05
3.526117054334577e-05
1.7618811287664584e-05
-3.4762232155316486e-17
-1.7618811287693712e-05
-3.52611705432574e-05
-5.292653064718479e-05
-7.08708664619372e-05
6.315977170483298e-05
4.7194117795302215e-05
3.144757763469525e-05
1.571357500133139e-05
2.6376605977498913e-18
-1.5713575001288544e-05
-3.144757763454558e-05
-4.719411779498518e-05
-6.315977170426838e-05
5.541571280005051e-05
4.140566257083487e-05
2.7577897393159678e-05
1.3773833044900168e-05
3.17065607980966e-17
-1.3773833044802195e-05
-2.7577897392967218e-05
-4.1405662570498494e-05
-5.5415712799499096e-05
4.7689952471727774e-05
3.557604425777359e-05
2.364837392675556e-05
1.1793304523639395e-05
5.264436822127565e-17
-1.1793304523504104e-05
-2.3648373926541794e-05
-3.557604425744463e-05
-4.768995247122691e-05
4.002558509025459e-05
2.9680438393425417e-05
1.9615747140355014e-05
9.742815455159492e-06
6.46205670625042e-17
-9.742815455005357e-06
-1.961574714013826e-05
-2.96804383931211e-05
-4.002558508982504e-05
3.242017016751108e-05
2.360720183443701e-05
1.5363259524970536e-05
7.553863414318334e-06
6.727178018741016e-17
-7.553863414163007e-06
-1.536325952476402e-05
-2.3607201834163934e-05
-3.242017016715655e-05
2.4685244299612402e-05
1.7041969490862097e-05
1.0636639916627016e-05
5.086159690247007e-06
5.74980787672796e-17
-5.08615969011266e-06
-1.063663991644505e-05
-1.7041969490622905e-05
-2.4685244299324492e-05
1.6040901952044796e-05
9.353024075242361e-06
4.966752700949297e-06
2.093193128253571e-06
2.812259234469624e-17
-2.09319312817451e-06
-4.966752700813148e-06
-9.353024075042277e-06
-1.6040901951809863e-05
4.603162910438896e-06
-1.0423865854084042e-06
-2.7481713627770815e-06
-1.9321219758696143e-06
-3.369581767472332e-17
1.932121975829797e-06
2.748171362811742e-06
1.04238658553123e-06
-4.603162910267959e-06
9.990702730904933e-05
6.87142132861807e-05
5.321233267911746e-05
4.621787684620228e-05
4.411472814731976e-05
4.6217876846202134e-05
5.321233267911733e-05
6.87142132861807e-05
9.990702730904934e-05
0.00013668259310212961
0.0001125551672020378
9.317476356216804e-05
8.281427019619125e-05
7.956876879743025e-05
8.281427019619113e-05
9.317476356216787e-05
0.00011255516720203768
0.00013668259310212961
0.00013755924942047498
0.00012905566026090486
0.00011564492148184423
0.00010640230931472565
0.00010327541387754533
0.00010640230931472545
0.00011564492148184396
0.00012905566026090464
0.00013755924942047488
0.00013381602716646166
0.00013104060395638316
0.00012425708218243706
0.00011830108456227502
0.00011607124315891204
0.00011830108456227474
0.00012425708218243687
0.00013104060395638303
0.0001338160271664616
0.0001280640833369562
0.0001276064078129333
0.00012459911738571178
0.00012151151428121113
0.00012025304730995724
0.000121511514281211
0.00012459911738571216
0.00012760640781293332
0.00012806408333695582
0.00012126499070914929
0.00012161479904682443
0.00012054201677013006
0.00011918143133299614
0.0001185925002687724
0.00011918143133299621
0.00012054201677013054
0.00012161479904682426
0.00012126499070914884
0.00011373744384927915
0.00011428784096735925
0.00011409968255055243
0.0001136360687470564
0.000113411312852042
0.00011363606874705688
0.00011409968255055285
0.0001142878409673591
0.00011373744384927923
0.00010570553472975068
0.00010621853053830222
0.00010638252888310982
0.00010633066592071201
0.00010628174175176554
0.00010633066592071285
0.00010638252888311116
0.00010621853053830315
0.00010570553472975095
9.733738503411935e-05
9.774104814272747e-05
9.800997761585745e-05
9.812344743926021e-05
9.814975333090055e-05
9.812344743926154e-05
9.800997761585934e-05
9.774104814272926e-05
9.73373850341206e-05
8.875798628833032e-05
8.905395745040714e-05
8.933054161387446e-05
8.949856850599597e-05
8.955308706432675e-05
8.949856850599773e-05
8.933054161387564e-05
8.905395745040847e-05
8.875798628833197e-05
8.005775268424064e-05
8.027823282411661e-05
8.05396725922499e-05
8.072217376022342e-05
8.078624381828416e-05
8.07221737602242e-05
8.053967259225099e-05
8.027823282411732e-05
8.005775268424078e-05
7.130511301282907e-05
7.149187357480925e-05
7.174849267630408e-05
7.193807381498992e-05
7.200636557937136e-05
7.19380738149894e-05
7.174849267630595e-05
7.149187357480974e-05
7.130511301282838e-05
6.256066510693922e-05
6.275287309909661e-05
6.302302990182696e-05
6.322195019825176e-05
6.329334135021707e-05
6.322195019825062e-05
6.302302990182789e-05
6.275287309909693e-05
6.256066510693856e-05
5.3890207565635524e-05
5.411208949025718e-05
5.4402623822933155e-05
5.460744629895396e-05
5.467945401511456e-05
5.460744629895209e-05
5.44026238229318e-05
5.411208949025706e-05
5.3890207565634745e-05
4.5368827979777e-05
4.5609900065597455e-05
4.58993006509297e-05
4.609464065531197e-05
4.616277531687805e-05
4.609464065530947e-05
4.589930065092766e-05
4.5609900065596574e-05
4.536882797977545e-05
3.70486774126616e-05
3.723720626077493e-05
3.747653224691912e-05
3.7656334231098e-05
3.7724786843044334e-05
3.765633423109582e-05
3.747653224691796e-05
3.723720626077392e-05
3.704867741265965e-05
2.8812065098145158e-05
2.8821216490837973e-05
2.9027342531801973e-05
2.9275810805334663e-05
2.938596103622642e-05
2.9275810805333152e-05
2.902734253180134e-05
2.8821216490837722e-05
2.881206509814428e-05
1.990199405261299e-05
1.9908069044370305e-05
2.0446266320631022e-05
2.1072601197270072e-05
2.133835554321191e-05
2.1072601197268056e-05
2.044626632062983e-05
1.990806904437055e-05
1.9901994052612974e-05
8.854149155444074e-06
1.0074169679968829e-05
1.1986600467156287e-05
1.3571152442798044e-05
1.417019282016817e-05
1.3571152442796888e-05
1.1986600467155668e-05
1.00741696799691e-05
8.854149155444637e-06
-9.541609697772333e-07
2.0703196572358944e-06
5.4353824971238735e-06
7.777080319192575e-06
8.600306363573354e-06
7.77708031919353e-06
5.4353824971249086e-06
2.070319657237437e-06
-9.541609697750469e-07
-5.776314980595995e-06
-2.263907070559125e-06
1.3819881624373344e-06
3.75655023464928e-06
4.5623378190444705e-06
3.7565502346496428e-06
1.3819881624387052e-06
-2.2639070705570377e-06
-5.776314980593636e-06
-6.331091974679582e-06
-3.6991189859546633e-06
-7.638540919811641e-07
1.19278964625222e-06
1.8592029222412004e-06
1.1927896462524814e-06
-7.638540919795742e-07
-3.6991189859550466e-06
-6.331091974680301e-06
-3.842449570995777e-06
-2.5304364386412274e-06
-9.537290303094499e-07
1.3545766352577047e-07
5.109866584259882e-07
1.3545766352779847e-07
-9.537290303085408e-07
-2.5304364386445423e-06
-3.842449570998857e-06
-6.687843926252894e-17
-4.550329814077066e-17
-2.0867331634989532e-17
-2.811692781186148e-18
4.8891668157804275e-18
-8.672690937597976e-19
-2.1294461233532314e-17
-4.9258406954185785e-17
-6.973844600893309e-17
3.8424495708910065e-06
2.5304364385774586e-06
9.53729030290862e-07
-1.3545766351283333e-07
-5.109866584007403e-07
-1.3545766351143136e-07
9.537290302910502e-07
2.530436438574907e-06
3.842449570888058e-06
6.331091974654654e-06
3.6991189859591585e-06
7.638540920151514e-07
-1.1927896462003328e-06
-1.859202922183367e-06
-1.1927896461971306e-06
7.638540920168796e-07
3.6991189859569e-06
6.331091974650034e-06
5.776314980664722e-06
2.2639070706313585e-06
-1.3819881623612993e-06
-3.7565502345717695e-06
-4.56233781896517e-06
-3.7565502345669618e-06
-1.3819881623580278e-06
2.2639070706302133e-06
5.776314980660551e-06
9.541609698965004e-07
-2.0703196571374975e-06
-5.43538249704099e-06
-7.777080319118158e-06
-8.600306363501133e-06
-7.777080319116352e-06
-5.435382497038274e-06
-2.0703196571347133e-06
9.54160969898068e-07
-8.854149155276345e-06
-1.0074169679822993e-05
-1.1986600467030863e-05
-1.3571152442685685e-05
-1.4170192820062293e-05
-1.357115244268721e-05
-1.1986600467030197e-05
-1.007416967981841e-05
-8.854149155270014e-06
-1.9901994052373366e-05
-1.9908069044136703e-05
-2.044626632041069e-05
-2.107260119706177e-05
-2.1338355543009525e-05
-2.1072601197062278e-05
-2.044626632040975e-05
-1.9908069044134247e-05
-1.990199405236862e-05
-2.881206509783418e-05
-2.8821216490523188e-05
-2.9027342531490197e-05
-2.927581080502832e-05
-2.938596103592246e-05
-2.927581080502628e-05
-2.9027342531487788e-05
-2.8821216490522538e-05
-2.8812065097832877e-05
-3.704867741226036e-05
-3.7237206260371693e-05
-3.7476532246516234e-05
-3.7656334230696024e-05
-3.772478684264192e-05
-3.76563342306922e-05
-3.7476532246513314e-05
-3.723720626037046e-05
-3.704867741225876e-05
-4.536882797927401e-05
-4.560990006509719e-05
-4.5899300650431155e-05
-4.6094640654814744e-05
-4.616277531638034e-05
-4.6094640654810665e-05
-4.589930065042822e-05
-4.560990006509505e-05
-4.5368827979270436e-05
-5.38902075650321e-05
-5.411208948965737e-05
-5.4402623822335326e-05
-5.460744629835891e-05
-5.467945401452058e-05
-5.460744629835569e-05
-5.440262382233297e-05
-5.4112089489655825e-05
-5.389020756502873e-05
-6.256066510625768e-05
-6.27528730984176e-05
-6.302302990115048e-05
-6.322195019757733e-05
-6.329334134954407e-05
-6.322195019757507e-05
-6.302302990114925e-05
-6.275287309841689e-05
-6.256066510625502e-05
-7.130511301211625e-05
-7.149187357409972e-05
-7.174849267559835e-05
-7.193807381428594e-05
-7.20063655786689e-05
-7.193807381428533e-05
-7.174849267559808e-05
-7.149187357409933e-05
-7.130511301211405e-05
-8.005775268353869e-05
-8.027823282341724e-05
-8.05396725915545e-05
-8.07221737595311e-05
-8.078624381759339e-05
-8.07221737595321e-05
-8.053967259155475e-05
-8.027823282341659e-05
-8.005775268353709e-05
-8.875798628765946e-05
-8.905395744973537e-05
-8.933054161320661e-05
-8.949856850533325e-05
-8.955308706366598e-05
-8.949856850533404e-05
-8.933054161320674e-05
-8.905395744973472e-05
-8.87579862876582e-05
-9.733738503348836e-05
-9.774104814209406e-05
-9.800997761523146e-05
-9.812344743864379e-05
-9.814975333028838e-05
-9.812344743864382e-05
-9.800997761523092e-05
-9.774104814209357e-05
-9.73373850334876e-05
-0.00010570553472917205
-0.0001062185305377228
-0.00010638252888254919
-0.0001063306659201725
-0.00010628174175123492
-0.00010633066592017236
-0.00010638252888254846
-0.0001062185305377224
-0.0001057055347291718
-0.0001137374438487798
-0.00011428784096686763
-0.00011409968255010283
-0.00011363606874664995
-0.0001134113128516528
-0.00011363606874664994
-0.00011409968255010286
-0.00011428784096686717
-0.00011373744384877903
-0.00012126499070876352
-0.00012161479904646898
-0.00012054201676985491
-0.00011918143133279551
-0.00011859250026860083
-0.00011918143133279568
-0.00012054201676985521
-0.0001216147990464682
-0.00012126499070876219
-0.00012806408333670754
-0.00012760640781275454
-0.0001245991173856647
-0.00012151151428127206
-0.00012025304731005796
-0.00012151151428127234
-0.00012459911738566467
-0.00012760640781275372
-0.00012806408333670662
-0.00013381602716635763
-0.00013104060395641222
-0.0001242570821826499
-0.00011830108456260986
-0.00011607124315928617
-0.00011830108456260984
-0.0001242570821826498
-0.00013104060395641176
-0.00013381602716635714
-0.00013755924942052114
-0.0001290556602611797
-0.00011564492148231032
-0.0001064023093152749
-0.00010327541387811543
-0.00010640230931527469
-0.00011564492148231022
-0.0001290556602611796
-0.00013755924942052104
-0.00013668259310237657
-0.00011255516720255208
-9.317476356277032e-05
-8.281427019679624e-05
-7.95687687980309e-05
-8.28142701967962e-05
-9.317476356277023e-05
-0.00011255516720255208
-0.00013668259310237668
-9.990702730936808e-05
-6.87142132866609e-05
-5.321233267956809e-05
-4.6217876846614524e-05
-4.411472814771866e-05
-4.621787684661457e-05
-5.321233267956805e-05
-6.871421328666084e-05
-9.990702730936812e-05
-5.793732030037175e-05
-3.421685041257746e-05
-2.5498390823151808e-05
-2.1940846482277654e-05
-2.090216115393511e-05
-2.194084648227768e-05
-2.5498390823151787e-05
-3.4216850412577386e-05
-5.7937320300371754e-05
-4.371137985271439e-05
-2.576055062207113e-05
-1.9184729623809796e-05
-1.6514261207940285e-05
-1.574864859417052e-05
-1.6514261207940312e-05
-1.918472962380978e-05
-2.576055062207109e-05
-4.371137985271443e-05
-2.9389323207454137e-05
-1.7339807923126686e-05
-1.2901725365481548e-05
-1.1065515628087194e-05
-1.0538407251452379e-05
-1.106551562808722e-05
-1.290172536548157e-05
-1.7339807923126713e-05
-2.9389323207454198e-05
-1.4692678793079568e-05
-8.719086923772609e-06
-6.49278835211168e-06
-5.557525026601407e-06
-5.2861948364022845e-06
-5.557525026601435e-06
-6.492788352111718e-06
-8.719086923772622e-06
-1.4692678793079614e-05
-3.474014577121683e-16
-2.056327062972688e-16
-1.5429382760594884e-16
-1.325997256399901e-16
-1.2626286040334387e-16
-1.3262968943049923e-16
-1.5431479167139339e-16
-2.056263535501644e-16
-3.4743639782124254e-16
1.469267879240323e-05
8.71908692336496e-06
6.492788351805247e-06
5.557525026337667e-06
5.286194836150934e-06
5.557525026337646e-06
6.492788351805249e-06
8.719086923364962e-06
1.4692678792403195e-05
2.9389323206858103e-05
1.733980792274074e-05
1.2901725365188466e-05
1.1065515627833701e-05
1.0538407251210256e-05
1.1065515627833686e-05
1.2901725365188473e-05
1.733980792274075e-05
2.9389323206858103e-05
4.3711379852244855e-05
2.5760550621715155e-05
1.91847296235333e-05
1.6514261207699677e-05
1.5748648593940382e-05
1.651426120769964e-05
1.9184729623533294e-05
2.576055062171516e-05
4.3711379852244896e-05
5.793732030003565e-05
3.421685041223499e-05
2.5498390822876034e-05
2.1940846482037056e-05
2.0902161153705158e-05
2.1940846482036975e-05
2.5498390822875987e-05
3.421685041223499e-05
5.7937320300035665e-05
0.00010711036541845183
8.071684275793296e-05
5.413941881622641e-05
2.7041950986974872e-05
-6.207972233062548e-16
-2.704195098816693e-05
-5.4139418817224877e-05
-8.071684275862404e-05
-0.0001071103654187921
0.00013182507382818016
9.881153673437358e-05
6.60270209123109e-05
3.301978998118628e-05
-7.065660854793307e-16
-3.301978998253459e-05
-6.60270209134193e-05
-9.881153673510214e-05
-0.00013182507382847238
0.00012264352530842653
9.12096228949112e-05
6.069370366066717e-05
3.0322070067625166e-05
-5.792367047162753e-16
-3.032207006872524e-05
-6.069370366155604e-05
-9.120962289546248e-05
-0.00012264352530858303
0.00011771337929591899
8.716949059064511e-05
5.78822100090386e-05
2.886942084576551e-05
-4.906768689819964e-16
-2.8869420846694845e-05
-5.7882210009779185e-05
-8.716949059108168e-05
-0.00011771337929598548
0.00011226245014332418
8.3094333819998e-05
5.512890934438016e-05
2.7488676135117318e-05
-4.0835712497013996e-16
-2.748867613588463e-05
-5.5128909344972374e-05
-8.309433382030792e-05
-0.00011226245014327288
0.0001064313885271471
7.889151880050069e-05
5.235683337307679e-05
2.6109615997401495e-05
-3.3184209774581724e-16
-2.6109615998016722e-05
-5.235683337352596e-05
-7.889151880068134e-05
-0.00010643138852697077
0.0001000374574860726
7.429748489673424e-05
4.934981524952028e-05
2.4619797103380398e-05
-2.5977738162636863e-16
-2.4619797103852195e-05
-4.934981524983405e-05
-7.429748489679252e-05
-0.00010003745748578304
9.317441248328612e-05
6.932933379709283e-05
4.6094210787396783e-05
2.3006848850350087e-05
-1.93078619227776e-16
-2.3006848850689595e-05
-4.609421078758774e-05
-6.932933379704483e-05
-9.31744124829077e-05
8.595628686648349e-05
6.40575867767617e-05
4.26263544547906e-05
2.1285786029997323e-05
-1.3274276832895768e-16
-2.128578603021792e-05
-4.262635445487326e-05
-6.405758677662473e-05
-8.595628686603754e-05
7.849253681674864e-05
5.856599690753621e-05
3.8999332905861505e-05
1.948191996734658e-05
-7.899175156209429e-17
-1.9481919967462373e-05
-3.899933290585057e-05
-5.85659969073243e-05
-7.849253681624871e-05
7.08708664624795e-05
5.292653064745941e-05
3.5261170543346874e-05
1.761881128766545e-05
-3.334345196866553e-17
-1.7618811287692455e-05
-3.5261170543257e-05
-5.292653064718511e-05
-7.087086646193668e-05
6.315977170483321e-05
4.719411779530419e-05
3.144757763469776e-05
1.5713575001333247e-05
3.8823755137400856e-18
-1.5713575001288042e-05
-3.144757763454539e-05
-4.719411779498512e-05
-6.3159771704267e-05
5.54157128000508e-05
4.140566257083671e-05
2.757789739316243e-05
1.377383304490284e-05
3.405284206199101e-17
-1.3773833044800984e-05
-2.7577897392967394e-05
-4.1405662570498874e-05
-5.541571279949725e-05
4.7689952471726934e-05
3.5576044257774637e-05
2.3648373926757594e-05
1.1793304523641315e-05
5.5431106617742296e-17
-1.1793304523501388e-05
-2.364837392654118e-05
-3.557604425744423e-05
-4.7689952471223884e-05
4.002558509025276e-05
2.9680438393425457e-05
1.9615747140356217e-05
9.742815455160244e-06
6.659034218134408e-17
-9.742815455002452e-06
-1.9615747140137133e-05
-2.9680438393120038e-05
-4.002558508982181e-05
3.2420170167509564e-05
2.360720183443675e-05
1.5363259524970926e-05
7.55386341431841e-06
6.787275006348709e-17
-7.553863414161516e-06
-1.5363259524762983e-05
-2.3607201834163497e-05
-3.242017016715539e-05
2.4685244299612026e-05
1.7041969490862314e-05
1.0636639916626593e-05
5.086159690246211e-06
5.668418598408663e-17
-5.086159690112918e-06
-1.0636639916444637e-05
-1.7041969490622848e-05
-2.4685244299323252e-05
1.6040901952045355e-05
9.353024075243303e-06
4.966752700948262e-06
2.0931931282519074e-06
2.6847251893706884e-17
-2.093193128175512e-06
-4.966752700815065e-06
-9.353024075044308e-06
-1.6040901951807277e-05
4.603162910440342e-06
-1.0423865854063538e-06
-2.7481713627773987e-06
-1.9321219758712758e-06
-3.481771281336164e-17
1.9321219758283147e-06
2.748171362807492e-06
1.0423865855267028e-06
-4.6031629102665585e-06
8.884336968337933e-05
6.113747278223302e-05
4.738429904438849e-05
4.1235392077407224e-05
3.940075768219659e-05
4.123539207740708e-05
4.738429904438839e-05
6.113747278223303e-05
8.884336968337937e-05
6.698888530702511e-05
4.6143977026264595e-05
3.578078942475373e-05
3.11772063292575e-05
2.981986000541933e-05
3.1177206329257394e-05
3.57807894247537e-05
4.6143977026264616e-05
6.698888530702516e-05
4.499836584741254e-05
3.1083254892192294e-05
2.4089028481463816e-05
2.0937741748659693e-05
2.000662344017766e-05
2.093774174865966e-05
2.4089028481463823e-05
3.1083254892192314e-05
4.499836584741254e-05
2.2531106033532596e-05
1.5638414301026745e-05
1.2130622651572341e-05
1.0526933837926692e-05
1.0049189894671952e-05
1.0526933837926668e-05
1.2130622651572338e-05
1.5638414301026745e-05
2.2531106033532545e-05
-5.146479013892931e-16
-3.54987273029541e-16
-2.7616789267221296e-16
-2.402372844452776e-16
-2.29496377278501e-16
-2.4029329449891477e-16
-2.762071738251419e-16
-3.5499447280959266e-16
-5.147188403986256e-16
-2.2531106034528764e-05
-1.563841430172414e-05
-1.213062265211778e-05
-1.0526933838402531e-05
-1.0049189895127051e-05
-1.0526933838402596e-05
-1.2130622652117865e-05
-1.5638414301724175e-05
-2.253110603452884e-05
-4.499836584827577e-05
-3.108325489283431e-05
-2.408902848197669e-05
-2.0937741749111287e-05
-2.0006623440611003e-05
-2.0937741749111334e-05
-2.4089028481976776e-05
-3.108325489283436e-05
-4.4998365848275846e-05
-6.698888530768017e-05
-4.6143977026826124e-05
-3.578078942522302e-05
-3.117720632967674e-05
-2.981986000582318e-05
-3.117720632967678e-05
-3.578078942522304e-05
-4.614397702682612e-05
-6.698888530768028e-05
-8.884336968381205e-05
-6.113747278273505e-05
-4.738429904483949e-05
-4.1235392077816605e-05
-3.940075768259215e-05
-4.1235392077816646e-05
-4.738429904483946e-05
-6.1137472782735e-05
-8.884336968381214e-05
0.00012145844011203554
0.00010024337334052703
8.314260381141176e-05
7.405628683490572e-05
7.122230633215096e-05
7.405628683490553e-05
8.314260381141162e-05
0.00010024337334052697
0.00012145844011203552
9.13443152032839e-05
7.575852909561505e-05
6.298007782062715e-05
5.622686553096601e-05
5.413353993971344e-05
5.622686553096585e-05
6.298007782062712e-05
7.575852909561505e-05
9.134431520328388e-05
6.125086777198385e-05
5.104024992588359e-05
4.243965793395154e-05
3.7846905031536194e-05
3.642027941527968e-05
3.784690503153617e-05
4.243965793395155e-05
5.104024992588358e-05
6.125086777198381e-05
3.0705821661525086e-05
2.5688522490030244e-05
2.138125870906632e-05
1.9048347616413042e-05
1.8319369452890175e-05
1.9048347616413063e-05
2.1381258709066306e-05
2.5688522490030193e-05
3.0705821661525e-05
-6.556005365595131e-16
-5.467089454758156e-16
-4.545636192758093e-16
-4.050223562567998e-16
-3.8953181771741313e-16
-4.0507190768421415e-16
-4.546326524610105e-16
-5.467673907491762e-16
-6.557140389744451e-16
-3.070582166278319e-05
-2.5688522491091078e-05
-2.1381258709955877e-05
-1.904834761720952e-05
-1.8319369453657485e-05
-1.9048347617209633e-05
-2.1381258709956037e-05
-2.568852249109115e-05
-3.070582166278329e-05
-6.125086777304496e-05
-5.1040249926821744e-05
-4.2439657934764014e-05
-3.78469050322754e-05
-3.6420279415995475e-05
-3.7846905032275484e-05
-4.2439657934764183e-05
-5.104024992682183e-05
-6.125086777304504e-05
-9.134431520403717e-05
-7.575852909637025e-05
-6.298007782133084e-05
-5.622686553162546e-05
-5.4133539940357255e-05
-5.6226865531625436e-05
-6.298007782133088e-05
-7.57585290963703e-05
-9.134431520403731e-05
-0.00012145844011245366
-0.00010024337334111537
-8.314260381203909e-05
-7.405628683551988e-05
-7.122230633275708e-05
-7.405628683551982e-05
-8.314260381203902e-05
-0.00010024337334111536
-0.00012145844011245382
0.00012191055686236162
0.00011487436610074938
0.00010325764899654565
9.523022264002685e-05
9.251629107216445e-05
9.523022264002666e-05
0.00010325764899654551
0.0001148743661007492
0.00012191055686236146
9.121480258974721e-05
8.668545040035441e-05
7.827657455014954e-05
7.242581431102986e-05
7.044939803788624e-05
7.242581431102974e-05
7.827657455014957e-05
8.668545040035438e-05
9.121480258974706e-05
6.0999968888268366e-05
5.832398497889629e-05
5.273875197431542e-05
4.8803979014065854e-05
4.747218992142395e-05
4.880397901406585e-05
5.273875197431546e-05
5.832398497889631e-05
6.0999968888268305e-05
3.0565297076272405e-05
2.9343200415096882e-05
2.6564169793993663e-05
2.4573638407709818e-05
2.3896813972706643e-05
2.4573638407709953e-05
2.656416979399369e-05
2.9343200415096835e-05
3.056529707627234e-05
-5.874143843055419e-16
-5.676958808099354e-16
-5.138889598685532e-16
-4.749051155041213e-16
-4.61547405925921e-16
-4.748051656163453e-16
-5.139402053618621e-16
-5.678174300378664e-16
-5.87556262324207e-16
-3.056529707738962e-05
-2.9343200416183534e-05
-2.6564169794986866e-05
-2.457363840863379e-05
-2.3896813973606714e-05
-2.457363840863384e-05
-2.6564169794987012e-05
-2.9343200416183713e-05
-3.056529707738981e-05
-6.099996888918121e-05
-5.8323984979813265e-05
-5.27387519751859e-05
-4.880397901489443e-05
-4.7472189922237126e-05
-4.880397901489451e-05
-5.273875197518603e-05
-5.832398497981344e-05
-6.099996888918136e-05
-9.121480259033971e-05
-8.668545040101575e-05
-7.827657455084145e-05
-7.242581431172203e-05
-7.044939803857556e-05
-7.242581431172199e-05
-7.827657455084145e-05
-8.668545040101583e-05
-9.121480259033981e-05
-0.00012191055686259415
-0.00011487436610115013
-0.00010325764899707943
-9.523022264061412e-05
-9.251629107276416e-05
-9.523022264061395e-05
-0.00010325764899707934
-0.00011487436610115006
-0.00012191055686259413
0.00011832410495514203
0.00011647498020109202
0.00011086695836497289
0.00010581807110533891
0.00010391735526855081
0.00010581807110533875
0.00011086695836497286
0.00011647498020109193
0.00011832410495514196
8.815102501642245e-05
8.760503547363503e-05
8.390380126538545e-05
8.039551560897539e-05
7.906094019225e-05
8.039551560897533e-05
8.390380126538556e-05
8.760503547363514e-05
8.815102501642248e-05
5.8794213139480044e-05
5.878384960999181e-05
5.644120925485922e-05
5.414044908325986e-05
5.325996260686347e-05
5.414044908325992e-05
5.644120925485933e-05
5.8783849609992e-05
5.879421313948014e-05
2.9416582203050856e-05
2.953630558469311e-05
2.8400153159637912e-05
2.7248166004846483e-05
2.6804893299467447e-05
2.724816600484675e-05
2.8400153159638054e-05
2.9536305584693153e-05
2.9416582203050833e-05
-5.023671942035266e-16
-5.085124182358566e-16
-4.905917421707973e-16
-4.706593628560091e-16
-4.626837006246626e-16
-4.704298169273032e-16
-4.905142386561236e-16
-5.086564138368898e-16
-5.026225746371238e-16
-2.941658220399995e-05
-2.953630558565487e-05
-2.840015316057319e-05
-2.724816600574996e-05
-2.6804893300357923e-05
-2.724816600574992e-05
-2.8400153160573213e-05
-2.9536305585655186e-05
-2.941658220400036e-05
-5.8794213140234906e-05
-5.8783849610768514e-05
-5.6441209255640306e-05
-5.414044908403376e-05
-5.325996260763317e-05
-5.414044908403385e-05
-5.644120925564035e-05
-5.8783849610768826e-05
-5.879421314023529e-05
-8.81510250168717e-05
-8.76050354741307e-05
-8.390380126593785e-05
-8.039551560956027e-05
-7.906094019284444e-05
-8.039551560956037e-05
-8.390380126593784e-05
-8.760503547413077e-05
-8.815102501687186e-05
-0.00011832410495523114
-0.00011647498020127877
-0.00011086695836529532
-0.00010581807110575014
-0.00010391735526899042
-0.00010581807110575014
-0.00011086695836529522
-0.00011647498020127847
-0.0001183241049552309
0.00011319021975224326
0.00011331850572067568
0.00011106397700827469
0.00010857644511807133
0.00010754395829978204
0.00010857644511807127
0.00011106397700827518
0.00011331850572067587
0.00011319021975224311
8.419426486432045e-05
8.50139455020528e-05
8.385878277328911e-05
8.23166735496441e-05
8.164947664817223e-05
8.23166735496441e-05
8.385878277328957e-05
8.501394550205327e-05
8.419426486432074e-05
5.605005347146623e-05
5.689096062667583e-05
5.628698906575203e-05
5.534501909077536e-05
5.492678370484589e-05
5.534501909077553e-05
5.6286989065752296e-05
5.68909606266763e-05
5.6050053471466655e-05
2.80181882257742e-05
2.8540504418309762e-05
2.8282394109801907e-05
2.782591851696181e-05
2.76203573345084e-05
2.7825918516962216e-05
2.8282394109802178e-05
2.854050441830995e-05
2.8018188225774365e-05
-4.1826063418943724e-16
-4.2952193722318316e-16
-4.277507913304744e-16
-4.2153949872825863e-16
-4.1827630429896144e-16
-4.212443077461405e-16
-4.275724908950774e-16
-4.29684567549056e-16
-4.1845460473435847e-16
-2.801818822655706e-05
-2.8540504419112194e-05
-2.8282394110605158e-05
-2.78259185177578e-05
-2.7620357335300025e-05
-2.7825918517757742e-05
-2.828239411060511e-05
-2.8540504419112573e-05
-2.8018188226557498e-05
-5.6050053472066165e-05
-5.689096062729326e-05
-5.6286989066385375e-05
-5.5345019091417174e-05
-5.492678370548992e-05
-5.534501909141719e-05
-5.628698906638524e-05
-5.689096062729359e-05
-5.605005347206673e-05
-8.419426486463087e-05
-8.501394550238517e-05
-8.385878277366581e-05
-8.23166735500566e-05
-8.164947664859783e-05
-8.23166735500565e-05
-8.385878277366557e-05
-8.501394550238523e-05
-8.419426486463119e-05
-0.000113190219752194
-0.00011331850572067416
-0.00011106397700836999
-0.00010857644511824695
-0.00010754395829998733
-0.00010857644511824697
-0.00011106397700836985
-0.00011331850572067369
-0.00011319021975219357
0.00010722574285059066
0.00010795709688102569
0.0001073582685821499
0.00010637747736429997
0.00010593251415231701
0.00010637747736430011
0.00010735826858215063
0.0001079570968810259
0.00010722574285059052
7.977432499132732e-05
8.08776836556841e-05
8.08956667241153e-05
8.046310126120509e-05
8.023310520339358e-05
8.046310126120529e-05
8.089566672411612e-05
8.087768365568483e-05
7.977432499132764e-05
5.306801438188174e-05
5.40176363071581e-05
5.4186565916345814e-05
5.399707821227016e-05
5.3877101815478004e-05
5.3997078212270446e-05
5.418656591634637e-05
5.401763630715884e-05
5.306801438188228e-05
2.651364750244352e-05
2.706358538258741e-05
2.718884835074787e-05
2.711503319304155e-05
2.7061861442276552e-05
2.711503319304195e-05
2.7188848350748237e-05
2.7063585382587837e-05
2.651364750244393e-05
-3.387098408821551e-16
-3.4831011230633535e-16
-3.5189475573911555e-16
-3.519536245289497e-16
-3.5128023333588256e-16
-3.516707155245668e-16
-3.5184351024580666e-16
-3.4843335560016085e-16
-3.386048087966956e-16
-2.651364750306871e-05
-2.7063585383228058e-05
-2.7188848351396664e-05
-2.7115033193692627e-05
-2.7061861442927412e-05
-2.7115033193692566e-05
-2.7188848351396708e-05
-2.7063585383228492e-05
-2.6513647503068973e-05
-5.3068014382333555e-05
-5.401763630761917e-05
-5.418656591681957e-05
-5.39970782127534e-05
-5.387710181596458e-05
-5.399707821275324e-05
-5.418656591681918e-05
-5.4017636307619443e-05
-5.306801438233414e-05
-7.977432499150242e-05
-8.08776836558638e-05
-8.089566672431992e-05
-8.04631012614343e-05
-8.023310520363256e-05
-8.046310126143368e-05
-8.089566672431923e-05
-8.087768365586386e-05
-7.97743249915028e-05
-0.00010722574285040755
-0.00010795709688085892
-0.0001073582685820401
-0.00010637747736424473
-0.00010593251415228318
-0.0001063774773642444
-0.00010735826858203991
-0.00010795709688085853
-0.00010722574285040691
0.00010063930543582588
0.00010144442650912687
0.00010155529706152662
0.00010132729115408884
0.00010119168781779861
0.00010132729115408951
0.00010155529706152734
0.00010144442650912718
0.00010063930543582626
7.494537346735891e-05
7.595084200365212e-05
7.640213664431025e-05
7.648186115847519e-05
7.646787099765037e-05
7.648186115847592e-05
7.640213664431113e-05
7.595084200365299e-05
7.49453734673596e-05
4.985584799275626e-05
5.066767726393217e-05
5.109348484427774e-05
5.123585528325409e-05
5.125821466982456e-05
5.1235855283254586e-05
5.1093484844278455e-05
5.0667677263932945e-05
4.9855847992756854e-05
2.4905090130855954e-05
2.5362438773097136e-05
2.560737211716095e-05
2.5698700223911257e-05
2.5717150601363162e-05
2.569870022391151e-05
2.5607372117161365e-05
2.5362438773097576e-05
2.4905090130856303e-05
-2.641523067989371e-16
-2.7108400092279265e-16
-2.7530349554953995e-16
-2.7707548847519595e-16
-2.7744183022488343e-16
-2.7711021682603337e-16
-2.7538184609716097e-16
-2.7110771784531577e-16
-2.6396892416585653e-16
-2.49050901313337e-05
-2.5362438773585108e-05
-2.560737211765644e-05
-2.569870022441068e-05
-2.571715060186368e-05
-2.569870022441076e-05
-2.5607372117656598e-05
-2.5362438773585413e-05
-2.4905090131333755e-05
-4.9855847993070365e-05
-5.066767726424911e-05
-5.10934848446009e-05
-5.123585528358327e-05
-5.125821467015603e-05
-5.123585528358298e-05
-5.109348484460054e-05
-5.0667677264249194e-05
-4.9855847993070636e-05
-7.494537346741016e-05
-7.5950842003698e-05
-7.640213664436515e-05
-7.648186115854278e-05
-7.646787099772299e-05
-7.648186115854198e-05
-7.640213664436438e-05
-7.59508420036978e-05
-7.49453734674103e-05
-0.00010063930543552696
-0.00010144442650882689
-0.00010155529706125377
-0.00010132729115384638
-0.00010119168781756824
-0.00010132729115384587
-0.00010155529706125336
-0.00010144442650882653
-0.00010063930543552656
9.359682536132474e-05
9.42858462334624e-05
9.46404122768244e-05
9.473381910548643e-05
9.473926788488531e-05
9.473381910548745e-05
9.464041227682574e-05
9.428584623346353e-05
9.359682536132542e-05
6.977772719484593e-05
7.057588375781643e-05
7.111588768571259e-05
7.137849439913969e-05
7.145086034988758e-05
7.13784943991408e-05
7.11158876857136e-05
7.057588375781746e-05
6.977772719484704e-05
4.6433903887335945e-05
4.705168230525632e-05
4.75013284490341e-05
4.774729377505359e-05
4.782169827527594e-05
4.7747293775054375e-05
4.750132844903465e-05
4.705168230525686e-05
4.6433903887336826e-05
2.3197628746497404e-05
2.3539637086022493e-05
2.3786513122599182e-05
2.3925596142374837e-05
2.3969031568951196e-05
2.392559614237494e-05
2.3786513122599402e-05
2.353963708602271e-05
2.319762874649768e-05
-1.9549308664392438e-16
-2.0015176785382303e-16
-2.0354455832405013e-16
-2.050975932328409e-16
-2.0562614179192758e-16
-2.055016279486812e-16
-2.0371777656176364e-16
-2.001560030185593e-16
-1.9553459125833984e-16
-2.3197628746840496e-05
-2.353963708637166e-05
-2.378651312295336e-05
-2.3925596142731973e-05
-2.3969031569309386e-05
-2.392559614273215e-05
-2.37865131229535e-05
-2.3539637086371684e-05
-2.3197628746840354e-05
-4.6433903887527184e-05
-4.7051682305446755e-05
-4.750132844922587e-05
-4.7747293775248216e-05
-4.782169827547157e-05
-4.774729377524777e-05
-4.750132844922544e-05
-4.705168230544643e-05
-4.6433903887526913e-05
-6.977772719479217e-05
-7.057588375775385e-05
-7.111588768564988e-05
-7.13784943990816e-05
-7.14508603498312e-05
-7.137849439908074e-05
-7.111588768564901e-05
-7.057588375775325e-05
-6.977772719479197e-05
-9.359682536093803e-05
-9.428584623306868e-05
-9.464041227644026e-05
-9.473381910511601e-05
-9.473926788452054e-05
-9.473381910511544e-05
-9.464041227643939e-05
-9.428584623306818e-05
-9.359682536093783e-05
8.623764188088332e-05
8.676741779477696e-05
8.715933380989301e-05
8.736184922787256e-05
8.742086953022954e-05
8.736184922787401e-05
8.715933380989468e-05
8.676741779477862e-05
8.623764188088459e-05
6.435527188442227e-05
6.494547060066917e-05
6.543629878545356e-05
6.572925184987645e-05
6.582389033810105e-05
6.5729251849878e-05
6.543629878545469e-05
6.49454706006701e-05
6.435527188442336e-05
4.284359616906261e-05
4.328289725439037e-05
4.3669418318098997e-05
4.3916851533782476e-05
4.399982305681263e-05
4.3916851533783405e-05
4.3669418318099444e-05
4.328289725439065e-05
4.2843596169063365e-05
2.140767958099818e-05
2.1647296366037456e-05
2.1853915457632825e-05
2.1989035942611235e-05
2.2035260570032255e-05
2.1989035942610957e-05
2.185391545763269e-05
2.1647296366037707e-05
2.1407679580998534e-05
-1.340768452208832e-16
-1.3664843724874726e-16
-1.387456908261489e-16
-1.3993958376530384e-16
-1.4042662770997506e-16
-1.4055156506969507e-16
-1.3927550993465647e-16
-1.3665351944643078e-16
-1.3398875379436875e-16
-2.140767958122105e-05
-2.1647296366263383e-05
-2.1853915457861564e-05
-2.198903594284172e-05
-2.2035260570263237e-05
-2.1989035942841645e-05
-2.1853915457861642e-05
-2.1647296366263404e-05
-2.140767958122077e-05
-4.2843596169145635e-05
-4.3282897254472e-05
-4.366941831817993e-05
-4.39168515338638e-05
-4.399982305689374e-05
-4.3916851533863215e-05
-4.3669418318178916e-05
-4.32828972544713e-05
-4.2843596169145405e-05
-6.43552718842809e-05
-6.494547060051989e-05
-6.543629878530076e-05
-6.572925184972401e-05
-6.582389033794848e-05
-6.572925184972309e-05
-6.543629878529937e-05
-6.494547060051888e-05
-6.435527188428084e-05
-8.623764188043221e-05
-8.676741779431862e-05
-8.715933380943624e-05
-8.736184922742114e-05
-8.742086952978033e-05
-8.736184922742057e-05
-8.715933380943537e-05
-8.676741779431795e-05
-8.623764188043176e-05
7.867270577279365e-05
7.906093791864171e-05
7.941682202338115e-05
7.963821555929853e-05
7.971178818027923e-05
7.963821555930059e-05
7.941682202338232e-05
7.906093791864278e-05
7.867270577279525e-05
5.875692205323043e-05
5.91772799421821e-05
5.9581678471233274e-05
5.984761249722861e-05
5.993858073743021e-05
5.98476124972306e-05
5.958167847123427e-05
5.91772799421826e-05
5.8756922053231474e-05
3.913131387641565e-05
3.943013239955321e-05
3.973546632118702e-05
3.9948879284649815e-05
4.002379587906233e-05
3.994887928465065e-05
3.973546632118729e-05
3.943013239955347e-05
3.9131313876416146e-05
1.9556067589053332e-05
1.9716331609829794e-05
1.9875628702812777e-05
1.998956770865274e-05
2.0030326020579026e-05
1.998956770865221e-05
1.9875628702812178e-05
1.9716331609830147e-05
1.9556067589053915e-05
-8.063880712803027e-17
-8.138546667103494e-17
-8.21960772015573e-17
-8.316169476142721e-17
-8.353142464290371e-17
-8.375546485745247e-17
-8.323199849604931e-17
-8.146551128455047e-17
-7.972147044615387e-17
-1.955606758917134e-05
-1.9716331609948816e-05
-1.987562870293285e-05
-1.99895677087737e-05
-2.0030326020699965e-05
-1.9989567708773357e-05
-1.987562870293316e-05
-1.9716331609949114e-05
-1.9556067589170657e-05
-3.9131313876404795e-05
-3.943013239954158e-05
-3.973546632117433e-05
-3.9948879284636086e-05
-4.002379587904746e-05
-3.994887928463526e-05
-3.9735466321173094e-05
-3.943013239954103e-05
-3.913131387640486e-05
-5.875692205301511e-05
-5.917727994196081e-05
-5.958167847100858e-05
-5.984761249700281e-05
-5.993858073720296e-05
-5.984761249700186e-05
-5.958167847100717e-05
-5.9177279941959865e-05
-5.875692205301534e-05
-7.867270577229112e-05
-7.90609379181338e-05
-7.94168220228731e-05
-7.96382155587929e-05
-7.971178817977387e-05
-7.963821555879278e-05
-7.941682202287274e-05
-7.906093791813311e-05
-7.867270577229053e-05
7.098513368703274e-05
7.127157111572462e-05
7.158162148068201e-05
7.179369713115259e-05
7.186789262080429e-05
7.179369713115365e-05
7.158162148068283e-05
7.127157111572511e-05
7.098513368703341e-05
5.304620205679398e-05
5.3343734937928875e-05
5.3668876991872815e-05
5.389645484722995e-05
5.3976752120442376e-05
5.389645484723087e-05
5.3668876991873086e-05
5.334373493792919e-05
5.304620205679532e-05
3.533676565157742e-05
3.5535329414547206e-05
3.577017325101457e-05
3.5945308059663806e-05
3.6008567686584235e-05
3.5945308059663935e-05
3.577017325101404e-05
3.5535329414547734e-05
3.5336765651578734e-05
1.766131150545188e-05
1.7765194186578794e-05
1.7884308115959067e-05
1.7975763308335263e-05
1.8009487034671222e-05
1.7975763308334728e-05
1.7884308115957787e-05
1.776519418657923e-05
1.766131150545308e-05
-3.510189236716546e-17
-3.4791878308470386e-17
-3.4603413477706305e-17
-3.545425807322325e-17
-3.551227983011017e-17
-3.578248334028429e-17
-3.602346421377814e-17
-3.486980533961778e-17
-3.371064075130027e-17
-1.766131150548137e-05
-1.7765194186607912e-05
-1.788430811598751e-05
-1.7975763308364347e-05
-1.8009487034699893e-05
-1.797576330836367e-05
-1.788430811598788e-05
-1.77651941866081e-05
-1.7661311505480474e-05
-3.533676565148888e-05
-3.55353294144578e-05
-3.577017325092339e-05
-3.594530805957102e-05
-3.6008567686489964e-05
-3.5945308059569765e-05
-3.577017325092223e-05
-3.5535329414457366e-05
-3.53367656514887e-05
-5.304620205651843e-05
-5.334373493764893e-05
-5.366887699159016e-05
-5.389645484694521e-05
-5.397675212015542e-05
-5.389645484694414e-05
-5.3668876991589174e-05
-5.334373493764822e-05
-5.304620205651829e-05
-7.098513368648912e-05
-7.127157111517872e-05
-7.158162148013667e-05
-7.179369713060813e-05
-7.186789262025937e-05
-7.179369713060819e-05
-7.158162148013667e-05
-7.127157111517814e-05
-7.098513368648826e-05
6.323715511774016e-05
6.346567420221809e-05
6.374673996679134e-05
6.394902420592006e-05
6.402137835204554e-05
6.394902420591973e-05
6.374673996679213e-05
6.346567420221862e-05
6.323715511774042e-05
4.72694396498227e-05
4.7487732247120457e-05
4.7756959082551185e-05
4.795405913925219e-05
4.8024903103299784e-05
4.7954059139251874e-05
4.77569590825506e-05
4.74877322471212e-05
4.726943964982465e-05
3.148790016190058e-05
3.1621002668815765e-05
3.1805403047963194e-05
3.19505364605862e-05
3.200404947377175e-05
3.195053646058575e-05
3.1805403047962394e-05
3.162100266881676e-05
3.148790016190306e-05
1.57359694466588e-05
1.5802718072613383e-05
1.589308903333892e-05
1.5967030368927565e-05
1.5994954924418077e-05
1.596703036892712e-05
1.5893089033337796e-05
1.580271807261391e-05
1.5735969446660702e-05
2.415526207332451e-18
3.257265198666412e-18
3.811860020881165e-18
3.0986582792930442e-18
3.3879200307803878e-18
3.085317510373789e-18
2.5025588426628304e-18
3.189926079359695e-18
3.773955296491535e-18
-1.573596944661627e-05
-1.5802718072569588e-05
-1.5893089033293753e-05
-1.596703036888272e-05
-1.5994954924372303e-05
-1.5967030368881734e-05
-1.5893089033293994e-05
-1.58027180725694e-05
-1.5735969446615413e-05
-3.148790016175098e-05
-3.162100266866515e-05
-3.1805403047810016e-05
-3.1950536460430756e-05
-3.2004049473615e-05
-3.1950536460429645e-05
-3.180540304780898e-05
-3.162100266866434e-05
-3.14879001617504e-05
-4.7269439649503914e-05
-4.748773224679834e-05
-4.77569590822257e-05
-4.7954059138923476e-05
-4.802490310296943e-05
-4.795405913892289e-05
-4.775695908222463e-05
-4.748773224679724e-05
-4.726943964950342e-05
-6.323715511717445e-05
-6.346567420165128e-05
-6.374673996622482e-05
-6.394902420535306e-05
-6.402137835147834e-05
-6.394902420535252e-05
-6.374673996622433e-05
-6.346567420165055e-05
-6.323715511717318e-05
5.5478911527101195e-05
5.568832972294635e-05
5.59628829876183e-05
5.616276166360951e-05
5.6234306543723e-05
5.616276166360909e-05
5.596288298761869e-05
5.5688329722947085e-05
5.547891152710151e-05
4.145606150535784e-05
4.163066443531637e-05
4.1869548793951934e-05
4.20493371785379e-05
4.2114445199924476e-05
4.204933717853809e-05
4.186954879395173e-05
4.163066443531755e-05
4.145606150535973e-05
2.759748931204449e-05
2.7692332199801682e-05
2.7847206790147546e-05
2.797437226153355e-05
2.8021914111446268e-05
2.7974372261533777e-05
2.7847206790147522e-05
2.769233219980249e-05
2.7597489312046726e-05
1.378380160302527e-05
1.3828102279762903e-05
1.3901476990947023e-05
1.3964910811359538e-05
1.3989302039200516e-05
1.3964910811359572e-05
1.3901476990946488e-05
1.3828102279762873e-05
1.3783801603027093e-05
3.180375782879403e-17
3.287017230938719e-17
3.330724131017041e-17
3.314588153371847e-17
3.3608361522919315e-17
3.2664766819678025e-17
3.174213618188128e-17
3.2260308587364096e-17
3.335996911113699e-17
-1.3783801602927338e-05
-1.3828102279663651e-05
-1.390147699084679e-05
-1.3964910811258798e-05
-1.3989302039098882e-05
-1.3964910811259293e-05
-1.3901476990848122e-05
-1.3828102279663932e-05
-1.378380160292613e-05
-2.7597489311852538e-05
-2.7692332199609345e-05
-2.784720678995295e-05
-2.7974372261336716e-05
-2.8021914111248865e-05
-2.7974372261337472e-05
-2.7847206789953135e-05
-2.7692332199608518e-05
-2.7597489311851874e-05
-4.145606150502053e-05
-4.163066443497672e-05
-4.186954879360876e-05
-4.204933717819199e-05
-4.2114445199577965e-05
-4.20493371781928e-05
-4.186954879360789e-05
-4.163066443497504e-05
-4.145606150502009e-05
-5.547891152654893e-05
-5.568832972239313e-05
-5.596288298706456e-05
-5.616276166305562e-05
-5.6234306543169365e-05
-5.616276166305472e-05
-5.596288298706329e-05
-5.568832972239185e-05
-5.547891152654735e-05
4.775450653823858e-05
4.797100109798252e-05
4.825288117229762e-05
4.845360921994759e-05
4.8524397686515654e-05
4.845360921994678e-05
4.825288117229708e-05
4.7971001097983024e-05
4.7754506538238346e-05
3.56145202553961e-05
3.577173325988938e-05
3.600220442270799e-05
3.617709521920494e-05
3.624025185975457e-05
3.617709521920531e-05
3.600220442270843e-05
3.57717332598903e-05
3.561452025539697e-05
2.3656174203837453e-05
2.3733002594317655e-05
2.3878595914965564e-05
2.4001397165422704e-05
2.404763320863058e-05
2.400139716542359e-05
2.3878595914965998e-05
2.3733002594317774e-05
2.3656174203838704e-05
1.1795139912539292e-05
1.1827741337969677e-05
1.1896073917559007e-05
1.19575170121698e-05
1.1981393563721962e-05
1.1957517012169988e-05
1.1896073917558193e-05
1.1827741337969042e-05
1.1795139912540407e-05
5.258634646438873e-17
5.35437054530229e-17
5.482780740106042e-17
5.533052145525585e-17
5.5010554759430536e-17
5.32972188653719e-17
5.179437065870596e-17
5.231635471245142e-17
5.430730565497265e-17
-1.1795139912404272e-05
-1.1827741337833769e-05
-1.1896073917421345e-05
-1.195751701203081e-05
-1.198139356358331e-05
-1.1957517012033945e-05
-1.1896073917425052e-05
-1.1827741337834889e-05
-1.1795139912402178e-05
-2.3656174203624425e-05
-2.373300259410503e-05
-2.387859591475174e-05
-2.400139716520703e-05
-2.4047633208415093e-05
-2.400139716521e-05
-2.3878595914753528e-05
-2.373300259410442e-05
-2.3656174203623188e-05
-3.561452025506728e-05
-3.5771733259559754e-05
-3.600220442237645e-05
-3.617709521887207e-05
-3.624025185942206e-05
-3.617709521887406e-05
-3.6002204422375984e-05
-3.577173325955756e-05
-3.5614520255066094e-05
-4.775450653773864e-05
-4.797100109748325e-05
-4.8252881171798165e-05
-4.845360921944922e-05
-4.852439768601801e-05
-4.845360921944817e-05
-4.825288117179634e-05
-4.797100109748118e-05
-4.775450653773606e-05
4.009617504110166e-05
4.0323575890431954e-05
4.0609318576596544e-05
4.0807418568830845e-05
4.0876586773383306e-05
4.080741856882947e-05
4.060931857659555e-05
4.0323575890431744e-05
4.009617504110062e-05
2.9714746416054646e-05
2.9874195431247275e-05
3.0117862415091902e-05
3.030284330621797e-05
3.036929820606279e-05
3.0302843306218004e-05
3.011786241509222e-05
2.9874195431247607e-05
2.971474641605474e-05
1.9616088248435974e-05
1.9692566959389925e-05
1.985528459412934e-05
1.9994306182622122e-05
2.0046747739248595e-05
1.9994306182622647e-05
1.985528459412955e-05
1.9692566959389586e-05
1.9616088248436438e-05
9.737924107155342e-06
9.768299809187229e-06
9.84821187328579e-06
9.921302732329431e-06
9.949748577310452e-06
9.921302732328814e-06
9.848211873284533e-06
9.76829980918617e-06
9.737924107155395e-06
6.426989542234092e-17
6.516203287403651e-17
6.755066578529364e-17
6.846037917064476e-17
6.73566952403724e-17
6.529035836554554e-17
6.353911774709727e-17
6.352450642875714e-17
6.532699254051429e-17
-9.737924107001558e-06
-9.768299809032337e-06
-9.848211873128123e-06
-9.921302732170324e-06
-9.949748577152433e-06
-9.921302732174143e-06
-9.848211873133344e-06
-9.768299809033821e-06
-9.737924106999068e-06
-1.9616088248219025e-05
-1.9692566959173152e-05
-1.9855284593912827e-05
-1.999430618240484e-05
-2.004674773903184e-05
-1.999430618240772e-05
-1.985528459391527e-05
-1.969256695917288e-05
-1.9616088248217334e-05
-2.971474641575003e-05
-2.9874195430942685e-05
-3.0117862414787834e-05
-3.030284330591434e-05
-3.0369298205760656e-05
-3.0302843305916067e-05
-3.0117862414787e-05
-2.9874195430940662e-05
-2.9714746415748803e-05
-4.009617504067298e-05
-4.032357589000427e-05
-4.0609318576169605e-05
-4.0807418568405235e-05
-4.087658677295842e-05
-4.0807418568403676e-05
-4.060931857616724e-05
-4.032357589000192e-05
-4.009617504067028e-05
3.24828522614487e-05
3.269559638060922e-05
3.2976867322481295e-05
3.318393034508439e-05
3.32597844510377e-05
3.318393034508336e-05
3.2976867322480875e-05
3.2695596380608605e-05
3.248285226144733e-05
2.3642323495119237e-05
2.3832223286980924e-05
2.4136117164777786e-05
2.4370519796292948e-05
2.4455806681190612e-05
2.4370519796293128e-05
2.4136117164778077e-05
2.3832223286980775e-05
2.364232349511895e-05
1.5358878794975013e-05
1.5465080700289914e-05
1.5700554919712163e-05
1.5901286500322912e-05
1.5977126496821586e-05
1.5901286500322587e-05
1.5700554919711777e-05
1.5465080700289308e-05
1.535887879497491e-05
7.542417929208753e-06
7.586819894317012e-06
7.712155082699458e-06
7.825531290578704e-06
7.869419760292628e-06
7.825531290576607e-06
7.712155082697447e-06
7.5868198943155955e-06
7.542417929208002e-06
6.65346497650621e-17
6.694673129390132e-17
6.96263200225403e-17
7.115828498676811e-17
7.016418594404678e-17
6.731084958210226e-17
6.543911852690707e-17
6.520099638961021e-17
6.642495899839267e-17
-7.54241792905374e-06
-7.5868198941608815e-06
-7.712155082540529e-06
-7.825531290418385e-06
-7.869419760133723e-06
-7.825531290421932e-06
-7.712155082545565e-06
-7.586819894162384e-06
-7.542417929052285e-06
-1.5358878794767148e-05
-1.5465080700081554e-05
-1.57005549195056e-05
-1.590128650011776e-05
-1.597712649661788e-05
-1.590128650011987e-05
-1.5700554919508e-05
-1.5465080700082046e-05
-1.53588787947661e-05
-2.3642323494844866e-05
-2.3832223286706942e-05
-2.413611716450722e-05
-2.437051979602566e-05
-2.4455806680925707e-05
-2.4370519796026563e-05
-2.4136117164506247e-05
-2.3832223286706234e-05
-2.3642323494845076e-05
-3.24828522610931e-05
-3.26955963802528e-05
-3.297686732212655e-05
-3.3183930344732104e-05
-3.325978445068655e-05
-3.318393034473034e-05
-3.297686732212406e-05
-3.269559638025159e-05
-3.248285226109254e-05
2.4705765109136306e-05
2.488775675739345e-05
2.523881598754027e-05
2.5554446410243033e-05
2.5680488441531753e-05
2.555444641024245e-05
2.5238815987540454e-05
2.48877567573935e-05
2.4705765109135866e-05
1.710628246116948e-05
1.742522828581394e-05
1.7933725657636105e-05
1.8337758384124906e-05
1.848792659312858e-05
1.833775838412513e-05
1.7933725657636573e-05
1.7425228285814213e-05
1.710628246116965e-05
1.0646560919106182e-05
1.0868424486993643e-05
1.1312164114063765e-05
1.1683588574721055e-05
1.1823215973716133e-05
1.1683588574720174e-05
1.1312164114062764e-05
1.0868424486993214e-05
1.0646560919106045e-05
5.077207622933396e-06
5.1824874610693975e-06
5.430643855021235e-06
5.6472802160086104e-06
5.729992088492775e-06
5.647280216005849e-06
5.430643855018507e-06
5.182487461067983e-06
5.077207622932536e-06
5.633700835483077e-17
5.660959414516904e-17
6.012621024437288e-17
6.27875877646459e-17
6.245724491521672e-17
5.93277758124673e-17
5.594165572669983e-17
5.469196449214451e-17
5.564593534898967e-17
-5.0772076227997975e-06
-5.1824874609343804e-06
-5.430643854882081e-06
-5.647280215867058e-06
-5.729992088352495e-06
-5.647280215869968e-06
-5.430643854886521e-06
-5.182487460936459e-06
-5.07720762279976e-06
-1.064656091892302e-05
-1.0868424486809874e-05
-1.131216411388238e-05
-1.1683588574542455e-05
-1.1823215973539817e-05
-1.1683588574544491e-05
-1.1312164113884642e-05
-1.0868424486811636e-05
-1.0646560918923438e-05
-1.710628246092998e-05
-1.742522828557737e-05
-1.793372565740683e-05
-1.8337758383901974e-05
-1.848792659290855e-05
-1.8337758383902543e-05
-1.793372565740643e-05
-1.7425228285578365e-05
-1.7106282460931332e-05
-2.4705765108847218e-05
-2.488775675710485e-05
-2.5238815987257463e-05
-2.5554446409966765e-05
-2.5680488441258232e-05
-2.5554446409965555e-05
-2.5238815987255614e-05
-2.4887756757104806e-05
-2.470576510884732e-05
1.607125251455644e-05
1.6473000717755905e-05
1.7289680186624157e-05
1.802080541365344e-05
1.8306648812501775e-05
1.802080541365244e-05
1.728968018662405e-05
1.647300071775691e-05
1.607125251455735e-05
9.535729909959308e-06
1.0291602144069744e-05
1.1412446100833968e-05
1.2273080143291374e-05
1.2586036628378015e-05
1.2273080143291071e-05
1.1412446100834202e-05
1.0291602144071089e-05
9.535729909960618e-06
5.059407079876618e-06
5.639364989851908e-06
6.614552273227424e-06
7.381762234291624e-06
7.661088443027968e-06
7.381762234290598e-06
6.614552273226382e-06
5.639364989851668e-06
5.0594070798761854e-06
2.1240382544418124e-06
2.419705805043512e-06
2.963323035005693e-06
3.405091180144461e-06
3.5680645197339332e-06
3.4050911801431515e-06
2.963323035003649e-06
2.41970580504142e-06
2.1240382544401966e-06
2.7700273628596068e-17
3.072355259302838e-17
3.739668990973457e-17
4.262968592765124e-17
4.4477117725172073e-17
4.199070544806628e-17
3.457122622571064e-17
2.7645818674510477e-17
2.6329542709367095e-17
-2.1240382543629265e-06
-2.419705804959361e-06
-2.9633230349115154e-06
-3.405091180042953e-06
-3.5680645196304724e-06
-3.4050911800434265e-06
-2.963323034914166e-06
-2.4197058049626625e-06
-2.1240382543643343e-06
-5.059407079740955e-06
-5.639364989716107e-06
-6.614552273090906e-06
-7.381762234155211e-06
-7.661088442892602e-06
-7.381762234155728e-06
-6.6145522730919845e-06
-5.63936498971902e-06
-5.059407079743724e-06
-9.535729909762964e-06
-1.0291602143882699e-05
-1.1412446100657503e-05
-1.2273080143122635e-05
-1.2586036628212054e-05
-1.2273080143121874e-05
-1.141244610065704e-05
-1.0291602143884582e-05
-9.53572990976552e-06
-1.607125251432476e-05
-1.647300071753443e-05
-1.7289680186417257e-05
-1.8020805413458082e-05
-1.830664881231101e-05
-1.802080541345749e-05
-1.7289680186416336e-05
-1.6473000717533793e-05
-1.6071252514323e-05
5.228086169934411e-06
7.057669613991713e-06
9.344925413868891e-06
1.1040678563247065e-05
1.1653836097309661e-05
1.1040678563246795e-05
9.344925413869152e-06
7.057669613993147e-06
5.228086169936222e-06
-1.8803034701809835e-07
2.112516015271641e-06
4.723601594421048e-06
6.504548402336882e-06
7.120599755002773e-06
6.504548402336665e-06
4.723601594421713e-06
2.112516015273605e-06
-1.8803034701602016e-07
-2.174947586353903e-06
-4.350821073080975e-07
1.709768234586472e-06
3.2077186353580075e-06
3.727460396857114e-06
3.207718635357589e-06
1.7097682345868277e-06
-4.3508210730843293e-07
-2.1749475863546846e-06
-1.6751780298766373e-06
-8.00245504697799e-07
3.634578088402383e-07
1.2048878649272407e-06
1.5006031866620801e-06
1.2048878649282303e-06
3.634578088400383e-07
-8.00245504700856e-07
-1.6751780298793488e-06
-2.946926223426727e-17
-1.6077717660291087e-17
7.674647897715995e-19
1.337413738516562e-17
1.897808420314292e-17
1.5010207992566902e-17
-2.5974794723145154e-19
-1.991730477530503e-17
-3.1884067140105577e-17
1.675178029845085e-06
8.002455046909933e-07
-3.634578088171789e-07
-1.2048878648827175e-06
-1.5006031866090828e-06
-1.2048878648814343e-06
-3.6345780881763036e-07
8.002455046877741e-07
1.6751780298424783e-06
2.174947586393962e-06
4.3508210736275485e-07
-1.7097682345152e-06
-3.2077186352763824e-06
-3.7274603967724096e-06
-3.2077186352743507e-06
-1.7097682345143045e-06
4.3508210735999967e-07
2.1749475863895904e-06
1.8803034713835458e-07
-2.1125160151564113e-06
-4.723601594309698e-06
-6.504548402228623e-06
-7.120599754894858e-06
-6.504548402225216e-06
-4.723601594307621e-06
-2.1125160151579452e-06
1.880303471345929e-07
-5.228086169772432e-06
-7.057669613848951e-06
-9.34492541374381e-06
-1.1040678563133101e-05
-1.1653836097199492e-05
-1.104067856313196e-05
-9.344925413742182e-06
-7.057669613846875e-06
-5.22808616977023e-06

SCALARS STRAIN_XY float 1
LOOKUP_TABLE default
-0.00019029846035081933
-6.798065009304584e-05
-6.798065009363911e-05
-0.00019029846035027422
-0.00019029846035081873
-6.798065009304497e-05
-6.798065009362003e-05
-0.000190298460350274
-0.00010807240583284046
-2.318542859813092e-05
-2.3988713157604248e-05
-3.0726018358316187e-05
-3.628146262326111e-05
-3.999923121956441e-05
-4.228902243367247e-05
-4.362901951555521e-05
-4.4375748255783324e-05
-4.475800424306141e-05
-4.489704527283985e-05
-4.482271200888742e-05
-4.447246115064137e-05
-4.367305025966724e-05
-4.2121718663929364e-05
-3.9442467748387975e-05
-3.564163320242961e-05
-3.331162004089824e-05
-5.0546896621399794e-05
-9.875077658822286e-05
-0.00014217729744110414
-0.00016134091388231775
-0.00017074361368197687
-0.00017363909139816568
-0.00017074361368212953
-0.00016134091388261915
-0.0001421772974415916
-9.875077658881917e-05
-5.0546896621941895e-05
-3.331162004122697e-05
-3.564163320252632e-05
-3.944246774842484e-05
-4.212171866397555e-05
-4.367305025970063e-05
-4.447246115065915e-05
-4.4822712008882326e-05
-4.48970452727915e-05
-4.475800424297554e-05
-4.437574825567675e-05
-4.3629019515442104e-05
-4.228902243356915e-05
-3.999923121948104e-05
-3.628146262319473e-05
-3.0726018358243545e-05
-2.3988713157380658e-05
-2.3185428597285784e-05
-0.00010807240583190375
-0.00014454195325860428
-7.041458803289657e-05
-2.852362435499759e-05
-9.127008586838262e-06
-3.2504983623678336e-06
-9.127008586165457e-06
-2.8523624353739575e-05
-7.041458803137028e-05
-0.00014454195325810807
-0.00010807240583284001
-2.3185428598130452e-05
-2.3988713157602933e-05
-3.0726018358314316e-05
-3.628146262326077e-05
-3.999923121956412e-05
-4.2289022433670645e-05
-4.362901951555524e-05
-4.437574825578278e-05
-4.475800424305821e-05
-4.489704527283779e-05
-4.4822712008889157e-05
-4.4472461150647444e-05
-4.367305025967374e-05
-4.2121718663937604e-05
-3.944246774838624e-05
-3.564163320242354e-05
-3.331162004090128e-05
-5.0546896621401095e-05
-9.8750776588222e-05
-0.00014217729744111065
-0.0001613409138823325
-0.0001707436136819951
-0.00017363909139818043
-0.00017074361368213213
-0.00016134091388261395
-0.00014217729744158813
-9.875077658880963e-05
-5.054689662193582e-05
-3.331162004122697e-05
-3.564163320252979e-05
-3.94424677484231e-05
-4.212171866397555e-05
-4.367305025971147e-05
-4.447246115066089e-05
-4.482271200888059e-05
-4.4897045272795835e-05
-4.475800424297814e-05
-4.4375748255671976e-05
-4.36290195154369e-05
-4.228902243356633e-05
-3.999923121947974e-05
-3.6281462623193104e-05
-3.0726018358243545e-05
-2.3988713157380116e-05
-2.3185428597285567e-05
-0.00010807240583190364
-0.00014454195325860374
-7.041458803289555e-05
-2.8523624354996395e-05
-9.127008586836931e-06
-3.2504983623663954e-06
-9.12700858616404e-06
-2.8523624353738253e-05
-7.041458803136917e-05
-0.00014454195325810728
-0.00021480452947051498
-0.00025143728545793667
-0.0002699980852337527
-0.000279253213480088
-0.00028207422881833326
-0.0002792532134800878
-0.0002699980852337524
-0.0002514372854579362
-0.00021480452947051441
-6.757180039658646e-05
-6.705653627855305e-05
-6.695321938268066e-05
-6.696901592391155e-05
-6.698171493943863e-05
-6.696901592390244e-05
-6.695321938266809e-05
-6.705653627854654e-05
-6.757180039658516e-05
-6.757180039717366e-05
-6.705653627913939e-05
-6.695321938327784e-05
-6.69690159245161e-05
-6.698171494004361e-05
-6.696901592450916e-05
-6.695321938327524e-05
-6.705653627913852e-05
-6.757180039716239e-05
-0.00021480452946981798
-0.0002514372854570486
-0.00026999808523280494
-0.0002792532134791106
-0.00028207422881734685
-0.00027925321347911083
-0.00026999808523280505
-0.00025143728545704827
-0.0002148045294698176
-0.00010437296992641071
-8.644353179957601e-05
-6.342098867706189e-05
-5.04213521853117e-05
-4.621425659581252e-05
-5.04213521858424e-05
-6.342098867794218e-05
-8.644353180031819e-05
-0.0001043729699261931
-5.6756492125638983e-05
-0.00010079262084925928
-0.00011310843900571476
-0.00011497376998643515
-0.00011498834800687048
-0.00011497376998660746
-0.00011310843900581286
-0.00010079262084887437
-5.675649212484753e-05
-5.229736299294213e-05
-0.00010262270245607324
-0.0001357315569645516
-0.00015124280828904502
-0.0001556618947328232
-0.0001512428082888793
-0.00013573155696410964
-0.0001026227024553874
-5.229736299245085e-05
-5.9361219600573094e-05
-0.00011122927385153136
-0.00014965468262388893
-0.00017193216748485326
-0.00017901709658208444
-0.00017193216748453814
-0.00014965468262331984
-0.00011122927385096064
-5.936121960029695e-05
-6.67108882370619e-05
-0.00012075181856932546
-0.00016046397842731664
-0.00018462289657582696
-0.00019268115958472154
-0.0001846228965754979
-0.00016046397842679386
-0.00012075181856887094
-6.671088823685526e-05
-7.22261407160484e-05
-0.00012842666674635703
-0.00016863424312179011
-0.00019307458477681985
-0.0002012809665901618
-0.00019307458477652853
-0.00016863424312134041
-0.0001284266667459654
-7.222614071585281e-05
-7.588470273228169e-05
-0.00013385569600294603
-0.0001744794025370785
-0.00019889730206431696
-0.0002070668080294116
-0.00019889730206407201
-0.0001744794025366967
-0.00013385569600259388
-7.58847027320812e-05
-7.81510549172534e-05
-0.00013741554921623282
-0.0001784618135903539
-0.00020290613058067977
-0.0002110466420941122
-0.00020290613058048153
-0.00017846181359003983
-0.00013741554921592805
-7.81510549170615e-05
-7.947998672559265e-05
-0.00013962230623352384
-0.00018106004190280537
-0.00020561234867416575
-0.00021376500081432537
-0.00020561234867401542
-0.0001810600419025636
-0.00013962230623327837
-7.947998672542644e-05
-8.020011575491135e-05
-0.0001409029868086214
-0.00018268219750561552
-0.00020740100573472147
-0.00021560136280866608
-0.0002074010057346215
-0.00018268219750545273
-0.0001409029868084489
-8.020011575478607e-05
-8.050417024631359e-05
-0.000141544669472078
-0.00018364311414672358
-0.00020859335067280522
-0.0002168785167765226
-0.00020859335067276716
-0.00018364311414665626
-0.00014154466947199538
-8.050417024624539e-05
-8.046038642990774e-05
-0.00014169741880789232
-0.00018417464245286635
-0.0002094819957948966
-0.00021791148344892292
-0.000209481995794916
-0.00018417464245288912
-0.00014169741880789145
-8.046038642989511e-05
-8.001610809546642e-05
-0.0001413887666111384
-0.00018445109322987431
-0.00021036316894637737
-0.0002190419296150181
-0.00021036316894647365
-0.00018445109323001114
-0.00014138876661123228
-8.001610809550198e-05
-7.899430191266022e-05
-0.00014054935029119613
-0.0001846232770216057
-0.0002115524981190259
-0.0002206415892116306
-0.00021155249811921173
-0.0001846232770218797
-0.00014054935029140744
-7.899430191274891e-05
-7.711982459331892e-05
-0.0001390933065410203
-0.000184856217965186
-0.00021331873083643726
-0.00022299370830190877
-0.0002133187308367109
-0.00018485621796560233
-0.00013909330654135596
-7.711982459346085e-05
-7.419906952023229e-05
-0.00013716203616664035
-0.00018533146618673196
-0.00021556252314778148
-0.0002258305149634046
-0.00021556252314815466
-0.00018533146618730984
-0.0001371620361671213
-7.41990695204255e-05
-7.080784375792701e-05
-0.00013569141750879496
-0.00018597468001421117
-0.00021684810425842585
-0.0002271556291927111
-0.00021684810425886343
-0.00018597468001493086
-0.00013569141750946956
-7.080784375825162e-05
-7.051776707886807e-05
-0.00013699248769726176
-0.00018478858152936998
-0.00021219085526337478
-0.00022106560874579867
-0.0002121908552637857
-0.00018478858153011873
-0.000136992487698107
-7.05177670794364e-05
-8.531905567194398e-05
-0.00014045011797675345
-0.00017231053829115683
-0.00018909077951994734
-0.0001943695036886637
-0.0001890907795202069
-0.00017231053829166489
-0.00014045011797744669
-8.53190556725958e-05
-0.00012763255900365044
-0.00015622200575952195
-0.0001702212744810744
-0.00017735408806362164
-0.000179516926509678
-0.0001773540880636218
-0.00017022127448107447
-0.00015622200575952165
-0.00012763255900365
-3.3333182774790556e-05
-4.808390659131109e-05
-5.53617179983973e-05
-5.924612980824898e-05
-6.045569985087538e-05
-5.924612980824934e-05
-5.53617179983978e-05
-4.808390659131128e-05
-3.333318277479034e-05
-2.7817157983900567e-05
-3.397126492846187e-05
-3.7757507180545626e-05
-3.994029982341905e-05
-4.066251233247353e-05
-3.9940299823419226e-05
-3.775750718054653e-05
-3.397126492846232e-05
-2.78171579838998e-05
-3.1650372285834346e-05
-3.350004729715325e-05
-3.522168659338466e-05
-3.643919380453695e-05
-3.686038280325838e-05
-3.6439193804537144e-05
-3.522168659338584e-05
-3.3500047297153804e-05
-3.165037228583317e-05
-3.5515264057502326e-05
-3.4931211049550545e-05
-3.544696497137937e-05
-3.600617605583862e-05
-3.623177877627662e-05
-3.6006176055840724e-05
-3.5446964971382164e-05
-3.49312110495523e-05
-3.5515264057502644e-05
-3.8203240185446795e-05
-3.609786420876002e-05
-3.580935969826294e-05
-3.590352290522568e-05
-3.5976805680116e-05
-3.590352290522572e-05
-3.5809359698264333e-05
-3.609786420876145e-05
-3.820324018544708e-05
-3.9867455774301305e-05
-3.679854665114412e-05
-3.5945652744287775e-05
-3.569854703768176e-05
-3.5656992774144325e-05
-3.5698547037678796e-05
-3.5945652744287335e-05
-3.679854665114542e-05
-3.98674557743009e-05
-4.0835311582278734e-05
-3.716460119762571e-05
-3.5918832560992116e-05
-3.542293836669152e-05
-3.52958103576478e-05
-3.542293836669175e-05
-3.5918832560993336e-05
-3.716460119762872e-05
-4.083531158228094e-05
-4.1369092024090174e-05
-3.733420041969986e-05
-3.5822853224574974e-05
-3.515071761340339e-05
-3.496169382465874e-05
-3.515071761340182e-05
-3.5822853224575326e-05
-3.7334200419704086e-05
-4.136909202409299e-05
-4.163828084879025e-05
-3.739474648050629e-05
-3.571034019928622e-05
-3.491741053621817e-05
-3.468507618035549e-05
-3.491741053621405e-05
-3.571034019928584e-05
-3.739474648050908e-05
-4.16382808487896e-05
-4.172932135917246e-05
-3.738041324299749e-05
-3.5587491841149687e-05
-3.471378942693958e-05
-3.445182421206921e-05
-3.4713789426937575e-05
-3.558749184114584e-05
-3.73804132429931e-05
-4.172932135916937e-05
-4.1655186400647176e-05
-3.727429411077855e-05
-3.541547954042062e-05
-3.448774093765681e-05
-3.420545022362009e-05
-3.448774093765014e-05
-3.5415479540413576e-05
-3.727429411077497e-05
-4.1655186400647284e-05
-4.135067988205951e-05
-3.699888585344485e-05
-3.510015969988389e-05
-3.413482005252188e-05
-3.383819379868479e-05
-3.413482005251462e-05
-3.5100159699881506e-05
-3.699888585345006e-05
-4.135067988206612e-05
-4.065200777500998e-05
-3.639259463879361e-05
-3.446869128385509e-05
-3.347702702802236e-05
-3.3170895475569356e-05
-3.347702702802453e-05
-3.446869128385878e-05
-3.63925946387961e-05
-4.0652007775013885e-05
-3.927514521277829e-05
-3.518602859984524e-05
-3.325013842690554e-05
-3.22494594328901e-05
-3.194212745003314e-05
-3.2249459432893675e-05
-3.325013842690977e-05
-3.518602859984817e-05
-3.927514521278393e-05
-3.6863711891059817e-05
-3.3049246492196935e-05
-3.113989587489132e-05
-3.0177406211201658e-05
-2.9888557623284728e-05
-3.0177406211205236e-05
-3.113989587489436e-05
-3.3049246492201055e-05
-3.686371189106177e-05
-3.341971438848351e-05
-3.0037321790008387e-05
-2.8293981524847925e-05
-2.7477914461399543e-05
-2.724471387858152e-05
-2.747791446139564e-05
-2.829398152484207e-05
-3.003732179000145e-05
-3.341971438847657e-05
-3.1548360555146236e-05
-2.8913711359627005e-05
-2.7662012478725647e-05
-2.7148372545778574e-05
-2.7015041783965202e-05
-2.7148372545777923e-05
-2.766201247872283e-05
-2.8913711359621584e-05
-3.1548360555144934e-05
-4.959142954661603e-05
-4.8258044950323e-05
-4.775764444178341e-05
-4.760504487786492e-05
-4.75749283009785e-05
-4.760504487786709e-05
-4.775764444178189e-05
-4.8258044950320834e-05
-4.959142954661646e-05
-9.769288872343179e-05
-9.627615903429632e-05
-9.581616120526689e-05
-9.569179572763804e-05
-9.56685862546938e-05
-9.569179572763349e-05
-9.58161612052593e-05
-9.627615903429264e-05
-9.769288872343114e-05
-0.00013972460981479798
-0.0001365319574126295
-0.00013549647005218872
-0.0001351012427061246
-0.000135001537944642
-0.00013510124270612635
-0.0001354964700521846
-0.0001365319574126295
-0.00013972460981480405
-0.00015763946270670281
-0.0001529673380459035
-0.00015156722553320606
-0.00015097635697768584
-0.00015081492744968453
-0.00015097635697769625
-0.00015156722553320671
-0.00015296733804590046
-0.00015763946270671105
-0.00016630429754396422
-0.00016072973706737596
-0.00015910155215141707
-0.00015841866862683187
-0.00015822872567963255
-0.00015841866862684184
-0.000159101552151424
-0.00016072973706737206
-0.00016630429754396986
-0.00016896491225387418
-0.00016309293107819294
-0.00016138249031297756
-0.0001606725331792032
-0.0001604752147792536
-0.00016067253317920104
-0.00016138249031297496
-0.0001630929310781886
-0.00016896491225387852
-0.00016630429754409997
-0.00016072973706749696
-0.000159101552151545
-0.0001584186686269559
-0.00015822872567973923
-0.00015841866862693725
-0.00015910155215152506
-0.00016072973706748699
-0.00016630429754409867
-0.0001576394627069871
-0.00015296733804616826
-0.00015156722553347473
-0.00015097635697795776
-0.00015081492744993584
-0.0001509763569779274
-0.0001515672255334448
-0.00015296733804615308
-0.00015763946270698059
-0.00013972460981527546
-0.00013653195741309505
-0.0001354964700526545
-0.00013510124270659646
-0.0001350015379451056
-0.00013510124270657087
-0.0001354964700526276
-0.00013653195741307987
-0.00013972460981526895
-9.769288872402181e-05
-9.627615903488266e-05
-9.58161612058593e-05
-9.569179572823782e-05
-9.566858625529272e-05
-9.569179572822394e-05
-9.581616120584715e-05
-9.627615903487615e-05
-9.7692888724014e-05
-4.959142954715076e-05
-4.825804495085144e-05
-4.7757644442319655e-05
-4.760504487841223e-05
-4.757492830152711e-05
-4.760504487841223e-05
-4.775764444232486e-05
-4.825804495085665e-05
-4.959142954714902e-05
-3.1548360555466726e-05
-2.891371135993817e-05
-2.7662012479042018e-05
-2.714837254610405e-05
-2.7015041784296968e-05
-2.7148372546111424e-05
-2.7662012479046788e-05
-2.891371135993817e-05
-3.154836055546629e-05
-3.341971438858282e-05
-3.003732179010987e-05
-2.8293981524951575e-05
-2.7477914461505795e-05
-2.724471387869059e-05
-2.747791446150883e-05
-2.8293981524949406e-05
-3.0037321790103797e-05
-3.3419714388581954e-05
-3.686371189110709e-05
-3.304924649224963e-05
-3.113989587493187e-05
-3.0177406211235377e-05
-2.9888557623317796e-05
-3.017740621123928e-05
-3.113989587493534e-05
-3.304924649224876e-05
-3.686371189110492e-05
-3.927514521282621e-05
-3.51860285998898e-05
-3.3250138426936006e-05
-3.224945943290864e-05
-3.194212745004886e-05
-3.224945943291254e-05
-3.3250138426939475e-05
-3.518602859989197e-05
-3.927514521282795e-05
-4.065200777504446e-05
-3.639259463882917e-05
-3.446869128388491e-05
-3.347702702804155e-05
-3.317089547558356e-05
-3.3477027028040686e-05
-3.446869128388079e-05
-3.639259463883047e-05
-4.065200777505422e-05
-4.135067988208043e-05
-3.6998885853468597e-05
-3.510015969990406e-05
-3.413482005253598e-05
-3.383819379869737e-05
-3.413482005252882e-05
-3.51001596998969e-05
-3.69988858534699e-05
-4.135067988208455e-05
-4.1655186400642134e-05
-3.727429411077036e-05
-3.5415479540408046e-05
-3.448774093764385e-05
-3.420545022360822e-05
-3.448774093763908e-05
-3.541547954040848e-05
-3.727429411077708e-05
-4.165518640064495e-05
-4.1729321359125406e-05
-3.7380413242950545e-05
-3.558749184109748e-05
-3.471378942688174e-05
-3.4451824212011805e-05
-3.471378942688304e-05
-3.558749184109618e-05
-3.738041324295141e-05
-4.1729321359129526e-05
-4.163828084870701e-05
-3.739474648042332e-05
-3.5710340199194765e-05
-3.491741053611615e-05
-3.4685076180250704e-05
-3.491741053611463e-05
-3.571034019919043e-05
-3.739474648041855e-05
-4.163828084870658e-05
-4.136909202398379e-05
-3.733420041958629e-05
-3.58228532244462e-05
-3.515071761326315e-05
-3.496169382451414e-05
-3.515071761326185e-05
-3.5822853224446415e-05
-3.733420041958282e-05
-4.136909202397793e-05
-4.083531158215767e-05
-3.716460119748623e-05
-3.591883256083301e-05
-3.542293836651623e-05
-3.5295810357464474e-05
-3.5422938366513846e-05
-3.591883256083084e-05
-3.7164601197482976e-05
-4.083531158215279e-05
-3.986745577417769e-05
-3.6798546650985e-05
-3.594565274410097e-05
-3.5698547037472527e-05
-3.565699277392623e-05
-3.569854703747101e-05
-3.594565274410032e-05
-3.679854665098478e-05
-3.986745577417585e-05
-3.820324018532519e-05
-3.6097864208577764e-05
-3.580935969804179e-05
-3.590352290497821e-05
-3.597680567985959e-05
-3.5903522904979514e-05
-3.580935969804298e-05
-3.6097864208578306e-05
-3.8203240185324646e-05
-3.551526405737364e-05
-3.493121104932752e-05
-3.5446964971101085e-05
-3.6006176055525295e-05
-3.623177877595189e-05
-3.600617605552725e-05
-3.544696497110168e-05
-3.4931211049327084e-05
-3.551526405737277e-05
-3.1650372285666145e-05
-3.350004729683962e-05
-3.522168659298819e-05
-3.64391938040913e-05
-3.686038280279716e-05
-3.6439193804092005e-05
-3.522168659298835e-05
-3.350004729683957e-05
-3.16503722856662e-05
-2.7817157983528625e-05
-3.3971264927858206e-05
-3.775750717981293e-05
-3.99402998226207e-05
-4.066251233165563e-05
-3.994029982262116e-05
-3.77575071798132e-05
-3.3971264927858125e-05
-2.781715798352819e-05
-3.333318277372705e-05
-4.8083906589910396e-05
-5.536171799682306e-05
-5.924612980659709e-05
-6.0455699849200744e-05
-5.924612980659753e-05
-5.5361717996823496e-05
-4.808390658991065e-05
-3.3333182773726995e-05
-0.00012763255900250992
-0.0001562220057580914
-0.00017022127447951908
-0.00017735408806201114
-0.00017951692650805084
-0.00017735408806201125
-0.00017022127447951921
-0.0001562220057580914
-0.00012763255900250984
-0.00017064951629952856
-0.00020902589592033016
-0.00022780882061687022
-0.00023715639615625613
-0.00023998986357897932
-0.00023715639615625608
-0.00022780882061687
-0.00020902589592032968
-0.00017064951629952796
-9.786126079179712e-05
-0.00013746946786549893
-0.00015605034037869436
-0.00016524646945773912
-0.0001680232603383896
-0.00016524646945773882
-0.00015605034037869384
-0.00013746946786549822
-9.786126079179622e-05
-5.569225950565895e-05
-9.459790120990106e-05
-0.00011246887711982657
-0.00012125931431098216
-0.00012391578214579295
-0.00012125931431098193
-0.00011246887711982602
-9.459790120990023e-05
-5.5692259505657876e-05
-3.6290655546304475e-05
-7.49388252382983e-05
-9.237760558170047e-05
-0.00010090457457512548
-0.00010347728595767591
-0.00010090457457512532
-9.237760558169998e-05
-7.493882523829746e-05
-3.6290655546303317e-05
-3.0424810535478476e-05
-6.900627740401605e-05
-8.62985816800336e-05
-9.47238806101935e-05
-9.726402995976273e-05
-9.472388061019331e-05
-8.629858168003313e-05
-6.900627740401523e-05
-3.0424810535477253e-05
-3.629065554564889e-05
-7.493882523765314e-05
-9.237760558104335e-05
-0.00010090457457446032
-0.00010347728595700777
-0.00010090457457446001
-9.237760558104289e-05
-7.493882523765234e-05
-3.629065554564766e-05
-5.569225950443259e-05
-9.459790120869356e-05
-0.00011246887711859796
-0.00012125931430974068
-0.00012391578214454682
-0.00012125931430974045
-0.00011246887711859766
-9.45979012086929e-05
-5.569225950443146e-05
-9.786126079032284e-05
-0.00013746946786406304
-0.00015605034037723684
-0.00016524646945626897
-0.0001680232603369149
-0.000165246469456269
-0.00015605034037723673
-0.0001374694678640625
-9.78612607903219e-05
-0.00017064951629914128
-0.00020902589592006519
-0.0002278088206166255
-0.00023715639615602073
-0.00023998986357874638
-0.00023715639615602073
-0.00022780882061662535
-0.00020902589592006475
-0.00017064951629914058
-0.00010437296992640984
-8.644353179957469e-05
-6.34209886770605e-05
-5.0421352185310284e-05
-4.621425659581106e-05
-5.042135218584106e-05
-6.342098867794099e-05
-8.6443531800317e-05
-0.00010437296992619246
-5.6756492125637926e-05
-0.00010079262084925778
-0.00011310843900571324
-0.00011497376998643357
-0.00011498834800686899
-0.00011497376998660614
-0.00011310843900581147
-0.00010079262084887247
-5.675649212484638e-05
-5.2297362992940716e-05
-0.00010262270245607209
-0.0001357315569645503
-0.0001512428082890434
-0.0001556618947328217
-0.000151242808288878
-0.0001357315569641081
-0.00010262270245538525
-5.229736299244942e-05
-5.936121960057179e-05
-0.00011122927385153103
-0.00014965468262388847
-0.0001719321674848521
-0.00017901709658208292
-0.00017193216748453662
-0.00014965468262331813
-0.00011122927385095872
-5.936121960029608e-05
-6.671088823706196e-05
-0.00012075181856932555
-0.00016046397842731623
-0.00018462289657582582
-0.0001926811595847198
-0.00018462289657549628
-0.00016046397842679175
-0.00012075181856886823
-6.671088823685309e-05
-7.222614071604808e-05
-0.00012842666674635602
-0.00016863424312178786
-0.00019307458477681673
-0.00020128096659015842
-0.00019307458477652506
-0.0001686342431213369
-0.0001284266667459626
-7.222614071585108e-05
-7.588470273227875e-05
-0.00013385569600294283
-0.0001744794025370749
-0.0001988973020643123
-0.00020706680802940662
-0.00019889730206406676
-0.0001744794025366915
-0.00013385569600258922
-7.588470273207784e-05
-7.815105491725048e-05
-0.00013741554921622846
-0.00017846181359034948
-0.00020290613058067468
-0.0002110466420941077
-0.0002029061305804759
-0.00017846181359003235
-0.0001374155492159196
-7.815105491705467e-05
-7.947998672559015e-05
-0.0001396223062335203
-0.00018106004190280125
-0.00020561234867416
-0.0002137650008143206
-0.0002056123486740114
-0.00018106004190255915
-0.00013962230623327263
-7.947998672542058e-05
-8.020011575490688e-05
-0.0001409029868086175
-0.00018268219750561298
-0.00020740100573471843
-0.00021560136280866391
-0.00020740100573462086
-0.00018268219750545447
-0.0001409029868084515
-8.020011575478824e-05
-8.050417024630849e-05
-0.0001415446694720735
-0.00018364311414672586
-0.00020859335067281118
-0.00021687851677652792
-0.0002085933506727703
-0.00018364311414665777
-0.00014154466947199624
-8.0504170246248e-05
-8.04603864299046e-05
-0.00014169741880788733
-0.00018417464245286624
-0.0002094819957948991
-0.00021791148344892932
-0.0002094819957949264
-0.00018417464245289888
-0.00014169741880789687
-8.046038642989554e-05
-8.001610809546479e-05
-0.00014138876661113286
-0.00018445109322987182
-0.00021036316894637445
-0.00021904192961501702
-0.0002103631689464743
-0.0001844510932300185
-0.00014138876661124377
-8.00161080955074e-05
-7.899430191266206e-05
-0.00014054935029119667
-0.00018462327702160766
-0.0002115524981190248
-0.000220641589211628
-0.00021155249811920717
-0.0001846232770218797
-0.00014054935029141503
-7.899430191275888e-05
-7.711982459332738e-05
-0.00013909330654102874
-0.0001848562179651925
-0.00021331873083643943
-0.00022299370830190963
-0.000213318730836712
-0.00018485621796560212
-0.00013909330654135596
-7.711982459346106e-05
-7.419906952023272e-05
-0.0001371620361666423
-0.0001853314661867337
-0.0002155625231477845
-0.0002258305149634085
-0.00021556252314815618
-0.00018533146618731006
-0.00013716203616712412
-7.41990695204268e-05
-7.080784375792268e-05
-0.000135691417508793
-0.00018597468001420856
-0.00021684810425842433
-0.000227155629192715
-0.0002168481042588706
-0.00018597468001493758
-0.0001356914175094752
-7.080784375825596e-05
-7.051776707886893e-05
-0.0001369924876972622
-0.00018478858152936846
-0.00021219085526336915
-0.0002210656087457952
-0.000212190855263787
-0.0001847885815301222
-0.00013699248769811004
-7.05177670794377e-05
-8.531905567194333e-05
-0.00014045011797675561
-0.0001723105382911616
-0.00018909077951995146
-0.00019436950368866696
-0.00018909077952020516
-0.00017231053829166185
-0.0001404501179774493
-8.531905567259624e-05
-0.00012647912769315117
-0.000159246461109554
-0.00017564628461710146
-0.00018389550217184648
-0.00018640607186870661
-0.00018389550217184686
-0.00017564628461710149
-0.00015924646110955347
-0.00012647912769315039
-0.00011078007096106837
-0.00014731752145663173
-0.0001659668915176271
-0.0001752478090934964
-0.00017808026794244146
-0.00017524780909349667
-0.000165966891517627
-0.00014731752145663108
-0.00011078007096106728
-8.739514048214375e-05
-0.00012330053733433438
-0.00014151563302147873
-0.00015055808074611473
-0.0001533166778307151
-0.0001505580807461145
-0.00014151563302147838
-0.00012330053733433373
-8.73951404821426e-05
-7.434834765570548e-05
-0.0001099418635942041
-0.00012771725085753566
-0.00013650421549300367
-0.00013918231333324494
-0.00013650421549300332
-0.00012771725085753495
-0.00010994186359420318
-7.434834765570426e-05
-7.014085988674448e-05
-0.00010564677897354794
-0.0001232657239543728
-0.00013195097140083508
-0.00013459658966234387
-0.00013195097140083475
-0.00012326572395437212
-0.00010564677897354697
-7.014085988674323e-05
-7.434834765621416e-05
-0.00010994186359469379
-0.00012771725085803368
-0.00013650421549351005
-0.00013918231333375427
-0.00013650421549350983
-0.0001277172508580332
-0.00010994186359469293
-7.434834765621298e-05
-8.73951404829825e-05
-0.00012330053733513362
-0.00014151563302228652
-0.00015055808074693276
-0.00015331667783153674
-0.0001505580807469325
-0.000141515633022286
-0.00012330053733513276
-8.73951404829814e-05
-0.00011078007096173443
-0.0001473175214572032
-0.00016596689151817743
-0.00017524780909404362
-0.00017808026794298806
-0.00017524780909404327
-0.00016596689151817683
-0.00014731752145720245
-0.00011078007096173342
-0.00012647912769278073
-0.00015924646110896957
-0.00017564628461643112
-0.00018389550217114112
-0.00018640607186799074
-0.000183895502171141
-0.00017564628461643088
-0.00015924646110896927
-0.00012647912769278024
-7.036060745512011e-05
-9.131944821294244e-05
-0.00010279297745718616
-0.00010877352102418956
-0.00011063526077529074
-0.00010877352102419026
-0.00010279297745718656
-9.131944821294218e-05
-7.036060745511932e-05
-0.00011801563974885452
-0.00014582587359025955
-0.00016229062402990782
-0.0001708200879240316
-0.00017347201632031704
-0.0001708200879240321
-0.00016229062402990798
-0.00014582587359025898
-0.00011801563974885333
-0.0001304742870592776
-0.00015887052526748836
-0.0001760959227874905
-0.00018508510105262572
-0.00018787927195240667
-0.00018508510105262545
-0.00017609592278749022
-0.00015887052526748774
-0.00013047428705927636
-0.00013231793250873116
-0.00016060304321142727
-0.00017770793982005247
-0.00018665642450882617
-0.00018944096076937473
-0.00018665642450882577
-0.00017770793982005184
-0.0001606030432114263
-0.00013231793250872975
-0.00013233053826121642
-0.0001605617932338627
-0.00017758104520900227
-0.00018648191052037186
-0.00018925258857490214
-0.00018648191052037145
-0.00017758104520900148
-0.00016056179323386155
-0.00013233053826121503
-0.00013231793250887027
-0.00016060304321152374
-0.0001777079398201382
-0.00018665642450891069
-0.0001894409607694592
-0.00018665642450891012
-0.00017770793982013733
-0.00016060304321152281
-0.00013231793250886913
-0.00013047428705930693
-0.0001588705252674192
-0.00017609592278738128
-0.00018508510105250288
-0.00018787927195228036
-0.00018508510105250223
-0.00017609592278738036
-0.00015887052526741816
-0.00013047428705930569
-0.00011801563974834084
-0.00014582587358953983
-0.0001622906240290773
-0.0001708200879231545
-0.00017347201631942667
-0.00017082008792315397
-0.0001622906240290765
-0.00014582587358953877
-0.00011801563974833923
-7.036060745413457e-05
-9.131944821164847e-05
-0.00010279297745572578
-0.00010877352102265597
-0.00011063526077373574
-0.00010877352102265595
-0.00010279297745572572
-9.131944821164816e-05
-7.03606074541337e-05
-5.871075631883279e-05
-6.942346257243675e-05
-7.638094490204213e-05
-8.031351882602854e-05
-8.1587923348123e-05
-8.031351882602902e-05
-7.63809449020428e-05
-6.942346257243694e-05
-5.8710756318831936e-05
-0.00011236046358424097
-0.0001292672011333287
-0.00014088534110758347
-0.00014743664574928301
-0.0001495387868376477
-0.0001474366457492828
-0.00014088534110758328
-0.00012926720113332836
-0.0001123604635842401
-0.0001463317338043363
-0.0001652249054534213
-0.0001787484212971752
-0.0001864512020226015
-0.00018892346171357375
-0.00018645120202260044
-0.0001787484212971743
-0.00016522490545342055
-0.0001463317338043352
-0.00016198571129831876
-0.00018129161317607394
-0.00019531584639876577
-0.00020336882390564363
-0.00020596056705831075
-0.00020336882390564263
-0.0001953158463987647
-0.00018129161317607308
-0.00016198571129831746
-0.00016642452750264102
-0.00018579215749549345
-0.00019990114979474269
-0.00020802179743594108
-0.0002106384500009247
-0.00020802179743594038
-0.00019990114979474174
-0.00018579215749549264
-0.0001664245275026399
-0.00016198571129810883
-0.0001812916131757935
-0.00019531584639844474
-0.00020336882390530221
-0.00020596056705796356
-0.0002033688239053016
-0.0001953158463984438
-0.0001812916131757929
-0.00016198571129810797
-0.0001463317338037991
-0.00016522490545272566
-0.00017874842129638087
-0.00018645120202175698
-0.00018892346171271496
-0.0001864512020217567
-0.00017874842129638038
-0.00016522490545272493
-0.00014633173380379787
-0.00011236046358339707
-0.0001292672011322187
-0.00014088534110630557
-0.00014743664574792093
-0.0001495387868362613
-0.000147436645747921
-0.00014088534110630563
-0.00012926720113221756
-0.00011236046358339498
-5.871075631817104e-05
-6.942346257149771e-05
-7.63809449009379e-05
-8.031351882484152e-05
-8.158792334691145e-05
-8.031351882484167e-05
-7.638094490093806e-05
-6.942346257149707e-05
-5.8710756318169644e-05
-6.144652765711454e-05
-6.55831051727464e-05
-6.919306662571341e-05
-7.156287787352655e-05
-7.23739971274634e-05
-7.156287787352752e-05
-6.919306662571466e-05
-6.558310517274681e-05
-6.144652765711373e-05
-0.00011510632940284863
-0.0001229088959570274
-0.00012968301650778002
-0.00013399200542701597
-0.0001354523847983607
-0.00013399200542701592
-0.00012968301650778002
-0.00012290889595702707
-0.00011510632940284817
-0.00015436082872276918
-0.00016408376893956464
-0.00017274457289628506
-0.0001782446928431897
-0.00018010080295128894
-0.000178244692843189
-0.00017274457289628395
-0.0001640837689395636
-0.00015436082872276853
-0.00017687641629610893
-0.00018729066622684773
-0.000196770970767607
-0.0002028265865826044
-0.0002048718989763256
-0.00020282658658260424
-0.0001967709707676061
-0.00018729066622684656
-0.0001768764162961079
-0.00018400115092389343
-0.00019456542344017217
-0.0002042543821000381
-0.00021046123639021318
-0.00021255935019499206
-0.00021046123639021285
-0.00020425438210003728
-0.00019456542344017106
-0.00018400115092389208
-0.0001768764162957456
-0.0001872906662263993
-0.0001967709707670989
-0.0002028265865820625
-0.00020487189897577273
-0.00020282658658206214
-0.0001967709707670982
-0.00018729066622639846
-0.00017687641629574437
-0.0001543608287221003
-0.00016408376893871948
-0.00017274457289531635
-0.00017824469284215245
-0.0001801008029502305
-0.00017824469284215275
-0.00017274457289531662
-0.00016408376893871897
-0.0001543608287220989
-0.000115106329402134
-0.00012290889595606452
-0.00012968301650665004
-0.00013399200542579516
-0.00013545238479711202
-0.0001339920054257959
-0.00012968301650665077
-0.0001229088959560635
-0.00011510632940213193
-6.144652765670996e-05
-6.558310517213264e-05
-6.919306662496946e-05
-7.156287787271024e-05
-7.237399712662395e-05
-7.156287787271062e-05
-6.919306662496962e-05
-6.558310517213185e-05
-6.144652765670887e-05
-6.613624292913699e-05
-6.61224066577731e-05
-6.740123356518652e-05
-6.856379363728027e-05
-6.900833583852242e-05
-6.856379363728285e-05
-6.740123356518946e-05
-6.612240665777465e-05
-6.613624292913738e-05
-0.00012069995144040578
-0.00012201151845357213
-0.00012480728323144446
-0.00012707877361457104
-0.00012791793336191146
-0.00012707877361457196
-0.000124807283231446
-0.00012201151845357294
-0.00012069995144040586
-0.00016088804023333398
-0.00016337279297205185
-0.0001674156347155195
-0.00017052771466483682
-0.00017165764380338704
-0.00017052771466483704
-0.0001674156347155199
-0.00016337279297205207
-0.0001608880402333338
-0.00018523104873658042
-0.00018828859664993621
-0.00019304163847436477
-0.00019664469450266525
-0.00019794410445913977
-0.00019664469450266593
-0.00019304163847436528
-0.00018828859664993621
-0.0001852310487365798
-0.00019332869808643492
-0.00019654104199679976
-0.00020151107182145235
-0.0002052700956859338
-0.00020662389513441385
-0.00020527009568593348
-0.00020151107182145208
-0.00019654104199679905
-0.00019332869808643354
-0.00018523104873620857
-0.00018828859664948426
-0.0001930416384738502
-0.00019664469450211274
-0.00019794410445857403
-0.0001966446945021118
-0.00019304163847384852
-0.00018828859664948258
-0.00018523104873620713
-0.00016088804023272666
-0.00016337279297128874
-0.0001674156347146387
-0.0001705277146638871
-0.00017165764380241443
-0.0001705277146638862
-0.00016741563471463756
-0.00016337279297128763
-0.00016088804023272512
-0.00012069995143983956
-0.00012201151845280865
-0.00012480728323054072
-0.00012707877361358655
-0.00012791793336090063
-0.00012707877361358655
-0.0001248072832305404
-0.00012201151845280713
-0.00012069995143983717
-6.613624292883973e-05
-6.612240665732682e-05
-6.74012335646433e-05
-6.856379363667954e-05
-6.900833583790242e-05
-6.856379363668065e-05
-6.74012335646431e-05
-6.612240665732519e-05
-6.613624292883783e-05
-6.999299261191113e-05
-6.731242155108486e-05
-6.696275924088743e-05
-6.721150036788038e-05
-6.736248084838225e-05
-6.721150036788156e-05
-6.696275924088842e-05
-6.731242155108539e-05
-6.999299261191121e-05
-0.00012583323778481365
-0.00012276123693650363
-0.00012257680691575595
-0.00012317690522558808
-0.00012348286166940175
-0.0001231769052255888
-0.000122576806915756
-0.0001227612369365034
-0.00012583323778481308
-0.00016617499156484252
-0.00016348583889625048
-0.00016378787657326437
-0.0001647679081835162
-0.00016521600100511004
-0.00016476790818351672
-0.0001637878765732643
-0.00016348583889624977
-0.00016617499156484092
-0.00019069060829632648
-0.0001882940300332273
-0.0001889993821398494
-0.00019026670068276265
-0.0001908160653364484
-0.00019026670068276333
-0.00018899938213984952
-0.00018829403003322643
-0.00019069060829632423
-0.00019891496399413187
-0.00019661187725344666
-0.00019746046618105128
-0.00019883191761900607
-0.00019941769598470093
-0.00019883191761900574
-0.00019746046618105098
-0.00019661187725344612
-0.00019891496399412968
-0.00019069060829600125
-0.00018829403003283598
-0.00018899938213940342
-0.00019026670068228256
-0.00019081606533595646
-0.0001902667006822824
-0.0001889993821394024
-0.00018829403003283468
-0.0001906906082959989
-0.00016617499156432915
-0.00016348583889561527
-0.00016378787657253213
-0.00016476790818272576
-0.0001652160010042999
-0.00016476790818272582
-0.00016378787657253213
-0.0001634858388956143
-0.0001661749915643265
-0.0001258332377843432
-0.00012276123693588935
-0.00012257680691503322
-0.00012317690522480103
-0.00012348286166859353
-0.00012317690522480182
-0.00012257680691503346
-0.00012276123693588778
-0.00012583323778434056
-6.99929926116559e-05
-6.73124215507279e-05
-6.696275924045913e-05
-6.721150036740784e-05
-6.736248084789482e-05
-6.721150036740915e-05
-6.696275924045924e-05
-6.731242155072657e-05
-6.99929926116543e-05
-7.262521400627925e-05
-6.823249989707666e-05
-6.674432283257282e-05
-6.631438779073795e-05
-6.623940443020647e-05
-6.63143877907372e-05
-6.674432283257221e-05
-6.823249989707615e-05
-7.262521400627742e-05
-0.00012965061054964554
-0.00012369359266467544
-0.00012138163880973076
-0.00012070392329111145
-0.00012058622919576763
-0.00012070392329111164
-0.00012138163880972966
-0.0001236935926646736
-0.00012965061054964294
-0.00017014736990334352
-0.000163945329512265
-0.00016147457436072605
-0.00016075783614111824
-0.00016064184531570632
-0.00016075783614111867
-0.0001614745743607252
-0.00016394532951226302
-0.00017014736990334054
-0.00019453909342324535
-0.00018835103150667692
-0.00018595895489315439
-0.00018530415105238155
-0.000185211570549635
-0.00018530415105238237
-0.00018595895489315365
-0.00018835103150667443
-0.0001945390934232415
-0.00020270169590076527
-0.000196532136175081
-0.0001941890457633648
-0.0001935702478608526
-0.00019349009277301872
-0.00019357024786085218
-0.00019418904576336312
-0.00019653213617507777
-0.00020270169590076075
-0.00019453909342297669
-0.0001883510315063607
-0.00018595895489279752
-0.00018530415105199872
-0.00018521157054924258
-0.0001853041510519983
-0.00018595895489279579
-0.00018835103150635757
-0.0001945390934229721
-0.00017014736990291767
-0.00016394532951175428
-0.00016147457436014627
-0.00016075783614049506
-0.00016064184531506756
-0.00016075783614049506
-0.00016147457436014605
-0.00016394532951175296
-0.0001701473699029139
-0.00012965061054924173
-0.0001236935926641765
-0.0001213816388091571
-0.00012070392329048985
-0.00012058622919512956
-0.0001207039232904905
-0.00012138163880915628
-0.0001236935926641746
-0.00012965061054923832
-7.262521400604313e-05
-6.823249989677718e-05
-6.67443228322242e-05
-6.631438779035488e-05
-6.623940442981098e-05
-6.631438779035461e-05
-6.674432283222263e-05
-6.823249989677539e-05
-7.262521400604063e-05
-7.426973992502814e-05
-6.879622817263488e-05
-6.652604275907968e-05
-6.56054939279076e-05
-6.536293375012281e-05
-6.56054939279082e-05
-6.652604275908076e-05
-6.879622817263601e-05
-7.426973992502724e-05
-0.00013221304756623248
-0.00012440378469778904
-0.00012062532553153226
-0.00011901952658404672
-0.00011858542558437491
-0.00011901952658404688
-0.00012062532553153255
-0.0001244037846977884
-0.00013221304756622947
-0.00017294891373795815
-0.0001644466165292947
-0.00016003243564080772
-0.0001580633820716721
-0.00015751911203475588
-0.000158063382071672
-0.00016003243564080666
-0.0001644466165292929
-0.00017294891373795495
-0.0001972887294851903
-0.00018858064852987045
-0.00018398094502173777
-0.0001818841756298623
-0.0001812964298862893
-0.0001818841756298613
-0.00018398094502173433
-0.00018858064852986662
-0.00019728872948518618
-0.00020540155835909488
-0.00019664777824902153
-0.0001920144168676858
-0.00018989259079527375
-0.00018929542972914105
-0.00018989259079527123
-0.00019201441686768036
-0.00019664777824901551
-0.0002054015583590899
-0.0001972887294849783
-0.0001885806485296296
-0.00018398094502146975
-0.0001818841756295768
-0.00018129642988599768
-0.00018188417562957436
-0.00018398094502146477
-0.00018858064852962336
-0.0001972887294849723
-0.00017294891373761788
-0.00016444661652890308
-0.0001600324356403715
-0.00015806338207120595
-0.00015751911203427808
-0.00015806338207120297
-0.00016003243564036764
-0.00016444661652889852
-0.00017294891373761153
-0.00013221304756589768
-0.0001244037846973985
-0.00012062532553109488
-0.00011901952658357616
-0.00011858542558389147
-0.00011901952658357329
-0.0001206253255310906
-0.00012440378469739358
-0.00013221304756589074
-7.426973992481789e-05
-6.879622817238939e-05
-6.652604275880254e-05
-6.560549392760644e-05
-6.53629337498117e-05
-6.560549392760421e-05
-6.652604275879891e-05
-6.879622817238483e-05
-7.426973992481192e-05
-7.52346687842365e-05
-6.909853388026828e-05
-6.630642387856732e-05
-6.504283718989894e-05
-6.468054354031906e-05
-6.504283718989832e-05
-6.630642387856763e-05
-6.909853388027017e-05
-7.523466878423659e-05
-0.0001338222230652097
-0.000124859094052622
-0.00012010342343808059
-0.00011785165644184783
-0.00011719251421588318
-0.0001178516564418487
-0.00012010342343808119
-0.0001248590940526215
-0.00013382222306520744
-0.00017482632864078906
-0.00016486795792478788
-0.00015914888167683697
-0.00015630449317305484
-0.00015545452346323916
-0.0001563044931730555
-0.00015914888167683664
-0.00016486795792478604
-0.00017482632864078572
-0.00019921761342063619
-0.00018889609378238602
-0.00018280105125791505
-0.00017968943218964824
-0.00017874607126113122
-0.0001796894321896458
-0.00018280105125791118
-0.00018889609378238176
-0.00019921761342063106
-0.00020732677014568808
-0.00019691159247955714
-0.000190721191505707
-0.00018753823415043375
-0.0001865687307715159
-0.00018753823415042963
-0.00019072119150570076
-0.0001969115924795514
-0.00020732677014568315
-0.0001992176134204785
-0.00018889609378221217
-0.00018280105125772453
-0.00017968943218944593
-0.00017874607126092525
-0.00017968943218944354
-0.00018280105125771922
-0.00018889609378220642
-0.000199217613420474
-0.0001748263286405339
-0.00016486795792450433
-0.00015914888167652537
-0.00015630449317272343
-0.00015545452346290027
-0.0001563044931727216
-0.00015914888167652114
-0.00016486795792449864
-0.0001748263286405287
-0.00013382222306494994
-0.0001248590940523327
-0.00012010342343776135
-0.00011785165644150709
-0.00011719251421553524
-0.00011785165644150655
-0.00012010342343775945
-0.00012485909405232838
-0.00013382222306494425
-7.523466878406375e-05
-6.909853388007835e-05
-6.630642387835546e-05
-6.504283718967139e-05
-6.468054354008692e-05
-6.504283718967139e-05
-6.630642387835573e-05
-6.909853388007526e-05
-7.523466878405806e-05
-7.575468258931628e-05
-6.923140620564051e-05
-6.610312008223227e-05
-6.460785445607068e-05
-6.416303173523543e-05
-6.460785445606832e-05
-6.610312008223233e-05
-6.923140620564112e-05
-7.575468258931343e-05
-0.00013476294933511504
-0.0001251110368012015
-0.00011972764258928492
-0.00011704343619603564
-0.00011623074895429495
-0.0001170434361960351
-0.0001197276425892859
-0.0001251110368012003
-0.0001347629493351112
-0.00017602706460620012
-0.00016518236186909105
-0.0001586212042313567
-0.00015519180619911357
-0.00015413399596691014
-0.00015519180619911273
-0.00015862120423135742
-0.00016518236186909016
-0.00017602706460619739
-0.0002005439525930263
-0.0001892273016693073
-0.0001821618030038847
-0.00017837064949329038
-0.0001771853968660938
-0.00017837064949328849
-0.00018216180300388324
-0.0001892273016693048
-0.00020054395259302288
-0.00020868859031401182
-0.0001972438872720308
-0.0001900405827584152
-0.0001861462606044666
-0.00018492331241680605
-0.0001861462606044648
-0.00019004058275841248
-0.00019724388727202695
-0.00020868859031400862
-0.00020054395259292215
-0.00018922730166919427
-0.00018216180300376176
-0.00017837064949315963
-0.00017718539686596127
-0.00017837064949315914
-0.00018216180300376019
-0.0001892273016691919
-0.00020054395259292074
-0.00017602706460603026
-0.00016518236186890587
-0.00015862120423115592
-0.00015519180619889995
-0.00015413399596669186
-0.00015519180619889903
-0.00015862120423115386
-0.00016518236186890403
-0.00017602706460603058
-0.000134762949334936
-0.0001251110368010085
-0.00011972764258907578
-0.00011704343619581151
-0.00011623074895406607
-0.00011704343619581232
-0.00011972764258907437
-0.00012511103680100708
-0.0001347629493349374
-7.575468258918963e-05
-6.923140620550814e-05
-6.610312008208758e-05
-6.460785445591352e-05
-6.416303173507572e-05
-6.46078544559145e-05
-6.610312008208574e-05
-6.923140620550565e-05
-7.575468258919028e-05
-7.596527147499076e-05
-6.923758401705283e-05
-6.590197153983653e-05
-6.42551097533484e-05
-6.375507175746252e-05
-6.425510975334995e-05
-6.590197153983563e-05
-6.923758401704844e-05
-7.596527147498523e-05
-0.00013523139634444173
-0.0001251985526764415
-0.00011942980535943357
-0.00011646709810868186
-0.00011555356763457561
-0.00011646709810868462
-0.00011942980535943417
-0.0001251985526764379
-0.00013523139634443655
-0.00017675822167217525
-0.00016540315531963162
-0.00015832239679369357
-0.00015451900110393518
-0.0001533261900621197
-0.0001545190011039349
-0.0001583223967936919
-0.00016540315531962945
-0.00017675822167217547
-0.00020147339459941166
-0.00018956849390575542
-0.000181900350878829
-0.00017767548258390732
-0.00017633381269565034
-0.00017767548258390813
-0.00018190035087882705
-0.00018956849390575412
-0.00020147339459941513
-0.00020969191695253633
-0.00019763302773400992
-0.0001897990676506013
-0.00018545072909753558
-0.00018406406123333964
-0.0001854507290975366
-0.00018979906765059914
-0.00019763302773400965
-0.0002096919169525406
-0.00020147339459936975
-0.00018956849390570685
-0.00018190035087877415
-0.0001776754825838464
-0.00017633381269558653
-0.0001776754825838466
-0.0001819003508787729
-0.00018956849390570782
-0.00020147339459937306
-0.000176758221672103
-0.00016540315531954857
-0.00015832239679359963
-0.00015451900110383213
-0.00015332619006201275
-0.0001545190011038323
-0.00015832239679359963
-0.00016540315531954992
-0.00017675822167210494
-0.00013523139634435564
-0.0001251985526763465
-0.00011942980535932816
-0.00011646709810856791
-0.00011555356763445692
-0.00011646709810856888
-0.00011942980535932957
-0.0001251985526763489
-0.0001352313963443577
-7.59652714749224e-05
-6.923758401698136e-05
-6.590197153975744e-05
-6.425510975326283e-05
-6.37550717573753e-05
-6.425510975326479e-05
-6.590197153975841e-05
-6.923758401698352e-05
-7.596527147492565e-05
-7.590396571550693e-05
-6.909887098218204e-05
-6.564278828645405e-05
-6.38991255524089e-05
-6.336287149516726e-05
-6.389912555240725e-05
-6.564278828645085e-05
-6.90988709821782e-05
-7.590396571550346e-05
-0.0001353233149635982
-0.00012511697489671982
-0.00011912788371805247
-0.00011599406934858104
-0.0001150171099351939
-0.00011599406934858207
-0.00011912788371805101
-0.00012511697489671727
-0.00013532331496359445
-0.00017718127522344071
-0.00016556042738389854
-0.00015817999469884054
-0.0001541517565954524
-0.00015287647056700542
-0.00015415175659544948
-0.00015817999469883729
-0.00016556042738389936
-0.00017718127522344212
-0.00020221880272021202
-0.00018998314915715138
-0.0001819629851077252
-0.00017747940376988832
-0.00017604352599310077
-0.00017747940376988555
-0.0001819629851077241
-0.00018998314915715404
-0.00020221880272021505
-0.00021056893989037837
-0.0001981559454863654
-0.0001899516512213911
-0.00018533292287887664
-0.00018384803795586753
-0.00018533292287887583
-0.00018995165122139202
-0.00019815594548636828
-0.00021056893989038325
-0.00020221880272023208
-0.00018998314915716927
-0.00018196298510773717
-0.0001774794037698971
-0.00017604352599311036
-0.00017747940376989764
-0.00018196298510773912
-0.00018998314915717328
-0.00020221880272023977
-0.00017718127522346348
-0.00016556042738391768
-0.0001581799946988511
-0.0001541517565954568
-0.00015287647056700976
-0.00015415175659545723
-0.00015817999469885198
-0.00016556042738392267
-0.00017718127522347205
-0.0001353233149635982
-0.00012511697489671716
-0.00011912788371804255
-0.00011599406934856423
-0.00011501710993517286
-0.00011599406934856326
-0.00011912788371804396
-0.0001251169748967241
-0.00013532331496360535
-7.590396571549563e-05
-6.909887098216841e-05
-6.564278828643491e-05
-6.389912555238627e-05
-6.336287149514208e-05
-6.389912555238334e-05
-6.564278828643708e-05
-6.909887098217622e-05
-7.590396571549986e-05
-7.550741310933401e-05
-6.872445199695835e-05
-6.520577641534606e-05
-6.340200947174018e-05
-6.284265198350112e-05
-6.340200947173557e-05
-6.520577641534487e-05
-6.8724451996961e-05
-7.550741310933466e-05
-0.00013503778509500232
-0.00012480721760529305
-0.00011871201016534441
-0.00011548315929878287
-0.00011446992989859586
-0.00011548315929878233
-0.00011871201016534701
-0.00012480721760529544
-0.00013503778509499971
-0.00017742483269294105
-0.00016569706765371208
-0.00015816957224466436
-0.0001540250434846813
-0.00015270650563144927
-0.00015402504348468218
-0.00015816957224466956
-0.00016569706765371555
-0.00017742483269293996
-0.00020301918442481247
-0.00019060615529056048
-0.00018240637048589113
-0.00017779253178589719
-0.00017630943327788501
-0.00017779253178589957
-0.00018240637048589763
-0.00019060615529056324
-0.00020301918442481014
-0.00021160012731716565
-0.0001989825923438375
-0.00019058622368235928
-0.00018583209630906395
-0.0001842986049217718
-0.00018583209630906774
-0.00019058622368236492
-0.00019898259234383913
-0.00021160012731716424
-0.0002030191844249082
-0.00019060615529065301
-0.000182406370485979
-0.00017779253178598262
-0.0001763094332779706
-0.00017779253178598446
-0.00018240637048598139
-0.0001906061552906527
-0.00020301918442490756
-0.0001774248326930787
-0.0001656970676538461
-0.00015816957224479094
-0.00015402504348480258
-0.00015270650563156858
-0.00015402504348480193
-0.00015816957224479148
-0.00016569706765384772
-0.00017742483269308346
-0.00013503778509510152
-0.00012480721760539345
-0.00011871201016543716
-0.00011548315929886847
-0.00011446992989867712
-0.00011548315929886391
-0.00011871201016543532
-0.00012480721760539768
-0.0001350377850951104
-7.55074131093751e-05
-6.87244519970027e-05
-6.520577641538504e-05
-6.340200947177205e-05
-6.284265198352893e-05
-6.340200947176457e-05
-6.520577641537973e-05
-6.872445199700562e-05
-7.550741310938084e-05
-7.460329749740639e-05
-6.793693779215285e-05
-6.439783852310924e-05
-6.256286607566594e-05
-6.199163760726642e-05
-6.256286607566578e-05
-6.439783852310967e-05
-6.793693779215404e-05
-7.460329749740802e-05
-0.00013429431647826707
-0.0001241625393010773
-0.000118051435178233
-0.00011479156644991317
-0.00011376605848017649
-0.00011479156644991225
-0.0001180514351782336
-0.00012416253930107936
-0.00013429431647826831
-0.0001776084784119266
-0.00016588024565449222
-0.00015832585667309592
-0.00015415801252577008
-0.00015283112321208564
-0.0001541580125257728
-0.0001583258566731001
-0.00016588024565449477
-0.0001776084784119283
-0.00020414528079485067
-0.00019163677878492578
-0.0001833896368242157
-0.00017875511786033397
-0.00017726645617141426
-0.00017875511786033939
-0.00018338963682422145
-0.00019163677878492838
-0.00020414528079485078
-0.00021310765050262977
-0.00020035686391755962
-0.00019190344489639294
-0.00018712863844569567
-0.00018559040314009717
-0.00018712863844569914
-0.00019190344489639652
-0.00020035686391756265
-0.00021310765050262998
-0.00020414528079503228
-0.00019163677878510283
-0.00018338963682439373
-0.0001787551178605109
-0.00017726645617158665
-0.0001787551178605084
-0.0001833896368243908
-0.00019163677878510305
-0.0002041452807950312
-0.00017760847841219625
-0.0001658802456547551
-0.0001583258566733559
-0.00015415801252602692
-0.00015283112321233777
-0.0001541580125260229
-0.00015832585667335266
-0.00016588024565475595
-0.00017760847841219798
-0.0001342943164784798
-0.0001241625393012865
-0.00011805143517843516
-0.00011479156645011158
-0.00011376605848037057
-0.0001147915664501054
-0.0001180514351784332
-0.00012416253930129083
-0.00013429431647848683
-7.460329749749801e-05
-6.793693779224403e-05
-6.439783852319359e-05
-6.256286607574297e-05
-6.199163760733744e-05
-6.256286607573744e-05
-6.43978385231899e-05
-6.79369377922475e-05
-7.46032974975069e-05
-7.293106206435678e-05
-6.648937547588615e-05
-6.29763420231385e-05
-6.114964521895761e-05
-6.058305780801609e-05
-6.114964521895859e-05
-6.297634202313937e-05
-6.648937547588821e-05
-7.293106206436296e-05
-0.00013300494250984945
-0.00012309532273350614
-0.00011707003461335427
-0.00011385963258060732
-0.00011285326292283915
-0.00011385963258060531
-0.00011707003461335259
-0.00012309532273350804
-0.00013300494250985585
-0.00017787352141690016
-0.00016622777688798886
-0.00015877621298363562
-0.00015469479697214543
-0.00015340189688438247
-0.00015469479697214435
-0.00015877621298363562
-0.0001662277768879907
-0.0001778735214169047
-0.00020582871801844973
-0.00019326530332849413
-0.00018510662983367966
-0.00018057554898575495
-0.00017912973976067512
-0.00018057554898575354
-0.00018510662983368053
-0.00019326530332849435
-0.00020582871801845027
-0.00021533329930693585
-0.00020247297599616798
-0.000194098357307498
-0.00018943093818348173
-0.0001879382234323372
-0.0001894309381834775
-0.00019409835730749758
-0.00020247297599616668
-0.00021533329930693444
-0.000205828718018717
-0.0001932653033287552
-0.0001851066298339416
-0.00018057554898601549
-0.00017912973976093294
-0.00018057554898601093
-0.0001851066298339391
-0.00019326530332875477
-0.0002058287180187172
-0.00017787352141730695
-0.00016622777688838524
-0.00015877621298402886
-0.00015469479697253347
-0.0001534018968847679
-0.00015469479697253162
-0.00015877621298402735
-0.00016622777688838752
-0.000177873521417309
-0.0001330049425101817
-0.0001230953227338309
-0.00011707003461367005
-0.00011385963258091496
-0.00011285326292314419
-0.00011385963258091442
-0.0001170700346136694
-0.00012309532273383308
-0.00013300494251018398
-7.293106206450039e-05
-6.648937547602568e-05
-6.297634202326536e-05
-6.114964521907384e-05
-6.058305780812874e-05
-6.114964521907525e-05
-6.297634202326633e-05
-6.64893754760272e-05
-7.293106206450212e-05
-7.031135512132719e-05
-6.423574627387283e-05
-6.0841248680751944e-05
-5.910538533190603e-05
-5.857612512763299e-05
-5.9105385331908794e-05
-6.084124868075487e-05
-6.423574627387684e-05
-7.031135512133e-05
-0.00013131080035798848
-0.00012177939419190408
-0.00011601149304512107
-0.00011298947886072622
-0.00011205519546568185
-0.00011298947886072795
-0.00011601149304512487
-0.00012177939419190788
-0.0001313108003579912
-0.0001783872622540502
-0.0001669255177837066
-0.00015977704145499498
-0.00015595124285712534
-0.00015475638005030528
-0.00015595124285712654
-0.000159777041454999
-0.00016692551778370974
-0.0001783872622540516
-0.00020794895217054034
-0.00019537973478603863
-0.00018751138847235402
-0.00018326516921447203
-0.00018193164986301364
-0.00018326516921447094
-0.00018751138847235402
-0.00019537973478604004
-0.00020794895217054262
-0.00021798598219746135
-0.00020504497633301827
-0.000196949078638441
-0.00019257344598362799
-0.00019119723792489088
-0.00019257344598362397
-0.00019694907863843764
-0.0002050449763330186
-0.0002179859821974645
-0.00020794895217090441
-0.00019537973478638915
-0.00018751138847269706
-0.00018326516921480965
-0.00018193164986334877
-0.00018326516921480694
-0.00018751138847269446
-0.00019537973478638872
-0.00020794895217090517
-0.00017838726225461832
-0.0001669255177842579
-0.0001597770414555335
-0.00015595124285765476
-0.00015475638005083199
-0.0001559512428576552
-0.0001597770414555334
-0.00016692551778425748
-0.0001783872622546181
-0.00013131080035846997
-0.0001217793941923794
-0.00011601149304558294
-0.00011298947886117974
-0.00011205519546613439
-0.00011298947886118191
-0.00011601149304558413
-0.0001217793941923794
-0.0001313108003584717
-7.03113551215296e-05
-6.423574627407893e-05
-6.084124868094526e-05
-5.9105385332092024e-05
-5.857612512781877e-05
-5.910538533209549e-05
-6.0841248680947426e-05
-6.423574627407828e-05
-7.031135512152982e-05
-6.73210717626173e-05
-6.182704731191846e-05
-5.87735104915346e-05
-5.7291532746137465e-05
-5.6855839365733464e-05
-5.729153274613291e-05
-5.877351049152972e-05
-6.18270473119138e-05
-6.732107176261241e-05
-0.00013016250577242879
-0.00012126985000536234
-0.00011609197365937743
-0.0001134987179919663
-0.00011271959463983808
-0.00011349871799196185
-0.00011609197365937342
-0.00012126985000536137
-0.00013016250577242813
-0.00017910182719695382
-0.0001680447400136529
-0.00016156581328173852
-0.0001582690055121201
-0.00015726689010837121
-0.000158269005512116
-0.00016156581328173516
-0.00016804474001365453
-0.00017910182719695468
-0.00020910452701612366
-0.00019670985365035547
-0.00018950669409382103
-0.00018583379104119234
-0.00018471295142163144
-0.0001858337910411891
-0.00018950669409381832
-0.00019670985365035656
-0.0002091045270161241
-0.00021910798204655927
-0.00020625315445040927
-0.00019881266948480367
-0.00019502185601130598
-0.00019386434705341603
-0.00019502185601130598
-0.00019881266948480422
-0.00020625315445041122
-0.0002191079820465623
-0.00020910452701655246
-0.00019670985365076888
-0.0001895066940942235
-0.00018583379104159068
-0.00018471295142203118
-0.00018583379104159285
-0.0001895066940942261
-0.00019670985365077018
-0.00020910452701655637
-0.00017910182719766223
-0.0001680447400143432
-0.0001615658132824182
-0.0001582690055127947
-0.00015726689010904646
-0.00015826900551279698
-0.00016156581328241777
-0.00016804474001433963
-0.00017910182719766408
-0.0001301625057730984
-0.00012126985000602327
-0.00011609197366003305
-0.00011349871799261964
-0.00011271959464049402
-0.00011349871799262289
-0.00011609197366003218
-0.00012126985000601785
-0.0001301625057730984
-6.732107176294386e-05
-6.182704731224524e-05
-5.877351049185975e-05
-5.7291532746463376e-05
-5.68558393660636e-05
-5.729153274646706e-05
-5.877351049185888e-05
-6.182704731223939e-05
-6.732107176294277e-05
-6.759566925297622e-05
-6.311784585236538e-05
-6.0834836116146866e-05
-5.982979593162623e-05
-5.9552039908603374e-05
-5.982979593162352e-05
-6.083483611614329e-05
-6.31178458523593e-05
-6.759566925297318e-05
-0.0001320016947853577
-0.00012432339280558718
-0.00012032126303818049
-0.00011847537645683851
-0.00011794411057503452
-0.00011847537645683374
-0.0001203212630381742
-0.00012432339280558002
-0.00013200169478535455
-0.00017819232251836984
-0.00016816367001167357
-0.00016303492192908033
-0.00016063510840800274
-0.00015993164947381954
-0.00016063510840799591
-0.00016303492192907317
-0.00016816367001166782
-0.00017819232251836637
-0.0002045352672061817
-0.00019299459983009514
-0.00018720485239110166
-0.00018450601246275888
-0.0001837118406545139
-0.00018450601246275497
-0.00018720485239109863
-0.00019299459983008972
-0.00020453526720617477
-0.00021304630099563135
-0.00020098666490300722
-0.00019497472724692847
-0.00019218134170580757
-0.00019135956547831055
-0.00019218134170581234
-0.00019497472724693118
-0.00020098666490300397
-0.00021304630099562647
-0.00020453526720657636
-0.00019299459983047082
-0.00018720485239147149
-0.00018450601246312783
-0.00018371184065489143
-0.0001845060124631377
-0.00018720485239147962
-0.00019299459983047277
-0.00020453526720657657
-0.00017819232251909236
-0.0001681636700123655
-0.0001630349219297676
-0.00016063510840869338
-0.00015993164947452005
-0.00016063510840870357
-0.00016303492192977845
-0.0001681636700123707
-0.00017819232251909518
-0.00013200169478618027
-0.00012432339280638483
-0.00012032126303897868
-0.00011847537645764245
-0.00011794411057584712
-0.00011847537645765242
-0.00012032126303898735
-0.00012432339280638634
-0.00013200169478618114
-6.759566925353274e-05
-6.311784585290889e-05
-6.083483611669287e-05
-5.9829795932179065e-05
-5.955203990916456e-05
-5.982979593218817e-05
-6.083483611669851e-05
-6.311784585290693e-05
-6.759566925353144e-05
-8.34992121940579e-05
-8.088121477387836e-05
-7.97703584171813e-05
-7.935417967703542e-05
-7.925070335129398e-05
-7.935417967703704e-05
-7.977035841718054e-05
-8.088121477387575e-05
-8.34992121940565e-05
-0.0001369043164033435
-0.0001318739710349827
-0.00012974049386658471
-0.00012884889238362564
-0.00012860622427411444
-0.0001288488923836266
-0.00012974049386658244
-0.00013187397103497846
-0.00013690431640334285
-0.00016727426916148577
-0.00016029732889091277
-0.00015748073783564956
-0.00015625967255957298
-0.0001559145271978592
-0.00015625967255957537
-0.0001574807378356476
-0.00016029732889090691
-0.00016727426916148512
-0.00018311578002269072
-0.00017490522849696283
-0.0001716746952408017
-0.00017028319026535102
-0.00016988666651759096
-0.0001702831902653545
-0.00017167469524080332
-0.00017490522849695816
-0.0001831157800226892
-0.0001880846596876547
-0.0001794593566846849
-0.0001760858301509498
-0.00017464150570265413
-0.00017423024878613475
-0.0001746415057026563
-0.0001760858301509483
-0.0001794593566846821
-0.00018808465968765523
-0.00018311578002293077
-0.00017490522849718422
-0.00017167469524102526
-0.0001702831902655735
-0.00016988666651781116
-0.00017028319026557025
-0.0001716746952410194
-0.00017490522849718335
-0.00018311578002293077
-0.00016727426916196726
-0.000160297328891364
-0.00015748073783610058
-0.00015625967256003063
-0.000155914527198315
-0.00015625967256002152
-0.00015748073783609516
-0.00016029732889136575
-0.00016727426916196726
-0.00013690431640401624
-0.0001318739710356317
-0.00012974049386723437
-0.00012884889238428516
-0.00012860622427477526
-0.00012884889238427713
-0.00012974049386723003
-0.00013187397103563278
-0.00013690431640401885
-8.3499212194699e-05
-8.08812147745086e-05
-7.977035841781632e-05
-7.935417967768073e-05
-7.925070335194169e-05
-7.935417967767791e-05
-7.977035841781697e-05
-8.088121477451099e-05
-8.34992121947003e-05

SCALARS STRAIN_YZ float 1
LOOKUP_TABLE default
6.609827873492108e-06
2.9719611105334828e-06
2.9719611105292578e-06
6.609827873291449e-06
-6.609827873492027e-06
-2.9719611105376248e-06
-2.9719611105370607e-06
-6.609827873291639e-06
5.500050822984105e-06
9.376795599517351e-07
-1.3272328085064234e-06
1.9664966487346175e-07
6.612063615507038e-07
7.952599678729886e-07
7.677494805077812e-07
6.917294890428186e-07
6.075133049382708e-07
5.287559060568434e-07
4.5827927553722706e-07
3.969473366798737e-07
3.4959282327509504e-07
3.3286800383772056e-07
3.9103360758685723e-07
6.188664545764828e-07
1.2194673600910028e-06
2.015206244050135e-06
2.6771968909902356e-06
1.2560826331762105e-06
-3.981577304057024e-06
-9.677420654538328e-06
-1.2863307227380918e-05
-1.3875131909642438e-05
-1.2863307227463187e-05
-9.677420654670492e-06
-3.981577304185382e-06
1.2560826331199082e-06
2.6771968909957125e-06
2.015206244065805e-06
1.219467360102851e-06
6.188664545807993e-07
3.910336075819309e-07
3.3286800381876057e-07
3.4959282324694644e-07
3.969473366498955e-07
4.5827927550383364e-07
5.287559060185981e-07
6.075133048997003e-07
6.917294890054949e-07
7.677494804696715e-07
7.952599678383754e-07
6.612063615273392e-07
1.9664966486644155e-07
-1.3272328085463085e-06
9.376795598174567e-07
5.5000508227903035e-06
4.9062345922894725e-06
4.111196718267679e-06
5.242270771899665e-06
5.495559334072474e-06
5.526329249596465e-06
5.4955593340898164e-06
5.242270771948401e-06
4.111196718334617e-06
4.906234592422362e-06
-5.500050822983956e-06
-9.376795599514234e-07
1.3272328085066538e-06
-1.9664966487378702e-07
-6.612063615507309e-07
-7.95259967873368e-07
-7.677494805099903e-07
-6.917294890446753e-07
-6.075133049365767e-07
-5.287559060564097e-07
-4.582792755403577e-07
-3.9694733668242156e-07
-3.4959282327674845e-07
-3.3286800384186763e-07
-3.910336075915193e-07
-6.188664545741246e-07
-1.2194673600882686e-06
-2.015206244051133e-06
-2.677196890992542e-06
-1.2560826331794377e-06
3.981577304058217e-06
9.677420654541157e-06
1.2863307227382763e-05
1.387513190964068e-05
1.2863307227459092e-05
9.67742065467038e-06
3.981577304187871e-06
-1.2560826331221791e-06
-2.677196891004337e-06
-2.015206244074279e-06
-1.2194673601035253e-06
-6.188664545740501e-07
-3.910336075815311e-07
-3.328680038260586e-07
-3.4959282325002286e-07
-3.9694733664730696e-07
-4.58279275504308e-07
-5.287559060237346e-07
-6.075133049031426e-07
-6.9172948900643e-07
-7.677494804715689e-07
-7.952599678405438e-07
-6.61206361528586e-07
-1.9664966486701075e-07
1.3272328085458884e-06
-9.376795598179852e-07
-5.500050822790615e-06
-4.906234592289632e-06
-4.111196718267713e-06
-5.242270771899697e-06
-5.495559334072523e-06
-5.526329249596428e-06
-5.495559334089811e-06
-5.242270771948422e-06
-4.111196718334629e-06
-4.906234592422331e-06
5.117260784541872e-06
3.5403195420977516e-06
2.80312695227974e-06
1.4336325821603263e-06
-1.8634724839594607e-20
-1.4336325821602738e-06
-2.803126952279669e-06
-3.540319542097704e-06
-5.117260784541784e-06
2.442368668815364e-06
9.910102208968005e-07
-2.3107942068065417e-07
-4.0033245915673404e-07
1.6263032587282567e-19
4.003324591522943e-07
2.3107942067522935e-07
-9.910102209042434e-07
-2.4423686688240554e-06
2.442368668808725e-06
9.91010220887947e-07
-2.3107942069248553e-07
-4.003324591658951e-07
-2.207791377018334e-18
4.003324591655813e-07
2.310794207052808e-07
-9.910102208738057e-07
-2.4423686688093865e-06
5.117260784404317e-06
3.5403195420449476e-06
2.803126952255891e-06
1.4336325821494615e-06
3.9810548520952116e-20
-1.4336325821495063e-06
-2.8031269522558063e-06
-3.540319542044819e-06
-5.1172607844044525e-06
5.39632574651511e-06
6.841712107730938e-06
8.979625472287089e-06
9.718640408765342e-06
9.86885341837202e-06
9.718640408749643e-06
8.9796254722351e-06
6.841712107660359e-06
5.396325746384169e-06
3.910952026786074e-06
9.436966642008414e-06
1.3203648812880485e-05
1.4837717382510423e-05
1.5257845929655361e-05
1.4837717382481446e-05
1.3203648812799817e-05
9.436966641899909e-06
3.910952026663051e-06
1.8848319230149239e-06
7.918419187473932e-06
1.2194318054947212e-05
1.4247159911715772e-05
1.4845625433942213e-05
1.424715991166402e-05
1.2194318054830217e-05
7.918419187333378e-06
1.8848319229261684e-06
1.7397950890284206e-06
5.552781394225207e-06
9.137869719547185e-06
1.103331127794567e-05
1.1613505392054914e-05
1.1033311277886368e-05
9.137869719425995e-06
5.552781394105152e-06
1.7397950889758368e-06
1.5111078802751201e-06
3.85799031549103e-06
6.369509102810696e-06
7.854924264272708e-06
8.325801554898006e-06
7.854924264219667e-06
6.369509102710116e-06
3.857990315403731e-06
1.5111078802322196e-06
1.2237913634995565e-06
2.6205396601027028e-06
4.2823695874018246e-06
5.319410847810378e-06
5.662839081890217e-06
5.319410847770397e-06
4.282369587327845e-06
2.620539660040124e-06
1.2237913634598408e-06
9.339861913530538e-07
1.7160400747739997e-06
2.7852619617293756e-06
3.4689006400084743e-06
3.699134603903791e-06
3.468900639980353e-06
2.7852619616777134e-06
1.7160400747302725e-06
9.339861913178917e-07
6.882797360271525e-07
1.0707867085134329e-06
1.7448955921987962e-06
2.180676766227132e-06
2.328305782069036e-06
2.1806767662066006e-06
1.7448955921631666e-06
1.0707867084845592e-06
6.8827973599773e-07
4.983541827731448e-07
6.254841223763782e-07
1.0409372649050006e-06
1.311840693629785e-06
1.4035800415919197e-06
1.3118406936141268e-06
1.0409372648783428e-06
6.254841223541216e-07
4.983541827449894e-07
3.59347153024793e-07
3.290901853684943e-07
5.760686349667566e-07
7.386220863126541e-07
7.933488734355886e-07
7.386220863019171e-07
5.760686349458366e-07
3.290901853492531e-07
3.5934715299706455e-07
2.612048868450351e-07
1.3968137121508537e-07
2.746892581169116e-07
3.6319216522978355e-07
3.922380585051222e-07
3.6319216522520026e-07
2.7468925810476515e-07
1.3968137120495147e-07
2.6120488682371696e-07
1.959795931388451e-07
2.629331292997055e-08
7.947545265062902e-08
1.0932685334992398e-07
1.1727757766251317e-07
1.093268533483125e-07
7.947545264639555e-08
2.6293312929713054e-08
1.9597959312442183e-07
1.6301097418087898e-07
-3.0441562240667843e-08
-5.441983073718463e-08
-8.699031535537722e-08
-1.0245321880330508e-07
-8.699031535577744e-08
-5.4419830739890055e-08
-3.0441562242134904e-08
1.6301097416656412e-07
1.7485401665215424e-07
-3.9433934344119476e-08
-1.6877003509471333e-07
-2.9110426577411164e-07
-3.403763595137099e-07
-2.911042657749807e-07
-1.6877003509989887e-07
-3.943393435030112e-08
1.7485401664089548e-07
2.657699137935247e-07
-5.613814819465334e-09
-3.1907734543968583e-07
-5.888452502832569e-07
-6.912696593293948e-07
-5.888452502887245e-07
-3.190773454466535e-07
-5.613814822797561e-09
2.6576991379235917e-07
4.967455445630396e-07
4.618830507833944e-08
-6.050537582860215e-07
-1.112467593463293e-06
-1.297075694752032e-06
-1.1124675934761088e-06
-6.050537583026708e-07
4.618830506763379e-08
4.967455445628973e-07
9.311600567839498e-07
-6.008087203501182e-09
-1.2181925617769205e-06
-2.0904967535410907e-06
-2.3994773114193834e-06
-2.0904967535692444e-06
-1.2181925618182678e-06
-6.008087234854954e-09
9.311600567788574e-07
1.3718624343756018e-06
-4.2444713300351973e-07
-2.516614153182189e-06
-3.93522755352475e-06
-4.414639691404463e-06
-3.935227553569902e-06
-2.5166141532500083e-06
-4.2444713305418416e-07
1.371862434366671e-06
1.3970138143601828e-06
-2.37368886678001e-06
-6.536336465054703e-06
-9.001933909693663e-06
-9.795403360586551e-06
-9.001933909760568e-06
-6.536336465160378e-06
-2.373688866874019e-06
1.3970138143261639e-06
5.196015406352894e-06
4.788300837869373e-06
3.88444203799454e-06
2.0659505820555292e-06
-2.0328790734103208e-20
-2.065950582055287e-06
-3.884442037994237e-06
-4.78830083786936e-06
-5.196015406352847e-06
2.985501352370378e-06
5.149484239427261e-06
4.502732798421009e-06
2.527517738511208e-06
-1.7702988597614877e-19
-2.5275177385107275e-06
-4.502732798420359e-06
-5.14948423942723e-06
-2.985501352370185e-06
9.794955487213392e-07
3.762369511222085e-06
3.7223562559778864e-06
2.1879314769761234e-06
-2.39710324072967e-19
-2.187931476975706e-06
-3.7223562559773443e-06
-3.7623695112219428e-06
-9.794955487209665e-07
1.3681599800320136e-06
2.9996704542992796e-06
3.074498713003038e-06
1.8409257951408922e-06
1.3129010682441655e-19
-1.8409257951405068e-06
-3.074498713003245e-06
-2.999670454299632e-06
-1.3681599800320678e-06
1.4438721528704649e-06
2.4798887822484017e-06
2.4440585362899804e-06
1.4779659011948336e-06
-2.541098841762901e-19
-1.4779659011952944e-06
-2.444058536290851e-06
-2.4798887822497705e-06
-1.4438721528711832e-06
1.3144140336826722e-06
1.971847025608329e-06
1.8760768326275984e-06
1.1278000167919043e-06
-1.2502206301473473e-18
-1.1278000167939643e-06
-1.8760768326290926e-06
-1.971847025610721e-06
-1.3144140336845695e-06
1.1030997944992899e-06
1.502411050603535e-06
1.3847535556783659e-06
8.256978233745917e-07
-5.090668012998345e-19
-8.256978233760088e-07
-1.3847535556801616e-06
-1.5024110506049783e-06
-1.10309979450095e-06
8.925053748418124e-07
1.1091008670749251e-06
9.87633065839577e-07
5.830613240931697e-07
1.8041801776516597e-19
-5.830613240941751e-07
-9.87633065841183e-07
-1.1091008670756434e-06
-8.925053748430389e-07
7.135852184696431e-07
8.040014113567775e-07
6.85969330687265e-07
3.995525556150301e-07
6.835555884342204e-19
-3.9955255561720274e-07
-6.859693306891657e-07
-8.040014113581869e-07
-7.13585218471161e-07
5.719624278501822e-07
5.804093165093784e-07
4.690508406995381e-07
2.6807462795344527e-07
2.22769665127881e-18
-2.680746279570282e-07
-4.6905084070400705e-07
-5.80409316507271e-07
-5.719624278491996e-07
4.637717966969314e-07
4.250107234346831e-07
3.2212052604499013e-07
1.7934270977645302e-07
1.6898307297723292e-18
-1.793427097799318e-07
-3.221205260470789e-07
-4.2501072342639236e-07
-4.6377179669328575e-07
3.851600265880473e-07
3.2680753225946546e-07
2.32469297074011e-07
1.249991010115642e-07
-5.751353711856699e-19
-1.249991010138402e-07
-2.3246929706933198e-07
-3.2680753224928073e-07
-3.8516002658551637e-07
3.3890647665279266e-07
2.830088508453467e-07
1.92645013024482e-07
9.881845979514408e-08
-9.855228341303784e-19
-9.881845979883842e-08
-1.9264501302158344e-07
-2.8300885083746254e-07
-3.3890647665134254e-07
3.418020609120835e-07
3.029528753328964e-07
2.0005143216420157e-07
9.534423278389988e-08
4.1589317710186147e-19
-9.534423278718552e-08
-2.0005143216609215e-07
-3.0295287532904916e-07
-3.4180206091212077e-07
4.3567207930611597e-07
4.082653450393878e-07
2.500263091945988e-07
1.0438590818739241e-07
1.5924219408380846e-18
-1.0438590818895519e-07
-2.5002630919917363e-07
-4.0826534504171546e-07
-4.35672079309355e-07
6.971788020082169e-07
6.186743870473162e-07
3.1523894186270187e-07
1.0063896976348029e-07
2.2143558823595547e-18
-1.0063896976252463e-07
-3.152389418702828e-07
-6.186743870557662e-07
-6.971788020091656e-07
1.22934536991445e-06
8.886998826700436e-07
3.1325877086360957e-07
3.6471898143408936e-08
3.2051726724102725e-18
-3.647189813897641e-08
-3.1325877087299977e-07
-8.886998826797074e-07
-1.229345369912129e-06
1.8093057453212192e-06
9.949597986935394e-07
1.1406632717514845e-07
-1.3938412572404207e-07
4.126321002549324e-18
1.3938412572667507e-07
-1.1406632718260996e-07
-9.949597986992027e-07
-1.8093057453214132e-06
2.242040686801322e-06
9.776149824600328e-07
-1.4178832108935133e-07
-3.304895732911888e-07
2.2033444540452488e-18
3.3048957328893356e-07
1.4178832108417236e-07
-9.776149824652543e-07
-2.242040686806976e-06
4.4009172910283614e-07
-1.0495200459052703e-06
-1.7024993054387975e-06
-1.1755384380595406e-06
3.726256753649277e-18
1.1755384380619656e-06
1.702499305435841e-06
1.0495200458945856e-06
-4.400917291134791e-07
-5.531543068890694e-06
-6.883657538068748e-06
-5.663046656821847e-06
-3.1454318680250844e-06
8.983207922105482e-18
3.145431868035483e-06
5.663046656822858e-06
6.883657538056696e-06
5.531543068879642e-06
-1.2406308631490013e-05
-1.3956480362678804e-05
-1.0478476154507543e-05
-5.48668251466753e-06
1.3727651217913632e-17
5.4866825146798035e-06
1.0478476154512336e-05
1.3956480362676624e-05
1.2406308631483003e-05
-1.6754562558666184e-05
-1.899893139439991e-05
-1.4142486377456884e-05
-7.313399547028466e-06
1.8546421654843347e-17
7.313399547045469e-06
1.4142486377467796e-05
1.8998931394406753e-05
1.6754562558661495e-05
-1.8197408781551962e-05
-2.0762166826905848e-05
-1.548019456936985e-05
-7.993553383825003e-06
1.5549195570984005e-17
7.99355338384642e-06
1.5480194569387092e-05
2.076216682691616e-05
1.819740878155002e-05
-1.6754562558768895e-05
-1.8998931394520923e-05
-1.4142486377543891e-05
-7.313399547079051e-06
9.091522260235626e-18
7.313399547097714e-06
1.4142486377559313e-05
1.899893139453155e-05
1.6754562558771623e-05
-1.2406308631652762e-05
-1.3956480362858387e-05
-1.0478476154639416e-05
-5.486682514742191e-06
5.6426158572529285e-18
5.486682514752116e-06
1.0478476154649836e-05
1.3956480362871249e-05
1.240630863165943e-05
-5.531543069034561e-06
-6.8836575382125805e-06
-5.663046656930199e-06
-3.1454318680874244e-06
1.684166196937566e-18
3.145431868090853e-06
5.663046656943257e-06
6.883657538232086e-06
5.531543069043997e-06
4.400917290436112e-07
-1.049520045961481e-06
-1.7024993054837826e-06
-1.175538438087076e-06
-1.3630348308097794e-18
1.1755384380881536e-06
1.7024993054983744e-06
1.0495200459794378e-06
-4.4009172903894074e-07
2.242040686804567e-06
9.776149824536265e-07
-1.4178832109988927e-07
-3.304895732982166e-07
-3.996195566027382e-18
3.304895732969809e-07
1.4178832111240926e-07
-9.776149824448322e-07
-2.2420406868098443e-06
1.809305745333298e-06
9.949597986922494e-07
1.1406632716942759e-07
-1.3938412572764344e-07
-2.380056702666177e-18
1.393841257254294e-07
-1.140663271637296e-07
-9.94959798690856e-07
-1.8093057453416734e-06
1.2293453699250904e-06
8.886998826762811e-07
3.1325877086402885e-07
3.647189814125514e-08
3.947597050678667e-18
-3.647189814386104e-08
-3.132587708696794e-07
-8.886998826763387e-07
-1.229345369926388e-06
6.971788020178358e-07
6.18674387056171e-07
3.1523894186208184e-07
1.0063896976291553e-07
7.230061479525894e-18
-1.0063896976579566e-07
-3.152389418754328e-07
-6.18674387061343e-07
-6.971788020163925e-07
4.3567207930763385e-07
4.0826534504112254e-07
2.500263091893472e-07
1.0438590818836946e-07
7.520382022197306e-18
-1.0438590818907208e-07
-2.5002630920438373e-07
-4.082653450527032e-07
-4.3567207931220105e-07
3.418020609000387e-07
3.0295287532644877e-07
2.000514321582876e-07
9.534423278257512e-08
5.797940523955686e-18
-9.534423278051598e-08
-2.0005143217029343e-07
-3.029528753351495e-07
-3.418020609041214e-07
3.3890647663283995e-07
2.8300885083409134e-07
1.9264501301855953e-07
9.881845978871087e-08
1.965539954103604e-18
-9.881845978446173e-08
-1.9264501302307253e-07
-2.8300885083688994e-07
-3.3890647663038017e-07
3.8516002656269053e-07
3.268075322416642e-07
2.3246929706713817e-07
1.249991010032201e-07
-2.098100610348902e-18
-1.2499910099667337e-07
-2.3246929706260993e-07
-3.2680753224334134e-07
-3.851600265589568e-07
4.6377179666593e-07
4.250107234096516e-07
3.221205260341278e-07
1.7934270976821817e-07
-3.1967023429377295e-18
-1.7934270976403552e-07
-3.221205260291777e-07
-4.250107234110848e-07
-4.6377179666517104e-07
5.719624278155284e-07
5.804093164801354e-07
4.690508406807543e-07
2.680746279419214e-07
-1.6601845766184287e-18
-2.680746279414572e-07
-4.690508406791009e-07
-5.804093164780653e-07
-5.719624278155555e-07
7.135852184332343e-07
8.040014113218458e-07
6.859693306599702e-07
3.9955255559999357e-07
-1.283254915090265e-18
-3.9955255559935575e-07
-6.859693306577238e-07
-8.04001411318871e-07
-7.135852184323059e-07
8.925053748032148e-07
1.1091008670327903e-06
9.876330658039101e-07
5.83061324074025e-07
-1.6178329292557136e-18
-5.830613240733457e-07
-9.876330658008744e-07
-1.1091008670310488e-06
-8.925053748026795e-07
1.1030997944567417e-06
1.5024110505541631e-06
1.3847535556337543e-06
8.256978233489596e-07
-1.1689054672109345e-18
-8.256978233491019e-07
-1.3847535556309591e-06
-1.5024110505526859e-06
-1.1030997944579818e-06
1.314414033638335e-06
1.971847025551395e-06
1.8760768325747774e-06
1.127800016760964e-06
-4.726443845678996e-19
-1.1278000167614535e-06
-1.8760768325729716e-06
-1.9718470255500057e-06
-1.314414033639853e-06
1.4438721528291026e-06
2.4798887821843118e-06
2.444058536230322e-06
1.477965901160661e-06
2.659683454378503e-19
-1.4779659011611437e-06
-2.4440585362302036e-06
-2.479888782183119e-06
-1.4438721528294007e-06
1.368159979993172e-06
2.9996704542239682e-06
3.0744987129355466e-06
1.840925795103671e-06
3.9471735342050396e-19
-1.8409257951035236e-06
-3.0744987129358007e-06
-2.999670454223338e-06
-1.3681599799928197e-06
9.794955486483792e-07
3.7623695111202243e-06
3.7223562558984584e-06
2.1879314769354108e-06
-2.185345003916095e-19
-2.187931476935348e-06
-3.7223562558984618e-06
-3.7623695111202446e-06
-9.79495548648325e-07
2.985501352227328e-06
5.149484239301141e-06
4.502732798342638e-06
2.5275177384741806e-06
-2.439454888092385e-19
-2.5275177384744483e-06
-4.50273279834276e-06
-5.149484239301426e-06
-2.9855013522277785e-06
5.196015406194443e-06
4.7883008377770925e-06
3.8844420379475854e-06
2.0659505820342505e-06
3.006966962752766e-20
-2.0659505820343475e-06
-3.884442037947584e-06
-4.788300837777116e-06
-5.196015406194752e-06
4.998596596986154e-06
4.701832667103014e-06
3.5505277876867237e-06
1.8681697661198246e-06
5.209252625613947e-20
-1.8681697661197963e-06
-3.5505277876865916e-06
-4.70183266710287e-06
-4.998596596986245e-06
5.659694743595107e-06
6.433256714426815e-06
4.65253527738366e-06
2.4494992325106573e-06
-1.1011428314305904e-20
-2.4494992325106632e-06
-4.6525352773835855e-06
-6.433256714426729e-06
-5.659694743595107e-06
6.794761907644214e-06
7.4070446712665896e-06
5.251173206528426e-06
2.703113968510824e-06
-7.99387343971246e-20
-2.7031139685109e-06
-5.251173206528453e-06
-7.407044671266631e-06
-6.794761907644241e-06
7.257658955214673e-06
7.994846596558772e-06
5.63623948166838e-06
2.874423582799872e-06
-4.7539724164647607e-20
-2.8744235827998737e-06
-5.636239481668366e-06
-7.994846596558809e-06
-7.257658955214704e-06
7.365251172764846e-06
8.17877148727754e-06
5.777274481930264e-06
2.938910743509479e-06
8.470329472543003e-22
-2.938910743509494e-06
-5.777274481930271e-06
-8.17877148727753e-06
-7.3652511727648275e-06
7.257658955224813e-06
7.994846596560901e-06
5.6362394816691585e-06
2.874423582800036e-06
3.366955965335844e-20
-2.8744235828001227e-06
-5.636239481669208e-06
-7.994846596560845e-06
-7.2576589552248265e-06
6.794761907672833e-06
7.407044671271094e-06
5.2511732065279965e-06
2.703113968509829e-06
9.317362419797304e-21
-2.7031139685099493e-06
-5.251173206528014e-06
-7.4070446712709696e-06
-6.79476190767283e-06
5.659694743639876e-06
6.433256714439916e-06
4.652535277385227e-06
2.449499232510199e-06
-6.691560283308973e-20
-2.4494992325103583e-06
-4.652535277385253e-06
-6.433256714439823e-06
-5.659694743639855e-06
4.998596597079517e-06
4.701832667139516e-06
3.5505277877008302e-06
1.8681697661257018e-06
-6.352747104407253e-20
-1.8681697661257687e-06
-3.55052778770082e-06
-4.701832667139467e-06
-4.998596597079466e-06
-5.396325746514912e-06
-6.8417121077307845e-06
-8.979625472287018e-06
-9.718640408765227e-06
-9.868853418371876e-06
-9.71864040874959e-06
-8.979625472235132e-06
-6.841712107660447e-06
-5.3963257463843974e-06
-3.9109520267856745e-06
-9.436966642008099e-06
-1.3203648812880435e-05
-1.4837717382510359e-05
-1.5257845929655171e-05
-1.4837717382481344e-05
-1.320364881279974e-05
-9.436966641899845e-06
-3.910952026663329e-06
-1.8848319230145783e-06
-7.918419187473762e-06
-1.2194318054947494e-05
-1.4247159911716133e-05
-1.48456254339424e-05
-1.4247159911664217e-05
-1.2194318054830308e-05
-7.918419187333554e-06
-1.8848319229266156e-06
-1.7397950890283258e-06
-5.552781394225329e-06
-9.137869719547802e-06
-1.1033311277946147e-05
-1.1613505392055476e-05
-1.1033311277887354e-05
-9.137869719427428e-06
-5.552781394106609e-06
-1.7397950889768058e-06
-1.5111078802747745e-06
-3.857990315491111e-06
-6.369509102811045e-06
-7.854924264272556e-06
-8.325801554898147e-06
-7.854924264220021e-06
-6.369509102710926e-06
-3.857990315405195e-06
-1.5111078802336494e-06
-1.223791363499265e-06
-2.620539660102547e-06
-4.282369587401865e-06
-5.319410847809835e-06
-5.662839081889289e-06
-5.319410847768541e-06
-4.282369587326232e-06
-2.620539660040666e-06
-1.223791363461894e-06
-9.339861913548563e-07
-1.7160400747754566e-06
-2.785261961729674e-06
-3.468900640007135e-06
-3.6991346039015515e-06
-3.468900639977684e-06
-2.785261961675904e-06
-1.7160400747304351e-06
-9.339861913195045e-07
-6.882797360298833e-07
-1.0707867085162552e-06
-1.744895592198803e-06
-2.180676766224391e-06
-2.3283057820669565e-06
-2.1806767662061373e-06
-1.7448955921628109e-06
-1.0707867084840171e-06
-6.882797359978994e-07
-4.983541827720606e-07
-6.254841223753855e-07
-1.0409372649027374e-06
-1.3118406936276014e-06
-1.4035800415924948e-06
-1.3118406936162419e-06
-1.0409372648802198e-06
-6.254841223559275e-07
-4.983541827475034e-07
-3.593471530234513e-07
-3.2909018536596e-07
-5.760686349644137e-07
-7.386220863129193e-07
-7.933488734377841e-07
-7.386220863044997e-07
-5.760686349493975e-07
-3.2909018535463684e-07
-3.593471530030412e-07
-2.6120488684807085e-07
-1.3968137121806354e-07
-2.7468925812015405e-07
-3.631921652322772e-07
-3.9223805850386604e-07
-3.631921652226583e-07
-2.7468925810348274e-07
-1.3968137120646596e-07
-2.612048868262242e-07
-1.9597959314336148e-07
-2.6293312936516422e-08
-7.94754526578305e-08
-1.0932685335463391e-07
-1.1727757765973702e-07
-1.0932685334267804e-07
-7.947545264268555e-08
-2.629331292652482e-08
-1.959795931216029e-07
-1.6301097418396557e-07
3.0441562236131135e-08
5.441983073086407e-08
8.69903153480957e-08
1.0245321880150301e-07
8.699031535931719e-08
5.441983074269204e-08
3.04415622441068e-08
-1.630109741668284e-07
-1.748540166569315e-07
3.943393434077539e-08
1.687700350909e-07
2.911042657680854e-07
3.4037635951073425e-07
2.911042657835658e-07
1.6877003511270093e-07
3.943393435453798e-08
-1.748540166444022e-07
-2.6576991379919303e-07
5.613814816537988e-09
3.1907734543905733e-07
5.888452502802678e-07
6.912696593253998e-07
5.888452502989436e-07
3.1907734546620643e-07
5.61381483341766e-09
-2.6576991378882874e-07
-4.967455445606307e-07
-4.618830507654204e-08
6.050537582867254e-07
1.1124675934613238e-06
1.2970756947489935e-06
1.112467593479676e-06
6.050537583121788e-07
-4.618830505758798e-08
-4.967455445544846e-07
-9.311600567790183e-07
6.008087208618108e-09
1.2181925617817731e-06
2.0904967535448295e-06
2.399477311422745e-06
2.09049675357028e-06
1.2181925618165021e-06
6.008087238327789e-09
-9.311600567758437e-07
-1.3718624343741555e-06
4.244471330070078e-07
2.5166141531905703e-06
3.935227553534886e-06
4.414639691411559e-06
3.935227553572178e-06
2.516614153245273e-06
4.2444713305383264e-07
-1.3718624343680484e-06
-1.3970138143611345e-06
2.3736888667816055e-06
6.53633646505984e-06
9.001933909700222e-06
9.795403360589682e-06
9.00193390976002e-06
6.5363364651577735e-06
2.373688866874736e-06
-1.3970138143280176e-06
6.380752188284225e-06
6.943382175575888e-06
5.421560203601813e-06
2.9047302881548064e-06
-1.5161889755851976e-19
-2.9047302881548267e-06
-5.4215602036016116e-06
-6.943382175575819e-06
-6.380752188284127e-06
9.131573286783752e-06
1.0446542568956227e-05
7.806230341722898e-06
4.128524534005248e-06
-2.0731131384049e-19
-4.128524534005488e-06
-7.806230341722793e-06
-1.044654256895608e-05
-9.131573286783664e-06
1.1508984898951297e-05
1.2683858965165536e-05
9.227212333112645e-06
4.7744067869502535e-06
-7.835054762102278e-20
-4.774406786950442e-06
-9.227212333112625e-06
-1.2683858965165436e-05
-1.1508984898951292e-05
1.2605472180641802e-05
1.397682432564919e-05
1.0104364151122332e-05
5.1795755687868155e-06
-3.049318610115481e-20
-5.179575568786956e-06
-1.0104364151122403e-05
-1.397682432564924e-05
-1.2605472180641834e-05
1.289063216673056e-05
1.4380552345593039e-05
1.0408085950252913e-05
5.323876637428033e-06
-5.293955920339377e-21
-5.323876637428078e-06
-1.040808595025295e-05
-1.4380552345593127e-05
-1.2890632166730581e-05
1.2605472180622613e-05
1.397682432563016e-05
1.0104364151110699e-05
5.179575568781647e-06
-2.4511015911171316e-20
-5.179575568781708e-06
-1.0104364151110735e-05
-1.3976824325630248e-05
-1.2605472180622678e-05
1.1508984898900206e-05
1.268385896512644e-05
9.227212333092317e-06
4.774406786942122e-06
-1.1239068418880498e-19
-4.774406786942261e-06
-9.227212333092333e-06
-1.2683858965126505e-05
-1.1508984898900297e-05
9.131573286708042e-06
1.0446542568895568e-05
7.80623034169367e-06
4.128524533993665e-06
-9.126780006665086e-20
-4.128524533993773e-06
-7.806230341693618e-06
-1.0446542568895551e-05
-9.13157328670814e-06
6.380752188163591e-06
6.943382175493474e-06
5.421560203560974e-06
2.90473028813705e-06
-1.0587911840678754e-21
-2.904730288137134e-06
-5.421560203560939e-06
-6.94338217549347e-06
-6.380752188163819e-06
6.352176119942126e-06
8.664018868131879e-06
7.203177163120074e-06
3.966571068467944e-06
-3.654947167402306e-19
-3.966571068467867e-06
-7.203177163119603e-06
-8.664018868131762e-06
-6.3521761199418365e-06
1.2602097790198339e-05
1.4918046941038823e-05
1.1685855104173993e-05
6.266075276855625e-06
-4.2457526481121804e-19
-6.266075276855969e-06
-1.1685855104173822e-05
-1.4918046941038664e-05
-1.2602097790198113e-05
1.709457876467587e-05
1.94357666670881e-05
1.4680628867174455e-05
7.700925155463286e-06
-2.1789922568116876e-19
-7.700925155463681e-06
-1.46806288671745e-05
-1.943576666708801e-05
-1.7094578764675883e-05
1.934747810098998e-05
2.203328458323865e-05
1.6508209610538872e-05
8.577605094541685e-06
-1.070437887092622e-19
-8.577605094541976e-06
-1.6508209610538926e-05
-2.2033284583238675e-05
-1.9347478100990102e-05
1.9991143365503397e-05
2.2852576217528604e-05
1.7123250167247457e-05
8.879886033438402e-06
1.1752582143153417e-20
-8.879886033438507e-06
-1.7123250167247495e-05
-2.2852576217528808e-05
-1.9991143365503584e-05
1.9347478100943133e-05
2.2033284583180505e-05
1.6508209610498756e-05
8.577605094522813e-06
5.431598774268201e-20
-8.577605094522966e-06
-1.6508209610499007e-05
-2.2033284583180854e-05
-1.9347478100943383e-05
1.7094578764569686e-05
1.943576666697471e-05
1.4680628867101553e-05
7.700925155430062e-06
-7.718587731854812e-20
-7.700925155430242e-06
-1.4680628867101697e-05
-1.9435766666974947e-05
-1.709457876456984e-05
1.2602097790055185e-05
1.4918046940889047e-05
1.168585510408084e-05
6.266075276813399e-06
-1.7533582008164017e-19
-6.266075276813541e-06
-1.1685855104080813e-05
-1.4918046940889105e-05
-1.2602097790055204e-05
6.35217611979441e-06
8.66401886798793e-06
7.2031771630307475e-06
3.966571068426521e-06
-2.1429933565533799e-19
-3.966571068426743e-06
-7.203177163030836e-06
-8.664018867988103e-06
-6.352176119794641e-06
4.467929545205087e-06
7.389271856029453e-06
6.641633776711402e-06
3.7736434856155395e-06
-3.155197728522269e-19
-3.773643485615413e-06
-6.641633776711145e-06
-7.389271856029296e-06
-4.467929545204572e-06
1.1263189164358226e-05
1.4337187021050409e-05
1.1849788443617142e-05
6.510069246992674e-06
-2.5368636770266295e-19
-6.510069246992998e-06
-1.1849788443617596e-05
-1.4337187021050544e-05
-1.1263189164357894e-05
1.6537240454539974e-05
1.99088552204224e-05
1.5746966889448353e-05
8.45353350303736e-06
-2.2234614865425384e-20
-8.453533503037804e-06
-1.5746966889448905e-05
-1.9908855220422386e-05
-1.6537240454539968e-05
1.937032021211846e-05
2.3232878618339793e-05
1.817356266387106e-05
9.659450651134197e-06
4.859851534871548e-20
-9.659450651134531e-06
-1.8173562663871364e-05
-2.3232878618339685e-05
-1.9370320212118607e-05
2.023617430216957e-05
2.4306246637075984e-05
1.8991857138617148e-05
1.0072617295915272e-05
1.2176098616780567e-20
-1.0072617295915382e-05
-1.8991857138617436e-05
-2.430624663707643e-05
-2.0236174302169944e-05
1.9370320212042773e-05
2.3232878618246867e-05
1.817356266380251e-05
9.659450651100325e-06
-3.758708703440958e-20
-9.659450651100467e-06
-1.817356266380301e-05
-2.3232878618247558e-05
-1.9370320212043163e-05
1.6537240454387563e-05
1.9908855220252024e-05
1.574696688932699e-05
8.4535335029776e-06
-8.967961329054905e-20
-8.453533502977888e-06
-1.5746966889327478e-05
-1.9908855220252333e-05
-1.6537240454387624e-05
1.126318916417838e-05
1.4337187020851981e-05
1.1849788443475399e-05
6.510069246922471e-06
-2.2382845631194886e-19
-6.51006924692289e-06
-1.1849788443475648e-05
-1.4337187020851834e-05
-1.1263189164178266e-05
4.467929545080505e-06
7.3892718558803415e-06
6.6416337766003894e-06
3.7736434855596625e-06
-2.803679055411734e-19
-3.773643485559925e-06
-6.641633776600556e-06
-7.389271855880269e-06
-4.4679295450804715e-06
3.6394700516812605e-06
5.97368336755132e-06
5.585466203130034e-06
3.246939723604418e-06
1.8550021544869177e-19
-3.246939723604287e-06
-5.585466203130372e-06
-5.973683367551479e-06
-3.6394700516810877e-06
8.65179985591935e-06
1.1880847847086912e-05
1.026544084374107e-05
5.781188494966556e-06
2.430984558619842e-19
-5.7811884949667795e-06
-1.0265440843741912e-05
-1.1880847847087325e-05
-8.651799855919449e-06
1.3205976358358975e-05
1.695435422316276e-05
1.4030508514390203e-05
7.724840862303314e-06
2.056172479459814e-19
-7.724840862303686e-06
-1.4030508514391112e-05
-1.695435422316325e-05
-1.3205976358359441e-05
1.586722393319282e-05
2.0163375602428076e-05
1.646025956149321e-05
8.9710589240546e-06
7.686823996332776e-20
-8.971058924054974e-06
-1.6460259561493848e-05
-2.0163375602428578e-05
-1.5867223933193378e-05
1.6715314738157684e-05
2.123204217187413e-05
1.729395008840972e-05
9.401859461356644e-06
-2.0381730293306602e-19
-9.401859461356935e-06
-1.7293950088410277e-05
-2.123204217187507e-05
-1.6715314738158436e-05
1.5867223933107472e-05
2.0163375602321912e-05
1.646025956141168e-05
8.971058924012385e-06
-4.515744400049489e-19
-8.971058924012985e-06
-1.646025956141247e-05
-2.0163375602322634e-05
-1.5867223933108038e-05
1.320597635819959e-05
1.6954354222978116e-05
1.4030508514250471e-05
7.724840862230396e-06
-4.730679010415267e-19
-7.724840862231448e-06
-1.4030508514251384e-05
-1.6954354222977973e-05
-1.3205976358199828e-05
8.651799855756153e-06
1.1880847846891423e-05
1.0265440843589285e-05
5.78118849488622e-06
-3.731180132655193e-19
-5.781188494887404e-06
-1.0265440843589837e-05
-1.1880847846890527e-05
-8.651799855756243e-06
3.6394700515908787e-06
5.9736833674236245e-06
5.585466203024109e-06
3.2469397235472697e-06
4.404571325722362e-20
-3.2469397235478e-06
-5.585466203024439e-06
-5.9736833674227774e-06
-3.63947005159076e-06
2.9371899875789146e-06
4.702610795645866e-06
4.4305346700583715e-06
2.611059729006773e-06
1.2790197503539935e-19
-2.611059729007267e-06
-4.430534670058997e-06
-4.702610795646649e-06
-2.937189987579521e-06
6.335067765012327e-06
9.12377741710061e-06
8.153368237382083e-06
4.678841557194519e-06
3.8116482626443515e-19
-4.678841557195068e-06
-8.153368237382548e-06
-9.123777417100932e-06
-6.335067765013154e-06
9.648566993900405e-06
1.3027055355970676e-05
1.1212549347747293e-05
6.310622753468328e-06
1.9905274260476058e-20
-6.310622753469078e-06
-1.1212549347748044e-05
-1.3027055355971366e-05
-9.648566993901287e-06
1.1752360481894889e-05
1.5621159400290674e-05
1.3244747654002684e-05
7.3822777159532375e-06
-2.2647543427211855e-19
-7.382277715953982e-06
-1.3244747654003277e-05
-1.562115940029163e-05
-1.1752360481895692e-05
1.2447214683708807e-05
1.6510430113771584e-05
1.3954122283426705e-05
7.75683948252857e-06
-5.432128169860235e-19
-7.756839482529591e-06
-1.3954122283427445e-05
-1.651043011377294e-05
-1.2447214683709969e-05
1.175236048181668e-05
1.5621159400190328e-05
1.3244747653922634e-05
7.382277715910141e-06
-7.957345143862118e-19
-7.382277715911821e-06
-1.3244747653923893e-05
-1.562115940019139e-05
-1.1752360481817545e-05
9.648566993762704e-06
1.3027055355802191e-05
1.1212549347612895e-05
6.310622753395549e-06
-7.326834993749698e-19
-6.31062275339734e-06
-1.1212549347613767e-05
-1.3027055355801915e-05
-9.64856699376302e-06
6.335067764882284e-06
9.12377741692993e-06
8.153368237240635e-06
4.678841557116844e-06
-5.916525136571288e-19
-4.678841557118461e-06
-8.15336823724097e-06
-9.123777416928673e-06
-6.33506776488245e-06
2.9371899875051347e-06
4.702610795537581e-06
4.430534669962923e-06
2.611059728953269e-06
-9.867933835512599e-20
-2.611059728954274e-06
-4.430534669962962e-06
-4.702610795536199e-06
-2.9371899875053346e-06
2.2675904475501672e-06
3.5595376664974426e-06
3.354591997037409e-06
1.987191247522783e-06
-5.327837238229549e-19
-1.987191247523985e-06
-3.3545919970380103e-06
-3.5595376664988554e-06
-2.267590447551502e-06
4.475280720669858e-06
6.662561974349514e-06
6.09614890008482e-06
3.547984319207655e-06
-1.3383120566617945e-19
-3.5479843192084833e-06
-6.096148900084898e-06
-6.6625619743502116e-06
-4.4752807206710946e-06
6.709866641340481e-06
9.395358525049822e-06
8.334925038588953e-06
4.7771836673879715e-06
-5.988522937087903e-19
-4.777183667389303e-06
-8.334925038589446e-06
-9.395358525050354e-06
-6.709866641341276e-06
8.197318752414335e-06
1.126909818716417e-05
9.844675482072795e-06
5.592108671159516e-06
-8.472447054911139e-19
-5.5921086711609015e-06
-9.844675482073554e-06
-1.1269098187164859e-05
-8.197318752414532e-06
8.704698802055562e-06
1.1925374965518831e-05
1.0378691525671237e-05
5.879236167694388e-06
-1.263349640829789e-18
-5.879236167696278e-06
-1.0378691525672733e-05
-1.192537496552064e-05
-8.704698802056032e-06
8.197318752351841e-06
1.1269098187080384e-05
9.844675482002912e-06
5.5921086711208614e-06
-1.342547221398066e-18
-5.592108671123351e-06
-9.844675482004587e-06
-1.1269098187081915e-05
-8.197318752351916e-06
6.709866641233691e-06
9.39535852491172e-06
8.334925038472601e-06
4.777183667322954e-06
-1.1530235994499163e-18
-4.777183667325503e-06
-8.334925038473172e-06
-9.395358524911749e-06
-6.709866641233735e-06
4.475280720570088e-06
6.662561974209989e-06
6.096148899962337e-06
3.54798431913781e-06
-1.277749200933112e-18
-3.5479843191404064e-06
-6.096148899962196e-06
-6.6625619742091094e-06
-4.47528072057094e-06
2.2675904474867245e-06
3.5595376664061036e-06
3.354591996953854e-06
1.987191247474179e-06
-9.147955830346444e-19
-1.9871912474757817e-06
-3.354591996952904e-06
-3.559537666404862e-06
-2.2675904474881475e-06
1.6764003974920163e-06
2.590923519689166e-06
2.436488372556671e-06
1.4460671002114161e-06
-3.5998900258307764e-20
-1.4460671002118706e-06
-2.4364883725573282e-06
-2.590923519690001e-06
-1.6764003974935138e-06
3.0462250331109734e-06
4.667973312102545e-06
4.349587138702742e-06
2.5580540240191686e-06
-3.3097812413961786e-19
-2.558054024019473e-06
-4.349587138702723e-06
-4.667973312103587e-06
-3.046225033112737e-06
4.486768080934286e-06
6.4675532041385456e-06
5.876082318461014e-06
3.4171035988484377e-06
-1.1909283238395463e-18
-3.4171035988493267e-06
-5.876082318460834e-06
-6.467553204139147e-06
-4.4867680809349145e-06
5.472560092564877e-06
7.725043568350514e-06
6.90988805140743e-06
3.985493280246015e-06
-1.6641021039994798e-18
-3.985493280247342e-06
-6.909888051407606e-06
-7.72504356835102e-06
-5.472560092564201e-06
5.814333088988229e-06
8.171491363837361e-06
7.278562553848286e-06
4.186451033777027e-06
-2.1612575044785507e-18
-4.186451033779178e-06
-7.278562553849503e-06
-8.171491363838898e-06
-5.814333088987419e-06
5.472560092519689e-06
7.725043568287214e-06
6.909888051351225e-06
3.985493280214635e-06
-1.9640047068867055e-18
-3.985493280217089e-06
-6.909888051352416e-06
-7.72504356828758e-06
-5.47256009251802e-06
4.486768080857323e-06
6.4675532040339616e-06
5.876082318367374e-06
3.4171035987951407e-06
-1.837002704357764e-18
-3.4171035987978216e-06
-5.876082318367816e-06
-6.4675532040334525e-06
-4.48676808085631e-06
3.0462250330376593e-06
4.66797331199406e-06
4.349587138603132e-06
2.558054023960968e-06
-2.054266655328492e-18
-2.558054023963554e-06
-4.349587138602305e-06
-4.6679733119933235e-06
-3.0462250330383623e-06
1.6764003974393613e-06
2.590923519614149e-06
2.4364883724872447e-06
1.4460671001705421e-06
-1.627150291675511e-18
-1.446067100171817e-06
-2.436488372485127e-06
-2.5909235196128448e-06
-1.6764003974406285e-06
1.2000199792550214e-06
1.8239331755362839e-06
1.7067179447811778e-06
1.0128149965800334e-06
7.322599829013426e-19
-1.012814996580005e-06
-1.7067179447820748e-06
-1.8239331755365685e-06
-1.2000199792564783e-06
1.9940945022347423e-06
3.1506602399551885e-06
2.983031811671678e-06
1.7689911610905048e-06
1.4293680984916318e-19
-1.7689911610904152e-06
-2.9830318116723836e-06
-3.150660239956105e-06
-1.9940945022364178e-06
2.8874605837842625e-06
4.275058318552649e-06
3.966239323284581e-06
2.3348664823102297e-06
-1.7999450129153882e-18
-2.3348664823110843e-06
-3.9662393232849926e-06
-4.2750583185546615e-06
-2.8874605837849206e-06
3.5131177390106527e-06
5.074039876965634e-06
4.630416104613853e-06
2.7052346694492216e-06
-2.611667274181025e-18
-2.7052346694500754e-06
-4.630416104613247e-06
-5.074039876967563e-06
-3.5131177390100576e-06
3.7319687312467765e-06
5.360518112726621e-06
4.868614362267731e-06
2.836150027385567e-06
-2.4642835413587767e-18
-2.836150027386968e-06
-4.868614362267437e-06
-5.360518112727827e-06
-3.731968731246174e-06
3.5131177389788872e-06
5.07403987692085e-06
4.630416104571726e-06
2.7052346694247924e-06
-2.1201234669775137e-18
-2.7052346694268684e-06
-4.630416104572488e-06
-5.074039876920651e-06
-3.5131177389776523e-06
2.8874605837307596e-06
4.275058318477241e-06
3.966239323214052e-06
2.3348664822696975e-06
-1.5382118322138094e-18
-2.3348664822714165e-06
-3.966239323214905e-06
-4.275058318476721e-06
-2.887460583729389e-06
1.9940945021824567e-06
3.1506602398730212e-06
2.983031811595173e-06
1.7689911610464737e-06
-1.3448765620030154e-18
-1.7689911610472671e-06
-2.9830318115942e-06
-3.150660239871981e-06
-1.9940945021815673e-06
1.2000199792124326e-06
1.8239331754757566e-06
1.706717944726634e-06
1.0128149965490616e-06
-1.582257545471033e-18
-1.0128149965489125e-06
-1.7067179447239387e-06
-1.8239331754738677e-06
-1.2000199792115923e-06
8.411604405602015e-07
1.2509057687240945e-06
1.1596548786374652e-06
6.865082766253653e-07
7.043078956419507e-19
-6.865082766262594e-07
-1.159654878638774e-06
-1.2509057687250957e-06
-8.411604405609503e-07
1.2498115908508812e-06
2.0514951036129193e-06
1.9738525763302808e-06
1.179075797870419e-06
-2.394985658361534e-19
-1.1790757978702798e-06
-1.973852576330683e-06
-2.0514951036140136e-06
-1.2498115908506983e-06
1.7782852608255072e-06
2.7116730459401187e-06
2.570137910519835e-06
1.5307861977147933e-06
-2.1566517628278555e-18
-1.5307861977152262e-06
-2.570137910519684e-06
-2.7116730459426826e-06
-1.7782852608253666e-06
2.1601912021388327e-06
3.1924924334768854e-06
2.970237197676921e-06
1.7563536472249956e-06
-2.4201319489831463e-18
-1.7563536472248042e-06
-2.9702371976762606e-06
-3.192492433479959e-06
-2.160191202138863e-06
2.2946994016724697e-06
3.3668188561995786e-06
3.114563300378872e-06
1.8358224971204731e-06
-1.6221210335511885e-18
-1.8358224971198616e-06
-3.114563300378604e-06
-3.366818856201784e-06
-2.294699401672997e-06
2.160191202116422e-06
3.192492433446207e-06
2.970237197647395e-06
1.756353647206783e-06
-1.3403237599115235e-18
-1.7563536472060314e-06
-2.9702371976470016e-06
-3.1924924334468818e-06
-2.1601912021164553e-06
1.7782852607866538e-06
2.711673045886348e-06
2.570137910469978e-06
1.530786197684537e-06
-7.908111353802962e-19
-1.5307861976842299e-06
-2.5701379104696665e-06
-2.7116730458866827e-06
-1.7782852607871408e-06
1.2498115908105726e-06
2.0514951035512434e-06
1.9738525762749712e-06
1.1790757978372347e-06
-4.3029273720518457e-19
-1.1790757978376743e-06
-1.973852576273825e-06
-2.0514951035496527e-06
-1.2498115908110402e-06
8.411604405233149e-07
1.2509057686764269e-06
1.1596548785970347e-06
6.865082766017755e-07
-8.648206391466406e-19
-6.865082766014917e-07
-1.1596548785944868e-06
-1.2509057686727914e-06
-8.411604405223357e-07
5.836212036729412e-07
8.427943398489156e-07
7.695240119299701e-07
4.530966354012066e-07
9.435947032412906e-19
-4.5309663540414327e-07
-7.695240119333422e-07
-8.427943398473808e-07
-5.836212036712437e-07
7.422460991203057e-07
1.2865425172937996e-06
1.2613853851365063e-06
7.589500117545781e-07
-4.2626933070572665e-19
-7.589500117553593e-07
-1.2613853851364817e-06
-1.2865425172933473e-06
-7.422460991189657e-07
1.0312265442323794e-06
1.635980666494431e-06
1.5917470646017796e-06
9.60671378146109e-07
-1.1209422265726597e-18
-9.606713781458969e-07
-1.5917470645998137e-06
-1.6359806664949595e-06
-1.0312265442323692e-06
1.2513458793411432e-06
1.9022703373465939e-06
1.8101966252149088e-06
1.0849672067674246e-06
-1.100136979805726e-18
-1.0849672067670563e-06
-1.8101966252144914e-06
-1.9022703373487184e-06
-1.2513458793423494e-06
1.3294508889595971e-06
2.0004850130979885e-06
1.8896727083336043e-06
1.1283730378992961e-06
-4.2441644613360786e-19
-1.1283730378976592e-06
-1.889672708333992e-06
-2.000485013101124e-06
-1.3294508889613823e-06
1.2513458793254816e-06
1.902270337325162e-06
1.8101966251955121e-06
1.0849672067549002e-06
-7.031432253394761e-19
-1.08496720675187e-06
-1.8101966251931557e-06
-1.9022703373267597e-06
-1.251345879326994e-06
1.031226544202707e-06
1.6359806664549448e-06
1.5917470645674363e-06
9.606713781236909e-07
-1.3353474413464045e-18
-9.606713781225592e-07
-1.591747064564622e-06
-1.635980666456827e-06
-1.0312265442067168e-06
7.422460990870647e-07
1.2865425172472492e-06
1.2613853850981475e-06
7.589500117297109e-07
-8.747732762768787e-19
-7.589500117299132e-07
-1.2613853850955285e-06
-1.2865425172473864e-06
-7.422460990918403e-07
5.836212036392259e-07
8.427943398112819e-07
7.695240119024306e-07
4.5309663538399447e-07
-8.834553639862353e-19
-4.53096635383183e-07
-7.695240118994414e-07
-8.427943398085884e-07
-5.836212036408149e-07
4.062385620106162e-07
5.653422334369518e-07
5.048857775809032e-07
2.9444793662373486e-07
-6.352747104407253e-22
-2.9444793662739976e-07
-5.048857775825888e-07
-5.653422334308481e-07
-4.0623856200800906e-07
4.0826953387739346e-07
7.727530134932588e-07
7.771408064947009e-07
4.714414345156271e-07
-1.4020512859426806e-18
-4.714414345179236e-07
-7.771408064940148e-07
-7.727530134907567e-07
-4.0826953387796097e-07
5.383482905301851e-07
9.133022694614816e-07
9.245716044418301e-07
5.683396489982159e-07
-1.4112627692440712e-18
-5.683396489983803e-07
-9.245716044386715e-07
-9.133022694615121e-07
-5.383482905337485e-07
6.478530130249312e-07
1.0319387376733762e-06
1.0163219978773173e-06
6.211152951991972e-07
-1.6891954550618885e-18
-6.211152951978906e-07
-1.0163219978747906e-06
-1.0319387376769073e-06
-6.478530130292399e-07
6.868431854190814e-07
1.077105219966368e-06
1.050131370740438e-06
6.388809979599944e-07
-1.96204594319618e-18
-6.388809979573674e-07
-1.050131370738976e-06
-1.0771052199730397e-06
-6.868431854219979e-07
6.478530130145629e-07
1.031938737655726e-06
1.0163219978643533e-06
6.211152951903888e-07
-2.2748128589698303e-18
-6.21115295188404e-07
-1.016321997861552e-06
-1.0319387376617295e-06
-6.478530130178371e-07
5.383482905098309e-07
9.13302269432544e-07
9.245716044178641e-07
5.683396489822038e-07
-1.897671439204853e-18
-5.683396489824205e-07
-9.245716044142138e-07
-9.133022694368351e-07
-5.383482905154501e-07
4.082695338537951e-07
7.727530134600974e-07
7.771408064680583e-07
4.7144143449754504e-07
-1.0431210745436709e-18
-4.714414344973638e-07
-7.771408064646536e-07
-7.72753013462974e-07
-4.0826953385960915e-07
4.0623856198239986e-07
5.653422334072802e-07
5.048857775629529e-07
2.944479366109449e-07
-1.8910010547452255e-18
-2.944479366079976e-07
-5.04885777558689e-07
-5.65342233408871e-07
-4.062385619846699e-07
2.9209938133044566e-07
3.9000130361178123e-07
3.378406596513249e-07
1.9365350180318707e-07
-1.3827812863926453e-18
-1.9365350180544398e-07
-3.3784065964780124e-07
-3.9000130360472375e-07
-2.9209938133004417e-07
1.984230895232765e-07
4.4024347720263706e-07
4.591083467361512e-07
2.8099668243779657e-07
-3.239265748537258e-18
-2.8099668243959927e-07
-4.5910834673420813e-07
-4.402434772013343e-07
-1.9842308952575323e-07
2.1349026035808358e-07
4.2850616665312713e-07
4.705957458331267e-07
2.990776738371515e-07
-3.161021080034642e-18
-2.9907767383588973e-07
-4.705957458303336e-07
-4.2850616665553016e-07
-2.1349026036245766e-07
2.366103404147766e-07
4.3255626027282067e-07
4.6357675089365125e-07
2.9573000646374586e-07
-1.7185504406401703e-18
-2.9573000645902683e-07
-4.6357675089044004e-07
-4.325562602788611e-07
-2.366103404199456e-07
2.4404760308592525e-07
4.353920666758329e-07
4.609666813625417e-07
2.929901275319644e-07
-2.759236295460485e-18
-2.9299012752790224e-07
-4.609666813602632e-07
-4.35392066685841e-07
-2.4404760309000244e-07
2.3661034040601912e-07
4.3255626025689116e-07
4.6357675088458747e-07
2.957300064559394e-07
-3.269758934638413e-18
-2.9573000645404384e-07
-4.635767508820562e-07
-4.3255626026741533e-07
-2.36610340411092e-07
2.1349026034425916e-07
4.28506166631258e-07
4.705957458166354e-07
2.990776738243254e-07
-1.9642694046827225e-18
-2.9907767382415176e-07
-4.705957458152509e-07
-4.285061666396686e-07
-2.1349026035006133e-07
1.9842308950997724e-07
4.4024347717965197e-07
4.591083467162468e-07
2.8099668242238163e-07
-1.2152805210731074e-18
-2.8099668242321363e-07
-4.591083467175e-07
-4.402434771863825e-07
-1.9842308951347718e-07
2.920993813107047e-07
3.9000130359056645e-07
3.3784065963758263e-07
1.9365350179062726e-07
-1.5121655690857397e-18
-1.9365350178775264e-07
-3.378406596365264e-07
-3.900013035945407e-07
-2.92099381309939e-07
2.3456546093854714e-07
2.9975495016438996e-07
2.476560275388849e-07
1.3663035258032502e-07
-1.3891340334970526e-19
-1.36630352582684e-07
-2.4765602753742803e-07
-2.997549501585378e-07
-2.3456546093791525e-07
7.82031175138099e-08
2.3467430359035413e-07
2.5443076272471085e-07
1.5545701812482584e-07
-1.2744669482625016e-18
-1.5545701812594107e-07
-2.544307627245584e-07
-2.3467430358815693e-07
-7.820311751387427e-08
-1.365799971812361e-08
8.237937613601273e-08
1.4055849620469417e-07
1.0108617268255132e-07
-1.9262588011746858e-18
-1.0108617268187486e-07
-1.4055849620459952e-07
-8.237937613626938e-08
1.3657999717214744e-08
-8.001403308016813e-08
-2.957253532469113e-08
3.481587597010123e-08
4.203972507357919e-08
-5.109726254311567e-19
-4.203972507146304e-08
-3.481587597083217e-08
2.9572535320737393e-08
8.001403307593169e-08
-1.0653027692323085e-07
-7.105626522780708e-08
-5.290757074167326e-09
1.837889566416441e-08
-1.6580140546910895e-18
-1.8378895662765322e-08
5.290757075228394e-09
7.105626522037162e-08
1.0653027691689039e-07
-8.001403309024168e-08
-2.9572535337449565e-08
3.481587596499643e-08
4.2039725066563164e-08
-2.053472561940441e-18
-4.203972506398813e-08
-3.481587596042933e-08
2.9572535329418846e-08
8.001403308404224e-08
-1.3657999731684184e-08
8.237937611787479e-08
1.4055849619273534e-07
1.0108617267018189e-07
-1.114801237705066e-18
-1.010861726686836e-07
-1.4055849619313387e-07
-8.237937612932879e-08
1.36579997246428e-08
7.820311750313474e-08
2.346743035721099e-07
2.544307627080603e-07
1.5545701810975363e-07
-4.56974275043695e-19
-1.5545701811103308e-07
-2.5443076271607323e-07
-2.3467430358501698e-07
-7.820311750786542e-08
2.3456546092384265e-07
2.9975495014957197e-07
2.4765602752724246e-07
1.3663035256942667e-07
1.032109646229365e-18
-1.366303525680676e-07
-2.476560275342881e-07
-2.9975495015642955e-07
-2.345654609234598e-07
2.4226366600053227e-07
2.903346537887501e-07
2.1817621360922748e-07
1.0952306686489242e-07
8.88114045196134e-19
-1.0952306686865536e-07
-2.181762136139641e-07
-2.903346537864648e-07
-2.4226366600055005e-07
2.4731778007453706e-08
1.1024553229492905e-07
1.115286497676636e-07
6.10451854197974e-08
9.516415162402064e-19
-6.104518542250071e-08
-1.1152864977142611e-07
-1.1024553229122159e-07
-2.4731778005310713e-08
-2.1074217557720144e-07
-2.248075955499828e-07
-1.5922908075045735e-07
-8.15305323334561e-08
-4.0763460586613204e-19
8.153053233127097e-08
1.5922908074963996e-07
2.248075955545606e-07
2.1074217557891244e-07
-4.027193999845439e-07
-4.948419122774633e-07
-3.955780395786617e-07
-2.1262436967894863e-07
-2.045452218721127e-18
2.126243696761904e-07
3.955780395782402e-07
4.948419122773265e-07
4.0271939998110274e-07
-4.772161638917057e-07
-5.972940011139271e-07
-4.85941613177724e-07
-2.6379920479970275e-07
-3.093364323372705e-18
2.6379920479863083e-07
4.859416131796593e-07
5.972940011096996e-07
4.772161638860764e-07
-4.0271939999412163e-07
-4.948419122907554e-07
-3.955780395865802e-07
-2.126243696860734e-07
-1.3971014371571633e-18
2.1262436968903703e-07
3.9557803959121283e-07
4.94841912284913e-07
4.027193999922999e-07
-2.1074217559164674e-07
-2.2480759556883945e-07
-1.592290807661804e-07
-8.153053234746148e-08
1.4510733177650233e-18
8.153053234942649e-08
1.5922908076386779e-07
2.248075955552289e-07
2.1074217558726377e-07
2.4731777996240684e-08
1.102455322795156e-07
1.1152864975073013e-07
6.104518540539223e-08
4.127485672851799e-18
-6.104518540503997e-08
-1.1152864976330857e-07
-1.1024553229693398e-07
-2.4731778002737427e-08
2.4226366599111156e-07
2.903346537798978e-07
2.1817621359953065e-07
1.0952306685913302e-07
5.9053019500201684e-18
-1.0952306685683693e-07
-2.1817621361267745e-07
-2.9033465379103965e-07
-2.422636659944692e-07
3.42628996893749e-07
3.6325856127585185e-07
2.2553107760217115e-07
9.03780857453273e-08
7.770468499874138e-19
-9.037808574911618e-08
-2.2553107760975845e-07
-3.632585612792078e-07
-3.4262899689691774e-07
1.4222187487563093e-08
8.470833126902026e-09
-4.0875102506341896e-08
-4.9943287967347567e-08
9.830876144070223e-19
4.9943287964597356e-08
4.087510250051897e-08
-8.470833127056186e-09
-1.4222187487091296e-08
-4.670713810070257e-07
-6.247146373395238e-07
-5.527857001685833e-07
-3.2275453495579027e-07
6.699501217189482e-19
3.227545349544826e-07
5.52785700168844e-07
6.247146373436438e-07
4.6707138100859314e-07
-8.629693560445695e-07
-1.1454801174723488e-06
-9.897326829746209e-07
-5.615502055441371e-07
-9.51509167342198e-19
5.615502055415813e-07
9.897326829784651e-07
1.1454801174764409e-06
8.629693560417183e-07
-1.0129374895854052e-06
-1.3428410715313888e-06
-1.156680016641172e-06
-6.538481804187179e-07
-1.9001066589282092e-18
6.538481804161529e-07
1.1566800166431833e-06
1.3428410715309964e-06
1.012937489580339e-06
-8.62969356055439e-07
-1.1454801174942794e-06
-9.897326829938623e-07
-5.615502055551145e-07
-7.146840492458159e-22
5.615502055566356e-07
9.8973268299294e-07
1.1454801174879067e-06
8.6296935605662e-07
-4.6707138102201734e-07
-6.247146373677781e-07
-5.527857001950937e-07
-3.2275453497205955e-07
4.170260836688141e-18
3.22754534976727e-07
5.527857001892052e-07
6.247146373524476e-07
4.6707138102284913e-07
1.4222187479668746e-08
8.470833110095622e-09
-4.087510252663003e-08
-4.9943287978997764e-08
8.701569467143427e-18
4.9943287983819075e-08
4.087510251322531e-08
-8.470833127516125e-09
-1.4222187482254738e-08
3.426289968947976e-07
3.632585612734632e-07
2.2553107759319557e-07
9.03780857435245e-08
9.571684062210407e-18
-9.037808574062658e-08
-2.2553107760810335e-07
-3.6325856128531405e-07
-3.4262899689664923e-07
5.733060523728432e-07
4.975469218373371e-07
2.1002553178108134e-07
3.49786061564709e-08
1.2805020580116885e-18
-3.4978606157608676e-08
-2.1002553178912435e-07
-4.975469218446195e-07
-5.733060523732963e-07
-1.4338353705913992e-08
-1.890826729644341e-07
-3.3055251273890915e-07
-2.57234041460363e-07
1.1829873899590372e-18
2.5723404145840034e-07
3.305525127333236e-07
1.8908267296113025e-07
1.433835370594872e-08
-9.364671893531619e-07
-1.3324699017381184e-06
-1.2322985029722961e-06
-7.326889425553367e-07
2.879647322868604e-18
7.326889425550932e-07
1.2322985029732418e-06
1.3324699017406375e-06
9.364671893519639e-07
-1.6626733286749053e-06
-2.2560424083731762e-06
-1.9838517495873885e-06
-1.1364530768072907e-06
2.9633712357487714e-18
1.1364530768053677e-06
1.9838517495910595e-06
2.2560424083776655e-06
1.662673328669853e-06
-1.9305222887980778e-06
-2.6017298158354763e-06
-2.2690236404162786e-06
-1.291314593978008e-06
2.4719068378840654e-18
1.2913145939745192e-06
2.269023640414904e-06
2.6017298158359905e-06
1.9305222887924865e-06
-1.6626733286923755e-06
-2.2560424084046113e-06
-1.983851749615916e-06
-1.136453076821204e-06
2.787982476107928e-18
1.1364530768224382e-06
1.9838517496103562e-06
2.2560424083984208e-06
1.6626733286919745e-06
-9.364671893782978e-07
-1.3324699017809029e-06
-1.2322985030097049e-06
-7.326889425745449e-07
4.505050609090403e-18
7.326889425809459e-07
1.232298503002042e-06
1.332469901766132e-06
9.364671893778395e-07
-1.433835372155996e-08
-1.8908267299053372e-07
-3.305525127639597e-07
-2.5723404147228956e-07
8.305052168710008e-18
2.572340414783883e-07
3.3055251275360327e-07
1.8908267297579831e-07
1.4338353719997608e-08
5.733060523749658e-07
4.975469218361487e-07
2.1002553177341654e-07
3.497860615346933e-08
8.824495123613708e-18
-3.4978606152515044e-08
-2.1002553178557867e-07
-4.975469218436797e-07
-5.733060523739985e-07
9.247767842476408e-07
5.744554393313152e-07
3.803223580572615e-08
-1.318666137395376e-07
3.0988170979706544e-18
1.3186661374252928e-07
-3.803223581404656e-08
-5.744554393387327e-07
-9.247767842443793e-07
-2.466760796532022e-07
-7.424153534946492e-07
-9.835088716966843e-07
-6.819012326077797e-07
3.262770912823565e-18
6.819012326079259e-07
9.835088716902847e-07
7.424153534902713e-07
2.466760796546659e-07
-1.9048868654846687e-06
-2.722710948656465e-06
-2.498944552911795e-06
-1.4662525166669346e-06
4.798494585754815e-18
1.4662525166677868e-06
2.4989445529101858e-06
2.7227109486545186e-06
1.9048868654828118e-06
-3.1428561834862393e-06
-4.271113182220084e-06
-3.731368089680369e-06
-2.1167918094000228e-06
5.9510417291719006e-18
2.1167918094007534e-06
3.7313680896808346e-06
4.271113182219819e-06
3.142856183482158e-06
-3.5894989938989736e-06
-4.841846170120444e-06
-4.1946705176882095e-06
-2.364675925062743e-06
7.163887030521652e-18
2.3646759250643887e-06
4.194670517686647e-06
4.841846170120651e-06
3.5894989938969047e-06
-3.142856183519836e-06
-4.271113182261588e-06
-3.7313680897151793e-06
-2.1167918094167237e-06
5.228469685604779e-18
2.1167918094208153e-06
3.7313680897123904e-06
4.27111318225642e-06
3.1428561835168375e-06
-1.9048868655364786e-06
-2.7227109487186512e-06
-2.4989445529612885e-06
-1.4662525166926404e-06
2.834172241512889e-18
1.4662525166974384e-06
2.4989445529586204e-06
2.722710948706812e-06
1.9048868655283883e-06
-2.4667607969189786e-07
-7.424153535396714e-07
-9.835088717321773e-07
-6.819012326252417e-07
5.381888528176214e-18
6.81901232630941e-07
9.83508871731384e-07
7.424153535323604e-07
2.46676079687434e-07
9.247767842410754e-07
5.74455439321416e-07
3.803223579497582e-08
-1.318666137455805e-07
5.505184761560918e-18
1.3186661374687318e-07
-3.803223579785256e-08
-5.744554393224002e-07
-9.247767842418886e-07
1.1183644410767516e-06
2.8653536047591655e-07
-4.7660532689069407e-07
-4.845103165954591e-07
6.264761557011212e-18
4.845103166009077e-07
4.766053268851066e-07
-2.8653536048090833e-07
-1.1183644410762489e-06
-1.0988209695616965e-06
-2.140906285688443e-06
-2.298927354475221e-06
-1.4442961782160775e-06
8.231333832519282e-18
1.4442961782216194e-06
2.2989273544691314e-06
2.1409062856818106e-06
1.0988209695602095e-06
-3.943967379059526e-06
-5.465486343525461e-06
-4.7585398817452784e-06
-2.6870950429210015e-06
8.920289255992249e-18
2.6870950429263242e-06
4.758539881741059e-06
5.465486343519282e-06
3.943967379058159e-06
-5.971717927040783e-06
-7.981480280931721e-06
-6.71386695569377e-06
-3.697735727891704e-06
1.0535766374863411e-17
3.697735727896592e-06
6.713866955693181e-06
7.981480280931448e-06
5.971717927040517e-06
-6.680566171933435e-06
-8.891911368464322e-06
-7.441231875902446e-06
-4.080237218912371e-06
1.1139833215153736e-17
4.080237218918662e-06
7.441231875906789e-06
8.891911368470252e-06
6.680566171933724e-06
-5.971717927099675e-06
-7.981480280995025e-06
-6.713866955739684e-06
-3.6977357279182425e-06
5.096147257375896e-18
3.6977357279243127e-06
6.713866955747719e-06
7.981480280996499e-06
5.971717927095224e-06
-3.943967379146973e-06
-5.465486343621918e-06
-4.75853988181643e-06
-2.687095042962011e-06
-1.1536059346011537e-18
2.6870950429636267e-06
4.758539881825036e-06
5.465486343619946e-06
3.943967379136796e-06
-1.0988209696258118e-06
-2.140906285763451e-06
-2.298927354531138e-06
-1.4442961782446115e-06
2.7168581783181683e-19
1.4442961782489472e-06
2.2989273545442755e-06
2.140906285769965e-06
1.0988209696230763e-06
1.118364441062476e-06
2.8653536045003694e-07
-4.7660532691267415e-07
-4.845103166056359e-07
-1.63212661024063e-19
4.845103166080031e-07
4.766053269231459e-07
-2.865353604438773e-07
-1.1183644410649463e-06
7.766131427622683e-07
-5.25363331976228e-07
-1.2730483808127883e-06
-9.450244469851925e-07
5.779649906250913e-18
9.450244469893183e-07
1.273048380810002e-06
5.253633319689844e-07
-7.766131427688552e-07
-3.6402952495614182e-06
-5.006499060784066e-06
-4.412250848392089e-06
-2.533884497848724e-06
1.006714539679497e-17
2.533884497858124e-06
4.412250848390238e-06
5.006499060774024e-06
3.640295249553357e-06
-8.866928686620265e-06
-1.061970897075531e-05
-8.335423032439994e-06
-4.462405181517799e-06
1.2865080510033136e-17
4.462405181527938e-06
8.33542303244024e-06
1.0619708970751179e-05
8.86692868661573e-06
-1.2295385321830026e-05
-1.4693953401849235e-05
-1.1361922877199245e-05
-5.9875604527298444e-06
1.5929195726945965e-17
5.987560452741447e-06
1.1361922877204502e-05
1.4693953401853582e-05
1.2295385321828071e-05
-1.3448689368288943e-05
-1.6133145337370146e-05
-1.2473192945784769e-05
-6.558520217453654e-06
1.3866035225671303e-17
6.558520217467706e-06
1.2473192945797422e-05
1.6133145337380148e-05
1.3448689368288045e-05
-1.2295385321917677e-05
-1.4693953401948945e-05
-1.1361922877269537e-05
-5.987560452772064e-06
6.438879767231174e-18
5.987560452784681e-06
1.1361922877284706e-05
1.4693953401957613e-05
1.229538532191708e-05
-8.8669286867546e-06
-1.0619708970904524e-05
-8.335423032548835e-06
-4.46240518158121e-06
6.133577329305202e-19
4.462405181585766e-06
8.335423032561191e-06
1.0619708970913526e-05
8.866928686753885e-06
-3.6402952496715727e-06
-5.006499060902384e-06
-4.4122508484807264e-06
-2.53388449789814e-06
-9.1238683309089e-19
2.5338844979006353e-06
4.412250848496815e-06
5.006499060919197e-06
3.6402952496760637e-06
7.766131427237901e-07
-5.25363332021591e-07
-1.2730483808498316e-06
-9.450244470056204e-07
-2.49771487299572e-18
9.450244470071171e-07
1.273048380865699e-06
5.253633320355365e-07
-7.766131427226446e-07

SCALARS STRAIN_ZX float 1
LOOKUP_TABLE default
-0.00028290771905412743
3.4333947386546483e-06
-3.4333947386487055e-06
0.00028290771905315295
0.00028290771905412765
-3.4333947386571927e-06
3.4333947386528695e-06
-0.000282907719053154
-0.0001689483831698064
-3.266185358412365e-05
-3.420519179435247e-06
5.919283731732725e-06
9.117292462297599e-06
9.992927348370412e-06
9.935279842450894e-06
9.537114234319866e-06
9.066870164370475e-06
8.630065733542989e-06
8.247071633719184e-06
7.892363696786919e-06
7.514357085194824e-06
7.0464519078860985e-06
6.422881337980827e-06
5.626040118396523e-06
4.8317829066381755e-06
4.719395854341948e-06
4.197993800107121e-06
3.178948570676516e-06
2.68443284238784e-06
1.897004387859313e-06
8.928394153775544e-07
1.5857303805547757e-17
-8.928394153387256e-07
-1.8970043878150995e-06
-2.6844328423553346e-06
-3.178948570662281e-06
-4.197993800104454e-06
-4.719395854335998e-06
-4.8317829066072825e-06
-5.626040118347612e-06
-6.422881337931726e-06
-7.046451907846606e-06
-7.514357085156579e-06
-7.892363696749053e-06
-8.247071633693976e-06
-8.630065733521305e-06
-9.066870164350363e-06
-9.537114234306991e-06
-9.935279842451111e-06
-9.992927348406299e-06
-9.11729246240564e-06
-5.919283731952167e-06
3.420519179006445e-06
3.266185358324271e-05
0.00016894838316872348
0.0002491838699300215
0.00018572690905509315
0.000124974804259227
6.265841389394323e-05
1.5375003245381158e-15
-6.265841389107084e-05
-0.00012497480425705508
-0.00018572690905402858
-0.0002491838699302812
0.0001689483831698068
3.26618535841237e-05
3.4205191794354638e-06
-5.919283731732183e-06
-9.11729246229787e-06
-9.992927348371821e-06
-9.935279842453659e-06
-9.537114234321194e-06
-9.066870164369797e-06
-8.630065733545374e-06
-8.24707163372184e-06
-7.892363696786593e-06
-7.514357085194553e-06
-7.046451907881843e-06
-6.42288133797626e-06
-5.626040118394219e-06
-4.831782906638589e-06
-4.719395854346325e-06
-4.197993800110311e-06
-3.178948570679804e-06
-2.684432842389856e-06
-1.8970043878597873e-06
-8.928394153814444e-07
-2.1577317298356047e-17
8.928394153396781e-07
1.8970043878218834e-06
2.6844328423562193e-06
3.1789485706617207e-06
4.197993800105086e-06
4.719395854335761e-06
4.831782906605893e-06
5.626040118340809e-06
6.42288133792949e-06
7.046451907845617e-06
7.51435708515086e-06
7.892363696742006e-06
8.247071633689693e-06
8.63006573351873e-06
9.06687016434711e-06
9.537114234306205e-06
9.93527984244916e-06
9.99292734840283e-06
9.117292462403146e-06
5.919283731950107e-06
-3.4205191790080713e-06
-3.266185358324355e-05
-0.0001689483831687244
-0.0002491838699300226
-0.00018572690905509437
-0.00012497480425922817
-6.265841389394411e-05
-1.5380525900197256e-15
6.265841389107055e-05
0.00012497480425705513
0.00018572690905402885
0.00024918386993028145
-0.00024507485185761084
-0.00016943401909271343
-0.00010306195340082924
-4.928267084193058e-05
5.336307567702092e-19
4.928267084193144e-05
0.00010306195340082966
0.00016943401909271384
0.0002450748518576112
4.585692117006067e-06
5.251224055641259e-06
3.8580051518416965e-06
1.970281342303252e-06
1.7698753432878606e-18
-1.970281342300126e-06
-3.858005151842992e-06
-5.251224055643899e-06
-4.585692117007328e-06
-4.58569211698602e-06
-5.251224055606944e-06
-3.858005151805609e-06
-1.970281342277726e-06
1.0761553594865886e-18
1.9702813422789105e-06
3.858005151805197e-06
5.251224055594488e-06
4.5856921169761654e-06
0.00024507485185705334
0.0001694340190926452
0.00010306195340083687
4.928267084193901e-05
-8.555032767268433e-19
-4.9282670841940896e-05
-0.00010306195340083898
-0.00016943401909264716
-0.0002450748518570547
-0.00014773350950777483
-0.00010911130343879963
-7.36103175910617e-05
-3.704969064291719e-05
8.86755404348738e-16
3.7049690644537996e-05
7.361031759218158e-05
0.0001091113034391388
0.0001477335095071867
-2.6048430547705986e-05
-1.668273778555662e-05
-1.1262499951695394e-05
-5.762299509606962e-06
1.1454934765488256e-16
5.76229950977007e-06
1.126249995166507e-05
1.66827377852413e-05
2.6048430547029078e-05
-4.4422907907801094e-07
2.6551837865815286e-06
2.3350731946449155e-06
1.2691285280424952e-06
-2.9256517998163534e-17
-1.2691285281164818e-06
-2.3350731947617315e-06
-2.6551837867550823e-06
4.442290787621422e-07
6.449520304404222e-06
6.615775946017756e-06
5.166873897456418e-06
2.7451834555625953e-06
-4.9788596639607774e-17
-2.7451834556586115e-06
-5.166873897538804e-06
-6.615775946086888e-06
-6.449520304546916e-06
8.240621790237112e-06
6.715656510053927e-06
5.008487649294619e-06
2.6550073131341316e-06
-4.1589317710186147e-17
-2.6550073132072306e-06
-5.0084876493385565e-06
-6.71565651007225e-06
-8.240621790297028e-06
8.332830106093267e-06
5.887768384487188e-06
4.172836547869083e-06
2.1783308455957047e-06
-2.968681073536872e-17
-2.1783308456445886e-06
-4.172836547888741e-06
-5.887768384479531e-06
-8.332830106103092e-06
7.850193248261808e-06
4.9333593307924854e-06
3.3105123440538e-06
1.6871091273734408e-06
-2.012042062907865e-17
-1.687109127405047e-06
-3.310512344061315e-06
-4.9333593307767645e-06
-7.850193248250167e-06
7.230926306922859e-06
4.0937077091290414e-06
2.593780658153498e-06
1.2835807849414285e-06
-1.3071412442028363e-17
-1.2835807849612558e-06
-2.593780658156256e-06
-4.093707709114879e-06
-7.2309263069062575e-06
6.653298598733825e-06
3.4298367463838684e-06
2.049243191448506e-06
9.81054241105754e-07
-7.658871909073384e-18
-9.810542411171804e-07
-2.049243191448804e-06
-3.429836746371427e-06
-6.653298598714797e-06
6.173505354224379e-06
2.9347015097530473e-06
1.6564726686876024e-06
7.659204365208369e-07
-3.855693975901575e-18
-7.659204365260208e-07
-1.6564726686858e-06
-2.93470150974249e-06
-6.17350535420611e-06
5.788091628588973e-06
2.5763377249334856e-06
1.3831638617269692e-06
6.191109115871404e-07
-1.5449880957918438e-18
-6.191109115883296e-07
-1.383163861721965e-06
-2.576337724920543e-06
-5.788091628568075e-06
5.465206731950097e-06
2.317924461432019e-06
1.1995386578934563e-06
5.243584527635893e-07
4.0826988057657276e-19
-5.243584527622289e-07
-1.1995386578876118e-06
-2.3179244614164878e-06
-5.4652067319205255e-06
5.161213556029997e-06
2.1293002810820696e-06
1.0862531242266091e-06
4.7235509838396796e-07
1.4001454618113585e-18
-4.723550983820596e-07
-1.0862531242244882e-06
-2.1293002810739787e-06
-5.161213556004396e-06
4.831707532369547e-06
1.996662403733948e-06
1.0409037060089245e-06
4.63743453031742e-07
1.548376227580861e-18
-4.6374345302809976e-07
-1.0409037060043776e-06
-1.996662403726948e-06
-4.8317075323452545e-06
4.447183071812999e-06
1.934973970836852e-06
1.0840407733420545e-06
5.104318558576906e-07
2.803679055411734e-18
-5.104318558520629e-07
-1.084040773335229e-06
-1.934973970827172e-06
-4.44718307178277e-06
4.029067633645458e-06
2.0021158460511853e-06
1.2571022881476379e-06
6.305081827206958e-07
4.372384073726698e-18
-6.305081827133588e-07
-1.257102288141817e-06
-2.0021158460454932e-06
-4.029067633618166e-06
3.7333174408404355e-06
2.28306278068664e-06
1.5816714439698183e-06
8.299766764426888e-07
7.698682457594336e-18
-8.299766764283901e-07
-1.5816714439592389e-06
-2.2830627806825352e-06
-3.7333174408248636e-06
3.8556978412634225e-06
2.6686575178263504e-06
1.9396183271185475e-06
1.0313367335326627e-06
1.4257787963776417e-17
-1.031336733506919e-06
-1.9396183271011943e-06
-2.668657517820051e-06
-3.855697841260016e-06
3.6213898357126243e-06
2.7669301945023238e-06
1.997598873396292e-06
1.0033924882055296e-06
1.6924671198206582e-17
-1.0033924881699786e-06
-1.9975988733638356e-06
-2.7669301944815964e-06
-3.6213898357043937e-06
-0.00016784051333681982
-0.00014025299761085354
-8.980908225866e-05
-4.3660098558725877e-05
6.547564682275742e-19
4.366009855872684e-05
8.980908225866022e-05
0.0001402529976108538
0.00016784051333682034
-5.854743294329906e-05
-7.888460361205712e-05
-5.961720786415239e-05
-3.067638733832549e-05
1.0045810754436002e-18
3.0676387338326834e-05
5.9617207864152284e-05
7.888460361205681e-05
5.854743294329923e-05
-1.39566208644628e-05
-2.870545368252493e-05
-2.8608836345940095e-05
-1.6496031070720767e-05
1.6313854564117825e-18
1.649603107072281e-05
2.8608836345940116e-05
2.870545368252432e-05
1.3956620864462692e-05
3.7592830714741545e-06
-2.0049710310113256e-06
-6.306563107132738e-06
-4.967568053267817e-06
1.3501705179233547e-18
4.967568053269486e-06
6.306563107132839e-06
2.0049710310104447e-06
-3.7592830714745475e-06
1.0925764114703607e-05
1.0523801836714709e-05
5.985872574484528e-06
2.2794654306558925e-06
1.1553529400548657e-18
-2.279465430653897e-06
-5.98587257448385e-06
-1.0523801836714885e-05
-1.0925764114703756e-05
1.3473240088749647e-05
1.5727481170142013e-05
1.1719385439318863e-05
5.941972233410081e-06
2.425902360936316e-18
-5.941972233407127e-06
-1.1719385439317576e-05
-1.5727481170140563e-05
-1.347324008874966e-05
1.3995920537320772e-05
1.7367023033245163e-05
1.386712109715711e-05
7.434757343312558e-06
2.4157379655692646e-18
-7.4347573433106505e-06
-1.3867121097155803e-05
-1.736702303324179e-05
-1.3995920537320596e-05
1.3689559684868123e-05
1.741313670653661e-05
1.4280527100901242e-05
7.81810047801232e-06
9.16489648929153e-19
-7.818100478010556e-06
-1.4280527100899473e-05
-1.7413136706533332e-05
-1.368955968486643e-05
1.3112718342083617e-05
1.6842611093412254e-05
1.3960033864954327e-05
7.708067627829948e-06
-1.8295911660692887e-19
-7.708067627827048e-06
-1.3960033864949766e-05
-1.684261109340961e-05
-1.3112718342082113e-05
1.2503752370490845e-05
1.6100613108677954e-05
1.3387817951517349e-05
7.414365699750627e-06
-1.0045810754436002e-18
-7.414365699748792e-06
-1.3387817951511907e-05
-1.6100613108676802e-05
-1.2503752370493488e-05
1.193555997465726e-05
1.535274751016733e-05
1.2762265049137708e-05
7.071075914650152e-06
-2.188733135705112e-18
-7.071075914651697e-06
-1.2762265049136163e-05
-1.535274751016968e-05
-1.1935559974661841e-05
1.1395710048302966e-05
1.4623677294783021e-05
1.2138569095887638e-05
6.722810542635368e-06
-2.0667603913004928e-19
-6.722810542634632e-06
-1.2138569095887272e-05
-1.4623677294785305e-05
-1.1395710048304511e-05
1.0829592053965445e-05
1.3875438490991074e-05
1.1511479274306859e-05
6.376807363761495e-06
2.876523888875604e-18
-6.376807363755288e-06
-1.1511479274305676e-05
-1.3875438490993114e-05
-1.0829592053965201e-05
1.0168368352693096e-05
1.3059676784153034e-05
1.086878059126467e-05
6.0354490943855485e-06
3.2144900348300698e-18
-6.0354490943783055e-06
-1.0868780591262694e-05
-1.3059676784155473e-05
-1.0168368352691355e-05
9.361725127314165e-06
1.21665790940621e-05
1.0229219177795535e-05
5.714046326280805e-06
2.0879362149818503e-18
-5.714046326276441e-06
-1.0229219177794776e-05
-1.2166579094066301e-05
-9.361725127314565e-06
8.440012304845677e-06
1.1276880399041137e-05
9.649620138364822e-06
5.429914944027474e-06
2.922263668027336e-18
-5.429914944023198e-06
-9.649620138365003e-06
-1.1276880399044054e-05
-8.440012304845907e-06
7.62590209575826e-06
1.0549203994071523e-05
9.121620308084496e-06
5.131480710887297e-06
5.589570418931128e-18
-5.131480710879855e-06
-9.121620308083642e-06
-1.0549203994072695e-05
-7.62590209575864e-06
7.274459794165969e-06
9.798695295650566e-06
8.252605769565872e-06
4.552804019257342e-06
5.8898435987327774e-18
-4.552804019248381e-06
-8.25260576956526e-06
-9.798695295655959e-06
-7.274459794171089e-06
5.922324857468545e-06
7.3002348380941405e-06
5.7518682497210786e-06
3.0556957821402716e-06
3.624665739537965e-18
-3.0556957821337884e-06
-5.751868249721377e-06
-7.300234838099284e-06
-5.922324857472126e-06
4.020378866449527e-06
4.406313444800783e-06
3.2035340697390868e-06
1.641250343166698e-06
1.2376210150569396e-18
-1.64125034316445e-06
-3.2035340697415063e-06
-4.4063134448048225e-06
-4.02037886645178e-06
3.1061895758340886e-06
3.103736581511687e-06
2.1639174839957585e-06
1.1014624917032978e-06
1.9345703119696186e-18
-1.1014624917019599e-06
-2.163917484000171e-06
-3.103736581517367e-06
-3.10618957583696e-06
2.188956239406747e-06
2.1393498461852306e-06
1.4328614233784228e-06
7.110422587483948e-07
2.613652507651152e-18
-7.110422587456097e-07
-1.4328614233813008e-06
-2.1393498461897673e-06
-2.188956239408472e-06
1.0770403472924665e-06
1.0907638818700936e-06
7.276368490257813e-07
3.55044584043085e-07
3.087812287101249e-18
-3.550445840390276e-07
-7.276368490260446e-07
-1.0907638818704834e-06
-1.0770403472935682e-06
2.057093627789953e-17
1.8857097458028463e-17
8.899510479004917e-18
4.983194090370555e-18
4.4778198233251575e-18
-2.8123611431210907e-18
-1.1180279038385129e-17
-1.7284580791450854e-17
-2.1884631439531748e-17
-1.0770403472494014e-06
-1.0907638818336608e-06
-7.276368490043263e-07
-3.5504458402965196e-07
1.6876205031755875e-18
3.5504458403052647e-07
7.276368490024843e-07
1.0907638818329222e-06
1.077040347250168e-06
-2.188956239363951e-06
-2.1393498461501076e-06
-1.4328614233518766e-06
-7.110422587321988e-07
-2.5265801676513703e-18
7.110422587327555e-07
1.4328614233540007e-06
2.1393498461487985e-06
2.1889562393669926e-06
-3.106189575799641e-06
-3.103736581478571e-06
-2.1639174839682943e-06
-1.101462491687721e-06
-1.5222240853343845e-18
1.1014624916882991e-06
2.163917483970297e-06
3.103736581477621e-06
3.1061895757992315e-06
-4.020378866425358e-06
-4.406313444768057e-06
-3.2035340697075695e-06
-1.6412503431461043e-06
8.082811899174161e-19
1.6412503431473471e-06
3.2035340697076547e-06
4.406313444761064e-06
4.020378866418434e-06
-5.922324857452087e-06
-7.30023483805815e-06
-5.75186824967857e-06
-3.0556957821101532e-06
2.4079029108071623e-18
3.0556957821129997e-06
5.751868249677914e-06
7.300234838046724e-06
5.922324857442072e-06
-7.274459794148683e-06
-9.798695295614225e-06
-8.252605769523556e-06
-4.552804019227667e-06
5.121584715573127e-18
4.552804019232797e-06
8.25260576951963e-06
9.79869529560291e-06
7.2744597941411835e-06
-7.625902095720764e-06
-1.0549203994028607e-05
-9.121620308048353e-06
-5.131480710864319e-06
4.148767375651563e-18
5.131480710867858e-06
9.12162030804202e-06
1.054920399401612e-05
7.6259020957133066e-06
-8.440012304791867e-06
-1.1276880398988672e-05
-9.64962013832793e-06
-5.429914944008743e-06
7.165898733771381e-19
5.429914944007703e-06
9.649620138319862e-06
1.1276880398974503e-05
8.440012304780608e-06
-9.361725127256425e-06
-1.2166579094000446e-05
-1.0229219177749968e-05
-5.7140463262593864e-06
-1.8846483076408183e-18
5.714046326255078e-06
1.022921917774403e-05
1.216657909399162e-05
9.361725127249994e-06
-1.0168368352638384e-05
-1.3059676784085701e-05
-1.0868780591209348e-05
-6.035449094355405e-06
-3.449118161219511e-18
6.035449094349225e-06
1.0868780591205103e-05
1.3059676784081998e-05
1.0168368352635701e-05
-1.0829592053911364e-05
-1.3875438490924023e-05
-1.1511479274250524e-05
-6.37680736372949e-06
-3.962420127255617e-18
6.376807363721872e-06
1.1511479274243399e-05
1.387543849092016e-05
1.0829592053908111e-05
-1.1395710048250823e-05
-1.4623677294719684e-05
-1.2138569095834684e-05
-6.72281054260664e-06
-5.034763838479561e-18
6.72281054259782e-06
1.2138569095827383e-05
1.4623677294716058e-05
1.139571004824719e-05
-1.1935559974616495e-05
-1.5352747510112143e-05
-1.2762265049088855e-05
-7.071075914622728e-06
-5.034763838479561e-18
7.071075914613885e-06
1.2762265049082174e-05
1.535274751010835e-05
1.1935559974613432e-05
-1.2503752370455297e-05
-1.6100613108629653e-05
-1.3387817951474895e-05
-7.414365699727845e-06
-5.1143849355214654e-18
7.414365699718028e-06
1.3387817951466703e-05
1.610061310862447e-05
1.2503752370452315e-05
-1.311271834205288e-05
-1.6842611093376225e-05
-1.3960033864928923e-05
-7.708067627819407e-06
-4.983941861644303e-18
7.708067627809023e-06
1.3960033864918961e-05
1.6842611093368805e-05
1.3112718342048394e-05
-1.3689559684851101e-05
-1.7413136706527545e-05
-1.4280527100911853e-05
-7.81810047802606e-06
-3.682899254661698e-18
7.818100478018345e-06
1.4280527100904745e-05
1.7413136706522354e-05
1.3689559684848594e-05
-1.3995920537337821e-05
-1.73670230333034e-05
-1.3867121097244131e-05
-7.4347573433751385e-06
-2.834172241512889e-18
7.434757343369723e-06
1.3867121097239246e-05
1.73670230332997e-05
1.399592053733545e-05
-1.3473240088842848e-05
-1.5727481170335e-05
-1.171938543954162e-05
-5.941972233554858e-06
-2.4462311516704194e-18
5.941972233549721e-06
1.1719385439536205e-05
1.572748117033072e-05
1.3473240088839554e-05
-1.0925764114932198e-05
-1.0523801837118994e-05
-5.985872574897927e-06
-2.279465430908842e-06
-2.3428931321053947e-18
2.2794654309040663e-06
5.985872574893191e-06
1.0523801837114929e-05
1.0925764114929189e-05
-3.7592830719014792e-06
2.004971030334187e-06
6.306563106517656e-06
4.967568052922241e-06
-2.188733135705112e-18
-4.967568052926009e-06
-6.306563106521092e-06
-2.004971030337792e-06
3.759283071898701e-06
1.395662086375582e-05
2.8705453681591905e-05
2.8608836345233636e-05
1.649603107036804e-05
-1.6906777627195835e-18
-1.649603107037148e-05
-2.8608836345236848e-05
-2.870545368159479e-05
-1.3956620863758056e-05
5.8547432942286026e-05
7.888460361112561e-05
5.961720786360933e-05
3.0676387338085037e-05
-1.0748848100657071e-18
-3.067638733808786e-05
-5.9617207863612324e-05
-7.888460361112792e-05
-5.854743294228751e-05
0.00016784051333596344
0.00014025299761040853
8.980908225847235e-05
4.3660098558652124e-05
-8.656676720938949e-19
-4.366009855865425e-05
-8.980908225847476e-05
-0.00014025299761041065
-0.00016784051333596482
0.00021567544984266211
0.0001490019737568712
9.07424036529299e-05
4.343930422632418e-05
-8.106105305223654e-19
-4.343930422632599e-05
-9.074240365293189e-05
-0.00014900197375687302
-0.00021567544984266347
0.0001603428859121574
0.00011038680343822934
6.723822441773328e-05
3.220703586023578e-05
-7.36071631163987e-19
-3.22070358602374e-05
-6.723822441773499e-05
-0.00011038680343823093
-0.00016034288591215874
0.00010773808434892725
7.393667825650644e-05
4.49137669350256e-05
2.1474933931644383e-05
-6.11981304391232e-19
-2.1474933931645654e-05
-4.491376693502692e-05
-7.393667825650777e-05
-0.0001077380843489285
5.407447920653666e-05
3.714652152238838e-05
2.2535145327761818e-05
1.0761244667292564e-05
-4.2436350657440447e-19
-1.0761244667293484e-05
-2.2535145327762818e-05
-3.71465215223894e-05
-5.407447920653762e-05
1.3281883188762111e-15
9.147223146847069e-16
5.561237166845472e-16
2.656653194009701e-16
-2.542157632946969e-19
-2.6631351136385643e-16
-5.568661410628156e-16
-9.154062937896147e-16
-1.3287998766641287e-15
-5.407447920404508e-05
-3.71465215206605e-05
-2.2535145326708567e-05
-1.0761244666788781e-05
-1.3393708478458624e-19
1.0761244666788393e-05
2.253514532670813e-05
3.7146521520660146e-05
5.407447920404477e-05
-0.00010773808434700145
-7.393667825512294e-05
-4.491376693417249e-05
-2.1474933931234656e-05
-6.310395457044538e-20
2.1474933931234548e-05
4.4913766934172394e-05
7.393667825512283e-05
0.00010773808434700142
-0.00016034288591111623
-0.00011038680343737481
-6.723822441718904e-05
-3.2207035859972494e-05
1.0079692072326174e-19
3.220703585997273e-05
6.723822441718923e-05
0.00011038680343737492
0.0001603428859111164
-0.00021567544984266206
-0.00014900197375662113
-9.074240365273781e-05
-4.3439304226228284e-05
3.8539999100070665e-19
4.343930422622893e-05
9.074240365273818e-05
0.00014900197375662146
0.0002156754498426624
0.00014773350950777518
0.0001091113034387999
7.361031759106176e-05
3.704969064291696e-05
-8.871585920316311e-16
-3.704969064453856e-05
-7.361031759218239e-05
-0.00010911130343913965
-0.00014773350950718754
2.6048430547706176e-05
1.6682737785556878e-05
1.126249995169553e-05
5.76229950960693e-06
-1.1465268567444759e-16
-5.762299509770114e-06
-1.1262499951665247e-05
-1.6682737785241748e-05
-2.6048430547029783e-05
4.442290790783904e-07
-2.6551837865811627e-06
-2.3350731946446715e-06
-1.2691285280422818e-06
2.932089250215486e-17
1.2691285281164276e-06
2.3350731947617857e-06
2.6551837867551636e-06
-4.4422907876298244e-07
-6.449520304403436e-06
-6.615775946017052e-06
-5.16687389745612e-06
-2.7451834555624665e-06
4.9785208507818757e-17
2.745183455658405e-06
5.166873897538607e-06
6.615775946086549e-06
6.449520304545561e-06
-8.240621790236882e-06
-6.715656510053412e-06
-5.008487649294355e-06
-2.6550073131338436e-06
4.15012262836717e-17
2.6550073132065902e-06
5.0084876493377705e-06
6.715656510070773e-06
8.24062179029471e-06
-8.332830106093524e-06
-5.887768384486782e-06
-4.172836547869245e-06
-2.178330845595613e-06
2.917520283522712e-17
2.1783308456429623e-06
4.172836547887379e-06
5.887768384478433e-06
8.33283010610072e-06
-7.850193248262134e-06
-4.933359330790927e-06
-3.3105123440533662e-06
-1.687109127373705e-06
1.8941350766500664e-17
1.6871091274033462e-06
3.3105123440609218e-06
4.933359330776954e-06
7.850193248249056e-06
-7.230926306922304e-06
-4.0937077091274964e-06
-2.5937806581533896e-06
-1.2835807849419926e-06
1.1872013788716274e-17
1.2835807849601259e-06
2.59378065815629e-06
4.093707709114771e-06
7.230926306905444e-06
-6.6532985987327814e-06
-3.4298367463835974e-06
-2.0492431914493733e-06
-9.81054241105969e-07
7.267542687441897e-18
9.810542411161233e-07
2.0492431914482552e-06
3.4298367463704175e-06
6.653298598712263e-06
-6.1735053542259105e-06
-2.934701509754145e-06
-1.656472668688707e-06
-7.659204365209115e-07
4.084392871660236e-18
7.659204365254973e-07
1.6564726686839229e-06
2.9347015097399827e-06
6.173505354203711e-06
-5.788091628591561e-06
-2.5763377249353084e-06
-1.3831638617279552e-06
-6.191109115879874e-07
7.148958074826295e-19
6.191109115869235e-07
1.3831638617188784e-06
2.576337724917087e-06
5.788091628564565e-06
-5.465206731949853e-06
-2.317924461431497e-06
-1.1995386578933682e-06
-5.243584527643228e-07
-1.3518645838178633e-18
5.243584527600436e-07
1.199538657883624e-06
2.3179244614118596e-06
5.4652067319147386e-06
-5.1612135560290146e-06
-2.1293002810801926e-06
-1.0862531242257723e-06
-4.72355098384898e-07
-2.4860417001913715e-18
4.7235509838010464e-07
1.086253124220226e-06
2.1293002810682257e-06
5.16121355599844e-06
-4.83170753236622e-06
-1.9966624037314205e-06
-1.0409037060075659e-06
-4.6374345303253737e-07
-2.676624113323589e-18
4.637434530271604e-07
1.0409037060025277e-06
1.996662403723926e-06
4.8317075323429506e-06
-4.447183071808947e-06
-1.934973970834382e-06
-1.0840407733425593e-06
-5.10431855859859e-07
-4.2207651761681786e-18
5.104318558509863e-07
1.0840407733338416e-06
1.9349739708241634e-06
4.447183071779409e-06
-4.029067633643862e-06
-2.0021158460515106e-06
-1.2571022881493777e-06
-6.305081827224395e-07
-6.1354831534365245e-18
6.305081827107695e-07
1.257102288139835e-06
2.0021158460431927e-06
4.029067633612847e-06
-3.733317440840727e-06
-2.2830627806869195e-06
-1.5816714439703655e-06
-8.299766764438247e-07
-8.574514525055282e-18
8.299766764283003e-07
1.581671443960063e-06
2.28306278068438e-06
3.7333174408251923e-06
-3.855697841266868e-06
-2.6686575178288187e-06
-1.939618327121286e-06
-1.0313367335345573e-06
-1.2556098772742528e-17
1.0313367335115782e-06
1.939618327107042e-06
2.6686575178253145e-06
3.855697841261903e-06
-3.6213898357165046e-06
-2.7669301945063506e-06
-1.9975988733992e-06
-1.0033924882079435e-06
-1.7576886567592393e-17
1.003392488173968e-06
1.9975988733714936e-06
2.7669301944856978e-06
3.6213898357045474e-06
-0.0001467300965359659
-0.00012273492179954977
-7.878900090984987e-05
-3.835932211424982e-05
5.124549330888517e-19
3.835932211425059e-05
7.878900090985008e-05
0.00012273492179954993
0.0001467300965359663
-0.00010808039006900364
-9.023688640470769e-05
-5.803996600492105e-05
-2.829996530187196e-05
1.5500702934753696e-19
2.8299965301872288e-05
5.8039966004921214e-05
9.023688640470774e-05
0.00010808039006900384
-7.267644601341414e-05
-6.037529087631258e-05
-3.8715629744923205e-05
-1.8853910908846494e-05
-8.491505296224361e-20
1.8853910908846362e-05
3.8715629744923104e-05
6.0375290876312474e-05
7.267644601341413e-05
-3.6582333575755895e-05
-3.0364022467060828e-05
-1.9431861845366873e-05
-9.450973758748696e-06
-1.4240741425712924e-19
9.450973758748215e-06
1.943186184536635e-05
3.0364022467060482e-05
3.6582333575755624e-05
8.739169259672046e-16
7.233665604716461e-16
4.620975538251627e-16
2.2442857915507854e-16
-2.463807085325946e-19
-2.251530040832178e-16
-4.62947974904206e-16
-7.240772211143925e-16
-8.744564859546056e-16
3.658233357736204e-05
3.0364022468402524e-05
1.943186184622975e-05
9.450973759169055e-06
-4.3304559428376105e-19
-9.45097375917004e-06
-1.943186184623088e-05
-3.0364022468403653e-05
-3.658233357736287e-05
7.267644601455833e-05
6.037529087731363e-05
3.87156297455857e-05
1.8853910909172904e-05
-6.032992166818754e-19
-1.8853910909174184e-05
-3.871562974558713e-05
-6.0375290877315057e-05
-7.267644601455941e-05
0.00010808039006943534
9.023688640518915e-05
5.803996600527601e-05
2.8299965302053007e-05
-6.649208635946258e-19
-2.829996530205454e-05
-5.803996600527774e-05
-9.023688640519075e-05
-0.0001080803900694365
0.00014673009653555746
0.000122734921799426
7.87890009098493e-05
3.8359322114263515e-05
-7.686823996332776e-19
-3.83593221142654e-05
-7.878900090985144e-05
-0.0001227349217994279
-0.00014673009653555873
-4.889485977835475e-05
-6.748562764419421e-05
-5.1501127243791465e-05
-2.659533282570878e-05
7.356481146903598e-19
2.6595332825709774e-05
5.1501127243791465e-05
6.748562764419409e-05
4.8894859778354967e-05
-3.343492567782504e-05
-4.7660389340290464e-05
-3.6876137372246856e-05
-1.915256931143363e-05
1.3129010682441655e-19
1.9152569311433935e-05
3.687613737224703e-05
4.766038934029052e-05
3.343492567782521e-05
-2.220179456903962e-05
-3.1423376981665415e-05
-2.4279017678350932e-05
-1.261880828934593e-05
-2.5305109299222223e-19
1.2618808289345618e-05
2.4279017678350878e-05
3.142337698166541e-05
2.2201794569039677e-05
-1.1213620240998385e-05
-1.576041908002786e-05
-1.2133783158909631e-05
-6.2992435763324395e-06
-2.993732072951918e-19
6.299243576331736e-06
1.2133783158909045e-05
1.576041908002759e-05
1.121362024099828e-05
2.396806779198131e-16
3.4491393370431923e-16
2.648828727159439e-16
1.3687321861712487e-16
-3.2944287692271944e-19
-1.3775021535488829e-16
-2.658421375287094e-16
-3.4563984094011617e-16
-2.4004659615302695e-16
1.1213620241391988e-05
1.5760419080627258e-05
1.2133783159380593e-05
6.299243576578194e-06
-4.474451543870842e-19
-6.299243576579269e-06
-1.2133783159381949e-05
-1.5760419080628576e-05
-1.1213620241392601e-05
2.220179456917737e-05
3.1423376981989916e-05
2.4279017678640028e-05
1.2618808289504125e-05
-6.115577879176048e-19
-1.2618808289505457e-05
-2.4279017678641787e-05
-3.142337698199172e-05
-2.220179456917822e-05
3.3434925677580424e-05
4.7660389340197216e-05
3.6876137372255245e-05
1.915256931145563e-05
-7.436949276892757e-19
-1.91525693114573e-05
-3.687613737225723e-05
-4.766038934019915e-05
-3.343492567758153e-05
4.889485977761979e-05
6.748562764356518e-05
5.150112724344531e-05
2.6595332825561238e-05
-9.359714067160019e-19
-2.6595332825563603e-05
-5.150112724344784e-05
-6.748562764356731e-05
-4.889485977762115e-05
-9.51319090734116e-06
-2.2842535524903972e-05
-2.374838739464248e-05
-1.3866774966594607e-05
9.75781955236954e-19
1.3866774966595872e-05
2.3748387394642553e-05
2.2842535524903627e-05
9.51319090734122e-06
-3.6183187343635535e-06
-1.3683858498008469e-05
-1.5586141192899792e-05
-9.34459129211752e-06
-5.886878983417387e-20
9.3445912921176e-06
1.5586141192899836e-05
1.3683858498008425e-05
3.618318734363784e-06
-1.5814851502333827e-06
-8.121298182323843e-06
-9.675559946915998e-06
-5.883809928154713e-06
-4.334691107573882e-19
5.883809928154206e-06
9.675559946915791e-06
8.12129818232386e-06
1.5814851502336538e-06
-6.519772300607548e-07
-3.885359870011215e-06
-4.694766075735335e-06
-2.8680401941742006e-06
-4.999611971168508e-19
2.8680401941733675e-06
4.694766075734784e-06
3.885359870011052e-06
6.519772300609157e-07
9.029371217730842e-18
7.515045714629603e-17
9.294873695047702e-17
5.649519175773051e-17
-5.285485590866834e-19
-5.751713700859282e-17
-9.378687605178515e-17
-7.570611075969486e-17
-9.208095169601499e-18
6.51977230045437e-07
3.885359870109601e-06
4.6947660758780905e-06
2.8680401942647035e-06
-4.832322964085783e-19
-2.8680401942658445e-06
-4.694766075879502e-06
-3.885359870110867e-06
-6.519772300459766e-07
1.581485150123099e-06
8.121298182270154e-06
9.675559946928764e-06
5.883809928176256e-06
-5.192311966668861e-19
-5.883809928177559e-06
-9.675559946930909e-06
-8.121298182272294e-06
-1.5814851501238512e-06
3.618318734109213e-06
1.3683858497712096e-05
1.558614119270117e-05
9.344591292025993e-06
-6.755087754353045e-19
-9.344591292027706e-06
-1.5586141192703555e-05
-1.368385849771445e-05
-3.618318734110179e-06
9.513190906819265e-06
2.284253552421801e-05
2.3748387394127672e-05
1.386677496633918e-05
-1.2417503006748043e-18
-1.3866774966341918e-05
-2.374838739413045e-05
-2.2842535524220562e-05
-9.513190906820952e-06
4.914031539968331e-06
1.0418730931166092e-08
-4.28876591732339e-06
-3.7442604369459917e-06
5.590417451878382e-19
3.7442604369468794e-06
4.288765917323661e-06
-1.041873093144053e-08
-4.9140315399681545e-06
6.004220913768112e-06
2.620620976365027e-06
-1.3093333826217193e-06
-1.8435654142937982e-06
-4.684092198316281e-19
1.843565414293594e-06
1.309333382621848e-06
-2.620620976364729e-06
-6.004220913767326e-06
4.991280827395796e-06
2.8636069569356167e-06
-6.140990586816535e-08
-8.236622488948049e-07
-5.289720755603106e-19
8.236622488942666e-07
6.14099058678511e-08
-2.8636069569353626e-06
-4.9912808273950875e-06
2.7286668831723357e-06
1.7154549308036696e-06
1.815934870433006e-07
-3.0450129903893975e-07
-5.247369108240391e-19
3.0450129903812364e-07
-1.8159348704384695e-07
-1.7154549308036739e-06
-2.7286668831720206e-06
-4.976826784887367e-17
-3.181032233413525e-17
-3.8849166125818485e-18
5.081138892341734e-18
-5.91546634538722e-19
-6.181752328180291e-18
3.1454568496288443e-18
3.1451180364499426e-17
4.963782477499651e-17
-2.728666883276053e-06
-1.715454930885316e-06
-1.8159348707319876e-07
3.0450129903549635e-07
-5.144666363385807e-19
-3.045012990366766e-07
1.8159348707183758e-07
1.7154549308840954e-06
2.7286668832754247e-06
-4.991280827510043e-06
-2.863606957071257e-06
6.140990577045248e-08
8.236622488486907e-07
-4.1928130889087867e-19
-8.236622488498808e-07
-6.140990577264121e-08
2.8636069570690397e-06
4.9912808275091456e-06
-6.004220913916638e-06
-2.620620976611527e-06
1.3093333823963137e-06
1.8435654141685974e-06
-4.955142741437657e-19
-1.8435654141703668e-06
-1.309333382398987e-06
2.6206209766091385e-06
6.004220913915479e-06
-4.91403154027022e-06
-1.0418731430431028e-08
4.288765916862143e-06
3.7442604366855926e-06
-1.4416500762268192e-18
-3.7442604366886708e-06
-4.288765916865291e-06
1.04187314274698e-08
4.914031540268092e-06
1.0114320360649336e-05
1.0110654129288723e-05
6.054955237417415e-06
2.4508900057990542e-06
4.3198680309969317e-19
-2.450890005798026e-06
-6.0549552374167984e-06
-1.0110654129288248e-05
-1.0114320360648767e-05
8.484649814352797e-06
8.889948207950582e-06
5.693948503435543e-06
2.4837866364197083e-06
-4.3029273720518457e-19
-2.4837866364200657e-06
-5.6939485034353174e-06
-8.889948207949386e-06
-8.484649814351496e-06
6.344919344112904e-06
6.715088589021141e-06
4.39714180897484e-06
1.9714767344969544e-06
-5.065257024580716e-19
-1.971476734497772e-06
-4.397141808975307e-06
-6.715088589020271e-06
-6.3449193441117456e-06
3.3814541283996125e-06
3.6058376783269216e-06
2.3845611764750726e-06
1.080902621423545e-06
-6.361217433879796e-19
-1.0809026214245683e-06
-2.3845611764758815e-06
-3.6058376783268674e-06
-3.3814541283989925e-06
-5.3133529748315006e-17
-5.696804790053522e-17
-3.799578043145978e-17
-1.750245354735242e-17
-6.901200937754412e-19
1.6205010830395647e-17
3.6994587487805194e-17
5.633362022304175e-17
5.284892667803756e-17
-3.3814541284971713e-06
-3.6058376784390603e-06
-2.3845611765565203e-06
-1.0809026214636277e-06
-6.248985568368601e-19
1.080902621462188e-06
2.384561176554961e-06
3.6058376784373214e-06
3.3814541284958567e-06
-6.344919344187213e-06
-6.715088589132592e-06
-4.397141809077123e-06
-1.97147673455546e-06
-7.691059161069047e-19
1.9714767345535837e-06
4.3971418090748135e-06
6.715088589130109e-06
6.344919344185539e-06
-8.48464981442012e-06
-8.889948208096865e-06
-5.693948503597831e-06
-2.483786636521934e-06
-1.0681085464876727e-18
2.4837866365189094e-06
5.693948503594729e-06
8.889948208094693e-06
8.484649814418354e-06
-1.011432036080107e-05
-1.0110654129580868e-05
-6.0549552377275714e-06
-2.4508900059918296e-06
-1.819426770702237e-18
2.450890005987557e-06
6.054955237723458e-06
1.0110654129577859e-05
1.0114320360798563e-05
1.1543810313672736e-05
1.3881680750859828e-05
1.0585015987923755e-05
5.438457281677701e-06
1.6407028188315798e-18
-5.43845728167583e-06
-1.0585015987922694e-05
-1.3881680750858199e-05
-1.1543810313672066e-05
8.424198141895452e-06
1.0516036147819793e-05
8.280021692465807e-06
4.338711161594754e-06
3.2017845406212553e-19
-4.338711161594637e-06
-8.280021692465377e-06
-1.0516036147818184e-05
-8.424198141894272e-06
5.90867382663205e-06
7.335604560741888e-06
5.789819382076974e-06
3.0475373056081715e-06
-4.0403471584030126e-19
-3.0475373056090016e-06
-5.789819382077465e-06
-7.335604560741085e-06
-5.908673826631264e-06
3.078173553391766e-06
3.81011538284214e-06
3.0000579418820163e-06
1.5784398758166998e-06
-7.556592680692427e-19
-1.57843987581792e-06
-3.000057941883034e-06
-3.8101153828423847e-06
-3.078173553391412e-06
-4.16977379274347e-17
-5.161141154209903e-17
-4.119968255444917e-17
-2.2136782560017512e-17
-7.899641024330419e-19
2.0474798038386168e-17
3.9663588304603495e-17
5.0555161456872916e-17
4.104975772278516e-17
-3.0781735534631776e-06
-3.8101153829352796e-06
-3.000057941960454e-06
-1.5784398758605316e-06
-7.606355866343617e-19
1.5784398758584487e-06
3.0000579419583196e-06
3.8101153829332654e-06
3.0781735534611625e-06
-5.908673826671806e-06
-7.335604560811416e-06
-5.789819382149468e-06
-3.047537305653835e-06
-1.0363448109656365e-18
3.0475373056507057e-06
5.789819382146389e-06
7.3356045608087735e-06
5.908673826669468e-06
-8.424198141911952e-06
-1.0516036147884296e-05
-8.280021692553822e-06
-4.338711161656131e-06
-1.3942162311805784e-18
4.338711161651794e-06
8.280021692549867e-06
1.0516036147882087e-05
8.424198141910207e-06
-1.1543810313725795e-05
-1.3881680750992826e-05
-1.0585015988087893e-05
-5.438457281787498e-06
-2.010856216781709e-18
5.438457281782634e-06
1.0585015988083197e-05
1.3881680750989818e-05
1.1543810313723443e-05
1.1450929008956847e-05
1.4714632060924258e-05
1.2036632142589428e-05
6.5323244065008725e-06
1.8829542417463097e-18
-6.532324406499545e-06
-1.2036632142588385e-05
-1.4714632060921541e-05
-1.1450929008955891e-05
7.5589170515619275e-06
1.0218240240873347e-05
8.68351084687031e-06
4.809789028133402e-06
6.848261378551018e-19
-4.809789028132791e-06
-8.683510846869776e-06
-1.0218240240872009e-05
-7.558917051560416e-06
5.000734669520152e-06
6.7231549349924105e-06
5.7401449710835345e-06
3.1978804356044154e-06
-2.1175823681357508e-19
-3.197880435604434e-06
-5.740144971083536e-06
-6.723154934992084e-06
-5.000734669519413e-06
2.5357619023753012e-06
3.3909113093324514e-06
2.88549249044536e-06
1.6066546484884623e-06
-5.914407554203152e-19
-1.6066546484892899e-06
-2.885492490445707e-06
-3.390911309332627e-06
-2.5357619023754986e-06
-2.952333337654864e-17
-3.8778015358249124e-17
-3.3393850429027164e-17
-1.9232730100356143e-17
-6.983786650111706e-19
1.7581439369683885e-17
3.204918562526096e-17
3.779926878769678e-17
2.8346804612812415e-17
-2.535761902423229e-06
-3.3909113093983277e-06
-2.8854924905045994e-06
-1.6066546485235829e-06
-8.908669022747104e-19
1.6066546485211383e-06
2.885492490502199e-06
3.3909113093964845e-06
2.5357619024213824e-06
-5.000734669538742e-06
-6.723154935029463e-06
-5.740144971125362e-06
-3.197880435632126e-06
-1.1443415117405598e-18
3.1978804356285863e-06
5.74014497112206e-06
6.7231549350274455e-06
5.0007346695374345e-06
-7.558917051554484e-06
-1.0218240240888455e-05
-8.683510846903622e-06
-4.809789028160109e-06
-1.6127507315721878e-18
4.809789028155317e-06
8.683510846899097e-06
1.0218240240885992e-05
7.5589170515534605e-06
-1.1450929008957741e-05
-1.4714632060958529e-05
-1.2036632142650269e-05
-6.532324406547047e-06
-2.447925217564928e-18
6.532324406541722e-06
1.2036632142645346e-05
1.4714632060955175e-05
1.1450929008955878e-05
1.081885566945048e-05
1.4325378882953961e-05
1.2067163606768529e-05
6.693165166564745e-06
8.267041565201971e-19
-6.693165166563162e-06
-1.2067163606767218e-05
-1.4325378882951847e-05
-1.0818855669448644e-05
6.557830642512538e-06
9.277162821400367e-06
8.19275898352888e-06
4.656324996004706e-06
6.022404254978075e-19
-4.656324996003308e-06
-8.192758983527752e-06
-9.27716282139931e-06
-6.5578306425110405e-06
4.096133394941109e-06
5.7856485101205295e-06
5.161378841400437e-06
2.960990516670064e-06
3.2695471764015993e-19
-2.9609905166692475e-06
-5.161378841399511e-06
-5.7856485101196994e-06
-4.096133394940662e-06
2.014845673390907e-06
2.831128384888825e-06
2.5209049444921804e-06
1.4475895621832191e-06
2.922263668027336e-20
-1.4475895621833487e-06
-2.5209049444920567e-06
-2.8311283848886205e-06
-2.014845673391267e-06
-1.967149316703387e-17
-2.6621822015729033e-17
-2.3514481648726632e-17
-1.3950315003923106e-17
-5.764059206065514e-19
1.2795809096815495e-17
2.281906759903085e-17
2.5940384009662948e-17
1.8507669897506462e-17
-2.0148456734216883e-06
-2.8311283849318658e-06
-2.5209049445315623e-06
-1.4475895622072024e-06
-1.5780223807347615e-18
1.4475895622045097e-06
2.5209049445298733e-06
2.8311283849302344e-06
2.0148456734200662e-06
-4.096133394948942e-06
-5.7856485101373686e-06
-5.161378841420669e-06
-2.960990516683974e-06
-2.087089182034596e-18
2.9609905166797584e-06
5.161378841417627e-06
5.785648510135627e-06
4.096133394948131e-06
-6.5578306424976e-06
-9.277162821392036e-06
-8.192758983531606e-06
-4.656324996010283e-06
-2.8672065264558066e-18
4.656324996004394e-06
8.192758983526439e-06
9.277162821389092e-06
6.557830642496746e-06
-1.0818855669430307e-05
-1.4325378882940676e-05
-1.2067163606772196e-05
-6.693165166573315e-06
-3.687134419397969e-18
6.693165166565997e-06
1.2067163606765422e-05
1.4325378882935885e-05
1.0818855669428254e-05
1.0080700822842892e-05
1.353423638378837e-05
1.1548621969314947e-05
6.466486146511331e-06
-1.7110065534536867e-19
-6.466486146508477e-06
-1.1548621969311176e-05
-1.353423638378688e-05
-1.0080700822841625e-05
5.668844319872834e-06
8.251710945172548e-06
7.446128172163998e-06
4.289334110831884e-06
1.7067713887174152e-19
-4.289334110829859e-06
-7.446128172161484e-06
-8.251710945171521e-06
-5.668844319872332e-06
3.3462842293276517e-06
4.890275430003602e-06
4.485565649464705e-06
2.6183570077497895e-06
4.518920773601692e-19
-2.61835700774913e-06
-4.48556564946342e-06
-4.890275430002123e-06
-3.346284229327684e-06
1.5929423761648834e-06
2.3193721954453286e-06
2.1284424432938787e-06
1.2460931657910186e-06
1.2133746969417852e-19
-1.2460931657913019e-06
-2.1284424432941145e-06
-2.31937219544505e-06
-1.592942376164881e-06
-1.2453925423479978e-17
-1.7504359371483744e-17
-1.5283862500256595e-17
-9.189248686525091e-18
-1.0054281083908545e-18
7.460030924705437e-18
1.4043382749002672e-17
1.596360644042817e-17
1.1234197979433785e-17
-1.592942376183619e-06
-2.319372195471437e-06
-2.128442443317561e-06
-1.246093165806291e-06
-2.3693629117070916e-18
1.2460931658025136e-06
2.1284424433158016e-06
2.319372195469118e-06
1.5929423761811228e-06
-3.346284229329244e-06
-4.890275430007429e-06
-4.48556564947134e-06
-2.618357007755687e-06
-2.5093351062408648e-18
2.6183570077507975e-06
4.4855656494683754e-06
4.890275430005647e-06
3.346284229327772e-06
-5.668844319855602e-06
-8.251710945154069e-06
-7.446128172152187e-06
-4.289334110826651e-06
-3.0361895994330396e-18
4.289334110820571e-06
7.4461281721466086e-06
8.251710945151104e-06
5.668844319854667e-06
-1.0080700822814981e-05
-1.3534236383756654e-05
-1.1548621969292198e-05
-6.466486146501014e-06
-4.4630165990829085e-18
6.46648614649226e-06
1.1548621969283587e-05
1.353423638375064e-05
1.008070082281202e-05
9.404843939596863e-06
1.2696690041644425e-05
1.0887097335353039e-05
6.1188148300893675e-06
-9.656175598699024e-19
-6.118814830087631e-06
-1.0887097335348707e-05
-1.2696690041644286e-05
-9.40484393959912e-06
4.959260844272147e-06
7.352195494190599e-06
6.716765349807047e-06
3.896918000841105e-06
-8.330569036246044e-19
-3.896918000840415e-06
-6.7167653498051855e-06
-7.352195494191446e-06
-4.959260844273882e-06
2.7756671257097243e-06
4.156666035145917e-06
3.88376653094538e-06
2.2918460664891936e-06
-6.037227331555026e-19
-2.2918460664897865e-06
-3.883766530945428e-06
-4.1566660351466435e-06
-2.775667125710944e-06
1.2781442934198134e-06
1.9116307208412033e-06
1.7919549712130804e-06
1.0628113792784004e-06
-1.0506384919505528e-18
-1.0628113792801008e-06
-1.791954971214154e-06
-1.9116307208423947e-06
-1.278144293420618e-06
-7.065948845995373e-18
-1.0162701301157095e-17
-8.882199243145407e-18
-6.003240134546447e-18
-1.6129624898090014e-18
3.1114696526202655e-18
7.175639612664805e-18
8.322098706773501e-18
5.767447337854531e-18
-1.2781442934294882e-06
-1.911630720854705e-06
-1.7919549712252347e-06
-1.0628113792872682e-06
-1.51248320644096e-18
1.0628113792838273e-06
1.7919549712234803e-06
1.911630720853119e-06
1.2781442934274663e-06
-2.775667125707495e-06
-4.156666035142529e-06
-3.883766530943861e-06
-2.291846066490188e-06
-1.5462586452127253e-18
2.291846066486135e-06
3.883766530940716e-06
4.156666035140362e-06
2.7756671257050283e-06
-4.959260844255505e-06
-7.352195494167948e-06
-6.716765349788218e-06
-3.896918000831447e-06
-2.109112038663208e-18
3.896918000826739e-06
6.716765349782968e-06
7.352195494164253e-06
4.959260844253208e-06
-9.404843939567285e-06
-1.269669004160435e-05
-1.0887097335317773e-05
-6.118814830070188e-06
-3.836212218114726e-18
6.118814830062838e-06
1.088709733531075e-05
1.269669004159961e-05
9.404843939564855e-06
8.82935409469117e-06
1.1931964382254665e-05
1.0240152994110016e-05
5.760488191431782e-06
-1.1163894244811678e-18
-5.76048819143239e-06
-1.024015299410968e-05
-1.1931964382257955e-05
-8.829354094695581e-06
4.4197743108785474e-06
6.6269611972236506e-06
6.094955292539466e-06
3.548765288019775e-06
-7.661413007915147e-19
-3.5487652880203462e-06
-6.094955292540894e-06
-6.62696119722755e-06
-4.419774310881736e-06
2.362667017604023e-06
3.599083649328421e-06
3.4036791589459292e-06
2.022142819603457e-06
-1.7882983098906416e-18
-2.0221428196063647e-06
-3.403679158948965e-06
-3.5990836493318144e-06
-2.362667017605993e-06
1.055613384447559e-06
1.6103483097606782e-06
1.5320218657986088e-06
9.16592874537238e-07
-1.95346973460523e-18
-9.165928745413673e-07
-1.5320218658019968e-06
-1.610348309763318e-06
-1.0556133844494102e-06
-2.7460808149984417e-18
-4.261846274110012e-18
-4.209753747853873e-18
-3.2897700880172957e-18
-1.7336646847927392e-18
-6.754028963168977e-19
1.5267768874258764e-18
2.583026972651989e-18
1.1036839302723533e-18
-1.0556133844501645e-06
-1.6103483097649824e-06
-1.5320218658036495e-06
-9.165928745422631e-07
-1.5958100726271018e-18
9.165928745380434e-07
1.5320218658005632e-06
1.6103483097638597e-06
1.0556133844488012e-06
-2.3626670175976346e-06
-3.5990836493206844e-06
-3.4036791589408225e-06
-2.0221428196029952e-06
-1.769663585051047e-18
2.022142819598439e-06
3.403679158936333e-06
3.5990836493182026e-06
2.362667017595312e-06
-4.419774310859628e-06
-6.626961197198494e-06
-6.094955292518331e-06
-3.5487652880092548e-06
-2.3132469789514942e-18
3.54876528800448e-06
6.094955292513115e-06
6.62696119719475e-06
4.419774310856911e-06
-8.829354094658115e-06
-1.1931964382209694e-05
-1.0240152994070392e-05
-5.7604881914097465e-06
-3.832400569852082e-18
5.760488191402896e-06
1.0240152994064578e-05
1.1931964382206059e-05
8.82935409465552e-06
8.330573418756749e-06
1.1246709757966155e-05
9.644925911854039e-06
5.4249027735047666e-06
-2.2234614865425384e-19
-5.4249027735051155e-06
-9.64492591185585e-06
-1.1246709757969239e-05
-8.330573418758026e-06
4.014532279412755e-06
6.058750641759922e-06
5.591098809909338e-06
3.2607618667222334e-06
-1.584798644312796e-18
-3.260761866725048e-06
-5.591098809912928e-06
-6.05875064176281e-06
-4.014532279413023e-06
2.0757342389863692e-06
3.1962943203956533e-06
3.0444982607292084e-06
1.8157681936968483e-06
-2.970121029547204e-18
-1.81576819370214e-06
-3.0444982607331403e-06
-3.1962943203978225e-06
-2.0757342389868842e-06
9.075167126803642e-07
1.402235247909662e-06
1.3460862654332787e-06
8.095606135203145e-07
-2.2818538203438817e-18
-8.095606135257271e-07
-1.346086265437185e-06
-1.4022352479116937e-06
-9.075167126819871e-07
9.232659125071874e-20
-6.191810844428935e-19
-1.0071221742853631e-18
-1.7846454803056074e-18
-1.8377438581866114e-18
-2.2975239298680863e-18
-2.071630830747205e-18
-1.587763259628186e-18
-1.9367408338969577e-18
-9.075167126786083e-07
-1.40223524790762e-06
-1.346086265432435e-06
-8.095606135225641e-07
-1.7147652621571276e-18
8.095606135194429e-07
1.3460862654291926e-06
1.402235247904685e-06
9.075167126764166e-07
-2.0757342389774076e-06
-3.196294320383239e-06
-3.044498260719032e-06
-1.8157681936934042e-06
-1.0573088764101804e-18
1.815768193691438e-06
3.0444982607163233e-06
3.196294320380531e-06
2.0757342389745057e-06
-4.014532279390434e-06
-6.058750641731206e-06
-5.59109880988498e-06
-3.2607618667093746e-06
-1.7499700690273845e-18
3.260761866706387e-06
5.591098809882467e-06
6.058750641729554e-06
4.014532279387744e-06
-8.330573418715654e-06
-1.1246709757915523e-05
-9.64492591181153e-06
-5.424902773481453e-06
-3.864587821847745e-18
5.424902773474765e-06
9.644925911806341e-06
1.124670975791323e-05
8.330573418712832e-06
7.860573367679018e-06
1.0604508213021314e-05
9.092564492689231e-06
5.115722837094925e-06
1.3641465615530507e-18
-5.115722837092268e-06
-9.092564492689634e-06
-1.0604508213022308e-05
-7.860573367677826e-06
3.70855499977904e-06
5.617314964237604e-06
5.193264848050575e-06
3.0319179434201844e-06
-1.1485766764768313e-18
-3.031917943421985e-06
-5.193264848051898e-06
-5.617314964237035e-06
-3.7085549997768616e-06
1.8921781869720539e-06
2.9277476209529378e-06
2.7966954447828594e-06
1.6706948717781297e-06
-1.883801274693564e-18
-1.6706948717806758e-06
-2.79669544478325e-06
-2.9277476209525744e-06
-1.892178186971544e-06
8.227886105893807e-07
1.2769627589138478e-06
1.2289803483943384e-06
7.403301638099579e-07
-1.166417307928375e-18
-7.403301638124063e-07
-1.228980348395564e-06
-1.2769627589149028e-06
-8.227886105909571e-07
1.5043305143236374e-18
1.2497971136737202e-18
1.0585794258310618e-18
-2.7073290576615575e-19
-1.7491230360801302e-19
-7.937757506956862e-19
-3.2809821211895324e-18
-4.144955727388919e-18
-3.609630904724201e-18
-8.227886105863839e-07
-1.2769627589087592e-06
-1.2289803483887308e-06
-7.403301638080914e-07
7.44806658432547e-19
7.403301638094162e-07
1.2289803483872602e-06
1.2769627589045092e-06
8.227886105832071e-07
-1.8921781869657808e-06
-2.9277476209396597e-06
-2.796695444768301e-06
-1.6706948717702313e-06
3.818001009748759e-19
1.6706948717714182e-06
2.7966954447679864e-06
2.9277476209360463e-06
1.892178186961156e-06
-3.708554999761737e-06
-5.617314964209242e-06
-5.193264848023589e-06
-3.031917943404199e-06
-1.0731907441711985e-18
3.0319179434022713e-06
5.193264848022365e-06
5.617314964207246e-06
3.708554999757234e-06
-7.860573367639455e-06
-1.0604508212968866e-05
-9.092564492644088e-06
-5.115722837068698e-06
-2.873559273560214e-18
5.115722837062908e-06
9.092564492639204e-06
1.0604508212966323e-05
7.860573367635901e-06
7.372483362450332e-06
9.971758974480318e-06
8.575157315820762e-06
4.835566996377458e-06
2.4322551080407234e-18
-4.835566996372274e-06
-8.575157315819017e-06
-9.971758974481255e-06
-7.372483362448598e-06
3.4869695718821286e-06
5.292254398451733e-06
4.900586687313556e-06
2.8649623323651714e-06
1.1500589841345263e-18
-2.864962332362668e-06
-4.900586687311896e-06
-5.292254398450938e-06
-3.486969571880377e-06
1.8102915008183257e-06
2.793676021032699e-06
2.6624144262322854e-06
1.5890198774671805e-06
1.0714966782766899e-19
-1.5890198774662802e-06
-2.6624144262307493e-06
-2.793676021032025e-06
-1.810291500817715e-06
8.02648872693216e-07
1.2363466033714291e-06
1.1823685765725797e-06
7.099453005668643e-07
-9.534414612531218e-20
-7.099453005672968e-07
-1.1823685765727176e-06
-1.236346603371487e-06
-8.026488726938707e-07
2.422514229147299e-18
2.2696247821678978e-18
1.4236506260976653e-18
1.0000282733521083e-18
1.2105689003040054e-18
-6.212457272518259e-19
-3.567702773835113e-18
-4.107051002999289e-18
-3.511798599316329e-18
-8.026488726885344e-07
-1.2363466033654842e-06
-1.182368576566485e-06
-7.099453005631721e-07
1.7230767729520605e-18
7.099453005648464e-07
1.1823685765643861e-06
1.2363466033613583e-06
8.026488726859891e-07
-1.8102915008119145e-06
-2.7936760210208364e-06
-2.6624144262177312e-06
-1.5890198774580834e-06
-5.44218668610888e-20
1.589019877458095e-06
2.6624144262164954e-06
2.7936760210165673e-06
1.8102915008080223e-06
-3.486969571867402e-06
-5.2922543984257e-06
-4.900586687287338e-06
-2.864962332348396e-06
-1.5759047983666258e-18
2.8649623323446177e-06
4.900586687284328e-06
5.292254398422136e-06
3.4869695718631347e-06
-7.372483362412402e-06
-9.971758974428807e-06
-8.575157315776766e-06
-4.835566996352016e-06
-2.6109790599113808e-18
4.83556699634604e-06
8.575157315772142e-06
9.97175897442515e-06
7.3724833624088515e-06
6.848620839656041e-06
9.35708606615025e-06
8.115624268702778e-06
4.599923729533871e-06
1.607668533888662e-18
-4.5999237295297986e-06
-8.115624268700531e-06
-9.357086066153128e-06
-6.8486208396566765e-06
3.3724270235068116e-06
5.113593311474501e-06
4.737579643922312e-06
2.7727633598330066e-06
1.4727785370384147e-18
-2.772763359829235e-06
-4.737579643919121e-06
-5.113593311475615e-06
-3.372427023507584e-06
1.8561495135807269e-06
2.8212274439174408e-06
2.6587347048173895e-06
1.578127090755254e-06
1.5979276549952376e-18
-1.5781270907522902e-06
-2.6587347048155137e-06
-2.8212274439178846e-06
-1.856149513581933e-06
8.615949947913617e-07
1.2944976984286118e-06
1.2142051416225833e-06
7.213774497617681e-07
9.868992626696667e-19
-7.213774497601253e-07
-1.21420514162182e-06
-1.2944976984281455e-06
-8.615949947920868e-07
5.3286842711768034e-18
7.021691374501336e-18
5.529642837912886e-18
3.591949091950267e-18
7.829231410589905e-19
-2.877317982263655e-18
-5.594546737496247e-18
-5.7193782180978495e-18
-4.738302306940556e-18
-8.61594994782345e-07
-1.2944976984158336e-06
-1.2142051416097166e-06
-7.213774497527749e-07
8.64873578705844e-19
7.213774497534711e-07
1.2142051416095025e-06
1.294497698416114e-06
8.615949947821324e-07
-1.856149513572858e-06
-2.82122744390435e-06
-2.6587347047999457e-06
-1.5781270907427399e-06
-2.8026202642276662e-19
1.5781270907426118e-06
2.6587347047996946e-06
2.8212274439025398e-06
1.8561495135707573e-06
-3.372427023493088e-06
-5.113593311451984e-06
-4.737579643898111e-06
-2.7727633598177215e-06
-1.5291062280308257e-18
2.7727633598147624e-06
4.737579643895037e-06
5.113593311447594e-06
3.3724270234888375e-06
-6.848620839617628e-06
-9.35708606610424e-06
-8.115624268665901e-06
-4.599923729514989e-06
-1.8111681994665077e-18
4.599923729510546e-06
8.11562426866017e-06
9.357086066096799e-06
6.848620839611604e-06
6.3434900056983604e-06
8.840561280143284e-06
7.763153726534391e-06
4.423275931709619e-06
2.566086313706903e-18
-4.4232759317056594e-06
-7.763153726533161e-06
-8.840561280145811e-06
-6.343490005699926e-06
3.433710430423657e-06
5.1434445946702025e-06
4.732164551816761e-06
2.7606761800024785e-06
2.261577969168982e-18
-2.760676179998665e-06
-4.732164551814687e-06
-5.143444594672987e-06
-3.4337104304271246e-06
2.073055956267107e-06
3.0411439044389507e-06
2.792427555979187e-06
1.6346053374762334e-06
2.514734941279611e-18
-1.6346053374720643e-06
-2.792427555978112e-06
-3.0411439044418433e-06
-2.0730559562702903e-06
1.017493256038388e-06
1.4615459660210814e-06
1.3230886520179397e-06
7.702023965633227e-07
2.0277439361675916e-18
-7.702023965594786e-07
-1.3230886520169369e-06
-1.461545966022028e-06
-1.0174932560393928e-06
9.284116376617572e-18
1.420961296490133e-17
1.3111540627904535e-17
8.628724633679558e-18
8.320510519997399e-19
-6.1103368628149125e-18
-1.057817096178533e-17
-1.1700701375134091e-17
-8.503787273959548e-18
-1.0174932560235296e-06
-1.4615459659967971e-06
-1.323088651992527e-06
-7.702023965455667e-07
4.594094947670511e-19
7.702023965469062e-07
1.3230886519959376e-06
1.4615459660009302e-06
1.0174932560238375e-06
-2.073055956258198e-06
-3.0411439044218787e-06
-2.7924275559566295e-06
-1.6346053374597328e-06
2.0678191824845607e-19
1.6346053374605686e-06
2.7924275559585303e-06
3.0411439044227766e-06
2.0730559562568335e-06
-3.433710430414039e-06
-5.14344459465129e-06
-4.732164551794649e-06
-2.7606761799881564e-06
2.202285662861181e-20
2.7606761799890124e-06
4.732164551793881e-06
5.143444594647072e-06
3.433710430410272e-06
-6.343490005665172e-06
-8.840561280105135e-06
-7.763153726504091e-06
-4.4232759316933055e-06
4.705268021997638e-19
4.423275931693292e-06
7.763153726498944e-06
8.84056128009479e-06
6.343490005656829e-06
6.026018067073777e-06
8.519690127063963e-06
7.487473206866874e-06
4.24877995134736e-06
5.1497485610693325e-18
-4.248779951341114e-06
-7.487473206866919e-06
-8.519690127065627e-06
-6.026018067074447e-06
3.7334666061835445e-06
5.3782417789528055e-06
4.8171210616657764e-06
2.764975557775302e-06
4.356078689492053e-18
-2.764975557769909e-06
-4.817121061665797e-06
-5.378241778955348e-06
-3.73346660618517e-06
2.4590854277239117e-06
3.404932030697902e-06
2.9877572488758536e-06
1.7015960202968746e-06
3.539909505253331e-18
-1.7015960202916151e-06
-2.9877572488745936e-06
-3.4049320306998908e-06
-2.4590854277257146e-06
1.2596739504401655e-06
1.6994402456500791e-06
1.4611377766449437e-06
8.233790448454804e-07
1.8943097771954376e-18
-8.23379044841869e-07
-1.4611377766425657e-06
-1.6994402456497818e-06
-1.2596739504410968e-06
1.3138857440453486e-17
2.0227676176024726e-17
1.997113107212508e-17
1.1933211919155397e-17
8.263865191649768e-20
-9.266963959435673e-18
-1.4321262495261286e-17
-1.6210304786315986e-17
-1.2625661353535787e-17
-1.2596739504163075e-06
-1.6994402456128787e-06
-1.4611377766075002e-06
-8.233790448226392e-07
-2.1951388223687227e-19
8.23379044825138e-07
1.461137776615325e-06
1.6994402456203955e-06
1.2596739504186726e-06
-2.4590854277071167e-06
-3.4049320306695725e-06
-2.9877572488447116e-06
-1.7015960202763181e-06
9.325832749269847e-19
1.7015960202800705e-06
2.987757248851469e-06
3.4049320306753116e-06
2.4590854277093304e-06
-3.7334666061727144e-06
-5.378241778929091e-06
-4.8171210616385104e-06
-2.764975557756007e-06
2.7471396061825096e-18
2.7649755577630005e-06
4.817121061643981e-06
5.37824177892918e-06
3.7334666061725026e-06
-6.026018067050275e-06
-8.519690127030146e-06
-7.487473206835207e-06
-4.248779951326223e-06
3.942303094758327e-18
4.248779951332288e-06
7.487473206834497e-06
8.519690127022574e-06
6.026018067045699e-06
5.991375643230224e-06
8.128756643169707e-06
6.8852719656606745e-06
3.8149289341904475e-06
5.899478598507795e-18
-3.814928934182268e-06
-6.885271965662143e-06
-8.128756643175551e-06
-5.991375643234043e-06
4.08744380051546e-06
5.4774120073394835e-06
4.612538857954219e-06
2.5557857735643777e-06
6.1885815313175285e-18
-2.555785773557226e-06
-4.6125388579567035e-06
-5.477412007344043e-06
-4.087443800517806e-06
2.8311995231198625e-06
3.6251324202487076e-06
2.958448548343094e-06
1.6131376858646062e-06
4.861148554072031e-18
-1.6131376858586573e-06
-2.958448548342819e-06
-3.625132420250614e-06
-2.8311995231223244e-06
1.473636853978963e-06
1.8439010953756071e-06
1.475409537623895e-06
7.940523388179984e-07
2.0754954185690528e-18
-7.940523388137962e-07
-1.4754095376199668e-06
-1.8439010953745356e-06
-1.47363685398064e-06
2.0508944054072357e-17
2.722014491384579e-17
2.4223686453594896e-17
1.2938679732215654e-17
3.1534771928481585e-19
-9.801706446949153e-18
-1.6885575333734876e-17
-2.0857392232749095e-17
-1.7811832331337055e-17
-1.4736368539408388e-06
-1.8439010953237793e-06
-1.475409537578396e-06
-7.940523387939537e-07
-7.7343372507178215e-19
7.940523387956158e-07
1.4754095375865746e-06
1.8439010953341893e-06
1.4736368539478353e-06
-2.8311995230909796e-06
-3.625132420205224e-06
-2.9584485483030335e-06
-1.6131376858413306e-06
1.5421293595948606e-19
1.6131376858448358e-06
2.958448548311527e-06
3.6251324202145743e-06
2.8311995230981107e-06
-4.087443800497616e-06
-5.477412007304007e-06
-4.612538857916509e-06
-2.555785773538752e-06
2.6116143346218215e-18
2.5557857735469293e-06
4.612538857925253e-06
5.477412007307769e-06
4.0874438005008325e-06
-5.9913756432150055e-06
-8.128756643134934e-06
-6.885271965620591e-06
-3.814928934162153e-06
4.3777839087654445e-18
3.814928934169622e-06
6.885271965622663e-06
8.128756643129303e-06
5.991375643211338e-06
5.029839508121051e-06
6.123183224006643e-06
4.8098218901026296e-06
2.5619735225537703e-06
3.646212140133746e-18
-2.5619735225478928e-06
-4.809821890104843e-06
-6.123183224013116e-06
-5.029839508125019e-06
3.666967456447835e-06
4.2606885706062075e-06
3.2629095405032524e-06
1.7284435707890179e-06
4.349858291285654e-18
-1.7284435707847503e-06
-3.26290954050789e-06
-4.260688570612848e-06
-3.666967456451934e-06
2.581590545839483e-06
2.890810902648265e-06
2.133343910984526e-06
1.1059344655047627e-06
3.64439896023103e-18
-1.10593446550111e-06
-2.133343910987254e-06
-2.89081090265284e-06
-2.5815905458427756e-06
1.3132678879994433e-06
1.4760725738446757e-06
1.0757136569546723e-06
5.494405342680201e-07
2.589065391123626e-18
-5.494405342637799e-07
-1.0757136569532942e-06
-1.47607257384524e-06
-1.3132678880009412e-06
2.3103458911071482e-17
2.50738693046218e-17
1.694256476921733e-17
9.006964549298005e-18
2.9435751493291524e-18
-5.90673131811866e-18
-1.48471773112776e-17
-2.079132366286326e-17
-2.1085747021372934e-17
-1.3132678879545564e-06
-1.476072573797076e-06
-1.0757136569205183e-06
-5.494405342496006e-07
5.199127934916298e-19
5.494405342501469e-07
1.0757136569222568e-06
1.476072573801777e-06
1.3132678879595395e-06
-2.581590545800612e-06
-2.890810902605699e-06
-2.133343910949948e-06
-1.1059344654852436e-06
-1.7396931770970257e-18
1.1059344654859865e-06
2.13334391095403e-06
2.890810902609096e-06
2.5815905458062393e-06
-3.6669674564190453e-06
-4.260688570568452e-06
-3.262909540468079e-06
-1.7284435707674035e-06
-2.0524667103155765e-19
1.7284435707705858e-06
3.2629095404730035e-06
4.260688570569942e-06
3.666967456421049e-06
-5.029839508101119e-06
-6.123183223970932e-06
-4.809821890063568e-06
-2.5619735225272027e-06
1.7753810574450135e-18
2.561973522530731e-06
4.8098218900652585e-06
6.123183223965001e-06
5.029839508095328e-06

