# vtk DataFile Version 4.0
vtk output from myfempy solver
ASCII
DATASET UNSTRUCTURED_GRID
POINTS 1701 double
0.0 0.0 0.0
50.0 0.0 0.0
100.0 0.0 0.0
150.0 0.0 0.0
200.0 0.0 0.0
250.0 0.0 0.0
300.0 0.0 0.0
350.0 0.0 0.0
400.0 0.0 0.0
450.0 0.0 0.0
500.0 0.0 0.0
550.0 0.0 0.0
600.0 0.0 0.0
650.0 0.0 0.0
700.0 0.0 0.0
750.0 0.0 0.0
800.0 0.0 0.0
850.0 0.0 0.0
900.0 0.0 0.0
950.0 0.0 0.0
1000.0 0.0 0.0
1050.0 0.0 0.0
1100.0 0.0 0.0
1150.0 0.0 0.0
1200.0 0.0 0.0
1250.0 0.0 0.0
1300.0 0.0 0.0
1350.0 0.0 0.0
1400.0 0.0 0.0
1450.0 0.0 0.0
1500.0 0.0 0.0
1550.0 0.0 0.0
1600.0 0.0 0.0
1650.0 0.0 0.0
1700.0 0.0 0.0
1750.0 0.0 0.0
1800.0 0.0 0.0
1850.0 0.0 0.0
1900.0 0.0 0.0
1950.0 0.0 0.0
2000.0 0.0 0.0
2050.0 0.0 0.0
2100.0 0.0 0.0
2150.0 0.0 0.0
2200.0 0.0 0.0
2250.0 0.0 0.0
2300.0 0.0 0.0
2350.0 0.0 0.0
2400.0 0.0 0.0
2450.0 0.0 0.0
2500.0 0.0 0.0
2550.0 0.0 0.0
2600.0 0.0 0.0
2650.0 0.0 0.0
2700.0 0.0 0.0
2750.0 0.0 0.0
2800.0 0.0 0.0
2850.0 0.0 0.0
2900.0 0.0 0.0
2950.0 0.0 0.0
3000.0 0.0 0.0
3050.0 0.0 0.0
3100.0 0.0 0.0
3150.0 0.0 0.0
3200.0 0.0 0.0
3250.0 0.0 0.0
3300.0 0.0 0.0
3350.0 0.0 0.0
3400.0 0.0 0.0
3450.0 0.0 0.0
3500.0 0.0 0.0
3550.0 0.0 0.0
3600.0 0.0 0.0
3650.0 0.0 0.0
3700.0 0.0 0.0
3750.0 0.0 0.0
3800.0 0.0 0.0
3850.0 0.0 0.0
3900.0 0.0 0.0
3950.0 0.0 0.0
4000.0 0.0 0.0
0.0 50.0 0.0
50.0 50.0 0.0
100.0 50.0 0.0
150.0 50.0 0.0
200.0 50.0 0.0
250.0 50.0 0.0
300.0 50.0 0.0
350.0 50.0 0.0
400.0 50.0 0.0
450.0 50.0 0.0
500.0 50.0 0.0
550.0 50.0 0.0
600.0 50.0 0.0
650.0 50.0 0.0
700.0 50.0 0.0
750.0 50.0 0.0
800.0 50.0 0.0
850.0 50.0 0.0
900.0 50.0 0.0
950.0 50.0 0.0
1000.0 50.0 0.0
1050.0 50.0 0.0
1100.0 50.0 0.0
1150.0 50.0 0.0
1200.0 50.0 0.0
1250.0 50.0 0.0
1300.0 50.0 0.0
1350.0 50.0 0.0
1400.0 50.0 0.0
1450.0 50.0 0.0
1500.0 50.0 0.0
1550.0 50.0 0.0
1600.0 50.0 0.0
1650.0 50.0 0.0
1700.0 50.0 0.0
1750.0 50.0 0.0
1800.0 50.0 0.0
1850.0 50.0 0.0
1900.0 50.0 0.0
1950.0 50.0 0.0
2000.0 50.0 0.0
2050.0 50.0 0.0
2100.0 50.0 0.0
2150.0 50.0 0.0
2200.0 50.0 0.0
2250.0 50.0 0.0
2300.0 50.0 0.0
2350.0 50.0 0.0
2400.0 50.0 0.0
2450.0 50.0 0.0
2500.0 50.0 0.0
2550.0 50.0 0.0
2600.0 50.0 0.0
2650.0 50.0 0.0
2700.0 50.0 0.0
2750.0 50.0 0.0
2800.0 50.0 0.0
2850.0 50.0 0.0
2900.0 50.0 0.0
2950.0 50.0 0.0
3000.0 50.0 0.0
3050.0 50.0 0.0
3100.0 50.0 0.0
3150.0 50.0 0.0
3200.0 50.0 0.0
3250.0 50.0 0.0
3300.0 50.0 0.0
3350.0 50.0 0.0
3400.0 50.0 0.0
3450.0 50.0 0.0
3500.0 50.0 0.0
3550.0 50.0 0.0
3600.0 50.0 0.0
3650.0 50.0 0.0
3700.0 50.0 0.0
3750.0 50.0 0.0
3800.0 50.0 0.0
3850.0 50.0 0.0
3900.0 50.0 0.0
3950.0 50.0 0.0
4000.0 50.0 0.0
0.0 100.0 0.0
50.0 100.0 0.0
100.0 100.0 0.0
150.0 100.0 0.0
200.0 100.0 0.0
250.0 100.0 0.0
300.0 100.0 0.0
350.0 100.0 0.0
400.0 100.0 0.0
450.0 100.0 0.0
500.0 100.0 0.0
550.0 100.0 0.0
600.0 100.0 0.0
650.0 100.0 0.0
700.0 100.0 0.0
750.0 100.0 0.0
800.0 100.0 0.0
850.0 100.0 0.0
900.0 100.0 0.0
950.0 100.0 0.0
1000.0 100.0 0.0
1050.0 100.0 0.0
1100.0 100.0 0.0
1150.0 100.0 0.0
1200.0 100.0 0.0
1250.0 100.0 0.0
1300.0 100.0 0.0
1350.0 100.0 0.0
1400.0 100.0 0.0
1450.0 100.0 0.0
1500.0 100.0 0.0
1550.0 100.0 0.0
1600.0 100.0 0.0
1650.0 100.0 0.0
1700.0 100.0 0.0
1750.0 100.0 0.0
1800.0 100.0 0.0
1850.0 100.0 0.0
1900.0 100.0 0.0
1950.0 100.0 0.0
2000.0 100.0 0.0
2050.0 100.0 0.0
2100.0 100.0 0.0
2150.0 100.0 0.0
2200.0 100.0 0.0
2250.0 100.0 0.0
2300.0 100.0 0.0
2350.0 100.0 0.0
2400.0 100.0 0.0
2450.0 100.0 0.0
2500.0 100.0 0.0
2550.0 100.0 0.0
2600.0 100.0 0.0
2650.0 100.0 0.0
2700.0 100.0 0.0
2750.0 100.0 0.0
2800.0 100.0 0.0
2850.0 100.0 0.0
2900.0 100.0 0.0
2950.0 100.0 0.0
3000.0 100.0 0.0
3050.0 100.0 0.0
3100.0 100.0 0.0
3150.0 100.0 0.0
3200.0 100.0 0.0
3250.0 100.0 0.0
3300.0 100.0 0.0
3350.0 100.0 0.0
3400.0 100.0 0.0
3450.0 100.0 0.0
3500.0 100.0 0.0
3550.0 100.0 0.0
3600.0 100.0 0.0
3650.0 100.0 0.0
3700.0 100.0 0.0
3750.0 100.0 0.0
3800.0 100.0 0.0
3850.0 100.0 0.0
3900.0 100.0 0.0
3950.0 100.0 0.0
4000.0 100.0 0.0
0.0 150.0 0.0
50.0 150.0 0.0
100.0 150.0 0.0
150.0 150.0 0.0
200.0 150.0 0.0
250.0 150.0 0.0
300.0 150.0 0.0
350.0 150.0 0.0
400.0 150.0 0.0
450.0 150.0 0.0
500.0 150.0 0.0
550.0 150.0 0.0
600.0 150.0 0.0
650.0 150.0 0.0
700.0 150.0 0.0
750.0 150.0 0.0
800.0 150.0 0.0
850.0 150.0 0.0
900.0 150.0 0.0
950.0 150.0 0.0
1000.0 150.0 0.0
1050.0 150.0 0.0
1100.0 150.0 0.0
1150.0 150.0 0.0
1200.0 150.0 0.0
1250.0 150.0 0.0
1300.0 150.0 0.0
1350.0 150.0 0.0
1400.0 150.0 0.0
1450.0 150.0 0.0
1500.0 150.0 0.0
1550.0 150.0 0.0
1600.0 150.0 0.0
1650.0 150.0 0.0
1700.0 150.0 0.0
1750.0 150.0 0.0
1800.0 150.0 0.0
1850.0 150.0 0.0
1900.0 150.0 0.0
1950.0 150.0 0.0
2000.0 150.0 0.0
2050.0 150.0 0.0
2100.0 150.0 0.0
2150.0 150.0 0.0
2200.0 150.0 0.0
2250.0 150.0 0.0
2300.0 150.0 0.0
2350.0 150.0 0.0
2400.0 150.0 0.0
2450.0 150.0 0.0
2500.0 150.0 0.0
2550.0 150.0 0.0
2600.0 150.0 0.0
2650.0 150.0 0.0
2700.0 150.0 0.0
2750.0 150.0 0.0
2800.0 150.0 0.0
2850.0 150.0 0.0
2900.0 150.0 0.0
2950.0 150.0 0.0
3000.0 150.0 0.0
3050.0 150.0 0.0
3100.0 150.0 0.0
3150.0 150.0 0.0
3200.0 150.0 0.0
3250.0 150.0 0.0
3300.0 150.0 0.0
3350.0 150.0 0.0
3400.0 150.0 0.0
3450.0 150.0 0.0
3500.0 150.0 0.0
3550.0 150.0 0.0
3600.0 150.0 0.0
3650.0 150.0 0.0
3700.0 150.0 0.0
3750.0 150.0 0.0
3800.0 150.0 0.0
3850.0 150.0 0.0
3900.0 150.0 0.0
3950.0 150.0 0.0
4000.0 150.0 0.0
0.0 200.0 0.0
50.0 200.0 0.0
100.0 200.0 0.0
150.0 200.0 0.0
200.0 200.0 0.0
250.0 200.0 0.0
300.0 200.0 0.0
350.0 200.0 0.0
400.0 200.0 0.0
450.0 200.0 0.0
500.0 200.0 0.0
550.0 200.0 0.0
600.0 200.0 0.0
650.0 200.0 0.0
700.0 200.0 0.0
750.0 200.0 0.0
800.0 200.0 0.0
850.0 200.0 0.0
900.0 200.0 0.0
950.0 200.0 0.0
1000.0 200.0 0.0
1050.0 200.0 0.0
1100.0 200.0 0.0
1150.0 200.0 0.0
1200.0 200.0 0.0
1250.0 200.0 0.0
1300.0 200.0 0.0
1350.0 200.0 0.0
1400.0 200.0 0.0
1450.0 200.0 0.0
1500.0 200.0 0.0
1550.0 200.0 0.0
1600.0 200.0 0.0
1650.0 200.0 0.0
1700.0 200.0 0.0
1750.0 200.0 0.0
1800.0 200.0 0.0
1850.0 200.0 0.0
1900.0 200.0 0.0
1950.0 200.0 0.0
2000.0 200.0 0.0
2050.0 200.0 0.0
2100.0 200.0 0.0
2150.0 200.0 0.0
2200.0 200.0 0.0
2250.0 200.0 0.0
2300.0 200.0 0.0
2350.0 200.0 0.0
2400.0 200.0 0.0
2450.0 200.0 0.0
2500.0 200.0 0.0
2550.0 200.0 0.0
2600.0 200.0 0.0
2650.0 200.0 0.0
2700.0 200.0 0.0
2750.0 200.0 0.0
2800.0 200.0 0.0
2850.0 200.0 0.0
2900.0 200.0 0.0
2950.0 200.0 0.0
3000.0 200.0 0.0
3050.0 200.0 0.0
3100.0 200.0 0.0
3150.0 200.0 0.0
3200.0 200.0 0.0
3250.0 200.0 0.0
3300.0 200.0 0.0
3350.0 200.0 0.0
3400.0 200.0 0.0
3450.0 200.0 0.0
3500.0 200.0 0.0
3550.0 200.0 0.0
3600.0 200.0 0.0
3650.0 200.0 0.0
3700.0 200.0 0.0
3750.0 200.0 0.0
3800.0 200.0 0.0
3850.0 200.0 0.0
3900.0 200.0 0.0
3950.0 200.0 0.0
4000.0 200.0 0.0
0.0 250.0 0.0
50.0 250.0 0.0
100.0 250.0 0.0
150.0 250.0 0.0
200.0 250.0 0.0
250.0 250.0 0.0
300.0 250.0 0.0
350.0 250.0 0.0
400.0 250.0 0.0
450.0 250.0 0.0
500.0 250.0 0.0
550.0 250.0 0.0
600.0 250.0 0.0
650.0 250.0 0.0
700.0 250.0 0.0
750.0 250.0 0.0
800.0 250.0 0.0
850.0 250.0 0.0
900.0 250.0 0.0
950.0 250.0 0.0
1000.0 250.0 0.0
1050.0 250.0 0.0
1100.0 250.0 0.0
1150.0 250.0 0.0
1200.0 250.0 0.0
1250.0 250.0 0.0
1300.0 250.0 0.0
1350.0 250.0 0.0
1400.0 250.0 0.0
1450.0 250.0 0.0
1500.0 250.0 0.0
1550.0 250.0 0.0
1600.0 250.0 0.0
1650.0 250.0 0.0
1700.0 250.0 0.0
1750.0 250.0 0.0
1800.0 250.0 0.0
1850.0 250.0 0.0
1900.0 250.0 0.0
1950.0 250.0 0.0
2000.0 250.0 0.0
2050.0 250.0 0.0
2100.0 250.0 0.0
2150.0 250.0 0.0
2200.0 250.0 0.0
2250.0 250.0 0.0
2300.0 250.0 0.0
2350.0 250.0 0.0
2400.0 250.0 0.0
2450.0 250.0 0.0
2500.0 250.0 0.0
2550.0 250.0 0.0
2600.0 250.0 0.0
2650.0 250.0 0.0
2700.0 250.0 0.0
2750.0 250.0 0.0
2800.0 250.0 0.0
2850.0 250.0 0.0
2900.0 250.0 0.0
2950.0 250.0 0.0
3000.0 250.0 0.0
3050.0 250.0 0.0
3100.0 250.0 0.0
3150.0 250.0 0.0
3200.0 250.0 0.0
3250.0 250.0 0.0
3300.0 250.0 0.0
3350.0 250.0 0.0
3400.0 250.0 0.0
3450.0 250.0 0.0
3500.0 250.0 0.0
3550.0 250.0 0.0
3600.0 250.0 0.0
3650.0 250.0 0.0
3700.0 250.0 0.0
3750.0 250.0 0.0
3800.0 250.0 0.0
3850.0 250.0 0.0
3900.0 250.0 0.0
3950.0 250.0 0.0
4000.0 250.0 0.0
0.0 300.0 0.0
50.0 300.0 0.0
100.0 300.0 0.0
150.0 300.0 0.0
200.0 300.0 0.0
250.0 300.0 0.0
300.0 300.0 0.0
350.0 300.0 0.0
400.0 300.0 0.0
450.0 300.0 0.0
500.0 300.0 0.0
550.0 300.0 0.0
600.0 300.0 0.0
650.0 300.0 0.0
700.0 300.0 0.0
750.0 300.0 0.0
800.0 300.0 0.0
850.0 300.0 0.0
900.0 300.0 0.0
950.0 300.0 0.0
1000.0 300.0 0.0
1050.0 300.0 0.0
1100.0 300.0 0.0
1150.0 300.0 0.0
1200.0 300.0 0.0
1250.0 300.0 0.0
1300.0 300.0 0.0
1350.0 300.0 0.0
1400.0 300.0 0.0
1450.0 300.0 0.0
1500.0 300.0 0.0
1550.0 300.0 0.0
1600.0 300.0 0.0
1650.0 300.0 0.0
1700.0 300.0 0.0
1750.0 300.0 0.0
1800.0 300.0 0.0
1850.0 300.0 0.0
1900.0 300.0 0.0
1950.0 300.0 0.0
2000.0 300.0 0.0
2050.0 300.0 0.0
2100.0 300.0 0.0
2150.0 300.0 0.0
2200.0 300.0 0.0
2250.0 300.0 0.0
2300.0 300.0 0.0
2350.0 300.0 0.0
2400.0 300.0 0.0
2450.0 300.0 0.0
2500.0 300.0 0.0
2550.0 300.0 0.0
2600.0 300.0 0.0
2650.0 300.0 0.0
2700.0 300.0 0.0
2750.0 300.0 0.0
2800.0 300.0 0.0
2850.0 300.0 0.0
2900.0 300.0 0.0
2950.0 300.0 0.0
3000.0 300.0 0.0
3050.0 300.0 0.0
3100.0 300.0 0.0
3150.0 300.0 0.0
3200.0 300.0 0.0
3250.0 300.0 0.0
3300.0 300.0 0.0
3350.0 300.0 0.0
3400.0 300.0 0.0
3450.0 300.0 0.0
3500.0 300.0 0.0
3550.0 300.0 0.0
3600.0 300.0 0.0
3650.0 300.0 0.0
3700.0 300.0 0.0
3750.0 300.0 0.0
3800.0 300.0 0.0
3850.0 300.0 0.0
3900.0 300.0 0.0
3950.0 300.0 0.0
4000.0 300.0 0.0
0.0 350.0 0.0
50.0 350.0 0.0
100.0 350.0 0.0
150.0 350.0 0.0
200.0 350.0 0.0
250.0 350.0 0.0
300.0 350.0 0.0
350.0 350.0 0.0
400.0 350.0 0.0
450.0 350.0 0.0
500.0 350.0 0.0
550.0 350.0 0.0
600.0 350.0 0.0
650.0 350.0 0.0
700.0 350.0 0.0
750.0 350.0 0.0
800.0 350.0 0.0
850.0 350.0 0.0
900.0 350.0 0.0
950.0 350.0 0.0
1000.0 350.0 0.0
1050.0 350.0 0.0
1100.0 350.0 0.0
1150.0 350.0 0.0
1200.0 350.0 0.0
1250.0 350.0 0.0
1300.0 350.0 0.0
1350.0 350.0 0.0
1400.0 350.0 0.0
1450.0 350.0 0.0
1500.0 350.0 0.0
1550.0 350.0 0.0
1600.0 350.0 0.0
1650.0 350.0 0.0
1700.0 350.0 0.0
1750.0 350.0 0.0
1800.0 350.0 0.0
1850.0 350.0 0.0
1900.0 350.0 0.0
1950.0 350.0 0.0
2000.0 350.0 0.0
2050.0 350.0 0.0
2100.0 350.0 0.0
2150.0 350.0 0.0
2200.0 350.0 0.0
2250.0 350.0 0.0
2300.0 350.0 0.0
2350.0 350.0 0.0
2400.0 350.0 0.0
2450.0 350.0 0.0
2500.0 350.0 0.0
2550.0 350.0 0.0
2600.0 350.0 0.0
2650.0 350.0 0.0
2700.0 350.0 0.0
2750.0 350.0 0.0
2800.0 350.0 0.0
2850.0 350.0 0.0
2900.0 350.0 0.0
2950.0 350.0 0.0
3000.0 350.0 0.0
3050.0 350.0 0.0
3100.0 350.0 0.0
3150.0 350.0 0.0
3200.0 350.0 0.0
3250.0 350.0 0.0
3300.0 350.0 0.0
3350.0 350.0 0.0
3400.0 350.0 0.0
3450.0 350.0 0.0
3500.0 350.0 0.0
3550.0 350.0 0.0
3600.0 350.0 0.0
3650.0 350.0 0.0
3700.0 350.0 0.0
3750.0 350.0 0.0
3800.0 350.0 0.0
3850.0 350.0 0.0
3900.0 350.0 0.0
3950.0 350.0 0.0
4000.0 350.0 0.0
0.0 400.0 0.0
50.0 400.0 0.0
100.0 400.0 0.0
150.0 400.0 0.0
200.0 400.0 0.0
250.0 400.0 0.0
300.0 400.0 0.0
350.0 400.0 0.0
400.0 400.0 0.0
450.0 400.0 0.0
500.0 400.0 0.0
550.0 400.0 0.0
600.0 400.0 0.0
650.0 400.0 0.0
700.0 400.0 0.0
750.0 400.0 0.0
800.0 400.0 0.0
850.0 400.0 0.0
900.0 400.0 0.0
950.0 400.0 0.0
1000.0 400.0 0.0
1050.0 400.0 0.0
1100.0 400.0 0.0
1150.0 400.0 0.0
1200.0 400.0 0.0
1250.0 400.0 0.0
1300.0 400.0 0.0
1350.0 400.0 0.0
1400.0 400.0 0.0
1450.0 400.0 0.0
1500.0 400.0 0.0
1550.0 400.0 0.0
1600.0 400.0 0.0
1650.0 400.0 0.0
1700.0 400.0 0.0
1750.0 400.0 0.0
1800.0 400.0 0.0
1850.0 400.0 0.0
1900.0 400.0 0.0
1950.0 400.0 0.0
2000.0 400.0 0.0
2050.0 400.0 0.0
2100.0 400.0 0.0
2150.0 400.0 0.0
2200.0 400.0 0.0
2250.0 400.0 0.0
2300.0 400.0 0.0
2350.0 400.0 0.0
2400.0 400.0 0.0
2450.0 400.0 0.0
2500.0 400.0 0.0
2550.0 400.0 0.0
2600.0 400.0 0.0
2650.0 400.0 0.0
2700.0 400.0 0.0
2750.0 400.0 0.0
2800.0 400.0 0.0
2850.0 400.0 0.0
2900.0 400.0 0.0
2950.0 400.0 0.0
3000.0 400.0 0.0
3050.0 400.0 0.0
3100.0 400.0 0.0
3150.0 400.0 0.0
3200.0 400.0 0.0
3250.0 400.0 0.0
3300.0 400.0 0.0
3350.0 400.0 0.0
3400.0 400.0 0.0
3450.0 400.0 0.0
3500.0 400.0 0.0
3550.0 400.0 0.0
3600.0 400.0 0.0
3650.0 400.0 0.0
3700.0 400.0 0.0
3750.0 400.0 0.0
3800.0 400.0 0.0
3850.0 400.0 0.0
3900.0 400.0 0.0
3950.0 400.0 0.0
4000.0 400.0 0.0
0.0 450.0 0.0
50.0 450.0 0.0
100.0 450.0 0.0
150.0 450.0 0.0
200.0 450.0 0.0
250.0 450.0 0.0
300.0 450.0 0.0
350.0 450.0 0.0
400.0 450.0 0.0
450.0 450.0 0.0
500.0 450.0 0.0
550.0 450.0 0.0
600.0 450.0 0.0
650.0 450.0 0.0
700.0 450.0 0.0
750.0 450.0 0.0
800.0 450.0 0.0
850.0 450.0 0.0
900.0 450.0 0.0
950.0 450.0 0.0
1000.0 450.0 0.0
1050.0 450.0 0.0
1100.0 450.0 0.0
1150.0 450.0 0.0
1200.0 450.0 0.0
1250.0 450.0 0.0
1300.0 450.0 0.0
1350.0 450.0 0.0
1400.0 450.0 0.0
1450.0 450.0 0.0
1500.0 450.0 0.0
1550.0 450.0 0.0
1600.0 450.0 0.0
1650.0 450.0 0.0
1700.0 450.0 0.0
1750.0 450.0 0.0
1800.0 450.0 0.0
1850.0 450.0 0.0
1900.0 450.0 0.0
1950.0 450.0 0.0
2000.0 450.0 0.0
2050.0 450.0 0.0
2100.0 450.0 0.0
2150.0 450.0 0.0
2200.0 450.0 0.0
2250.0 450.0 0.0
2300.0 450.0 0.0
2350.0 450.0 0.0
2400.0 450.0 0.0
2450.0 450.0 0.0
2500.0 450.0 0.0
2550.0 450.0 0.0
2600.0 450.0 0.0
2650.0 450.0 0.0
2700.0 450.0 0.0
2750.0 450.0 0.0
2800.0 450.0 0.0
2850.0 450.0 0.0
2900.0 450.0 0.0
2950.0 450.0 0.0
3000.0 450.0 0.0
3050.0 450.0 0.0
3100.0 450.0 0.0
3150.0 450.0 0.0
3200.0 450.0 0.0
3250.0 450.0 0.0
3300.0 450.0 0.0
3350.0 450.0 0.0
3400.0 450.0 0.0
3450.0 450.0 0.0
3500.0 450.0 0.0
3550.0 450.0 0.0
3600.0 450.0 0.0
3650.0 450.0 0.0
3700.0 450.0 0.0
3750.0 450.0 0.0
3800.0 450.0 0.0
3850.0 450.0 0.0
3900.0 450.0 0.0
3950.0 450.0 0.0
4000.0 450.0 0.0
0.0 500.0 0.0
50.0 500.0 0.0
100.0 500.0 0.0
150.0 500.0 0.0
200.0 500.0 0.0
250.0 500.0 0.0
300.0 500.0 0.0
350.0 500.0 0.0
400.0 500.0 0.0
450.0 500.0 0.0
500.0 500.0 0.0
550.0 500.0 0.0
600.0 500.0 0.0
650.0 500.0 0.0
700.0 500.0 0.0
750.0 500.0 0.0
800.0 500.0 0.0
850.0 500.0 0.0
900.0 500.0 0.0
950.0 500.0 0.0
1000.0 500.0 0.0
1050.0 500.0 0.0
1100.0 500.0 0.0
1150.0 500.0 0.0
1200.0 500.0 0.0
1250.0 500.0 0.0
1300.0 500.0 0.0
1350.0 500.0 0.0
1400.0 500.0 0.0
1450.0 500.0 0.0
1500.0 500.0 0.0
1550.0 500.0 0.0
1600.0 500.0 0.0
1650.0 500.0 0.0
1700.0 500.0 0.0
1750.0 500.0 0.0
1800.0 500.0 0.0
1850.0 500.0 0.0
1900.0 500.0 0.0
1950.0 500.0 0.0
2000.0 500.0 0.0
2050.0 500.0 0.0
2100.0 500.0 0.0
2150.0 500.0 0.0
2200.0 500.0 0.0
2250.0 500.0 0.0
2300.0 500.0 0.0
2350.0 500.0 0.0
2400.0 500.0 0.0
2450.0 500.0 0.0
2500.0 500.0 0.0
2550.0 500.0 0.0
2600.0 500.0 0.0
2650.0 500.0 0.0
2700.0 500.0 0.0
2750.0 500.0 0.0
2800.0 500.0 0.0
2850.0 500.0 0.0
2900.0 500.0 0.0
2950.0 500.0 0.0
3000.0 500.0 0.0
3050.0 500.0 0.0
3100.0 500.0 0.0
3150.0 500.0 0.0
3200.0 500.0 0.0
3250.0 500.0 0.0
3300.0 500.0 0.0
3350.0 500.0 0.0
3400.0 500.0 0.0
3450.0 500.0 0.0
3500.0 500.0 0.0
3550.0 500.0 0.0
3600.0 500.0 0.0
3650.0 500.0 0.0
3700.0 500.0 0.0
3750.0 500.0 0.0
3800.0 500.0 0.0
3850.0 500.0 0.0
3900.0 500.0 0.0
3950.0 500.0 0.0
4000.0 500.0 0.0
0.0 550.0 0.0
50.0 550.0 0.0
100.0 550.0 0.0
150.0 550.0 0.0
200.0 550.0 0.0
250.0 550.0 0.0
300.0 550.0 0.0
350.0 550.0 0.0
400.0 550.0 0.0
450.0 550.0 0.0
500.0 550.0 0.0
550.0 550.0 0.0
600.0 550.0 0.0
650.0 550.0 0.0
700.0 550.0 0.0
750.0 550.0 0.0
800.0 550.0 0.0
850.0 550.0 0.0
900.0 550.0 0.0
950.0 550.0 0.0
1000.0 550.0 0.0
1050.0 550.0 0.0
1100.0 550.0 0.0
1150.0 550.0 0.0
1200.0 550.0 0.0
1250.0 550.0 0.0
1300.0 550.0 0.0
1350.0 550.0 0.0
1400.0 550.0 0.0
1450.0 550.0 0.0
1500.0 550.0 0.0
1550.0 550.0 0.0
1600.0 550.0 0.0
1650.0 550.0 0.0
1700.0 550.0 0.0
1750.0 550.0 0.0
1800.0 550.0 0.0
1850.0 550.0 0.0
1900.0 550.0 0.0
1950.0 550.0 0.0
2000.0 550.0 0.0
2050.0 550.0 0.0
2100.0 550.0 0.0
2150.0 550.0 0.0
2200.0 550.0 0.0
2250.0 550.0 0.0
2300.0 550.0 0.0
2350.0 550.0 0.0
2400.0 550.0 0.0
2450.0 550.0 0.0
2500.0 550.0 0.0
2550.0 550.0 0.0
2600.0 550.0 0.0
2650.0 550.0 0.0
2700.0 550.0 0.0
2750.0 550.0 0.0
2800.0 550.0 0.0
2850.0 550.0 0.0
2900.0 550.0 0.0
2950.0 550.0 0.0
3000.0 550.0 0.0
3050.0 550.0 0.0
3100.0 550.0 0.0
3150.0 550.0 0.0
3200.0 550.0 0.0
3250.0 550.0 0.0
3300.0 550.0 0.0
3350.0 550.0 0.0
3400.0 550.0 0.0
3450.0 550.0 0.0
3500.0 550.0 0.0
3550.0 550.0 0.0
3600.0 550.0 0.0
3650.0 550.0 0.0
3700.0 550.0 0.0
3750.0 550.0 0.0
3800.0 550.0 0.0
3850.0 550.0 0.0
3900.0 550.0 0.0
3950.0 550.0 0.0
4000.0 550.0 0.0
0.0 600.0 0.0
50.0 600.0 0.0
100.0 600.0 0.0
150.0 600.0 0.0
200.0 600.0 0.0
250.0 600.0 0.0
300.0 600.0 0.0
350.0 600.0 0.0
400.0 600.0 0.0
450.0 600.0 0.0
500.0 600.0 0.0
550.0 600.0 0.0
600.0 600.0 0.0
650.0 600.0 0.0
700.0 600.0 0.0
750.0 600.0 0.0
800.0 600.0 0.0
850.0 600.0 0.0
900.0 600.0 0.0
950.0 600.0 0.0
1000.0 600.0 0.0
1050.0 600.0 0.0
1100.0 600.0 0.0
1150.0 600.0 0.0
1200.0 600.0 0.0
1250.0 600.0 0.0
1300.0 600.0 0.0
1350.0 600.0 0.0
1400.0 600.0 0.0
1450.0 600.0 0.0
1500.0 600.0 0.0
1550.0 600.0 0.0
1600.0 600.0 0.0
1650.0 600.0 0.0
1700.0 600.0 0.0
1750.0 600.0 0.0
1800.0 600.0 0.0
1850.0 600.0 0.0
1900.0 600.0 0.0
1950.0 600.0 0.0
2000.0 600.0 0.0
2050.0 600.0 0.0
2100.0 600.0 0.0
2150.0 600.0 0.0
2200.0 600.0 0.0
2250.0 600.0 0.0
2300.0 600.0 0.0
2350.0 600.0 0.0
2400.0 600.0 0.0
2450.0 600.0 0.0
2500.0 600.0 0.0
2550.0 600.0 0.0
2600.0 600.0 0.0
2650.0 600.0 0.0
2700.0 600.0 0.0
2750.0 600.0 0.0
2800.0 600.0 0.0
2850.0 600.0 0.0
2900.0 600.0 0.0
2950.0 600.0 0.0
3000.0 600.0 0.0
3050.0 600.0 0.0
3100.0 600.0 0.0
3150.0 600.0 0.0
3200.0 600.0 0.0
3250.0 600.0 0.0
3300.0 600.0 0.0
3350.0 600.0 0.0
3400.0 600.0 0.0
3450.0 600.0 0.0
3500.0 600.0 0.0
3550.0 600.0 0.0
3600.0 600.0 0.0
3650.0 600.0 0.0
3700.0 600.0 0.0
3750.0 600.0 0.0
3800.0 600.0 0.0
3850.0 600.0 0.0
3900.0 600.0 0.0
3950.0 600.0 0.0
4000.0 600.0 0.0
0.0 650.0 0.0
50.0 650.0 0.0
100.0 650.0 0.0
150.0 650.0 0.0
200.0 650.0 0.0
250.0 650.0 0.0
300.0 650.0 0.0
350.0 650.0 0.0
400.0 650.0 0.0
450.0 650.0 0.0
500.0 650.0 0.0
550.0 650.0 0.0
600.0 650.0 0.0
650.0 650.0 0.0
700.0 650.0 0.0
750.0 650.0 0.0
800.0 650.0 0.0
850.0 650.0 0.0
900.0 650.0 0.0
950.0 650.0 0.0
1000.0 650.0 0.0
1050.0 650.0 0.0
1100.0 650.0 0.0
1150.0 650.0 0.0
1200.0 650.0 0.0
1250.0 650.0 0.0
1300.0 650.0 0.0
1350.0 650.0 0.0
1400.0 650.0 0.0
1450.0 650.0 0.0
1500.0 650.0 0.0
1550.0 650.0 0.0
1600.0 650.0 0.0
1650.0 650.0 0.0
1700.0 650.0 0.0
1750.0 650.0 0.0
1800.0 650.0 0.0
1850.0 650.0 0.0
1900.0 650.0 0.0
1950.0 650.0 0.0
2000.0 650.0 0.0
2050.0 650.0 0.0
2100.0 650.0 0.0
2150.0 650.0 0.0
2200.0 650.0 0.0
2250.0 650.0 0.0
2300.0 650.0 0.0
2350.0 650.0 0.0
2400.0 650.0 0.0
2450.0 650.0 0.0
2500.0 650.0 0.0
2550.0 650.0 0.0
2600.0 650.0 0.0
2650.0 650.0 0.0
2700.0 650.0 0.0
2750.0 650.0 0.0
2800.0 650.0 0.0
2850.0 650.0 0.0
2900.0 650.0 0.0
2950.0 650.0 0.0
3000.0 650.0 0.0
3050.0 650.0 0.0
3100.0 650.0 0.0
3150.0 650.0 0.0
3200.0 650.0 0.0
3250.0 650.0 0.0
3300.0 650.0 0.0
3350.0 650.0 0.0
3400.0 650.0 0.0
3450.0 650.0 0.0
3500.0 650.0 0.0
3550.0 650.0 0.0
3600.0 650.0 0.0
3650.0 650.0 0.0
3700.0 650.0 0.0
3750.0 650.0 0.0
3800.0 650.0 0.0
3850.0 650.0 0.0
3900.0 650.0 0.0
3950.0 650.0 0.0
4000.0 650.0 0.0
0.0 700.0 0.0
50.0 700.0 0.0
100.0 700.0 0.0
150.0 700.0 0.0
200.0 700.0 0.0
250.0 700.0 0.0
300.0 700.0 0.0
350.0 700.0 0.0
400.0 700.0 0.0
450.0 700.0 0.0
500.0 700.0 0.0
550.0 700.0 0.0
600.0 700.0 0.0
650.0 700.0 0.0
700.0 700.0 0.0
750.0 700.0 0.0
800.0 700.0 0.0
850.0 700.0 0.0
900.0 700.0 0.0
950.0 700.0 0.0
1000.0 700.0 0.0
1050.0 700.0 0.0
1100.0 700.0 0.0
1150.0 700.0 0.0
1200.0 700.0 0.0
1250.0 700.0 0.0
1300.0 700.0 0.0
1350.0 700.0 0.0
1400.0 700.0 0.0
1450.0 700.0 0.0
1500.0 700.0 0.0
1550.0 700.0 0.0
1600.0 700.0 0.0
1650.0 700.0 0.0
1700.0 700.0 0.0
1750.0 700.0 0.0
1800.0 700.0 0.0
1850.0 700.0 0.0
1900.0 700.0 0.0
1950.0 700.0 0.0
2000.0 700.0 0.0
2050.0 700.0 0.0
2100.0 700.0 0.0
2150.0 700.0 0.0
2200.0 700.0 0.0
2250.0 700.0 0.0
2300.0 700.0 0.0
2350.0 700.0 0.0
2400.0 700.0 0.0
2450.0 700.0 0.0
2500.0 700.0 0.0
2550.0 700.0 0.0
2600.0 700.0 0.0
2650.0 700.0 0.0
2700.0 700.0 0.0
2750.0 700.0 0.0
2800.0 700.0 0.0
2850.0 700.0 0.0
2900.0 700.0 0.0
2950.0 700.0 0.0
3000.0 700.0 0.0
3050.0 700.0 0.0
3100.0 700.0 0.0
3150.0 700.0 0.0
3200.0 700.0 0.0
3250.0 700.0 0.0
3300.0 700.0 0.0
3350.0 700.0 0.0
3400.0 700.0 0.0
3450.0 700.0 0.0
3500.0 700.0 0.0
3550.0 700.0 0.0
3600.0 700.0 0.0
3650.0 700.0 0.0
3700.0 700.0 0.0
3750.0 700.0 0.0
3800.0 700.0 0.0
3850.0 700.0 0.0
3900.0 700.0 0.0
3950.0 700.0 0.0
4000.0 700.0 0.0
0.0 750.0 0.0
50.0 750.0 0.0
100.0 750.0 0.0
150.0 750.0 0.0
200.0 750.0 0.0
250.0 750.0 0.0
300.0 750.0 0.0
350.0 750.0 0.0
400.0 750.0 0.0
450.0 750.0 0.0
500.0 750.0 0.0
550.0 750.0 0.0
600.0 750.0 0.0
650.0 750.0 0.0
700.0 750.0 0.0
750.0 750.0 0.0
800.0 750.0 0.0
850.0 750.0 0.0
900.0 750.0 0.0
950.0 750.0 0.0
1000.0 750.0 0.0
1050.0 750.0 0.0
1100.0 750.0 0.0
1150.0 750.0 0.0
1200.0 750.0 0.0
1250.0 750.0 0.0
1300.0 750.0 0.0
1350.0 750.0 0.0
1400.0 750.0 0.0
1450.0 750.0 0.0
1500.0 750.0 0.0
1550.0 750.0 0.0
1600.0 750.0 0.0
1650.0 750.0 0.0
1700.0 750.0 0.0
1750.0 750.0 0.0
1800.0 750.0 0.0
1850.0 750.0 0.0
1900.0 750.0 0.0
1950.0 750.0 0.0
2000.0 750.0 0.0
2050.0 750.0 0.0
2100.0 750.0 0.0
2150.0 750.0 0.0
2200.0 750.0 0.0
2250.0 750.0 0.0
2300.0 750.0 0.0
2350.0 750.0 0.0
2400.0 750.0 0.0
2450.0 750.0 0.0
2500.0 750.0 0.0
2550.0 750.0 0.0
2600.0 750.0 0.0
2650.0 750.0 0.0
2700.0 750.0 0.0
2750.0 750.0 0.0
2800.0 750.0 0.0
2850.0 750.0 0.0
2900.0 750.0 0.0
2950.0 750.0 0.0
3000.0 750.0 0.0
3050.0 750.0 0.0
3100.0 750.0 0.0
3150.0 750.0 0.0
3200.0 750.0 0.0
3250.0 750.0 0.0
3300.0 750.0 0.0
3350.0 750.0 0.0
3400.0 750.0 0.0
3450.0 750.0 0.0
3500.0 750.0 0.0
3550.0 750.0 0.0
3600.0 750.0 0.0
3650.0 750.0 0.0
3700.0 750.0 0.0
3750.0 750.0 0.0
3800.0 750.0 0.0
3850.0 750.0 0.0
3900.0 750.0 0.0
3950.0 750.0 0.0
4000.0 750.0 0.0
0.0 800.0 0.0
50.0 800.0 0.0
100.0 800.0 0.0
150.0 800.0 0.0
200.0 800.0 0.0
250.0 800.0 0.0
300.0 800.0 0.0
350.0 800.0 0.0
400.0 800.0 0.0
450.0 800.0 0.0
500.0 800.0 0.0
550.0 800.0 0.0
600.0 800.0 0.0
650.0 800.0 0.0
700.0 800.0 0.0
750.0 800.0 0.0
800.0 800.0 0.0
850.0 800.0 0.0
900.0 800.0 0.0
950.0 800.0 0.0
1000.0 800.0 0.0
1050.0 800.0 0.0
1100.0 800.0 0.0
1150.0 800.0 0.0
1200.0 800.0 0.0
1250.0 800.0 0.0
1300.0 800.0 0.0
1350.0 800.0 0.0
1400.0 800.0 0.0
1450.0 800.0 0.0
1500.0 800.0 0.0
1550.0 800.0 0.0
1600.0 800.0 0.0
1650.0 800.0 0.0
1700.0 800.0 0.0
1750.0 800.0 0.0
1800.0 800.0 0.0
1850.0 800.0 0.0
1900.0 800.0 0.0
1950.0 800.0 0.0
2000.0 800.0 0.0
2050.0 800.0 0.0
2100.0 800.0 0.0
2150.0 800.0 0.0
2200.0 800.0 0.0
2250.0 800.0 0.0
2300.0 800.0 0.0
2350.0 800.0 0.0
2400.0 800.0 0.0
2450.0 800.0 0.0
2500.0 800.0 0.0
2550.0 800.0 0.0
2600.0 800.0 0.0
2650.0 800.0 0.0
2700.0 800.0 0.0
2750.0 800.0 0.0
2800.0 800.0 0.0
2850.0 800.0 0.0
2900.0 800.0 0.0
2950.0 800.0 0.0
3000.0 800.0 0.0
3050.0 800.0 0.0
3100.0 800.0 0.0
3150.0 800.0 0.0
3200.0 800.0 0.0
3250.0 800.0 0.0
3300.0 800.0 0.0
3350.0 800.0 0.0
3400.0 800.0 0.0
3450.0 800.0 0.0
3500.0 800.0 0.0
3550.0 800.0 0.0
3600.0 800.0 0.0
3650.0 800.0 0.0
3700.0 800.0 0.0
3750.0 800.0 0.0
3800.0 800.0 0.0
3850.0 800.0 0.0
3900.0 800.0 0.0
3950.0 800.0 0.0
4000.0 800.0 0.0
0.0 850.0 0.0
50.0 850.0 0.0
100.0 850.0 0.0
150.0 850.0 0.0
200.0 850.0 0.0
250.0 850.0 0.0
300.0 850.0 0.0
350.0 850.0 0.0
400.0 850.0 0.0
450.0 850.0 0.0
500.0 850.0 0.0
550.0 850.0 0.0
600.0 850.0 0.0
650.0 850.0 0.0
700.0 850.0 0.0
750.0 850.0 0.0
800.0 850.0 0.0
850.0 850.0 0.0
900.0 850.0 0.0
950.0 850.0 0.0
1000.0 850.0 0.0
1050.0 850.0 0.0
1100.0 850.0 0.0
1150.0 850.0 0.0
1200.0 850.0 0.0
1250.0 850.0 0.0
1300.0 850.0 0.0
1350.0 850.0 0.0
1400.0 850.0 0.0
1450.0 850.0 0.0
1500.0 850.0 0.0
1550.0 850.0 0.0
1600.0 850.0 0.0
1650.0 850.0 0.0
1700.0 850.0 0.0
1750.0 850.0 0.0
1800.0 850.0 0.0
1850.0 850.0 0.0
1900.0 850.0 0.0
1950.0 850.0 0.0
2000.0 850.0 0.0
2050.0 850.0 0.0
2100.0 850.0 0.0
2150.0 850.0 0.0
2200.0 850.0 0.0
2250.0 850.0 0.0
2300.0 850.0 0.0
2350.0 850.0 0.0
2400.0 850.0 0.0
2450.0 850.0 0.0
2500.0 850.0 0.0
2550.0 850.0 0.0
2600.0 850.0 0.0
2650.0 850.0 0.0
2700.0 850.0 0.0
2750.0 850.0 0.0
2800.0 850.0 0.0
2850.0 850.0 0.0
2900.0 850.0 0.0
2950.0 850.0 0.0
3000.0 850.0 0.0
3050.0 850.0 0.0
3100.0 850.0 0.0
3150.0 850.0 0.0
3200.0 850.0 0.0
3250.0 850.0 0.0
3300.0 850.0 0.0
3350.0 850.0 0.0
3400.0 850.0 0.0
3450.0 850.0 0.0
3500.0 850.0 0.0
3550.0 850.0 0.0
3600.0 850.0 0.0
3650.0 850.0 0.0
3700.0 850.0 0.0
3750.0 850.0 0.0
3800.0 850.0 0.0
3850.0 850.0 0.0
3900.0 850.0 0.0
3950.0 850.0 0.0
4000.0 850.0 0.0
0.0 900.0 0.0
50.0 900.0 0.0
100.0 900.0 0.0
150.0 900.0 0.0
200.0 900.0 0.0
250.0 900.0 0.0
300.0 900.0 0.0
350.0 900.0 0.0
400.0 900.0 0.0
450.0 900.0 0.0
500.0 900.0 0.0
550.0 900.0 0.0
600.0 900.0 0.0
650.0 900.0 0.0
700.0 900.0 0.0
750.0 900.0 0.0
800.0 900.0 0.0
850.0 900.0 0.0
900.0 900.0 0.0
950.0 900.0 0.0
1000.0 900.0 0.0
1050.0 900.0 0.0
1100.0 900.0 0.0
1150.0 900.0 0.0
1200.0 900.0 0.0
1250.0 900.0 0.0
1300.0 900.0 0.0
1350.0 900.0 0.0
1400.0 900.0 0.0
1450.0 900.0 0.0
1500.0 900.0 0.0
1550.0 900.0 0.0
1600.0 900.0 0.0
1650.0 900.0 0.0
1700.0 900.0 0.0
1750.0 900.0 0.0
1800.0 900.0 0.0
1850.0 900.0 0.0
1900.0 900.0 0.0
1950.0 900.0 0.0
2000.0 900.0 0.0
2050.0 900.0 0.0
2100.0 900.0 0.0
2150.0 900.0 0.0
2200.0 900.0 0.0
2250.0 900.0 0.0
2300.0 900.0 0.0
2350.0 900.0 0.0
2400.0 900.0 0.0
2450.0 900.0 0.0
2500.0 900.0 0.0
2550.0 900.0 0.0
2600.0 900.0 0.0
2650.0 900.0 0.0
2700.0 900.0 0.0
2750.0 900.0 0.0
2800.0 900.0 0.0
2850.0 900.0 0.0
2900.0 900.0 0.0
2950.0 900.0 0.0
3000.0 900.0 0.0
3050.0 900.0 0.0
3100.0 900.0 0.0
3150.0 900.0 0.0
3200.0 900.0 0.0
3250.0 900.0 0.0
3300.0 900.0 0.0
3350.0 900.0 0.0
3400.0 900.0 0.0
3450.0 900.0 0.0
3500.0 900.0 0.0
3550.0 900.0 0.0
3600.0 900.0 0.0
3650.0 900.0 0.0
3700.0 900.0 0.0
3750.0 900.0 0.0
3800.0 900.0 0.0
3850.0 900.0 0.0
3900.0 900.0 0.0
3950.0 900.0 0.0
4000.0 900.0 0.0
0.0 950.0 0.0
50.0 950.0 0.0
100.0 950.0 0.0
150.0 950.0 0.0
200.0 950.0 0.0
250.0 950.0 0.0
300.0 950.0 0.0
350.0 950.0 0.0
400.0 950.0 0.0
450.0 950.0 0.0
500.0 950.0 0.0
550.0 950.0 0.0
600.0 950.0 0.0
650.0 950.0 0.0
700.0 950.0 0.0
750.0 950.0 0.0
800.0 950.0 0.0
850.0 950.0 0.0
900.0 950.0 0.0
950.0 950.0 0.0
1000.0 950.0 0.0
1050.0 950.0 0.0
1100.0 950.0 0.0
1150.0 950.0 0.0
1200.0 950.0 0.0
1250.0 950.0 0.0
1300.0 950.0 0.0
1350.0 950.0 0.0
1400.0 950.0 0.0
1450.0 950.0 0.0
1500.0 950.0 0.0
1550.0 950.0 0.0
1600.0 950.0 0.0
1650.0 950.0 0.0
1700.0 950.0 0.0
1750.0 950.0 0.0
1800.0 950.0 0.0
1850.0 950.0 0.0
1900.0 950.0 0.0
1950.0 950.0 0.0
2000.0 950.0 0.0
2050.0 950.0 0.0
2100.0 950.0 0.0
2150.0 950.0 0.0
2200.0 950.0 0.0
2250.0 950.0 0.0
2300.0 950.0 0.0
2350.0 950.0 0.0
2400.0 950.0 0.0
2450.0 950.0 0.0
2500.0 950.0 0.0
2550.0 950.0 0.0
2600.0 950.0 0.0
2650.0 950.0 0.0
2700.0 950.0 0.0
2750.0 950.0 0.0
2800.0 950.0 0.0
2850.0 950.0 0.0
2900.0 950.0 0.0
2950.0 950.0 0.0
3000.0 950.0 0.0
3050.0 950.0 0.0
3100.0 950.0 0.0
3150.0 950.0 0.0
3200.0 950.0 0.0
3250.0 950.0 0.0
3300.0 950.0 0.0
3350.0 950.0 0.0
3400.0 950.0 0.0
3450.0 950.0 0.0
3500.0 950.0 0.0
3550.0 950.0 0.0
3600.0 950.0 0.0
3650.0 950.0 0.0
3700.0 950.0 0.0
3750.0 950.0 0.0
3800.0 950.0 0.0
3850.0 950.0 0.0
3900.0 950.0 0.0
3950.0 950.0 0.0
4000.0 950.0 0.0
0.0 1000.0 0.0
50.0 1000.0 0.0
100.0 1000.0 0.0
150.0 1000.0 0.0
200.0 1000.0 0.0
250.0 1000.0 0.0
300.0 1000.0 0.0
350.0 1000.0 0.0
400.0 1000.0 0.0
450.0 1000.0 0.0
500.0 1000.0 0.0
550.0 1000.0 0.0
600.0 1000.0 0.0
650.0 1000.0 0.0
700.0 1000.0 0.0
750.0 1000.0 0.0
800.0 1000.0 0.0
850.0 1000.0 0.0
900.0 1000.0 0.0
950.0 1000.0 0.0
1000.0 1000.0 0.0
1050.0 1000.0 0.0
1100.0 1000.0 0.0
1150.0 1000.0 0.0
1200.0 1000.0 0.0
1250.0 1000.0 0.0
1300.0 1000.0 0.0
1350.0 1000.0 0.0
1400.0 1000.0 0.0
1450.0 1000.0 0.0
1500.0 1000.0 0.0
1550.0 1000.0 0.0
1600.0 1000.0 0.0
1650.0 1000.0 0.0
1700.0 1000.0 0.0
1750.0 1000.0 0.0
1800.0 1000.0 0.0
1850.0 1000.0 0.0
1900.0 1000.0 0.0
1950.0 1000.0 0.0
2000.0 1000.0 0.0
2050.0 1000.0 0.0
2100.0 1000.0 0.0
2150.0 1000.0 0.0
2200.0 1000.0 0.0
2250.0 1000.0 0.0
2300.0 1000.0 0.0
2350.0 1000.0 0.0
2400.0 1000.0 0.0
2450.0 1000.0 0.0
2500.0 1000.0 0.0
2550.0 1000.0 0.0
2600.0 1000.0 0.0
2650.0 1000.0 0.0
2700.0 1000.0 0.0
2750.0 1000.0 0.0
2800.0 1000.0 0.0
2850.0 1000.0 0.0
2900.0 1000.0 0.0
2950.0 1000.0 0.0
3000.0 1000.0 0.0
3050.0 1000.0 0.0
3100.0 1000.0 0.0
3150.0 1000.0 0.0
3200.0 1000.0 0.0
3250.0 1000.0 0.0
3300.0 1000.0 0.0
3350.0 1000.0 0.0
3400.0 1000.0 0.0
3450.0 1000.0 0.0
3500.0 1000.0 0.0
3550.0 1000.0 0.0
3600.0 1000.0 0.0
3650.0 1000.0 0.0
3700.0 1000.0 0.0
3750.0 1000.0 0.0
3800.0 1000.0 0.0
3850.0 1000.0 0.0
3900.0 1000.0 0.0
3950.0 1000.0 0.0
4000.0 1000.0 0.0

CELLS 1600 8000
4 0 1 82 81
4 1 2 83 82
4 2 3 84 83
4 3 4 85 84
4 4 5 86 85
4 5 6 87 86
4 6 7 88 87
4 7 8 89 88
4 8 9 90 89
4 9 10 91 90
4 10 11 92 91
4 11 12 93 92
4 12 13 94 93
4 13 14 95 94
4 14 15 96 95
4 15 16 97 96
4 16 17 98 97
4 17 18 99 98
4 18 19 100 99
4 19 20 101 100
4 20 21 102 101
4 21 22 103 102
4 22 23 104 103
4 23 24 105 104
4 24 25 106 105
4 25 26 107 106
4 26 27 108 107
4 27 28 109 108
4 28 29 110 109
4 29 30 111 110
4 30 31 112 111
4 31 32 113 112
4 32 33 114 113
4 33 34 115 114
4 34 35 116 115
4 35 36 117 116
4 36 37 118 117
4 37 38 119 118
4 38 39 120 119
4 39 40 121 120
4 40 41 122 121
4 41 42 123 122
4 42 43 124 123
4 43 44 125 124
4 44 45 126 125
4 45 46 127 126
4 46 47 128 127
4 47 48 129 128
4 48 49 130 129
4 49 50 131 130
4 50 51 132 131
4 51 52 133 132
4 52 53 134 133
4 53 54 135 134
4 54 55 136 135
4 55 56 137 136
4 56 57 138 137
4 57 58 139 138
4 58 59 140 139
4 59 60 141 140
4 60 61 142 141
4 61 62 143 142
4 62 63 144 143
4 63 64 145 144
4 64 65 146 145
4 65 66 147 146
4 66 67 148 147
4 67 68 149 148
4 68 69 150 149
4 69 70 151 150
4 70 71 152 151
4 71 72 153 152
4 72 73 154 153
4 73 74 155 154
4 74 75 156 155
4 75 76 157 156
4 76 77 158 157
4 77 78 159 158
4 78 79 160 159
4 79 80 161 160
4 81 82 163 162
4 82 83 164 163
4 83 84 165 164
4 84 85 166 165
4 85 86 167 166
4 86 87 168 167
4 87 88 169 168
4 88 89 170 169
4 89 90 171 170
4 90 91 172 171
4 91 92 173 172
4 92 93 174 173
4 93 94 175 174
4 94 95 176 175
4 95 96 177 176
4 96 97 178 177
4 97 98 179 178
4 98 99 180 179
4 99 100 181 180
4 100 101 182 181
4 101 102 183 182
4 102 103 184 183
4 103 104 185 184
4 104 105 186 185
4 105 106 187 186
4 106 107 188 187
4 107 108 189 188
4 108 109 190 189
4 109 110 191 190
4 110 111 192 191
4 111 112 193 192
4 112 113 194 193
4 113 114 195 194
4 114 115 196 195
4 115 116 197 196
4 116 117 198 197
4 117 118 199 198
4 118 119 200 199
4 119 120 201 200
4 120 121 202 201
4 121 122 203 202
4 122 123 204 203
4 123 124 205 204
4 124 125 206 205
4 125 126 207 206
4 126 127 208 207
4 127 128 209 208
4 128 129 210 209
4 129 130 211 210
4 130 131 212 211
4 131 132 213 212
4 132 133 214 213
4 133 134 215 214
4 134 135 216 215
4 135 136 217 216
4 136 137 218 217
4 137 138 219 218
4 138 139 220 219
4 139 140 221 220
4 140 141 222 221
4 141 142 223 222
4 142 143 224 223
4 143 144 225 224
4 144 145 226 225
4 145 146 227 226
4 146 147 228 227
4 147 148 229 228
4 148 149 230 229
4 149 150 231 230
4 150 151 232 231
4 151 152 233 232
4 152 153 234 233
4 153 154 235 234
4 154 155 236 235
4 155 156 237 236
4 156 157 238 237
4 157 158 239 238
4 158 159 240 239
4 159 160 241 240
4 160 161 242 241
4 162 163 244 243
4 163 164 245 244
4 164 165 246 245
4 165 166 247 246
4 166 167 248 247
4 167 168 249 248
4 168 169 250 249
4 169 170 251 250
4 170 171 252 251
4 171 172 253 252
4 172 173 254 253
4 173 174 255 254
4 174 175 256 255
4 175 176 257 256
4 176 177 258 257
4 177 178 259 258
4 178 179 260 259
4 179 180 261 260
4 180 181 262 261
4 181 182 263 262
4 182 183 264 263
4 183 184 265 264
4 184 185 266 265
4 185 186 267 266
4 186 187 268 267
4 187 188 269 268
4 188 189 270 269
4 189 190 271 270
4 190 191 272 271
4 191 192 273 272
4 192 193 274 273
4 193 194 275 274
4 194 195 276 275
4 195 196 277 276
4 196 197 278 277
4 197 198 279 278
4 198 199 280 279
4 199 200 281 280
4 200 201 282 281
4 201 202 283 282
4 202 203 284 283
4 203 204 285 284
4 204 205 286 285
4 205 206 287 286
4 206 207 288 287
4 207 208 289 288
4 208 209 290 289
4 209 210 291 290
4 210 211 292 291
4 211 212 293 292
4 212 213 294 293
4 213 214 295 294
4 214 215 296 295
4 215 216 297 296
4 216 217 298 297
4 217 218 299 298
4 218 219 300 299
4 219 220 301 300
4 220 221 302 301
4 221 222 303 302
4 222 223 304 303
4 223 224 305 304
4 224 225 306 305
4 225 226 307 306
4 226 227 308 307
4 227 228 309 308
4 228 229 310 309
4 229 230 311 310
4 230 231 312 311
4 231 232 313 312
4 232 233 314 313
4 233 234 315 314
4 234 235 316 315
4 235 236 317 316
4 236 237 318 317
4 237 238 319 318
4 238 239 320 319
4 239 240 321 320
4 240 241 322 321
4 241 242 323 322
4 243 244 325 324
4 244 245 326 325
4 245 246 327 326
4 246 247 328 327
4 247 248 329 328
4 248 249 330 329
4 249 250 331 330
4 250 251 332 331
4 251 252 333 332
4 252 253 334 333
4 253 254 335 334
4 254 255 336 335
4 255 256 337 336
4 256 257 338 337
4 257 258 339 338
4 258 259 340 339
4 259 260 341 340
4 260 261 342 341
4 261 262 343 342
4 262 263 344 343
4 263 264 345 344
4 264 265 346 345
4 265 266 347 346
4 266 267 348 347
4 267 268 349 348
4 268 269 350 349
4 269 270 351 350
4 270 271 352 351
4 271 272 353 352
4 272 273 354 353
4 273 274 355 354
4 274 275 356 355
4 275 276 357 356
4 276 277 358 357
4 277 278 359 358
4 278 279 360 359
4 279 280 361 360
4 280 281 362 361
4 281 282 363 362
4 282 283 364 363
4 283 284 365 364
4 284 285 366 365
4 285 286 367 366
4 286 287 368 367
4 287 288 369 368
4 288 289 370 369
4 289 290 371 370
4 290 291 372 371
4 291 292 373 372
4 292 293 374 373
4 293 294 375 374
4 294 295 376 375
4 295 296 377 376
4 296 297 378 377
4 297 298 379 378
4 298 299 380 379
4 299 300 381 380
4 300 301 382 381
4 301 302 383 382
4 302 303 384 383
4 303 304 385 384
4 304 305 386 385
4 305 306 387 386
4 306 307 388 387
4 307 308 389 388
4 308 309 390 389
4 309 310 391 390
4 310 311 392 391
4 311 312 393 392
4 312 313 394 393
4 313 314 395 394
4 314 315 396 395
4 315 316 397 396
4 316 317 398 397
4 317 318 399 398
4 318 319 400 399
4 319 320 401 400
4 320 321 402 401
4 321 322 403 402
4 322 323 404 403
4 324 325 406 405
4 325 326 407 406
4 326 327 408 407
4 327 328 409 408
4 328 329 410 409
4 329 330 411 410
4 330 331 412 411
4 331 332 413 412
4 332 333 414 413
4 333 334 415 414
4 334 335 416 415
4 335 336 417 416
4 336 337 418 417
4 337 338 419 418
4 338 339 420 419
4 339 340 421 420
4 340 341 422 421
4 341 342 423 422
4 342 343 424 423
4 343 344 425 424
4 344 345 426 425
4 345 346 427 426
4 346 347 428 427
4 347 348 429 428
4 348 349 430 429
4 349 350 431 430
4 350 351 432 431
4 351 352 433 432
4 352 353 434 433
4 353 354 435 434
4 354 355 436 435
4 355 356 437 436
4 356 357 438 437
4 357 358 439 438
4 358 359 440 439
4 359 360 441 440
4 360 361 442 441
4 361 362 443 442
4 362 363 444 443
4 363 364 445 444
4 364 365 446 445
4 365 366 447 446
4 366 367 448 447
4 367 368 449 448
4 368 369 450 449
4 369 370 451 450
4 370 371 452 451
4 371 372 453 452
4 372 373 454 453
4 373 374 455 454
4 374 375 456 455
4 375 376 457 456
4 376 377 458 457
4 377 378 459 458
4 378 379 460 459
4 379 380 461 460
4 380 381 462 461
4 381 382 463 462
4 382 383 464 463
4 383 384 465 464
4 384 385 466 465
4 385 386 467 466
4 386 387 468 467
4 387 388 469 468
4 388 389 470 469
4 389 390 471 470
4 390 391 472 471
4 391 392 473 472
4 392 393 474 473
4 393 394 475 474
4 394 395 476 475
4 395 396 477 476
4 396 397 478 477
4 397 398 479 478
4 398 399 480 479
4 399 400 481 480
4 400 401 482 481
4 401 402 483 482
4 402 403 484 483
4 403 404 485 484
4 405 406 487 486
4 406 407 488 487
4 407 408 489 488
4 408 409 490 489
4 409 410 491 490
4 410 411 492 491
4 411 412 493 492
4 412 413 494 493
4 413 414 495 494
4 414 415 496 495
4 415 416 497 496
4 416 417 498 497
4 417 418 499 498
4 418 419 500 499
4 419 420 501 500
4 420 421 502 501
4 421 422 503 502
4 422 423 504 503
4 423 424 505 504
4 424 425 506 505
4 425 426 507 506
4 426 427 508 507
4 427 428 509 508
4 428 429 510 509
4 429 430 511 510
4 430 431 512 511
4 431 432 513 512
4 432 433 514 513
4 433 434 515 514
4 434 435 516 515
4 435 436 517 516
4 436 437 518 517
4 437 438 519 518
4 438 439 520 519
4 439 440 521 520
4 440 441 522 521
4 441 442 523 522
4 442 443 524 523
4 443 444 525 524
4 444 445 526 525
4 445 446 527 526
4 446 447 528 527
4 447 448 529 528
4 448 449 530 529
4 449 450 531 530
4 450 451 532 531
4 451 452 533 532
4 452 453 534 533
4 453 454 535 534
4 454 455 536 535
4 455 456 537 536
4 456 457 538 537
4 457 458 539 538
4 458 459 540 539
4 459 460 541 540
4 460 461 542 541
4 461 462 543 542
4 462 463 544 543
4 463 464 545 544
4 464 465 546 545
4 465 466 547 546
4 466 467 548 547
4 467 468 549 548
4 468 469 550 549
4 469 470 551 550
4 470 471 552 551
4 471 472 553 552
4 472 473 554 553
4 473 474 555 554
4 474 475 556 555
4 475 476 557 556
4 476 477 558 557
4 477 478 559 558
4 478 479 560 559
4 479 480 561 560
4 480 481 562 561
4 481 482 563 562
4 482 483 564 563
4 483 484 565 564
4 484 485 566 565
4 486 487 568 567
4 487 488 569 568
4 488 489 570 569
4 489 490 571 570
4 490 491 572 571
4 491 492 573 572
4 492 493 574 573
4 493 494 575 574
4 494 495 576 575
4 495 496 577 576
4 496 497 578 577
4 497 498 579 578
4 498 499 580 579
4 499 500 581 580
4 500 501 582 581
4 501 502 583 582
4 502 503 584 583
4 503 504 585 584
4 504 505 586 585
4 505 506 587 586
4 506 507 588 587
4 507 508 589 588
4 508 509 590 589
4 509 510 591 590
4 510 511 592 591
4 511 512 593 592
4 512 513 594 593
4 513 514 595 594
4 514 515 596 595
4 515 516 597 596
4 516 517 598 597
4 517 518 599 598
4 518 519 600 599
4 519 520 601 600
4 520 521 602 601
4 521 522 603 602
4 522 523 604 603
4 523 524 605 604
4 524 525 606 605
4 525 526 607 606
4 526 527 608 607
4 527 528 609 608
4 528 529 610 609
4 529 530 611 610
4 530 531 612 611
4 531 532 613 612
4 532 533 614 613
4 533 534 615 614
4 534 535 616 615
4 535 536 617 616
4 536 537 618 617
4 537 538 619 618
4 538 539 620 619
4 539 540 621 620
4 540 541 622 621
4 541 542 623 622
4 542 543 624 623
4 543 544 625 624
4 544 545 626 625
4 545 546 627 626
4 546 547 628 627
4 547 548 629 628
4 548 549 630 629
4 549 550 631 630
4 550 551 632 631
4 551 552 633 632
4 552 553 634 633
4 553 554 635 634
4 554 555 636 635
4 555 556 637 636
4 556 557 638 637
4 557 558 639 638
4 558 559 640 639
4 559 560 641 640
4 560 561 642 641
4 561 562 643 642
4 562 563 644 643
4 563 564 645 644
4 564 565 646 645
4 565 566 647 646
4 567 568 649 648
4 568 569 650 649
4 569 570 651 650
4 570 571 652 651
4 571 572 653 652
4 572 573 654 653
4 573 574 655 654
4 574 575 656 655
4 575 576 657 656
4 576 577 658 657
4 577 578 659 658
4 578 579 660 659
4 579 580 661 660
4 580 581 662 661
4 581 582 663 662
4 582 583 664 663
4 583 584 665 664
4 584 585 666 665
4 585 586 667 666
4 586 587 668 667
4 587 588 669 668
4 588 589 670 669
4 589 590 671 670
4 590 591 672 671
4 591 592 673 672
4 592 593 674 673
4 593 594 675 674
4 594 595 676 675
4 595 596 677 676
4 596 597 678 677
4 597 598 679 678
4 598 599 680 679
4 599 600 681 680
4 600 601 682 681
4 601 602 683 682
4 602 603 684 683
4 603 604 685 684
4 604 605 686 685
4 605 606 687 686
4 606 607 688 687
4 607 608 689 688
4 608 609 690 689
4 609 610 691 690
4 610 611 692 691
4 611 612 693 692
4 612 613 694 693
4 613 614 695 694
4 614 615 696 695
4 615 616 697 696
4 616 617 698 697
4 617 618 699 698
4 618 619 700 699
4 619 620 701 700
4 620 621 702 701
4 621 622 703 702
4 622 623 704 703
4 623 624 705 704
4 624 625 706 705
4 625 626 707 706
4 626 627 708 707
4 627 628 709 708
4 628 629 710 709
4 629 630 711 710
4 630 631 712 711
4 631 632 713 712
4 632 633 714 713
4 633 634 715 714
4 634 635 716 715
4 635 636 717 716
4 636 637 718 717
4 637 638 719 718
4 638 639 720 719
4 639 640 721 720
4 640 641 722 721
4 641 642 723 722
4 642 643 724 723
4 643 644 725 724
4 644 645 726 725
4 645 646 727 726
4 646 647 728 727
4 648 649 730 729
4 649 650 731 730
4 650 651 732 731
4 651 652 733 732
4 652 653 734 733
4 653 654 735 734
4 654 655 736 735
4 655 656 737 736
4 656 657 738 737
4 657 658 739 738
4 658 659 740 739
4 659 660 741 740
4 660 661 742 741
4 661 662 743 742
4 662 663 744 743
4 663 664 745 744
4 664 665 746 745
4 665 666 747 746
4 666 667 748 747
4 667 668 749 748
4 668 669 750 749
4 669 670 751 750
4 670 671 752 751
4 671 672 753 752
4 672 673 754 753
4 673 674 755 754
4 674 675 756 755
4 675 676 757 756
4 676 677 758 757
4 677 678 759 758
4 678 679 760 759
4 679 680 761 760
4 680 681 762 761
4 681 682 763 762
4 682 683 764 763
4 683 684 765 764
4 684 685 766 765
4 685 686 767 766
4 686 687 768 767
4 687 688 769 768
4 688 689 770 769
4 689 690 771 770
4 690 691 772 771
4 691 692 773 772
4 692 693 774 773
4 693 694 775 774
4 694 695 776 775
4 695 696 777 776
4 696 697 778 777
4 697 698 779 778
4 698 699 780 779
4 699 700 781 780
4 700 701 782 781
4 701 702 783 782
4 702 703 784 783
4 703 704 785 784
4 704 705 786 785
4 705 706 787 786
4 706 707 788 787
4 707 708 789 788
4 708 709 790 789
4 709 710 791 790
4 710 711 792 791
4 711 712 793 792
4 712 713 794 793
4 713 714 795 794
4 714 715 796 795
4 715 716 797 796
4 716 717 798 797
4 717 718 799 798
4 718 719 800 799
4 719 720 801 800
4 720 721 802 801
4 721 722 803 802
4 722 723 804 803
4 723 724 805 804
4 724 725 806 805
4 725 726 807 806
4 726 727 808 807
4 727 728 809 808
4 729 730 811 810
4 730 731 812 811
4 731 732 813 812
4 732 733 814 813
4 733 734 815 814
4 734 735 816 815
4 735 736 817 816
4 736 737 818 817
4 737 738 819 818
4 738 739 820 819
4 739 740 821 820
4 740 741 822 821
4 741 742 823 822
4 742 743 824 823
4 743 744 825 824
4 744 745 826 825
4 745 746 827 826
4 746 747 828 827
4 747 748 829 828
4 748 749 830 829
4 749 750 831 830
4 750 751 832 831
4 751 752 833 832
4 752 753 834 833
4 753 754 835 834
4 754 755 836 835
4 755 756 837 836
4 756 757 838 837
4 757 758 839 838
4 758 759 840 839
4 759 760 841 840
4 760 761 842 841
4 761 762 843 842
4 762 763 844 843
4 763 764 845 844
4 764 765 846 845
4 765 766 847 846
4 766 767 848 847
4 767 768 849 848
4 768 769 850 849
4 769 770 851 850
4 770 771 852 851
4 771 772 853 852
4 772 773 854 853
4 773 774 855 854
4 774 775 856 855
4 775 776 857 856
4 776 777 858 857
4 777 778 859 858
4 778 779 860 859
4 779 780 861 860
4 780 781 862 861
4 781 782 863 862
4 782 783 864 863
4 783 784 865 864
4 784 785 866 865
4 785 786 867 866
4 786 787 868 867
4 787 788 869 868
4 788 789 870 869
4 789 790 871 870
4 790 791 872 871
4 791 792 873 872
4 792 793 874 873
4 793 794 875 874
4 794 795 876 875
4 795 796 877 876
4 796 797 878 877
4 797 798 879 878
4 798 799 880 879
4 799 800 881 880
4 800 801 882 881
4 801 802 883 882
4 802 803 884 883
4 803 804 885 884
4 804 805 886 885
4 805 806 887 886
4 806 807 888 887
4 807 808 889 888
4 808 809 890 889
4 810 811 892 891
4 811 812 893 892
4 812 813 894 893
4 813 814 895 894
4 814 815 896 895
4 815 816 897 896
4 816 817 898 897
4 817 818 899 898
4 818 819 900 899
4 819 820 901 900
4 820 821 902 901
4 821 822 903 902
4 822 823 904 903
4 823 824 905 904
4 824 825 906 905
4 825 826 907 906
4 826 827 908 907
4 827 828 909 908
4 828 829 910 909
4 829 830 911 910
4 830 831 912 911
4 831 832 913 912
4 832 833 914 913
4 833 834 915 914
4 834 835 916 915
4 835 836 917 916
4 836 837 918 917
4 837 838 919 918
4 838 839 920 919
4 839 840 921 920
4 840 841 922 921
4 841 842 923 922
4 842 843 924 923
4 843 844 925 924
4 844 845 926 925
4 845 846 927 926
4 846 847 928 927
4 847 848 929 928
4 848 849 930 929
4 849 850 931 930
4 850 851 932 931
4 851 852 933 932
4 852 853 934 933
4 853 854 935 934
4 854 855 936 935
4 855 856 937 936
4 856 857 938 937
4 857 858 939 938
4 858 859 940 939
4 859 860 941 940
4 860 861 942 941
4 861 862 943 942
4 862 863 944 943
4 863 864 945 944
4 864 865 946 945
4 865 866 947 946
4 866 867 948 947
4 867 868 949 948
4 868 869 950 949
4 869 870 951 950
4 870 871 952 951
4 871 872 953 952
4 872 873 954 953
4 873 874 955 954
4 874 875 956 955
4 875 876 957 956
4 876 877 958 957
4 877 878 959 958
4 878 879 960 959
4 879 880 961 960
4 880 881 962 961
4 881 882 963 962
4 882 883 964 963
4 883 884 965 964
4 884 885 966 965
4 885 886 967 966
4 886 887 968 967
4 887 888 969 968
4 888 889 970 969
4 889 890 971 970
4 891 892 973 972
4 892 893 974 973
4 893 894 975 974
4 894 895 976 975
4 895 896 977 976
4 896 897 978 977
4 897 898 979 978
4 898 899 980 979
4 899 900 981 980
4 900 901 982 981
4 901 902 983 982
4 902 903 984 983
4 903 904 985 984
4 904 905 986 985
4 905 906 987 986
4 906 907 988 987
4 907 908 989 988
4 908 909 990 989
4 909 910 991 990
4 910 911 992 991
4 911 912 993 992
4 912 913 994 993
4 913 914 995 994
4 914 915 996 995
4 915 916 997 996
4 916 917 998 997
4 917 918 999 998
4 918 919 1000 999
4 919 920 1001 1000
4 920 921 1002 1001
4 921 922 1003 1002
4 922 923 1004 1003
4 923 924 1005 1004
4 924 925 1006 1005
4 925 926 1007 1006
4 926 927 1008 1007
4 927 928 1009 1008
4 928 929 1010 1009
4 929 930 1011 1010
4 930 931 1012 1011
4 931 932 1013 1012
4 932 933 1014 1013
4 933 934 1015 1014
4 934 935 1016 1015
4 935 936 1017 1016
4 936 937 1018 1017
4 937 938 1019 1018
4 938 939 1020 1019
4 939 940 1021 1020
4 940 941 1022 1021
4 941 942 1023 1022
4 942 943 1024 1023
4 943 944 1025 1024
4 944 945 1026 1025
4 945 946 1027 1026
4 946 947 1028 1027
4 947 948 1029 1028
4 948 949 1030 1029
4 949 950 1031 1030
4 950 951 1032 1031
4 951 952 1033 1032
4 952 953 1034 1033
4 953 954 1035 1034
4 954 955 1036 1035
4 955 956 1037 1036
4 956 957 1038 1037
4 957 958 1039 1038
4 958 959 1040 1039
4 959 960 1041 1040
4 960 961 1042 1041
4 961 962 1043 1042
4 962 963 1044 1043
4 963 964 1045 1044
4 964 965 1046 1045
4 965 966 1047 1046
4 966 967 1048 1047
4 967 968 1049 1048
4 968 969 1050 1049
4 969 970 1051 1050
4 970 971 1052 1051
4 972 973 1054 1053
4 973 974 1055 1054
4 974 975 1056 1055
4 975 976 1057 1056
4 976 977 1058 1057
4 977 978 1059 1058
4 978 979 1060 1059
4 979 980 1061 1060
4 980 981 1062 1061
4 981 982 1063 1062
4 982 983 1064 1063
4 983 984 1065 1064
4 984 985 1066 1065
4 985 986 1067 1066
4 986 987 1068 1067
4 987 988 1069 1068
4 988 989 1070 1069
4 989 990 1071 1070
4 990 991 1072 1071
4 991 992 1073 1072
4 992 993 1074 1073
4 993 994 1075 1074
4 994 995 1076 1075
4 995 996 1077 1076
4 996 997 1078 1077
4 997 998 1079 1078
4 998 999 1080 1079
4 999 1000 1081 1080
4 1000 1001 1082 1081
4 1001 1002 1083 1082
4 1002 1003 1084 1083
4 1003 1004 1085 1084
4 1004 1005 1086 1085
4 1005 1006 1087 1086
4 1006 1007 1088 1087
4 1007 1008 1089 1088
4 1008 1009 1090 1089
4 1009 1010 1091 1090
4 1010 1011 1092 1091
4 1011 1012 1093 1092
4 1012 1013 1094 1093
4 1013 1014 1095 1094
4 1014 1015 1096 1095
4 1015 1016 1097 1096
4 1016 1017 1098 1097
4 1017 1018 1099 1098
4 1018 1019 1100 1099
4 1019 1020 1101 1100
4 1020 1021 1102 1101
4 1021 1022 1103 1102
4 1022 1023 1104 1103
4 1023 1024 1105 1104
4 1024 1025 1106 1105
4 1025 1026 1107 1106
4 1026 1027 1108 1107
4 1027 1028 1109 1108
4 1028 1029 1110 1109
4 1029 1030 1111 1110
4 1030 1031 1112 1111
4 1031 1032 1113 1112
4 1032 1033 1114 1113
4 1033 1034 1115 1114
4 1034 1035 1116 1115
4 1035 1036 1117 1116
4 1036 1037 1118 1117
4 1037 1038 1119 1118
4 1038 1039 1120 1119
4 1039 1040 1121 1120
4 1040 1041 1122 1121
4 1041 1042 1123 1122
4 1042 1043 1124 1123
4 1043 1044 1125 1124
4 1044 1045 1126 1125
4 1045 1046 1127 1126
4 1046 1047 1128 1127
4 1047 1048 1129 1128
4 1048 1049 1130 1129
4 1049 1050 1131 1130
4 1050 1051 1132 1131
4 1051 1052 1133 1132
4 1053 1054 1135 1134
4 1054 1055 1136 1135
4 1055 1056 1137 1136
4 1056 1057 1138 1137
4 1057 1058 1139 1138
4 1058 1059 1140 1139
4 1059 1060 1141 1140
4 1060 1061 1142 1141
4 1061 1062 1143 1142
4 1062 1063 1144 1143
4 1063 1064 1145 1144
4 1064 1065 1146 1145
4 1065 1066 1147 1146
4 1066 1067 1148 1147
4 1067 1068 1149 1148
4 1068 1069 1150 1149
4 1069 1070 1151 1150
4 1070 1071 1152 1151
4 1071 1072 1153 1152
4 1072 1073 1154 1153
4 1073 1074 1155 1154
4 1074 1075 1156 1155
4 1075 1076 1157 1156
4 1076 1077 1158 1157
4 1077 1078 1159 1158
4 1078 1079 1160 1159
4 1079 1080 1161 1160
4 1080 1081 1162 1161
4 1081 1082 1163 1162
4 1082 1083 1164 1163
4 1083 1084 1165 1164
4 1084 1085 1166 1165
4 1085 1086 1167 1166
4 1086 1087 1168 1167
4 1087 1088 1169 1168
4 1088 1089 1170 1169
4 1089 1090 1171 1170
4 1090 1091 1172 1171
4 1091 1092 1173 1172
4 1092 1093 1174 1173
4 1093 1094 1175 1174
4 1094 1095 1176 1175
4 1095 1096 1177 1176
4 1096 1097 1178 1177
4 1097 1098 1179 1178
4 1098 1099 1180 1179
4 1099 1100 1181 1180
4 1100 1101 1182 1181
4 1101 1102 1183 1182
4 1102 1103 1184 1183
4 1103 1104 1185 1184
4 1104 1105 1186 1185
4 1105 1106 1187 1186
4 1106 1107 1188 1187
4 1107 1108 1189 1188
4 1108 1109 1190 1189
4 1109 1110 1191 1190
4 1110 1111 1192 1191
4 1111 1112 1193 1192
4 1112 1113 1194 1193
4 1113 1114 1195 1194
4 1114 1115 1196 1195
4 1115 1116 1197 1196
4 1116 1117 1198 1197
4 1117 1118 1199 1198
4 1118 1119 1200 1199
4 1119 1120 1201 1200
4 1120 1121 1202 1201
4 1121 1122 1203 1202
4 1122 1123 1204 1203
4 1123 1124 1205 1204
4 1124 1125 1206 1205
4 1125 1126 1207 1206
4 1126 1127 1208 1207
4 1127 1128 1209 1208
4 1128 1129 1210 1209
4 1129 1130 1211 1210
4 1130 1131 1212 1211
4 1131 1132 1213 1212
4 1132 1133 1214 1213
4 1134 1135 1216 1215
4 1135 1136 1217 1216
4 1136 1137 1218 1217
4 1137 1138 1219 1218
4 1138 1139 1220 1219
4 1139 1140 1221 1220
4 1140 1141 1222 1221
4 1141 1142 1223 1222
4 1142 1143 1224 1223
4 1143 1144 1225 1224
4 1144 1145 1226 1225
4 1145 1146 1227 1226
4 1146 1147 1228 1227
4 1147 1148 1229 1228
4 1148 1149 1230 1229
4 1149 1150 1231 1230
4 1150 1151 1232 1231
4 1151 1152 1233 1232
4 1152 1153 1234 1233
4 1153 1154 1235 1234
4 1154 1155 1236 1235
4 1155 1156 1237 1236
4 1156 1157 1238 1237
4 1157 1158 1239 1238
4 1158 1159 1240 1239
4 1159 1160 1241 1240
4 1160 1161 1242 1241
4 1161 1162 1243 1242
4 1162 1163 1244 1243
4 1163 1164 1245 1244
4 1164 1165 1246 1245
4 1165 1166 1247 1246
4 1166 1167 1248 1247
4 1167 1168 1249 1248
4 1168 1169 1250 1249
4 1169 1170 1251 1250
4 1170 1171 1252 1251
4 1171 1172 1253 1252
4 1172 1173 1254 1253
4 1173 1174 1255 1254
4 1174 1175 1256 1255
4 1175 1176 1257 1256
4 1176 1177 1258 1257
4 1177 1178 1259 1258
4 1178 1179 1260 1259
4 1179 1180 1261 1260
4 1180 1181 1262 1261
4 1181 1182 1263 1262
4 1182 1183 1264 1263
4 1183 1184 1265 1264
4 1184 1185 1266 1265
4 1185 1186 1267 1266
4 1186 1187 1268 1267
4 1187 1188 1269 1268
4 1188 1189 1270 1269
4 1189 1190 1271 1270
4 1190 1191 1272 1271
4 1191 1192 1273 1272
4 1192 1193 1274 1273
4 1193 1194 1275 1274
4 1194 1195 1276 1275
4 1195 1196 1277 1276
4 1196 1197 1278 1277
4 1197 1198 1279 1278
4 1198 1199 1280 1279
4 1199 1200 1281 1280
4 1200 1201 1282 1281
4 1201 1202 1283 1282
4 1202 1203 1284 1283
4 1203 1204 1285 1284
4 1204 1205 1286 1285
4 1205 1206 1287 1286
4 1206 1207 1288 1287
4 1207 1208 1289 1288
4 1208 1209 1290 1289
4 1209 1210 1291 1290
4 1210 1211 1292 1291
4 1211 1212 1293 1292
4 1212 1213 1294 1293
4 1213 1214 1295 1294
4 1215 1216 1297 1296
4 1216 1217 1298 1297
4 1217 1218 1299 1298
4 1218 1219 1300 1299
4 1219 1220 1301 1300
4 1220 1221 1302 1301
4 1221 1222 1303 1302
4 1222 1223 1304 1303
4 1223 1224 1305 1304
4 1224 1225 1306 1305
4 1225 1226 1307 1306
4 1226 1227 1308 1307
4 1227 1228 1309 1308
4 1228 1229 1310 1309
4 1229 1230 1311 1310
4 1230 1231 1312 1311
4 1231 1232 1313 1312
4 1232 1233 1314 1313
4 1233 1234 1315 1314
4 1234 1235 1316 1315
4 1235 1236 1317 1316
4 1236 1237 1318 1317
4 1237 1238 1319 1318
4 1238 1239 1320 1319
4 1239 1240 1321 1320
4 1240 1241 1322 1321
4 1241 1242 1323 1322
4 1242 1243 1324 1323
4 1243 1244 1325 1324
4 1244 1245 1326 1325
4 1245 1246 1327 1326
4 1246 1247 1328 1327
4 1247 1248 1329 1328
4 1248 1249 1330 1329
4 1249 1250 1331 1330
4 1250 1251 1332 1331
4 1251 1252 1333 1332
4 1252 1253 1334 1333
4 1253 1254 1335 1334
4 1254 1255 1336 1335
4 1255 1256 1337 1336
4 1256 1257 1338 1337
4 1257 1258 1339 1338
4 1258 1259 1340 1339
4 1259 1260 1341 1340
4 1260 1261 1342 1341
4 1261 1262 1343 1342
4 1262 1263 1344 1343
4 1263 1264 1345 1344
4 1264 1265 1346 1345
4 1265 1266 1347 1346
4 1266 1267 1348 1347
4 1267 1268 1349 1348
4 1268 1269 1350 1349
4 1269 1270 1351 1350
4 1270 1271 1352 1351
4 1271 1272 1353 1352
4 1272 1273 1354 1353
4 1273 1274 1355 1354
4 1274 1275 1356 1355
4 1275 1276 1357 1356
4 1276 1277 1358 1357
4 1277 1278 1359 1358
4 1278 1279 1360 1359
4 1279 1280 1361 1360
4 1280 1281 1362 1361
4 1281 1282 1363 1362
4 1282 1283 1364 1363
4 1283 1284 1365 1364
4 1284 1285 1366 1365
4 1285 1286 1367 1366
4 1286 1287 1368 1367
4 1287 1288 1369 1368
4 1288 1289 1370 1369
4 1289 1290 1371 1370
4 1290 1291 1372 1371
4 1291 1292 1373 1372
4 1292 1293 1374 1373
4 1293 1294 1375 1374
4 1294 1295 1376 1375
4 1296 1297 1378 1377
4 1297 1298 1379 1378
4 1298 1299 1380 1379
4 1299 1300 1381 1380
4 1300 1301 1382 1381
4 1301 1302 1383 1382
4 1302 1303 1384 1383
4 1303 1304 1385 1384
4 1304 1305 1386 1385
4 1305 1306 1387 1386
4 1306 1307 1388 1387
4 1307 1308 1389 1388
4 1308 1309 1390 1389
4 1309 1310 1391 1390
4 1310 1311 1392 1391
4 1311 1312 1393 1392
4 1312 1313 1394 1393
4 1313 1314 1395 1394
4 1314 1315 1396 1395
4 1315 1316 1397 1396
4 1316 1317 1398 1397
4 1317 1318 1399 1398
4 1318 1319 1400 1399
4 1319 1320 1401 1400
4 1320 1321 1402 1401
4 1321 1322 1403 1402
4 1322 1323 1404 1403
4 1323 1324 1405 1404
4 1324 1325 1406 1405
4 1325 1326 1407 1406
4 1326 1327 1408 1407
4 1327 1328 1409 1408
4 1328 1329 1410 1409
4 1329 1330 1411 1410
4 1330 1331 1412 1411
4 1331 1332 1413 1412
4 1332 1333 1414 1413
4 1333 1334 1415 1414
4 1334 1335 1416 1415
4 1335 1336 1417 1416
4 1336 1337 1418 1417
4 1337 1338 1419 1418
4 1338 1339 1420 1419
4 1339 1340 1421 1420
4 1340 1341 1422 1421
4 1341 1342 1423 1422
4 1342 1343 1424 1423
4 1343 1344 1425 1424
4 1344 1345 1426 1425
4 1345 1346 1427 1426
4 1346 1347 1428 1427
4 1347 1348 1429 1428
4 1348 1349 1430 1429
4 1349 1350 1431 1430
4 1350 1351 1432 1431
4 1351 1352 1433 1432
4 1352 1353 1434 1433
4 1353 1354 1435 1434
4 1354 1355 1436 1435
4 1355 1356 1437 1436
4 1356 1357 1438 1437
4 1357 1358 1439 1438
4 1358 1359 1440 1439
4 1359 1360 1441 1440
4 1360 1361 1442 1441
4 1361 1362 1443 1442
4 1362 1363 1444 1443
4 1363 1364 1445 1444
4 1364 1365 1446 1445
4 1365 1366 1447 1446
4 1366 1367 1448 1447
4 1367 1368 1449 1448
4 1368 1369 1450 1449
4 1369 1370 1451 1450
4 1370 1371 1452 1451
4 1371 1372 1453 1452
4 1372 1373 1454 1453
4 1373 1374 1455 1454
4 1374 1375 1456 1455
4 1375 1376 1457 1456
4 1377 1378 1459 1458
4 1378 1379 1460 1459
4 1379 1380 1461 1460
4 1380 1381 1462 1461
4 1381 1382 1463 1462
4 1382 1383 1464 1463
4 1383 1384 1465 1464
4 1384 1385 1466 1465
4 1385 1386 1467 1466
4 1386 1387 1468 1467
4 1387 1388 1469 1468
4 1388 1389 1470 1469
4 1389 1390 1471 1470
4 1390 1391 1472 1471
4 1391 1392 1473 1472
4 1392 1393 1474 1473
4 1393 1394 1475 1474
4 1394 1395 1476 1475
4 1395 1396 1477 1476
4 1396 1397 1478 1477
4 1397 1398 1479 1478
4 1398 1399 1480 1479
4 1399 1400 1481 1480
4 1400 1401 1482 1481
4 1401 1402 1483 1482
4 1402 1403 1484 1483
4 1403 1404 1485 1484
4 1404 1405 1486 1485
4 1405 1406 1487 1486
4 1406 1407 1488 1487
4 1407 1408 1489 1488
4 1408 1409 1490 1489
4 1409 1410 1491 1490
4 1410 1411 1492 1491
4 1411 1412 1493 1492
4 1412 1413 1494 1493
4 1413 1414 1495 1494
4 1414 1415 1496 1495
4 1415 1416 1497 1496
4 1416 1417 1498 1497
4 1417 1418 1499 1498
4 1418 1419 1500 1499
4 1419 1420 1501 1500
4 1420 1421 1502 1501
4 1421 1422 1503 1502
4 1422 1423 1504 1503
4 1423 1424 1505 1504
4 1424 1425 1506 1505
4 1425 1426 1507 1506
4 1426 1427 1508 1507
4 1427 1428 1509 1508
4 1428 1429 1510 1509
4 1429 1430 1511 1510
4 1430 1431 1512 1511
4 1431 1432 1513 1512
4 1432 1433 1514 1513
4 1433 1434 1515 1514
4 1434 1435 1516 1515
4 1435 1436 1517 1516
4 1436 1437 1518 1517
4 1437 1438 1519 1518
4 1438 1439 1520 1519
4 1439 1440 1521 1520
4 1440 1441 1522 1521
4 1441 1442 1523 1522
4 1442 1443 1524 1523
4 1443 1444 1525 1524
4 1444 1445 1526 1525
4 1445 1446 1527 1526
4 1446 1447 1528 1527
4 1447 1448 1529 1528
4 1448 1449 1530 1529
4 1449 1450 1531 1530
4 1450 1451 1532 1531
4 1451 1452 1533 1532
4 1452 1453 1534 1533
4 1453 1454 1535 1534
4 1454 1455 1536 1535
4 1455 1456 1537 1536
4 1456 1457 1538 1537
4 1458 1459 1540 1539
4 1459 1460 1541 1540
4 1460 1461 1542 1541
4 1461 1462 1543 1542
4 1462 1463 1544 1543
4 1463 1464 1545 1544
4 1464 1465 1546 1545
4 1465 1466 1547 1546
4 1466 1467 1548 1547
4 1467 1468 1549 1548
4 1468 1469 1550 1549
4 1469 1470 1551 1550
4 1470 1471 1552 1551
4 1471 1472 1553 1552
4 1472 1473 1554 1553
4 1473 1474 1555 1554
4 1474 1475 1556 1555
4 1475 1476 1557 1556
4 1476 1477 1558 1557
4 1477 1478 1559 1558
4 1478 1479 1560 1559
4 1479 1480 1561 1560
4 1480 1481 1562 1561
4 1481 1482 1563 1562
4 1482 1483 1564 1563
4 1483 1484 1565 1564
4 1484 1485 1566 1565
4 1485 1486 1567 1566
4 1486 1487 1568 1567
4 1487 1488 1569 1568
4 1488 1489 1570 1569
4 1489 1490 1571 1570
4 1490 1491 1572 1571
4 1491 1492 1573 1572
4 1492 1493 1574 1573
4 1493 1494 1575 1574
4 1494 1495 1576 1575
4 1495 1496 1577 1576
4 1496 1497 1578 1577
4 1497 1498 1579 1578
4 1498 1499 1580 1579
4 1499 1500 1581 1580
4 1500 1501 1582 1581
4 1501 1502 1583 1582
4 1502 1503 1584 1583
4 1503 1504 1585 1584
4 1504 1505 1586 1585
4 1505 1506 1587 1586
4 1506 1507 1588 1587
4 1507 1508 1589 1588
4 1508 1509 1590 1589
4 1509 1510 1591 1590
4 1510 1511 1592 1591
4 1511 1512 1593 1592
4 1512 1513 1594 1593
4 1513 1514 1595 1594
4 1514 1515 1596 1595
4 1515 1516 1597 1596
4 1516 1517 1598 1597
4 1517 1518 1599 1598
4 1518 1519 1600 1599
4 1519 1520 1601 1600
4 1520 1521 1602 1601
4 1521 1522 1603 1602
4 1522 1523 1604 1603
4 1523 1524 1605 1604
4 1524 1525 1606 1605
4 1525 1526 1607 1606
4 1526 1527 1608 1607
4 1527 1528 1609 1608
4 1528 1529 1610 1609
4 1529 1530 1611 1610
4 1530 1531 1612 1611
4 1531 1532 1613 1612
4 1532 1533 1614 1613
4 1533 1534 1615 1614
4 1534 1535 1616 1615
4 1535 1536 1617 1616
4 1536 1537 1618 1617
4 1537 1538 1619 1618
4 1539 1540 1621 1620
4 1540 1541 1622 1621
4 1541 1542 1623 1622
4 1542 1543 1624 1623
4 1543 1544 1625 1624
4 1544 1545 1626 1625
4 1545 1546 1627 1626
4 1546 1547 1628 1627
4 1547 1548 1629 1628
4 1548 1549 1630 1629
4 1549 1550 1631 1630
4 1550 1551 1632 1631
4 1551 1552 1633 1632
4 1552 1553 1634 1633
4 1553 1554 1635 1634
4 1554 1555 1636 1635
4 1555 1556 1637 1636
4 1556 1557 1638 1637
4 1557 1558 1639 1638
4 1558 1559 1640 1639
4 1559 1560 1641 1640
4 1560 1561 1642 1641
4 1561 1562 1643 1642
4 1562 1563 1644 1643
4 1563 1564 1645 1644
4 1564 1565 1646 1645
4 1565 1566 1647 1646
4 1566 1567 1648 1647
4 1567 1568 1649 1648
4 1568 1569 1650 1649
4 1569 1570 1651 1650
4 1570 1571 1652 1651
4 1571 1572 1653 1652
4 1572 1573 1654 1653
4 1573 1574 1655 1654
4 1574 1575 1656 1655
4 1575 1576 1657 1656
4 1576 1577 1658 1657
4 1577 1578 1659 1658
4 1578 1579 1660 1659
4 1579 1580 1661 1660
4 1580 1581 1662 1661
4 1581 1582 1663 1662
4 1582 1583 1664 1663
4 1583 1584 1665 1664
4 1584 1585 1666 1665
4 1585 1586 1667 1666
4 1586 1587 1668 1667
4 1587 1588 1669 1668
4 1588 1589 1670 1669
4 1589 1590 1671 1670
4 1590 1591 1672 1671
4 1591 1592 1673 1672
4 1592 1593 1674 1673
4 1593 1594 1675 1674
4 1594 1595 1676 1675
4 1595 1596 1677 1676
4 1596 1597 1678 1677
4 1597 1598 1679 1678
4 1598 1599 1680 1679
4 1599 1600 1681 1680
4 1600 1601 1682 1681
4 1601 1602 1683 1682
4 1602 1603 1684 1683
4 1603 1604 1685 1684
4 1604 1605 1686 1685
4 1605 1606 1687 1686
4 1606 1607 1688 1687
4 1607 1608 1689 1688
4 1608 1609 1690 1689
4 1609 1610 1691 1690
4 1610 1611 1692 1691
4 1611 1612 1693 1692
4 1612 1613 1694 1693
4 1613 1614 1695 1694
4 1614 1615 1696 1695
4 1615 1616 1697 1696
4 1616 1617 1698 1697
4 1617 1618 1699 1698
4 1618 1619 1700 1699

CELL_TYPES 1600
9
9
9
9
9
9
9
9
9
9
9
9
9
9
9
9
9
9
9
9
9
9
9
9
9
9
9
9
9
9
9
9
9
9
9
9
9
9
9
9
9
9
9
9
9
9
9
9
9
9
9
9
9
9
9
9
9
9
9
9
9
9
9
9
9
9
9
9
9
9
9
9
9
9
9
9
9
9
9
9
9
9
9
9
9
9
9
9
9
9
9
9
9
9
9
9
9
9
9
9
9
9
9
9
9
9
9
9
9
9
9
9
9
9
9
9
9
9
9
9
9
9
9
9
9
9
9
9
9
9
9
9
9
9
9
9
9
9
9
9
9
9
9
9
9
9
9
9
9
9
9
9
9
9
9
9
9
9
9
9
9
9
9
9
9
9
9
9
9
9
9
9
9
9
9
9
9
9
9
9
9
9
9
9
9
9
9
9
9
9
9
9
9
9
9
9
9
9
9
9
9
9
9
9
9
9
9
9
9
9
9
9
9
9
9
9
9
9
9
9
9
9
9
9
9
9
9
9
9
9
9
9
9
9
9
9
9
9
9
9
9
9
9
9
9
9
9
9
9
9
9
9
9
9
9
9
9
9
9
9
9
9
9
9
9
9
9
9
9
9
9
9
9
9
9
9
9
9
9
9
9
9
9
9
9
9
9
9
9
9
9
9
9
9
9
9
9
9
9
9
9
9
9
9
9
9
9
9
9
9
9
9
9
9
9
9
9
9
9
9
9
9
9
9
9
9
9
9
9
9
9
9
9
9
9
9
9
9
9
9
9
9
9
9
9
9
9
9
9
9
9
9
9
9
9
9
9
9
9
9
9
9
9
9
9
9
9
9
9
9
9
9
9
9
9
9
9
9
9
9
9
9
9
9
9
9
9
9
9
9
9
9
9
9
9
9
9
9
9
9
9
9
9
9
9
9
9
9
9
9
9
9
9
9
9
9
9
9
9
9
9
9
9
9
9
9
9
9
9
9
9
9
9
9
9
9
9
9
9
9
9
9
9
9
9
9
9
9
9
9
9
9
9
9
9
9
9
9
9
9
9
9
9
9
9
9
9
9
9
9
9
9
9
9
9
9
9
9
9
9
9
9
9
9
9
9
9
9
9
9
9
9
9
9
9
9
9
9
9
9
9
9
9
9
9
9
9
9
9
9
9
9
9
9
9
9
9
9
9
9
9
9
9
9
9
9
9
9
9
9
9
9
9
9
9
9
9
9
9
9
9
9
9
9
9
9
9
9
9
9
9
9
9
9
9
9
9
9
9
9
9
9
9
9
9
9
9
9
9
9
9
9
9
9
9
9
9
9
9
9
9
9
9
9
9
9
9
9
9
9
9
9
9
9
9
9
9
9
9
9
9
9
9
9
9
9
9
9
9
9
9
9
9
9
9
9
9
9
9
9
9
9
9
9
9
9
9
9
9
9
9
9
9
9
9
9
9
9
9
9
9
9
9
9
9
9
9
9
9
9
9
9
9
9
9
9
9
9
9
9
9
9
9
9
9
9
9
9
9
9
9
9
9
9
9
9
9
9
9
9
9
9
9
9
9
9
9
9
9
9
9
9
9
9
9
9
9
9
9
9
9
9
9
9
9
9
9
9
9
9
9
9
9
9
9
9
9
9
9
9
9
9
9
9
9
9
9
9
9
9
9
9
9
9
9
9
9
9
9
9
9
9
9
9
9
9
9
9
9
9
9
9
9
9
9
9
9
9
9
9
9
9
9
9
9
9
9
9
9
9
9
9
9
9
9
9
9
9
9
9
9
9
9
9
9
9
9
9
9
9
9
9
9
9
9
9
9
9
9
9
9
9
9
9
9
9
9
9
9
9
9
9
9
9
9
9
9
9
9
9
9
9
9
9
9
9
9
9
9
9
9
9
9
9
9
9
9
9
9
9
9
9
9
9
9
9
9
9
9
9
9
9
9
9
9
9
9
9
9
9
9
9
9
9
9
9
9
9
9
9
9
9
9
9
9
9
9
9
9
9
9
9
9
9
9
9
9
9
9
9
9
9
9
9
9
9
9
9
9
9
9
9
9
9
9
9
9
9
9
9
9
9
9
9
9
9
9
9
9
9
9
9
9
9
9
9
9
9
9
9
9
9
9
9
9
9
9
9
9
9
9
9
9
9
9
9
9
9
9
9
9
9
9
9
9
9
9
9
9
9
9
9
9
9
9
9
9
9
9
9
9
9
9
9
9
9
9
9
9
9
9
9
9
9
9
9
9
9
9
9
9
9
9
9
9
9
9
9
9
9
9
9
9
9
9
9
9
9
9
9
9
9
9
9
9
9
9
9
9
9
9
9
9
9
9
9
9
9
9
9
9
9
9
9
9
9
9
9
9
9
9
9
9
9
9
9
9
9
9
9
9
9
9
9
9
9
9
9
9
9
9
9
9
9
9
9
9
9
9
9
9
9
9
9
9
9
9
9
9
9
9
9
9
9
9
9
9
9
9
9
9
9
9
9
9
9
9
9
9
9
9
9
9
9
9
9
9
9
9
9
9
9
9
9
9
9
9
9
9
9
9
9
9
9
9
9
9
9
9
9
9
9
9
9
9
9
9
9
9
9
9
9
9
9
9
9
9
9
9
9
9
9
9
9
9
9
9
9
9
9
9
9
9
9
9
9
9
9
9
9
9
9
9
9
9
9
9
9
9
9
9
9
9
9
9
9
9
9
9
9
9
9
9
9
9
9
9
9
9
9
9
9
9
9
9
9
9
9
9
9
9
9
9
9
9
9
9
9
9
9
9
9
9
9
9
9
9
9
9
9
9
9
9
9
9
9
9
9
9
9
9
9
9
9
9
9
9
9
9
9
9
9
9
9
9
9
9
9
9
9
9
9
9
9
9
9
9
9
9
9
9
9
9
9
9
9
9
9
9
9
9
9
9
9
9
9
9
9
9
9
9
9
9
9
9
9
9
9
9
9
9
9
9
9
9
9
9
9
9
9
9
9
9
9
9
9
9
9
9
9
9
9
9
9
9
9
9
9
9
9
9
9
9
9
9
9
9
9
9
9
9
9
9
9
9
9
9
9
9
9
9
9
9
9
9
9
9
9
9
9
9
9
9
9
9
9
9
9
9
9
9
9
9
9
9
9
9
9
9
9
9
9
9
9
9
9
9
9
9
9
9
9
9
9
9
9
9
9
9
9
9
9
9
9
9
9
9
9
9
9
9
9
9
9
9
9
9
9
9
9
9
9
9
9
9
9
9
9
9
9
9
9
9
9
9
9
9
9
9
9
9
9
9
9
9
9
9
9
9
9
9
9
9
9
9
9
9
9
9
9
9
9
9
9
9
9
9
9
9
9
9
9
9
9
9
9
9
9
9
9
9
9
9
9
9
9
9
9
9
9
9
9
9
9
9
9
9
9
9
9
9
9
9
9
9
9
9
9
9
9
9
9
9
9
9
9
9
9
9
9
9
9
9
9
9
9
9
9
9
9
9
9
9
9
9
9
9
9
9
9
9
9
9
9
9
9
9
9
9
9
9
9
9
9
9
9
9
9
9
9
9
9
9
9
9
9
9
9
9
9
9
9
9
9
9
9
9
9
9
9
9
9
9
9
9
9
9
9
9
9
9
9
9
9
9
9
9
9
9
9

POINT_DATA 1701

FIELD FieldData 1
DISPLACEMENT 3 1701 float
0.0 0.0 0.0
0.03592966745022865 0.02613278992428308 0.0
0.06298504007930922 0.040881069518352006 0.0
0.08721406026722903 0.051976715142406205 0.0
0.1105038672013593 0.06016573577997809 0.0
0.1334450214191971 0.06636949909875675 0.0
0.156322668727991 0.07107307351863335 0.0
0.1792795444726374 0.07462874561839732 0.0
0.20239097293322483 0.07729371851278609 0.0
0.2256933080397374 0.07926591264382297 0.0
0.2491995047229703 0.080700409907129 0.0
0.27290800933191617 0.08172014026424174 0.0
0.2968083891110446 0.08242289090326202 0.0
0.32088505043665 0.08288635810931834 0.0
0.3451197650477247 0.08317198130809036 0.0
0.3694933947089236 0.08332798139829428 0.0
0.39398705222655683 0.08339183462298543 0.0
0.4185828549453673 0.08339231862323135 0.0
0.44326438069887913 0.08335121590881218 0.0
0.46801690746277325 0.08328473259541916 0.0
0.4928274984487562 0.08320467537013083 0.0
0.5176849800473011 0.08311942130832704 0.0
0.5425798489353981 0.08303471010907944 0.0
0.5675041358345013 0.08295428482108078 0.0
0.5924512463123129 0.0828804043254769 0.0
0.6174157933511848 0.08281424832205432 0.0
0.6423934319261152 0.0827562331745394 0.0
0.6673807023572674 0.08270625467396492 0.0
0.6923748865584591 0.08266387159252576 0.0
0.7173738793441117 0.08262844185539722 0.0
0.7423760755493368 0.08259922128346281 0.0
0.767380272744846 0.08257543317513652 0.0
0.7923855886912735 0.08255631550888924 0.0
0.817391392293832 0.08254115125845421 0.0
0.842397246620871 0.08252928621128984 0.0
0.8674028624853084 0.0825201377537983 0.0
0.8924080611142274 0.08251319731714976 0.0
0.9174127445171475 0.08250802854700108 0.0
0.9424168722836652 0.08250426275046704 0.0
0.9674204436788382 0.08250159276671684 0.0
0.9924234840475338 0.08249976608706744 0.0
1.0174260346786357 0.08249857780166292 0.0
1.0424281454110609 0.0824978637596796 0.0
1.0674298693829387 0.08249749418718251 0.0
1.0924312594314747 0.0824973679016675 0.0
1.1174323657435463 0.08249740718687186 0.0
1.1424332344364367 0.0824975533389321 0.0
1.1674339068150577 0.08249776286002142 0.0
1.1924344191077378 0.08249800425372238 0.0
1.217434802528449 0.08249825536418304 0.0
1.242435083550432 0.08249850119576642 0.0
1.2674352843059031 0.08249873214934157 0.0
1.292435423049963 0.08249894261396058 0.0
1.3174355146451353 0.08249912985720743 0.0
1.3424355710369449 0.08249929316312869 0.0
1.3674356017015408 0.08249943317271329 0.0
1.392435614054195 0.0824995513879512 0.0
1.4174356138131605 0.08249964980631186 0.0
1.4424356053173275 0.08249973065779782 0.0
1.4674355917988229 0.08249979622156067 0.0
1.4924355756133663 0.08249984870326045 0.0
1.5174355584322214 0.0824998901580067 0.0
1.5424355414000237 0.08249992244681559 0.0
1.5674355252628795 0.08249994721710602 0.0
1.5924355104710182 0.08249996589990845 0.0
1.6174354972599698 0.08249997971819839 0.0
1.6424354857138634 0.08249998970218642 0.0
1.667435475814051 0.08249999670850312 0.0
1.6924354674758086 0.08250000144109618 0.0
1.717435460575469 0.08250000447234472 0.0
1.7424354549699395 0.08250000626337674 0.0
1.7674354505102086 0.08250000718298096 0.0
1.7924354470500914 0.08250000752473431 0.0
1.8174354444511955 0.08250000752211359 0.0
1.8424354425847482 0.0825000073613965 0.0
1.8674354413307244 0.08250000719202022 0.0
1.8924354405744197 0.0825000071336677 0.0
1.917435440200634 0.08250000727843956 0.0
1.942435440086306 0.08250000768442117 0.0
1.9674354400969085 0.08250000835208568 0.0
1.9924354401135305 0.08250000917383701 0.0
0.0 0.0 0.0
0.025291719125241547 0.017087630334380845 0.0
0.05289983500433826 0.032841082027720576 0.0
0.07894423247054572 0.044025849539689695 0.0
0.10389716385905089 0.05238856689555348 0.0
0.12822035072629465 0.05865516637866532 0.0
0.15222061367164474 0.06337265260881701 0.0
0.17608497165939646 0.06690850380930018 0.0
0.19992708274493917 0.06953486399685237 0.0
0.2238149550944008 0.07145856864435411 0.0
0.2477874297945757 0.07284069414344586 0.0
0.27186434215779637 0.07380803924329356 0.0
0.2960530760921615 0.07446084297219505 0.0
0.3203529527472842 0.07487826302978189 0.0
0.34475824287432655 0.07512250961106191 0.0
0.3692602604581034 0.07524209529110078 0.0
0.3938488181914623 0.07527446295806084 0.0
0.41851322723971673 0.07524814503145852 0.0
0.44324296632461946 0.07518455005280802 0.0
0.468028109574776 0.07509944181799472 0.0
0.4928595791289351 0.07500415933931666 0.0
0.5177292720798949 0.07490661631709038 0.0
0.5426300993131781 0.07481211287308985 0.0
0.5675559646525142 0.07472398815108627 0.0
0.5925017056336901 0.07464413906734035 0.0
0.6174630116801417 0.07457342755105194 0.0
0.6424363311125122 0.07451199587404601 0.0
0.6674187750496383 0.07445950708312538 0.0
0.6924080236644228 0.07441532512558567 0.0
0.717402238294365 0.07437864702276437 0.0
0.7423999814482197 0.07434859742062157 0.0
0.7674001456929208 0.07432429404356042 0.0
0.7924018916613202 0.07430489100083584 0.0
0.8174045949194049 0.0742896055376899 0.0
0.8424078011126902 0.07427773267259295 0.0
0.8674111886279701 0.0742686511999424 0.0
0.8924145379209681 0.074261823744113 0.0
0.9174177066432778 0.0742567929048642 0.0
0.942420609730727 0.07425317501516653 0.0
0.9674232036729538 0.0742506526210739 0.0
0.9924254742579848 0.07424896647155076 0.0
1.0174274271669148 0.07424790755833675 0.0
1.04242908087619 0.07424730955812035 0.0
1.0674304614042285 0.07424704188962541 0.0
1.0924315985126536 0.0742470034966566 0.0
1.1174325230387834 0.07424711739630142 0.0
1.1424332650945732 0.0742473259825055 0.0
1.1674338529179555 0.07424758704354192 0.0
1.1924343122057905 0.07424787043299406 0.0
1.2174346657939352 0.07424815532429017 0.0
1.2424349335800406 0.07424842797576127 0.0
1.2674351326092668 0.07424867993459247 0.0
1.2924352772629781 0.07424890661226638 0.0
1.317435379506282 0.07424910617000344 0.0
1.3424354491627009 0.07424927865945288 0.0
1.367435494193915 0.07424942537083043 0.0
1.3924355209698438 0.07424954834750108 0.0
1.417435534519855 0.07424965003236864 0.0
1.4424355387599246 0.07424973301720475 0.0
1.4674355366934595 0.07424979987120285 0.0
1.4924355305855301 0.07424985302950342 0.0
1.5174355221115428 0.07424989472627579 0.0
1.5424355124822393 0.07424992696017121 0.0
1.5674355025473645 0.07424995148264549 0.0
1.5924354928805031 0.0742499698018666 0.0
1.6174354838476217 0.07424998319669385 0.0
1.642435475661717 0.0742499927366655 0.0
1.667435468425805 0.07424999930503574 0.0
1.6924354621662185 0.07425000362280623 0.0
1.7174354568579764 0.07425000627234964 0.0
1.7424354524437071 0.07425000771972885 0.0
1.7674354488473867 0.07425000833518985 0.0
1.7924354459839278 0.07425000841153939 0.0
1.8174354437654594 0.07425000818025256 0.0
1.8424354421049742 0.07425000782519013 0.0
1.8674354409179201 0.07425000749364667 0.0
1.8924354401223027 0.07425000730406324 0.0
1.9174354396380513 0.07425000734882593 0.0
1.9424354393867997 0.0742500076886338 0.0
1.9674354392923157 0.07425000833194247 0.0
1.992435439271343 0.07425000919029198 0.0
0.0 0.0 0.0
0.023203137539975716 0.012975844990883436 0.0
0.047938994198287774 0.025746408090859544 0.0
0.07348700038975041 0.03640991659154759 0.0
0.0987940349460494 0.04458677508087293 0.0
0.12375194034734117 0.05080912004772618 0.0
0.14843364545046533 0.055502897331303605 0.0
0.1729401325992968 0.05901561967737724 0.0
0.19735468962000718 0.061613784115734746 0.0
0.22173784454887516 0.06350518501268579 0.0
0.24613055845358134 0.06485291712495357 0.0
0.2705587959669948 0.06578573671624467 0.0
0.2950375586195473 0.06640537965359287 0.0
0.31957408240005974 0.06679201342999698 0.0
0.34417026941790646 0.06700843960514836 0.0
0.36882449877475215 0.06710343775503116 0.0
0.3935329538044271 0.06711448237338932 0.0
0.4182905786471096 0.06706997707005544 0.0
0.44309175333684364 0.06699110041470943 0.0
0.4679307568898159 0.06689332985085526 0.0
0.49280207230431544 0.06678769418974936 0.0
0.5177005751844197 0.0666817957456651 0.0
0.5426216381351865 0.06658063705841939 0.0
0.5675611755557144 0.06648728268911488 0.0
0.5925156475323858 0.06640338291533891 0.0
0.6174820368732628 0.0663295828938372 0.0
0.6424578096702369 0.06626583784299073 0.0
0.6674408669282618 0.06621165198182832 0.0
0.6924294926015029 0.06616625635291756 0.0
0.71742230169561 0.06612873827290189 0.0
0.7424181908284057 0.06609813301337782 0.0
0.7674162927019256 0.06607348642387975 0.0
0.7924159352564268 0.0660538955656516 0.0
0.8174166057941912 0.06603853301886677 0.0
0.8424179200311169 0.06602665934003646 0.0
0.8674195958196946 0.06601762715972119 0.0
0.892421431158207 0.06601087960061891 0.0
0.9174232860343897 0.06600594503965225 0.0
0.9424250676290061 0.06600242971259578 0.0
0.9674267184118991 0.06600000924537099 0.0
0.9924282066893848 0.06599841987367593 0.0
1.0174295191996516 0.06599744986550907 0.0
1.0424306553963065 0.06599693147500811 0.0
1.0674316231054832 0.06599673361856279 0.0
1.0924324352862433 0.06599675536504623 0.0
1.1174331076656279 0.0659969202626712 0.0
1.1424336570576707 0.0659971714784126 0.0
1.167434100209439 0.06599746769648702 0.0
1.1924344530466098 0.06599777970551676 0.0
1.2174347302163595 0.0659980875962261 0.0
1.2424349448466354 0.06599837849001204 0.0
1.2674351084586624 0.06599864472145829 0.0
1.2924352309840954 0.06599888240321952 0.0
1.3174353208500733 0.06599909030853231 0.0
1.342435385104906 0.06599926901412108 0.0
1.3674354295646003 0.06599942025382473 0.0
1.392435458966256 0.06599954644056505 0.0
1.417435477118876 0.06599965032101905 0.0
1.4424354870454432 0.06599973473344277 0.0
1.4674354911127125 0.06599980244445472 0.0
1.4924354911468785 0.065999856045244 0.0
1.5174354885346215 0.06599989789161412 0.0
1.542435484309869 0.0659999300756028 0.0
1.5674354792271348 0.06599995441916205 0.0
1.5924354738226554 0.06599997248264736 0.0
1.6174354684646608 0.06599998558265253 0.0
1.6424354633941907 0.06599999481519822 0.0
1.6674354587577784 0.06600000108139419 0.0
1.6924354546332792 0.06600000511359662 0.0
1.7174354510499767 0.0660000075007285 0.0
1.742435448003971 0.06600000871194152 0.0
1.7674354454697347 0.0660000091181508 0.0
1.7924354434085856 0.06600000901121722 0.0
1.817435441774725 0.0660000086206651 0.0
1.842435440519405 0.066000008127869 0.0
1.8674354395937238 0.06600000767750759 0.0
1.892435438950453 0.06600000738579585 0.0
1.9174354385450572 0.0660000073444625 0.0
1.9424354383349298 0.06600000761893855 0.0
1.9674354382722001 0.06600000824032114 0.0
1.9924354382769935 0.06600000919881012 0.0
0.0 0.0 0.0
0.022201646919984268 0.010339542465080774 0.0
0.045764586374446393 0.020611786083674394 0.0
0.07028516001345465 0.02976290874327815 0.0
0.09525591927107703 0.03727727359003706 0.0
0.12028628529965857 0.043167220443796325 0.0
0.14524901510956081 0.047685526285464935 0.0
0.17012268269842243 0.05109284642773923 0.0
0.19492491709654944 0.05362030713784147 0.0
0.21968201651493885 0.05545951824774481 0.0
0.24441809428605907 0.05676624808450129 0.0
0.2691518629143053 0.05766573710723218 0.0
0.2938964314939347 0.05825791485459094 0.0
0.31866013037436375 0.058621892084336845 0.0
0.3434475737360387 0.05881974161970433 0.0
0.3682606561748143 0.05889966054777265 0.0
0.39309938465233046 0.0588986148568369 0.0
0.4179625311351603 0.05884454894274675 0.0
0.44284812349865266 0.05875822574866263 0.0
0.467753802134003 0.058654751013699845 0.0
0.49267707015675694 0.05854482672990872 0.0
0.5176154619613582 0.0584357729866274 0.0
0.542566650679422 0.05833235283187045 0.0
0.5675285109836294 0.0582374309308355 0.0
0.5924991500569873 0.058152493306514154 0.0
0.6174769165306858 0.058078052162908046 0.0
0.6424603947607075 0.05801395668270351 0.0
0.6674483898913406 0.05795962777289483 0.0
0.6924399076582648 0.05791423203294287 0.0
0.7174341317348735 0.05787680776696264 0.0
0.7424304005532618 0.057846353670387596 0.0
0.7674281848775121 0.057821888897025615 0.0
0.7924270669241231 0.05780249154836296 0.0
0.8174267214741744 0.057787321209205406 0.0
0.842426899173513 0.05777562996252696 0.0
0.8674274120464797 0.05776676532876325 0.0
0.8924281211362171 0.057760167766478555 0.0
0.9174289261152118 0.057755364718216816 0.0
0.9424297566717379 0.05775196266442873 0.0
0.9674305654620359 0.05774963823841425 0.0
0.9924313224175332 0.057748129137179256 0.0
1.017432010205863 0.057747225320172964 0.0
1.0424326206600014 0.057746760805530956 0.0
1.0674331520086917 0.057746606239366234 0.0
1.0924336067614395 0.05774666231746874 0.0
1.1174339901213954 0.057746854071948656 0.0
1.142434308818427 0.0577471259909028 0.0
1.1674345702722189 0.057747437911480556 0.0
1.1924347820108565 0.05774776161130537 0.0
1.2174349512841198 0.05774807801657558 0.0
1.24243508482255 0.05774837494459226 0.0
1.267435188703391 0.057748645301914495 0.0
1.2924352682929188 0.057748885665265454 0.0
1.3174353282415865 0.05774909517957135 0.0
1.342435372514071 0.057749274715345016 0.0
1.3674354044408406 0.05774942623543721 0.0
1.3924354267814532 0.05774955232862356 0.0
1.4174354417926132 0.05774965587437495 0.0
1.442435451296204 0.05774973980930499 0.0
1.4674354567441361 0.05774980697121524 0.0
1.4924354592781057 0.05774986000132872 0.0
1.517435459783229 0.057749901289270815 0.0
1.5424354589351679 0.057749932948679444 0.0
1.5674354572408071 0.057749956814072655 0.0
1.5924354550727846 0.0577499744518444 0.0
1.6174354526984052 0.057749987180045086 0.0
1.6424354503035115 0.05774999609305331 0.0
1.6674354480119324 0.057750002088350495 0.0
1.6924354459011364 0.05775000589348597 0.0
1.717435444014651 0.05775000809197021 0.0
1.7424354423718031 0.05775000914731682 0.0
1.7674354409752537 0.057750009424811295 0.0
1.7924354398167748 0.0577500092108109 0.0
1.817435438881653 0.05775000872951121 0.0
1.842435438152043 0.05775000815717916 0.0
1.8674354376095117 0.05775000763380719 0.0
1.892435437236784 0.057750007272094464 0.0
1.9174354370181383 0.057750007163734844 0.0
1.9424354369365864 0.0577500073838528 0.0
1.9674354369637903 0.05775000799757925 0.0
1.9924354370374133 0.057750009080511644 0.0
0.0 0.0 0.0
0.021719180254961196 0.008311067203066886 0.0
0.04458799438643107 0.01656617396813694 0.0
0.06842795654456854 0.024150919348185976 0.0
0.09291562361504513 0.030649821941701468 0.0
0.11775242703962428 0.035937472783155296 0.0
0.1427346689221585 0.04008913629409956 0.0
0.16776047857755833 0.043266838618050536 0.0
0.19278583656388257 0.0456447932104434 0.0
0.21779607962013045 0.047383580700524584 0.0
0.24278958269353368 0.04862137738769472 0.0
0.26776965735214625 0.04947310251551018 0.0
0.2927407971279132 0.050032296972750634 0.0
0.31770712038963006 0.0503738900984245 0.0
0.34267185692066227 0.050557066436826496 0.0
0.3676372978487247 0.05062793844251545 0.0
0.3926049256225806 0.05062192082230607 0.0
0.4175755924426659 0.05056578389218487 0.0
0.4425496908151078 0.050479397331876084 0.0
0.46752729608539295 0.050377189999130066 0.0
0.49250827725947627 0.05026935679289036 0.0
0.5174923791510888 0.05016284465475149 0.0
0.5424792810217276 0.0500621487664432 0.0
0.5674686369759796 0.04996994786413707 0.0
0.5924601026922544 0.04988760489851319 0.0
0.617453352187702 0.04981555634757458 0.0
0.6424480874807533 0.049753610541523795 0.0
0.6674440433099992 0.04970117251746368 0.0
0.6924409885070252 0.04965741026963347 0.0
0.7174387251882202 0.04962137484724134 0.0
0.7424370866032813 0.04959208460047781 0.0
0.7674359342334518 0.04956858199156777 0.0
0.7924351545510591 0.0495499697644713 0.0
0.8174346557183709 0.04953543188826803 0.0
0.8424343644062878 0.049524243534263525 0.0
0.8674342228429599 0.04951577339163834 0.0
0.8924341861522782 0.04950948084639602 0.0
0.9174342200072111 0.049504909919291816 0.0
0.9424342985992634 0.04950168135756081 0.0
0.9674344029099545 0.04949948388177719 0.0
0.9924345192608924 0.04949806528438788 0.0
1.0174346381140955 0.04949722384407811 0.0
1.0424347530922682 0.04949680034600511 0.0
1.067434860188965 0.04949667087018464 0.0
1.0924349571400551 0.04949674041890485 0.0
1.1174350429302407 0.049496937390753074 0.0
1.1424351174111567 0.04949720886693156 0.0
1.1674351810104202 0.049497516649626046 0.0
1.1924352345139022 0.049497833977970876 0.0
1.2174352789061718 0.04949814284128279 0.0
1.242435315256529 0.04949843180910031 0.0
1.2674353446402598 0.04949869430121909 0.0
1.2924353680866636 0.04949892722687732 0.0
1.317435386547076 0.049499129929446856 0.0
1.3424354008774895 0.049499303380661094 0.0
1.3674354118315837 0.04949944957606925 0.0
1.3924354200608844 0.049499571090646295 0.0
1.4174354261196287 0.04949967076017779 0.0
1.442435430472462 0.049499751460000165 0.0
1.4674354335036572 0.04949981595793423 0.0
1.4924354355269 0.04949986682275193 0.0
1.5174354367949892 0.04949990637336427 0.0
1.542435437509032 0.04949993665711079 0.0
1.567435437826878 0.0494999594481731 0.0
1.592435437870675 0.0494999762593062 0.0
1.6174354377334763 0.04949998836178073 0.0
1.6424354374849477 0.04949999680983075 0.0
1.6674354371762055 0.049500002466956704 0.0
1.6924354368438748 0.049500006032274 0.0
1.717435436513468 0.049500008065707875 0.0
1.7424354362021888 0.04950000901131574 0.0
1.7674354359212563 0.0495000092183433 0.0
1.7924354356778884 0.049500008959844626 0.0
1.8174354354770115 0.04950000844886195 0.0
1.8424354353227586 0.04950000785224052 0.0
1.8674354352197189 0.04950000730225342 0.0
1.8924354351736274 0.04950000690638314 0.0
1.91743543519073 0.04950000675612233 0.0
1.9424354352743638 0.049500006936971555 0.0
1.967435435416918 0.04950000754451542 0.0
1.9924354355867857 0.04950000871545866 0.0
0.0 0.0 0.0
0.02144756999451708 0.00661243581274012 0.0
0.043911898880006364 0.013166371712793796 0.0
0.06728771795213538 0.01928371999335999 0.0
0.09137683862632366 0.024667736713533787 0.0
0.11595445329543104 0.02917387126991535 0.0
0.1408316656845895 0.03279718585391161 0.0
0.16587535085514135 0.03561857182941897 0.0
0.1910029313707651 0.03775546898308334 0.0
0.21616614433403458 0.03933071348902541 0.0
0.24133798379855115 0.040458029908991826 0.0
0.2665039424475514 0.04123623630203897 0.0
0.2916567045253088 0.04174799886021933 0.0
0.31679305141193886 0.042060677370277404 0.0
0.34191208714466653 0.04222804507096715 0.0
0.36701421975709947 0.04229226869727065 0.0
0.3921005689987188 0.04228585351667299 0.0
0.41717261481572526 0.04223341892180473 0.0
0.4422319840960302 0.04215325299466383 0.0
0.46728031933974 0.04205863663940312 0.0
0.49231919793947687 0.04195894884200323 0.0
0.5173500841284085 0.04186057424135892 0.0
0.5423743027933198 0.04176763773281843 0.0
0.5673930282293567 0.04168259110461334 0.0
0.5924072831151044 0.04160667529580196 0.0
0.6174179443288804 0.041540279639884034 0.0
0.6424257531196184 0.04148321691848676 0.0
0.6674313277887646 0.04143493047559011 0.0
0.6924351775294868 0.04139464719050411 0.0
0.7174377164530896 0.041361487859138305 0.0
0.7424392771343775 0.04133454452547344 0.0
0.7674401232429287 0.04131293254909637 0.0
0.7924404610070002 0.04129582368440303 0.0
0.8174404493904548 0.041282465167255075 0.0
0.842440208959213 0.04127218873481021 0.0
0.867439829479743 0.041264412620880694 0.0
0.8924393763346122 0.041258638848884754 0.0
0.9174388958648562 0.04125444756432938 0.0
0.9424384197604505 0.04125148968738156 0.0
0.9674379686224003 0.041249478803934016 0.0
0.9924375548158109 0.04124818293329944 0.0
1.017437184725137 0.04124741659711986 0.0
1.0424368605123147 0.0412470334541988 0.0
1.0674365814669406 0.04124691964874979 0.0
1.092436345025973 0.041246987935757685 0.0
1.117436147529138 0.041247172589193165 0.0
1.142435984765771 0.041247425060506465 0.0
1.1674358523593562 0.041247710331190963 0.0
1.192435746027657 0.04124800389029117 0.0
1.2174356617491138 0.0412482892624753 0.0
1.2424355958599735 0.04124855601228 0.0
1.267435545101444 0.0412487981535901 0.0
1.2924355066318438 0.04124901289897502 0.0
1.317435478015222 0.041249199690185936 0.0
1.3424354571950416 0.041249359458230175 0.0
1.3674354424592963 0.041249494068504505 0.0
1.3924354324016073 0.04124960591317275 0.0
1.4174354258815025 0.04124969761912667 0.0
1.442435421985984 0.041249771845387175 0.0
1.4674354199937438 0.041249831148627035 0.0
1.4924354193427651 0.04124987789966206 0.0
1.5174354196016553 0.04124991423729186 0.0
1.5424354204447597 0.041249942048807886 0.0
1.5674354216309203 0.04124996296892864 0.0
1.5924354229855968 0.0412499783909065 0.0
1.6174354243860576 0.041249989485121596 0.0
1.6424354257492504 0.041249997221761536 0.0
1.66743542702203 0.04125000239516042 0.0
1.6924354281733984 0.041250005648132 0.0
1.7174354291884506 0.041250007495204404 0.0
1.7424354300637526 0.041250008344099275 0.0
1.7674354308039408 0.04125000851510014 0.0
1.792435431419331 0.041250008258173404 0.0
1.8174354319243482 0.04125000776788438 0.0
1.8424354323365981 0.04125000719627141 0.0
1.867435432676309 0.041250006664027866 0.0
1.89243543296574 0.04125000627065535 0.0
1.9174354332279373 0.04125000610487084 0.0
1.9424354334841343 0.04125000625766629 0.0
1.9674354337495747 0.041250006842033206 0.0
1.9924354340292023 0.0412500080247766 0.0
0.0 0.0 0.0
0.0212875487276158 0.005112964352784341 0.0
0.04349961299134359 0.010171095822966813 0.0
0.06656747485534951 0.014933275580425141 0.0
0.09035647820279004 0.019195199716865625 0.0
0.11470024792655803 0.022834687637717933 0.0
0.13943701975823164 0.025818019836093418 0.0
0.16443291317171996 0.028178847611888335 0.0
0.18958790113091925 0.029989248965190413 0.0
0.2148320784813506 0.031336217150624096 0.0
0.24011847552814988 0.032306746197214894 0.0
0.2654164885935932 0.03298012544091427 0.0
0.29070683892592997 0.03342473113340365 0.0
0.31597798746959943 0.03369738494773607 0.0
0.3412236489169317 0.033844026492730155 0.0
0.36644107380990776 0.03390097355108202 0.0
0.3916298533475745 0.033896366717508744 0.0
0.4167910808783565 0.03385158777395783 0.0
0.441926760846582 0.03378255092110895 0.0
0.4670393930802637 0.03370082704872309 0.0
0.4921316836885651 0.03361459397663677 0.0
0.5172063485417602 0.033529422219913445 0.0
0.5422659847706724 0.033448913398789915 0.0
0.5673129920666317 0.033375211005681665 0.0
0.5923495300252667 0.033309403186857545 0.0
0.6173775010612026 0.033251835814709675 0.0
0.6423985509225423 0.03320235215698624 0.0
0.6674140807819794 0.03316047329975029 0.0
0.6924252664130232 0.033125531370332875 0.0
0.7174330811648999 0.03309676564713946 0.0
0.7424383203920659 0.03307338988597809 0.0
0.7674416257232982 0.03305463765428339 0.0
0.7924435081110688 0.03303979114262059 0.0
0.8174443690178962 0.0330281978040422 0.0
0.8424445194008632 0.03301927823774028 0.0
0.8674441963721825 0.03301252796327777 0.0
0.8924435775623657 0.033007515104372435 0.0
0.9174427933093685 0.03300387549640361 0.0
0.9424419368552153 0.03300130633059081 0.0
0.967441072761527 0.03299955913301672 0.0
0.9924402437652882 0.03299843263313747 0.0
1.017439476292503 0.032997765890908755 0.0
1.0424387848348708 0.03299743191277744 0.0
1.0674381753769266 0.03299733188497237 0.0
1.0924376480407418 0.032997390079734394 0.0
1.1174371990942307 0.032997549439765725 0.0
1.1424368224484398 0.03299776781288213 0.0
1.1674365107498736 0.03299801478828905 0.0
1.1924362561562682 0.03299826907466349 0.0
1.217436050868551 0.032998516355624855 0.0
1.242435887478035 0.03299874755814479 0.0
1.267435759176226 0.032998957472416254 0.0
1.292435659864676 0.03299914366651425 0.0
1.3174355841941432 0.03299930564495302 0.0
1.3424355275555082 0.03299944420642149 0.0
1.3674354860394469 0.03299956096208019 0.0
1.3924354563774755 0.03299965798162697 0.0
1.4174354358734793 0.03299973753967261 0.0
1.4424354223321951 0.03299980193973841 0.0
1.467435413989004 0.032999853397388444 0.0
1.492435409443837 0.03299989396760983 0.0
1.5174354076008627 0.03299992550462222 0.0
1.5424354076147666 0.03299994964484812 0.0
1.5674354088438383 0.032999967805893 0.0
1.5924354108097427 0.032999981196097136 0.0
1.6174354131635198 0.03299999083060324 0.0
1.64243541565728 0.03299999755097528 0.0
1.6674354181209696 0.03300000204626365 0.0
1.6924354204435526 0.033000004874068845 0.0
1.7174354225580113 0.03300000648065233 0.0
1.7424354244295708 0.03300000721952462 0.0
1.767435426046655 0.03300000736820233 0.0
1.7924354274140903 0.033000007143041625 0.0
1.8174354285481558 0.03300000671221017 0.0
1.8424354294730902 0.03300000620702616 0.0
1.8674354302186797 0.03300000573209445 0.0
1.8924354308185205 0.03300000537501408 0.0
1.9174354313086133 0.033000005216941054 0.0
1.9424354317261934 0.033000005346044844 0.0
1.9674354321093193 0.03300000587665877 0.0
1.9924354324990439 0.033000006977209964 0.0
0.0 0.0 0.0
0.0211904686156578 0.0037416877100149414 0.0
0.04324345912469784 0.007438062636300378 0.0
0.06610787063052474 0.010935560559251727 0.0
0.08968475828760271 0.014098627062455784 0.0
0.11384493632773508 0.01683676787636752 0.0
0.13845189163185612 0.019113405425069598 0.0
0.16338009605799536 0.020938496619868897 0.0
0.18852489413487267 0.02235331763522946 0.0
0.21380478180654244 0.023415068034368627 0.0
0.23915936656677597 0.024185267404413464 0.0
0.2645456477864742 0.024722547902118835 0.0
0.28993419455051994 0.025078963270931977 0.0
0.3153058145490483 0.02529860682319412 0.0
0.340648855093194 0.025417580949418143 0.0
0.3659570922939778 0.025464664920063457 0.0
0.3912281129415547 0.025462280046663156 0.0
0.41646209156800534 0.025427523525840524 0.0
0.44166087846791496 0.025373151017821848 0.0
0.4668273299484482 0.02530845255119048 0.0
0.4919648258416534 0.02524000280972973 0.0
0.5170769306049277 0.025172286312892794 0.0
0.5421671634079552 0.025108207544378428 0.0
0.5672388498807545 0.025049500039983037 0.0
0.5922950340537978 0.02499704937265926 0.0
0.6173384337470595 0.02495114434192885 0.0
0.6423714264775827 0.024911669315955967 0.0
0.6673960560209053 0.024878249044121628 0.0
0.6924140522119235 0.02485035559944451 0.0
0.7174268585127787 0.024827385547437922 0.0
0.7424356633989229 0.02480871402807015 0.0
0.7674414327953759 0.02479373120077604 0.0
0.792444941697732 0.024781865439525975 0.0
0.8174468037910864 0.024772596765970198 0.0
0.8424474983804889 0.024765463258752153 0.0
0.8674473943069341 0.024760062559333242 0.0
0.8924467707746084 0.024756050091871158 0.0
0.9174458351839146 0.024753135210312405 0.0
0.9424447381712077 0.024751076164577845 0.0
0.9674435861167725 0.02474967452571444 0.0
0.9924424514102053 0.02474876951494447 0.0
1.0174413807671099 0.024748232533017743 0.0
1.0424404018805085 0.024747962075074542 0.0
1.0674395286702765 0.024747879134674182 0.0
1.0924387653685736 0.024747923142302376 0.0
1.1174381096514843 0.024748048443290902 0.0
1.142437554999158 0.024748221293338864 0.0
1.1674370924399404 0.02474841733329162 0.0
1.1924367118091346 0.024748619495758836 0.0
1.2174364026307103 0.024748816292392666 0.0
1.2424361547105671 0.024749000430564414 0.0
1.2674359585128896 0.02474916771049029 0.0
1.2924358053766567 0.02474931615766401 0.0
1.3174356876171402 0.02474944535002683 0.0
1.3424355985472258 0.02474955590421313 0.0
1.3674355324450753 0.02474964909007425 0.0
1.3924354844880908 0.024749726547302283 0.0
1.417435450667802 0.02474979008224327 0.0
1.4424354276961937 0.0247498415267781 0.0
1.4674354129107592 0.024749882644509873 0.0
1.4924354041831196 0.024749915072361954 0.0
1.517435399834231 0.02474994028813993 0.0
1.5424353985578538 0.02474995959665317 0.0
1.5674353993530072 0.024749974128670117 0.0
1.592435401465449 0.024749984848363285 0.0
1.617435404337823 0.024749992565992737 0.0
1.6424354075678065 0.02474999795345643 0.0
1.6674354108734812 0.02475000156101636 0.0
1.6924354140650761 0.02475000383404213 0.0
1.7174354170222175 0.024750005129007886 0.0
1.7424354196759142 0.024750005728278943 0.0
1.7674354219945045 0.024750005853454056 0.0
1.792435423972917 0.024750005677193137 0.0
1.817435425624657 0.0247500053336102 0.0
1.8424354269759777 0.02475000492745905 0.0
1.8674354280618335 0.024750004542533423 0.0
1.8924354289232597 0.024750004249975848 0.0
1.9174354296060576 0.024750004117554687 0.0
1.9424354301610112 0.024750004221397857 0.0
1.9674354306464557 0.02475000466197438 0.0
1.9924354311349066 0.02475000558601964 0.0
0.0 0.0 0.0
0.021132700060755075 0.0024531875909249348 0.0
0.04308784779847569 0.004874444169731092 0.0
0.06582359003324098 0.0071720392942773645 0.0
0.08926049345647974 0.009263239650576566 0.0
0.1132920010511085 0.01108933969668944 0.0
0.1377994788473359 0.012622277584456285 0.0
0.16266654310386702 0.013862579721308204 0.0
0.18778911773052134 0.0148319273848451 0.0
0.21308048193459914 0.015564326439872609 0.0
0.2384723031627978 0.016098559152681387 0.0
0.2639132463018826 0.016472950603540235 0.0
0.28936646520121 0.0167223428936987 0.0
0.31480681952168804 0.016876721917225022 0.0
0.34021825414844303 0.016960901493637753 0.0
0.3655915291826563 0.016994803054647744 0.0
0.39092235078550863 0.016994020674928174 0.0
0.4162098855771776 0.016970483412886754 0.0
0.4414556124380946 0.01693311070379482 0.0
0.46666245696698594 0.016888409127965683 0.0
0.4918341551319785 0.01684098971850005 0.0
0.5169747982596355 0.01679400196806242 0.0
0.5420885185687104 0.01674948935604207 0.0
0.5671792815522982 0.01670867508716425 0.0
0.5922507579989098 0.016672187963119565 0.0
0.6173062540772021 0.01664023816070799 0.0
0.6423486826501746 0.01661275187920985 0.0
0.6673805628874976 0.01658947274121779 0.0
0.6924040384036261 0.016570036695828443 0.0
0.7174209066698793 0.016554026088085226 0.0
0.7424326544331304 0.01654100757382523 0.0
0.7674404954155764 0.01653055769336452 0.0
0.7924454077511809 0.016522279172994866 0.0
0.8174481695051578 0.016515810393773415 0.0
0.8424493912826502 0.01651082994224572 0.0
0.8674495454108578 0.01650705772563714 0.0
0.8924489915160573 0.016504253782517016 0.0
0.917447998546132 0.01650221563731381 0.0
0.942446763437128 0.016500774822567406 0.0
0.9674454267100916 0.016499793016734862 0.0
0.9924440853286677 0.01649915810915652 0.0
1.017442803161613 0.016498780400004128 0.0
1.0424416193873274 0.0164985890653019 0.0
1.0674405551572557 0.016498528960090852 0.0
1.0924396188069863 0.016498557791979705 0.0
1.1174388098720534 0.016498643669057938 0.0
1.1424381221326674 0.016498763007388107 0.0
1.1674375458796271 0.016498898771689627 0.0
1.1924370695637807 0.016499039016417263 0.0
1.2174366809642447 0.016499175691760782 0.0
1.2424363679864745 0.01649930367898377 0.0
1.267436119180287 0.01649942002109434 0.0
1.292435924050014 0.016499523317458544 0.0
1.3174357732137865 0.016499613254136705 0.0
1.3424356584563786 0.01649969024512067 0.0
1.3674355727097391 0.016499755163029196 0.0
1.3924355099869437 0.01649980914102722 0.0
1.4174354652886354 0.016499853430706556 0.0
1.4424354344957528 0.01649988930328849 0.0
1.4674354142582269 0.016499917983869253 0.0
1.4924354018862125 0.016499940610402566 0.0
1.5174353952480122 0.016499958210831844 0.0
1.5424353926771657 0.016499971693206203 0.0
1.5674353928898341 0.016499981844781356 0.0
1.5924353949128214 0.01649998933707338 0.0
1.6174353980219054 0.016499994734587957 0.0
1.64243540168982 0.016499998505576836 0.0
1.6674354055430058 0.01650000103362462 0.0
1.692435409326142 0.0165000026292673 0.0
1.7174354128734712 0.01650000354109743 0.0
1.7424354160859252 0.01650000396603657 0.0
1.7674354189131858 0.016500004058611236 0.0
1.7924354213398297 0.01650000393918754 0.0
1.8174354233748977 0.016500003701238497 0.0
1.8424354250442365 0.016500003417822862 0.0
1.8674354263851982 0.016500003147598117 0.0
1.892435427443398 0.016500002940878798 0.0
1.9174354282715542 0.01650000284647094 0.0
1.9424354289307633 0.016500002920223883 0.0
1.9674354294951486 0.016500003236343326 0.0
1.9924354300613072 0.016500003902353188 0.0
0.0 0.0 0.0
0.021101955262079194 0.0012147506915407562 0.0
0.04300382809981951 0.002413074961629559 0.0
0.06566827669575351 0.0035519172606116737 0.0
0.08902572222985441 0.004592037859785095 0.0
0.11298162192259148 0.005504710543716772 0.0
0.137427734267609 0.0062750867314286625 0.0
0.16225393822982292 0.006901821852334087 0.0
0.18735781917094446 0.00739409020569287 0.0
0.2126507101309439 0.007767623597593886 0.0
0.23806028042780297 0.008041066706183916 0.0
0.26353052257845944 0.008233279499316093 0.0
0.28902016509364675 0.008361675284573603 0.0
0.3145003579908722 0.008441397311221007 0.0
0.33995220129056614 0.008485065430576613 0.0
0.3653644390842634 0.00850285952081291 0.0
0.3907314683455125 0.008502773710573239 0.0
0.416051705481989 0.00849093660955259 0.0
0.44132629628085224 0.00847193758881566 0.0
0.46655812840962235 0.008449128322829215 0.0
0.4917510969347957 0.008424886342357836 0.0
0.5169095739697056 0.008400837194483032 0.0
0.5420380385521217 0.008378036927239046 0.0
0.5671408293969897 0.008357118982539373 0.0
0.5922219898296598 0.008338410415232684 0.0
0.6172851803047155 0.008322022382526618 0.0
0.6423336391955837 0.00830791948048068 0.0
0.6673701769541384 0.008295971971842026 0.0
0.6923971923424304 0.008285994374604281 0.0
0.7174167023265412 0.008277773325644678 0.0
0.7424303795021768 0.008271087127874147 0.0
0.7674395926957157 0.008265718943785564 0.0
0.792445447745582 0.008261465214949236 0.0
0.8174488264971453 0.008258140562868133 0.0
0.8424504228078145 0.00825558015643604 0.0
0.8674507749141228 0.00825364030886328 0.0
0.8924502939059115 0.008252197886076484 0.0
0.917449288321985 0.008251148963221015 0.0
0.9424479850573058 0.008250407050427636 0.0
0.9674465468779958 0.008249901118451785 0.0
0.9924450868962914 0.008249573584734616 0.0
1.0174436803778126 0.008249378367050591 0.0
1.0424423742494633 0.008249279071910956 0.0
1.0674411946565103 0.00824924735554463 0.0
1.0924401528882115 0.008249261474263163 0.0
1.117439249957395 0.008249305026445627 0.0
1.142438480083802 0.008249365878713805 0.0
1.1674378332961146 0.008249435262870928 0.0
1.1924372973346307 0.008249507026859542 0.0
1.2174368590065205 0.008249577021600292 0.0
1.2424365051188138 0.008249642605491221 0.0
1.2674362230908658 0.008249702249153616 0.0
1.2924360013279903 0.008249755224329148 0.0
1.3174358294209523 0.008249801362464535 0.0
1.3424356982218875 0.008249840870247568 0.0
1.3674355998355818 0.008249874191095706 0.0
1.3924355275555718 0.008249901903237407 0.0
1.4174354757670147 0.008249924646553558 0.0
1.442435439832226 0.008249943071685783 0.0
1.4674354159701695 0.00824995780613808 0.0
1.4924354011375625 0.008249969433097748 0.0
1.517435392916571 0.008249978479600264 0.0
1.5424353894120337 0.008249985411373353 0.0
1.5674353891597297 0.008249990632313502 0.0
1.5924353910461557 0.008249994487029125 0.0
1.6174353942395856 0.008249997265282985 0.0
1.6424353981317679 0.008249999207482966 0.0
1.6674354022893114 0.008250000510606788 0.0
1.6924354064137141 0.008250001334148273 0.0
1.7174354103089535 0.0082500018058025 0.0
1.742435413855561 0.008250002026729977 0.0
1.767435416990205 0.008250002076310221 0.0
1.792435419689865 0.008250002016369204 0.0
1.817435421959848 0.008250001894915813 0.0
1.842435423824977 0.008250001749496909 0.0
1.8674354253234995 0.00825000161033326 0.0
1.8924354265034935 0.00825000150350869 0.0
1.9174354274217973 0.008250001454581738 0.0
1.9424354281459657 0.008250001493067993 0.0
1.96743542876008 0.008250001658276346 0.0
1.9924354293757898 0.008250002006871848 0.0
0.0 0.0 0.0
0.021092300223257705 4.4061290507260774e-16 0.0
0.04297724049617657 1.2505498994498494e-15 0.0
0.06561884379139944 2.3783808301364257e-15 0.0
0.088950539843802 3.821771949894894e-15 0.0
0.11288155025185098 5.57618547087496e-15 0.0
0.1373070130926207 7.582720107414905e-15 0.0
0.16211899044369685 9.815223791613963e-15 0.0
0.1872158099260772 1.2306109964995383e-14 0.0
0.2125083472964516 1.5056287995285638e-14 0.0
0.23792307256304265 1.7973297273711744e-14 0.0
0.2634024867359269 2.1084697999384382e-14 0.0
0.2889038561801643 2.4376689884476955e-14 0.0
0.31439707658010896 2.7902847411174024e-14 0.0
0.33986226860029783 3.155908895673009e-14 0.0
0.3652874709490944 3.537506024657433e-14 0.0
0.3906666141077548 3.9341066700851105e-14 0.0
0.41599783976773363 4.3352776174447336e-14 0.0
0.44128216377222007 4.75426812587235e-14 0.0
0.46652244736602594 5.196617955285478e-14 0.0
0.49172262909486486 5.6631119050057915e-14 0.0
0.5168871684097184 6.131590935363305e-14 0.0
0.5420206561671685 6.605425066974611e-14 0.0
0.5671275534918588 7.093108598380087e-14 0.0
0.5922120271440234 7.594364541584219e-14 0.0
0.617277855773229 8.096543778109306e-14 0.0
0.6423283868944384 8.607586630504832e-14 0.0
0.6673665290076451 9.122230326850851e-14 0.0
0.69239476703601 9.646291615063451e-14 0.0
0.7174151922710372 1.0186833689041613e-13 0.0
0.7424295403944355 1.0732223052964676e-13 0.0
0.7674392330004965 1.1275119524950551e-13 0.0
0.7924454194661783 1.1823371098227763e-13 0.0
0.81744901709202 1.2367006204960172e-13 0.0
0.8424507482364363 1.2913134203727965e-13 0.0
0.8674511737478079 1.3488946082816886e-13 0.0
0.8924507224116769 1.405321679552746e-13 0.0
0.9174497164136166 1.460890088049876e-13 0.0
0.942448393003799 1.5141364138615297e-13 0.0
0.9674469226620453 1.570674280369662e-13 0.0
0.9924454241221566 1.6281769884030885e-13 0.0
1.0174439766369583 1.683491491264845e-13 0.0
1.042442629862581 1.7370979014691218e-13 0.0
1.0674414117210191 1.7897348536652524e-13 0.0
1.0924403345705043 1.8433227979772728e-13 0.0
1.117439399978605 1.8963290675808452e-13 0.0
1.1424386023564828 1.9504709882920266e-13 0.0
1.167437931676847 2.00656105879032e-13 0.0
1.1924373754642172 2.0589441086438715e-13 0.0
1.2174369202150994 2.1134876691560163e-13 0.0
1.2424365523779894 2.1670525471696688e-13 0.0
1.2674362589989265 2.2182445770168923e-13 0.0
1.2924360281175353 2.267216114368019e-13 0.0
1.3174358489808686 2.320023984093087e-13 0.0
1.3424357121277402 2.3681554536237277e-13 0.0
1.367435609384095 2.418918441150757e-13 0.0
1.3924355338002157 2.467784269070711e-13 0.0
1.4174354795526516 2.5208375590095863e-13 0.0
1.4424354418275356 2.573526643673712e-13 0.0
1.4674354166971086 2.628441614774643e-13 0.0
1.4924354009975158 2.682743710569503e-13 0.0
1.517435392213105 2.7378830639585846e-13 0.0
1.5424353883703747 2.795887207334463e-13 0.0
1.5674353879431795 2.8505622839680425e-13 0.0
1.5924353897697376 2.9044268792220584e-13 0.0
1.6174353929812448 2.958602947501628e-13 0.0
1.6424353969414318 3.015490702981898e-13 0.0
1.667435401196139 3.0670223083815975e-13 0.0
1.692435405431818 3.1206769781664505e-13 0.0
1.7174354094418383 3.178971578801728e-13 0.0
1.7424354130995297 3.233712108230345e-13 0.0
1.7674354163369077 3.291786116127759e-13 0.0
1.792435419128185 3.3558599911634134e-13 0.0
1.817435421477241 3.417788678410885e-13 0.0
1.8424354234084204 3.474994392972449e-13 0.0
1.8674354249601823 3.5325955384688694e-13 0.0
1.89243542618137 3.593487651529605e-13 0.0
1.9174354271301999 3.652391278756195e-13 0.0
1.942435427876416 3.7079953665027466e-13 0.0
1.9674354285075053 3.763961177859235e-13 0.0
1.9924354291402242 3.8179973099620726e-13 0.0
0.0 0.0 0.0
0.02110195526207882 -0.0012147506915398665 0.0
0.04300382809981874 -0.0024130749616270426 0.0
0.06566827669575238 -0.003551917260606905 0.0
0.08902572222985292 -0.004592037859777402 0.0
0.11298162192258948 -0.005504710543705569 0.0
0.13742773426760663 -0.006275086731413452 0.0
0.1622539382298201 -0.006901821852314377 0.0
0.1873578191709411 -0.007394090205668145 0.0
0.21265071013094003 -0.007767623597563735 0.0
0.23806028042779875 -0.008041066706147909 0.0
0.26353052257845494 -0.008233279499273893 0.0
0.28902016509364187 -0.008361675284524748 0.0
0.31450035799086684 -0.00844139731116509 0.0
0.3399522012905604 -0.008485065430513406 0.0
0.36536443908425725 -0.008502859520742057 0.0
0.39073146834550626 -0.008502773710494557 0.0
0.4160517054819825 -0.0084909366094658 0.0
0.44132629628084524 -0.008471937588720412 0.0
0.4665581284096147 -0.008449128322725225 0.0
0.4917510969347877 -0.00842488634224464 0.0
0.5169095739696976 -0.008400837194360364 0.0
0.5420380385521131 -0.00837803692710693 0.0
0.5671408293969812 -0.008357118982397539 0.0
0.592221989829651 -0.008338410415080738 0.0
0.6172851803047065 -0.008322022382364607 0.0
0.6423336391955745 -0.008307919480308491 0.0
0.6673701769541291 -0.008295971971659563 0.0
0.6923971923424205 -0.008285994374411342 0.0
0.7174167023265311 -0.008277773325440935 0.0
0.7424303795021665 -0.008271087127659485 0.0
0.7674395926957053 -0.00826571894356012 0.0
0.7924454477455715 -0.008261465214712842 0.0
0.8174488264971349 -0.008258140562620753 0.0
0.8424504228078034 -0.008255580156177642 0.0
0.8674507749141124 -0.008253640308593562 0.0
0.892450293905901 -0.008252197885795459 0.0
0.9174492883219749 -0.008251148962928948 0.0
0.9424479850572954 -0.008250407050124715 0.0
0.9674465468779851 -0.00824990111813751 0.0
0.9924450868962805 -0.008249573584409068 0.0
1.0174436803778022 -0.008249378366713992 0.0
1.0424423742494535 -0.008249279071563408 0.0
1.0674411946564994 -0.008249247355186538 0.0
1.0924401528882008 -0.008249261473894473 0.0
1.1174392499573842 -0.008249305026066349 0.0
1.1424384800837906 -0.008249365878323608 0.0
1.1674378332961035 -0.008249435262469846 0.0
1.1924372973346198 -0.008249507026447668 0.0
1.2174368590065097 -0.008249577021177538 0.0
1.2424365051188029 -0.00824964260505792 0.0
1.2674362230908558 -0.008249702248710028 0.0
1.29243600132798 -0.008249755223875587 0.0
1.3174358294209425 -0.008249801362000804 0.0
1.342435698221879 -0.008249840869773966 0.0
1.3674355998355734 -0.008249874190611788 0.0
1.3924355275555635 -0.00824990190274378 0.0
1.417435475767006 -0.008249924646049145 0.0
1.4424354398322166 -0.00824994307117088 0.0
1.4674354159701593 -0.008249957805612308 0.0
1.4924354011375518 -0.008249969432561101 0.0
1.5174353929165596 -0.008249978479052698 0.0
1.542435389412022 -0.00824998541081435 0.0
1.5674353891597186 -0.008249990631743486 0.0
1.5924353910461448 -0.008249994486448111 0.0
1.6174353942395743 -0.008249997264691368 0.0
1.6424353981317574 -0.008249999206879936 0.0
1.6674354022893005 -0.008250000509993412 0.0
1.6924354064137037 -0.00825000133352403 0.0
1.7174354103089429 -0.008250001805166753 0.0
1.7424354138555507 -0.008250002026082913 0.0
1.767435416990193 -0.008250002075651524 0.0
1.7924354196898522 -0.008250002015697736 0.0
1.8174354219598357 -0.008250001894232431 0.0
1.8424354238249643 -0.008250001748802043 0.0
1.8674354253234875 -0.008250001609626498 0.0
1.8924354265034804 -0.008250001502790172 0.0
1.9174354274217855 -0.008250001453851337 0.0
1.9424354281459544 -0.008250001492326567 0.0
1.9674354287600697 -0.008250001657523357 0.0
1.9924354293757784 -0.008250002006107447 0.0
0.0 0.0 0.0
0.021132700060754277 -0.002453187590924016 0.0
0.04308784779847411 -0.004874444169728531 0.0
0.06582359003323861 -0.007172039294272519 0.0
0.08926049345647653 -0.009263239650568755 0.0
0.1132920010511045 -0.011089339696678106 0.0
0.1377994788473311 -0.012622277584440926 0.0
0.16266654310386136 -0.01386257972128827 0.0
0.18778911773051474 -0.014831927384820092 0.0
0.21308048193459173 -0.015564326439842222 0.0
0.23847230316278947 -0.016098559152645187 0.0
0.26391324630187346 -0.016472950603497804 0.0
0.2893664652011999 -0.016722342893649707 0.0
0.3148068195216773 -0.016876721917168856 0.0
0.34021825414843143 -0.016960901493574335 0.0
0.36559152918264404 -0.01699480305457671 0.0
0.3909223507854955 -0.016994020674849397 0.0
0.4162098855771638 -0.016970483412799782 0.0
0.44145561243808046 -0.016933110703699343 0.0
0.46666245696697123 -0.016888409127861426 0.0
0.4918341551319629 -0.016840989718386785 0.0
0.5169747982596193 -0.01679400196793969 0.0
0.5420885185686941 -0.01674948935590984 0.0
0.5671792815522815 -0.016708675087022222 0.0
0.5922507579988927 -0.016672187962967537 0.0
0.6173062540771845 -0.016640238160545863 0.0
0.6423486826501571 -0.01661275187903754 0.0
0.6673805628874797 -0.016589472741035283 0.0
0.6924040384036073 -0.0165700366956353 0.0
0.71742090666986 -0.016554026087881403 0.0
0.7424326544331116 -0.016541007573610458 0.0
0.7674404954155568 -0.016530557693138895 0.0
0.7924454077511598 -0.0165222791727584 0.0
0.8174481695051371 -0.01651581039352608 0.0
0.8424493912826287 -0.016510829941987125 0.0
0.867449545410836 -0.016507057725367418 0.0
0.8924489915160358 -0.01650425378223612 0.0
0.9174479985461104 -0.016502215637021797 0.0
0.9424467634371059 -0.01650077482226434 0.0
0.9674454267100692 -0.016499793016420548 0.0
0.9924440853286465 -0.016499158108831236 0.0
1.0174428031615925 -0.01649878039966763 0.0
1.0424416193873067 -0.01649858906495454 0.0
1.0674405551572355 -0.016498528959732573 0.0
1.0924396188069654 -0.01649855779161097 0.0
1.1174388098720318 -0.016498643668678512 0.0
1.1424381221326456 -0.0164987630069977 0.0
1.167437545879605 -0.016498898771288666 0.0
1.1924370695637592 -0.016499039016005485 0.0
1.2174366809642245 -0.016499175691338297 0.0
1.2424363679864547 -0.01649930367855051 0.0
1.267436119180267 -0.0164994200206508 0.0
1.2924359240499947 -0.016499523317005126 0.0
1.3174357732137665 -0.01649961325367325 0.0
1.3424356584563586 -0.016499690244647373 0.0
1.3674355727097203 -0.016499755162545326 0.0
1.3924355099869257 -0.016499809140533554 0.0
1.4174354652886172 -0.01649985343020192 0.0
1.4424354344957346 -0.016499889302772915 0.0
1.467435414258207 -0.01649991798334316 0.0
1.4924354018861912 -0.016499940609865746 0.0
1.517435395247992 -0.016499958210284216 0.0
1.5424353926771444 -0.016499971692647282 0.0
1.5674353928898128 -0.01649998184421141 0.0
1.592435394912801 -0.016499989336492316 0.0
1.617435398021885 -0.016499994733996083 0.0
1.6424354016897997 -0.016499998504973978 0.0
1.6674354055429834 -0.01650000103301105 0.0
1.6924354093261191 -0.016500002628642874 0.0
1.7174354128734477 -0.01650000354046159 0.0
1.7424354160859021 -0.01650000396538923 0.0
1.76743541891316 -0.016500004057951607 0.0
1.7924354213398046 -0.016500003938515945 0.0
1.8174354233748735 -0.016500003700555356 0.0
1.8424354250442116 -0.016500003417127988 0.0
1.8674354263851725 -0.01650000314689104 0.0
1.8924354274433721 -0.016500002940160158 0.0
1.9174354282715282 -0.01650000284574099 0.0
1.9424354289307382 -0.01650000291948269 0.0
1.9674354294951248 -0.016500003235590456 0.0
1.9924354300612854 -0.016500003901588508 0.0
0.0 0.0 0.0
0.021190468615656616 -0.003741687710013978 0.0
0.043243459124695446 -0.007438062636297712 0.0
0.06610787063052109 -0.01093556055924671 0.0
0.08968475828759781 -0.014098627062447775 0.0
0.11384493632772891 -0.016836767876355924 0.0
0.13845189163184857 -0.01911340542505392 0.0
0.16338009605798634 -0.020938496619848646 0.0
0.18852489413486267 -0.022353317635204175 0.0
0.21380478180653117 -0.023415068034337853 0.0
0.23915936656676323 -0.024185267404376907 0.0
0.26454564778646017 -0.024722547902076016 0.0
0.28993419455050456 -0.025078963270882618 0.0
0.3153058145490319 -0.02529860682313767 0.0
0.3406488550931765 -0.0254175809493544 0.0
0.3659570922939593 -0.025464664919992133 0.0
0.39122811294153487 -0.025462280046584074 0.0
0.41646209156798425 -0.025427523525753323 0.0
0.4416608784678933 -0.025373151017726192 0.0
0.4668273299484261 -0.025308452551086075 0.0
0.49196482584163026 -0.025240002809616212 0.0
0.5170769306049036 -0.02517228631276995 0.0
0.5421671634079306 -0.025108207544245982 0.0
0.5672388498807294 -0.025049500039840796 0.0
0.5922950340537722 -0.02499704937250715 0.0
0.6173384337470338 -0.024951144341766616 0.0
0.6423714264775562 -0.02491166931578351 0.0
0.6673960560208778 -0.024878249043938854 0.0
0.6924140522118953 -0.024850355599251184 0.0
0.7174268585127495 -0.02482738554723387 0.0
0.7424356633988936 -0.02480871402785541 0.0
0.7674414327953467 -0.024793731200550197 0.0
0.7924449416977031 -0.024781865439289168 0.0
0.8174468037910553 -0.024772596765722566 0.0
0.842447498380458 -0.02476546325849364 0.0
0.8674473943069037 -0.02476006255906345 0.0
0.8924467707745776 -0.02475605009158999 0.0
0.917445835183883 -0.024753135210020268 0.0
0.9424447381711756 -0.02475107616427472 0.0
0.9674435861167402 -0.02474967452540022 0.0
0.9924424514101731 -0.02474876951461947 0.0
1.0174413807670795 -0.024748232532681595 0.0
1.042440401880478 -0.024747962074727417 0.0
1.067439528670246 -0.024747879134316045 0.0
1.0924387653685437 -0.02474792314193329 0.0
1.117438109651452 -0.024748048442911116 0.0
1.1424375549991261 -0.02474822129294838 0.0
1.1674370924399085 -0.02474841733289065 0.0
1.1924367118091024 -0.02474861949534718 0.0
1.217436402630679 -0.024748816291970527 0.0
1.2424361547105358 -0.024749000430131424 0.0
1.267435958512861 -0.024749167710047013 0.0
1.292435805376627 -0.024749316157210766 0.0
1.3174356876171114 -0.024749445349563363 0.0
1.3424355985471963 -0.02474955590373989 0.0
1.3674355324450471 -0.024749649089590604 0.0
1.3924354844880615 -0.02474972654680832 0.0
1.417435450667771 -0.02474979008173853 0.0
1.4424354276961635 -0.0247498415262627 0.0
1.4674354129107297 -0.02474988264398346 0.0
1.4924354041830887 -0.024749915071824714 0.0
1.5174353998341987 -0.024749940287592004 0.0
1.542435398557822 -0.024749959596094252 0.0
1.567435399352976 -0.024749974128100177 0.0
1.5924354014654185 -0.024749984847782368 0.0
1.6174354043377925 -0.024749992565400905 0.0
1.642435407567776 -0.024749997952853518 0.0
1.6674354108734502 -0.024750001560402243 0.0
1.6924354140650428 -0.024750003833416908 0.0
1.7174354170221828 -0.024750005128371458 0.0
1.742435419675877 -0.024750005727630586 0.0
1.767435421994465 -0.02475000585279403 0.0
1.792435423972878 -0.024750005676521362 0.0
1.8174354256246166 -0.02475000533292694 0.0
1.8424354269759378 -0.024750004926764015 0.0
1.8674354280617953 -0.02475000454182667 0.0
1.892435428923221 -0.02475000424925748 0.0
1.9174354296060205 -0.024750004116825222 0.0
1.942435430160976 -0.024750004220657207 0.0
1.9674354306464201 -0.02475000466122203 0.0
1.9924354311348715 -0.024750005585255426 0.0
0.0 0.0 0.0
0.021287548727614194 -0.005112964352783288 0.0
0.043499612991340336 -0.010171095822963964 0.0
0.06656747485534457 -0.014933275580419835 0.0
0.09035647820278335 -0.019195199716857264 0.0
0.11470024792654948 -0.022834687637705915 0.0
0.13943701975822126 -0.025818019836077274 0.0
0.16443291317170797 -0.028178847611867643 0.0
0.18958790113090546 -0.029989248965164632 0.0
0.21483207848133495 -0.03133621715059286 0.0
0.2401184755281326 -0.032306746197177764 0.0
0.265416488593574 -0.03298012544087089 0.0
0.2907068389259091 -0.03342473113335371 0.0
0.315977987469577 -0.0336973849476792 0.0
0.34122364891690776 -0.03384402649266603 0.0
0.3664410738098827 -0.03390097355101031 0.0
0.39162985334754835 -0.03389636671742925 0.0
0.41679108087832895 -0.033851587773870255 0.0
0.4419267608465531 -0.033782550921013024 0.0
0.4670393930802338 -0.03370082704861831 0.0
0.4921316836885339 -0.03361459397652296 0.0
0.5172063485417276 -0.03352942221979036 0.0
0.5422659847706393 -0.033448913398657305 0.0
0.5673129920665978 -0.033375211005539245 0.0
0.5923495300252323 -0.03330940318670528 0.0
0.6173775010611674 -0.03325183581454722 0.0
0.6423985509225065 -0.033202352156813504 0.0
0.6674140807819432 -0.0331604732995672 0.0
0.6924252664129862 -0.0331255313701392 0.0
0.7174330811648619 -0.033096765646935165 0.0
0.7424383203920273 -0.03307338988576317 0.0
0.767441625723259 -0.033054637654057535 0.0
0.7924435081110293 -0.033039791142383534 0.0
0.8174443690178562 -0.03302819780379413 0.0
0.8424445194008215 -0.0330192782374815 0.0
0.8674441963721398 -0.033012527963007895 0.0
0.8924435775623235 -0.03300751510409121 0.0
0.9174427933093261 -0.03300387549611132 0.0
0.9424419368551725 -0.0330013063302876 0.0
0.9674410727614843 -0.03299955913270254 0.0
0.9924402437652456 -0.03299843263281261 0.0
1.017439476292461 -0.032997765890572836 0.0
1.04243878483483 -0.03299743191243045 0.0
1.0674381753768847 -0.03299733188461435 0.0
1.0924376480406999 -0.03299739007936531 0.0
1.1174371990941896 -0.03299754943938573 0.0
1.1424368224483978 -0.03299776781249163 0.0
1.167436510749831 -0.03299801478788793 0.0
1.1924362561562263 -0.03299826907425186 0.0
1.2174360508685096 -0.03299851635520295 0.0
1.2424358874779948 -0.03299874755771223 0.0
1.267435759176186 -0.032998957471973366 0.0
1.292435659864637 -0.0329991436660609 0.0
1.3174355841941041 -0.032999305644489836 0.0
1.3424355275554687 -0.03299944420594823 0.0
1.3674354860394082 -0.03299956096159654 0.0
1.3924354563774357 -0.03299965798113286 0.0
1.4174354358734402 -0.032999737539167656 0.0
1.442435422332155 -0.032999801939222875 0.0
1.4674354139889623 -0.032999853396861914 0.0
1.4924354094437935 -0.032999893967072286 0.0
1.5174354076008207 -0.03299992550407441 0.0
1.5424354076147244 -0.03299994964428924 0.0
1.567435408843797 -0.03299996780532319 0.0
1.592435410809703 -0.03299998119551615 0.0
1.6174354131634792 -0.03299999083001115 0.0
1.642435415657237 -0.03299999755037174 0.0
1.6674354181209243 -0.03300000204564886 0.0
1.692435420443506 -0.03300000487344268 0.0
1.7174354225579627 -0.03300000648001493 0.0
1.7424354244295217 -0.033000007218875624 0.0
1.767435426046605 -0.033000007367541814 0.0
1.79243542741404 -0.03300000714236951 0.0
1.8174354285481045 -0.033000006711526766 0.0
1.8424354294730387 -0.03300000620633131 0.0
1.8674354302186285 -0.03300000573138826 0.0
1.8924354308184708 -0.033000005374296384 0.0
1.9174354313085649 -0.03300000521621252 0.0
1.9424354317261452 -0.033000005345304666 0.0
1.9674354321092722 -0.03300000587590652 0.0
1.9924354324989961 -0.033000006976445166 0.0
0.0 0.0 0.0
0.02144756999451505 -0.006612435812738946 0.0
0.043911898880002194 -0.013166371712790682 0.0
0.067287717952129 -0.01928371999335428 0.0
0.09137683862631497 -0.024667736713524877 0.0
0.11595445329542013 -0.02917387126990277 0.0
0.1408316656845763 -0.032797185853894885 0.0
0.1658753508551259 -0.035618571829397636 0.0
0.19100293137074748 -0.03775546898305691 0.0
0.21616614433401488 -0.03933071348899348 0.0
0.24133798379852908 -0.04045802990895402 0.0
0.26650394244752723 -0.041236236301994925 0.0
0.2916567045252826 -0.04174799886016869 0.0
0.3167930514119108 -0.04206067737021993 0.0
0.34191208714463667 -0.04222804507090255 0.0
0.36701421975706805 -0.04229226869719848 0.0
0.3921005689986859 -0.042285853516593024 0.0
0.4171726148156911 -0.04223341892171667 0.0
0.44223198409599407 -0.04215325299456731 0.0
0.46728031933970265 -0.04205863663929781 0.0
0.49231919793943774 -0.041958948841888985 0.0
0.5173500841283684 -0.0418605742412355 0.0
0.5423743027932786 -0.04176763773268556 0.0
0.5673930282293146 -0.041682591104470784 0.0
0.5924072831150613 -0.04160667529564944 0.0
0.6174179443288365 -0.04154027963972131 0.0
0.6424257531195736 -0.04148321691831381 0.0
0.6674313277887183 -0.041434930475406716 0.0
0.6924351775294398 -0.0413946471903102 0.0
0.7174377164530423 -0.041361487858933704 0.0
0.7424392771343289 -0.04133454452525818 0.0
0.7674401232428797 -0.04131293254887023 0.0
0.7924404610069506 -0.04129582368416567 0.0
0.8174404493904042 -0.041282465167006836 0.0
0.842440208959162 -0.04127218873455097 0.0
0.8674398294796908 -0.04126441262061049 0.0
0.8924393763345593 -0.0412586388486036 0.0
0.9174388958648029 -0.04125444756403706 0.0
0.9424384197603969 -0.041251489687078424 0.0
0.9674379686223474 -0.041249478803620176 0.0
0.9924375548157583 -0.04124818293297481 0.0
1.0174371847250847 -0.0412474165967841 0.0
1.0424368605122623 -0.041247033453851924 0.0
1.0674365814668887 -0.04124691964839185 0.0
1.0924363450259216 -0.04124698793538877 0.0
1.117436147529086 -0.04124717258881323 0.0
1.1424359847657195 -0.04124742506011591 0.0
1.167435852359305 -0.04124771033078983 0.0
1.1924357460276065 -0.041248003889879724 0.0
1.2174356617490631 -0.0412482892620536 0.0
1.2424355958599234 -0.041248556011847806 0.0
1.2674355451013946 -0.04124879815314721 0.0
1.2924355066317956 -0.041249012898521786 0.0
1.3174354780151736 -0.041249199689722606 0.0
1.342435457194993 -0.04124935945775669 0.0
1.3674354424592459 -0.04124949406802083 0.0
1.3924354324015562 -0.0412496059126785 0.0
1.4174354258814503 -0.041249697618621746 0.0
1.4424354219859312 -0.041249771844871344 0.0
1.4674354199936896 -0.04124983114810031 0.0
1.4924354193427114 -0.04124987789912494 0.0
1.517435419601601 -0.04124991423674456 0.0
1.5424354204447057 -0.041249942048249034 0.0
1.5674354216308672 -0.0412499629683591 0.0
1.592435422985545 -0.04124997839032565 0.0
1.6174354243860045 -0.041249989484529 0.0
1.6424354257491958 -0.041249997221157214 0.0
1.6674354270219736 -0.041250002394544974 0.0
1.6924354281733425 -0.0412500056475052 0.0
1.717435429188392 -0.041250007494566046 0.0
1.742435430063692 -0.041250008343449884 0.0
1.7674354308038809 -0.04125000851443938 0.0
1.7924354314192705 -0.04125000825750102 0.0
1.817435431924288 -0.041250007767200746 0.0
1.8424354323365373 -0.04125000719557637 0.0
1.8674354326762488 -0.04125000666332178 0.0
1.8924354329656794 -0.04125000626993808 0.0
1.9174354332278754 -0.04125000610414232 0.0
1.9424354334840712 -0.04125000625692637 0.0
1.9674354337495137 -0.04125000684128142 0.0
1.9924354340291417 -0.04125000802401209 0.0
0.0 0.0 0.0
0.021719180254958684 -0.00831106720306552 0.0
0.04458799438642587 -0.016566173968133438 0.0
0.06842795654456059 -0.024150919348179686 0.0
0.09291562361503436 -0.03064982194169191 0.0
0.11775242703961074 -0.03593747278314197 0.0
0.14273466892214223 -0.04008913629408206 0.0
0.16776047857753937 -0.043266838618028367 0.0
0.1927858365638608 -0.045644793210416174 0.0
0.21779607962010622 -0.04738358070049183 0.0
0.24278958269350695 -0.048621377387656095 0.0
0.26776965735211716 -0.04947310251546536 0.0
0.29274079712788165 -0.05003229697269922 0.0
0.3177071203895963 -0.05037389009836632 0.0
0.34267185692062613 -0.05055706643676122 0.0
0.3676372978486868 -0.0506279384424427 0.0
0.3926049256225412 -0.05062192082222555 0.0
0.4175755924426245 -0.050565783892096317 0.0
0.44254969081506496 -0.050479397331779016 0.0
0.46752729608534815 -0.05037718999902417 0.0
0.49250827725943036 -0.05026935679277564 0.0
0.5174923791510407 -0.050162844654627545 0.0
0.5424792810216782 -0.05006214876631001 0.0
0.5674686369759288 -0.04996994786399423 0.0
0.5924601026922027 -0.049887604898360305 0.0
0.6174533521876492 -0.04981555634741156 0.0
0.642448087480699 -0.04975361054135044 0.0
0.6674440433099441 -0.049701172517279894 0.0
0.6924409885069696 -0.04965741026943922 0.0
0.7174387251881628 -0.049621374847036236 0.0
0.7424370866032226 -0.04959208460026208 0.0
0.7674359342333921 -0.04956858199134138 0.0
0.7924351545509993 -0.049549969764233724 0.0
0.8174346557183101 -0.04953543188801953 0.0
0.8424343644062262 -0.04952424353400415 0.0
0.8674342228428991 -0.04951577339136787 0.0
0.8924341861522168 -0.049509480846114694 0.0
0.9174342200071489 -0.04950490991899938 0.0
0.9424342985992022 -0.04950168135725795 0.0
0.9674344029098927 -0.04949948388146336 0.0
0.9924345192608305 -0.049498065284063114 0.0
1.0174346381140333 -0.04949722384374234 0.0
1.0424347530922062 -0.04949680034565834 0.0
1.0674348601889043 -0.049496670869826835 0.0
1.0924349571399934 -0.04949674041853585 0.0
1.117435042930179 -0.04949693739037311 0.0
1.142435117411095 -0.049497208866541124 0.0
1.1674351810103594 -0.04949751664922515 0.0
1.192435234513842 -0.04949783397755951 0.0
1.2174352789061114 -0.0494981428408611 0.0
1.242435315256469 -0.04949843180866803 0.0
1.2674353446401991 -0.04949869430077607 0.0
1.2924353680866039 -0.04949892722642419 0.0
1.317435386547015 -0.04949912992898326 0.0
1.3424354008774293 -0.04949930338018772 0.0
1.367435411831522 -0.04949944957558527 0.0
1.3924354200608224 -0.04949957109015196 0.0
1.4174354261195659 -0.04949967075967261 0.0
1.4424354304723976 -0.0494997514594845 0.0
1.4674354335035922 -0.04949981595740785 0.0
1.4924354355268363 -0.049499866822215126 0.0
1.5174354367949243 -0.049499906372817246 0.0
1.542435437508967 -0.049499936656552265 0.0
1.5674354378268138 -0.049499959447603784 0.0
1.5924354378706096 -0.04949997625872529 0.0
1.6174354377334108 -0.04949998836118834 0.0
1.6424354374848824 -0.04949999680922607 0.0
1.6674354371761404 -0.04950000246634063 0.0
1.6924354368438075 -0.04950000603164623 0.0
1.717435436513399 -0.04950000806506867 0.0
1.7424354362021184 -0.04950000901066595 0.0
1.7674354359211848 -0.049500009217682 0.0
1.7924354356778165 -0.04950000895917184 0.0
1.8174354354769393 -0.04950000844817786 0.0
1.842435435322686 -0.04950000785154542 0.0
1.8674354352196458 -0.049500007301547216 0.0
1.8924354351735548 -0.04950000690566546 0.0
1.9174354351906562 -0.049500006755393657 0.0
1.9424354352742903 -0.04950000693623169 0.0
1.9674354354168435 -0.04950000754376422 0.0
1.9924354355867124 -0.049500008714695586 0.0
0.0 0.0 0.0
0.02220164691998119 -0.010339542465079128 0.0
0.045764586374440065 -0.020611786083670314 0.0
0.070285160013445 -0.029762908743271105 0.0
0.09525591927106401 -0.03727727359002661 0.0
0.12028628529964212 -0.043167220443782066 0.0
0.14524901510954114 -0.04768552628544641 0.0
0.17012268269839947 -0.05109284642771606 0.0
0.19492491709652338 -0.05362030713781328 0.0
0.21968201651490996 -0.055459518247711136 0.0
0.24441809428602734 -0.05676624808446181 0.0
0.2691518629142708 -0.05766573710718646 0.0
0.29389643149389766 -0.05825791485453872 0.0
0.31866013037432417 -0.05862189208427787 0.0
0.34344757373599694 -0.05881974161963833 0.0
0.36826065617477 -0.05889966054769926 0.0
0.39309938465228444 -0.05889861485675578 0.0
0.41796253113511206 -0.05884454894265755 0.0
0.44284812349860214 -0.05875822574856491 0.0
0.46775380213395096 -0.05865475101359337 0.0
0.49267707015670315 -0.05854482672979324 0.0
0.5176154619613023 -0.058435772986502814 0.0
0.5425666506793648 -0.05833235283173682 0.0
0.5675285109835706 -0.05823743093069228 0.0
0.592499150056927 -0.05815249330636085 0.0
0.6174769165306241 -0.05807805216274453 0.0
0.6424603947606441 -0.05801395668252965 0.0
0.6674483898912765 -0.057959627772710604 0.0
0.6924399076581991 -0.05791423203274812 0.0
0.7174341317348075 -0.057876807766756994 0.0
0.7424304005531944 -0.057846353670171255 0.0
0.7674281848774429 -0.05782188889679866 0.0
0.7924270669240531 -0.05780249154812529 0.0
0.8174267214741042 -0.057787321208956764 0.0
0.8424268991734422 -0.057775629962267365 0.0
0.8674274120464084 -0.057766765328492786 0.0
0.8924281211361451 -0.05776016776619696 0.0
0.91742892611514 -0.05775536471792438 0.0
0.9424297566716662 -0.057751962664125724 0.0
0.9674305654619642 -0.05774963823810026 0.0
0.9924313224174615 -0.05774812913685423 0.0
1.0174320102057908 -0.05774722531983693 0.0
1.0424326206599293 -0.05774676080518413 0.0
1.067433152008619 -0.057746606239008264 0.0
1.0924336067613678 -0.05774666231709959 0.0
1.117433990121323 -0.05774685407156853 0.0
1.142434308818355 -0.057747125990512314 0.0
1.1674345702721474 -0.05774743791107964 0.0
1.1924347820107852 -0.05774776161089408 0.0
1.217434951284048 -0.05774807801615407 0.0
1.242435084822478 -0.057748374944159964 0.0
1.2674351887033206 -0.05774864530147178 0.0
1.292435268292849 -0.057748885664812566 0.0
1.3174353282415172 -0.05774909517910777 0.0
1.3424353725140004 -0.057749274714871644 0.0
1.3674354044407686 -0.05774942623495292 0.0
1.3924354267813797 -0.05774955232812898 0.0
1.4174354417925392 -0.05774965587386964 0.0
1.4424354512961288 -0.05774973980878927 0.0
1.4674354567440608 -0.05774980697068901 0.0
1.4924354592780307 -0.05774986000079217 0.0
1.517435459783152 -0.05774990128872378 0.0
1.5424354589350922 -0.05774993294812102 0.0
1.5674354572407305 -0.05774995681350317 0.0
1.592435455072708 -0.0577499744512633 0.0
1.6174354526983272 -0.0577499871794526 0.0
1.6424354503034315 -0.057749996092448616 0.0
1.6674354480118518 -0.057750002087733954 0.0
1.6924354459010569 -0.057750005892857996 0.0
1.717435444014573 -0.057750008091330914 0.0
1.7424354423717232 -0.05775000914666626 0.0
1.767435440975172 -0.05775000942414943 0.0
1.7924354398166926 -0.05775000921013763 0.0
1.817435438881571 -0.05775000872882675 0.0
1.8424354381519603 -0.057750008156483415 0.0
1.8674354376094278 -0.057750007633100474 0.0
1.8924354372366996 -0.05775000727137653 0.0
1.9174354370180533 -0.057750007163006246 0.0
1.942435436936501 -0.05775000738311294 0.0
1.9674354369637046 -0.057750007996828334 0.0
1.9924354370373276 -0.057750009079750135 0.0
0.0 0.0 0.0
0.02320313753997205 -0.012975844990881351 0.0
0.047938994198280134 -0.025746408090854645 0.0
0.0734870003897387 -0.03640991659153951 0.0
0.09879403494603374 -0.04458677508086136 0.0
0.12375194034732172 -0.050809120047710744 0.0
0.14843364545044205 -0.05550289733128393 0.0
0.17294013259926988 -0.05901561967735292 0.0
0.19735468961997676 -0.06161378411570546 0.0
0.2217378445488415 -0.06350518501265108 0.0
0.24613055845354453 -0.06485291712491315 0.0
0.270558795966955 -0.06578573671619799 0.0
0.29503755861950437 -0.06640537965353982 0.0
0.3195740824000145 -0.0667920134299371 0.0
0.34417026941785817 -0.06700843960508142 0.0
0.3688244987747016 -0.06710343775495696 0.0
0.3935329538043741 -0.06711448237330739 0.0
0.41829057864705377 -0.06706997706996536 0.0
0.44309175333678535 -0.06699110041461094 0.0
0.4679307568897555 -0.0668933298507481 0.0
0.492802072304253 -0.06678769418963323 0.0
0.5177005751843556 -0.06668179574553998 0.0
0.5426216381351208 -0.06658063705828525 0.0
0.5675611755556467 -0.06648728268897108 0.0
0.5925156475323166 -0.06640338291518515 0.0
0.6174820368731924 -0.066329582893673 0.0
0.6424578096701645 -0.06626583784281627 0.0
0.6674408669281879 -0.06621165198164355 0.0
0.6924294926014278 -0.0661662563527222 0.0
0.7174223016955341 -0.06612873827269573 0.0
0.7424181908283287 -0.06609813301316096 0.0
0.7674162927018475 -0.06607348642365228 0.0
0.7924159352563476 -0.0660538955654137 0.0
0.8174166057941105 -0.06603853301861805 0.0
0.8424179200310363 -0.06602665933977693 0.0
0.8674195958196138 -0.06601762715945056 0.0
0.8924214311581262 -0.06601087960033722 0.0
0.917423286034308 -0.06600594503935979 0.0
0.9424250676289246 -0.06600242971229257 0.0
0.9674267184118173 -0.06600000924505683 0.0
0.9924282066893022 -0.06599841987335067 0.0
1.0174295191995688 -0.06599744986517275 0.0
1.0424306553962237 -0.06599693147466106 0.0
1.0674316231054004 -0.06599673361820466 0.0
1.0924324352861603 -0.06599675536467696 0.0
1.1174331076655453 -0.06599692026229086 0.0
1.1424336570575893 -0.06599717147802214 0.0
1.1674341002093576 -0.06599746769608617 0.0
1.192434453046529 -0.06599777970510551 0.0
1.2174347302162782 -0.06599808759580449 0.0
1.2424349448465546 -0.06599837848957998 0.0
1.2674351084585833 -0.06599864472101614 0.0
1.2924352309840155 -0.06599888240276658 0.0
1.3174353208499927 -0.06599909030806876 0.0
1.3424353851048252 -0.06599926901364729 0.0
1.3674354295645186 -0.06599942025334023 0.0
1.3924354589661738 -0.06599954644007026 0.0
1.4174354771187936 -0.06599965032051396 0.0
1.4424354870453615 -0.06599973473292685 0.0
1.4674354911126293 -0.06599980244392788 0.0
1.4924354911467934 -0.06599985604470693 0.0
1.5174354885345351 -0.0659998978910669 0.0
1.5424354843097816 -0.0659999300750445 0.0
1.5674354792270482 -0.06599995441859237 0.0
1.5924354738225674 -0.06599997248206607 0.0
1.617435468464572 -0.06599998558205934 0.0
1.6424354633941003 -0.06599999481459283 0.0
1.6674354587576867 -0.06600000108077737 0.0
1.6924354546331875 -0.06600000511296887 0.0
1.7174354510498853 -0.06600000750008957 0.0
1.7424354480038793 -0.06600000871129068 0.0
1.7674354454696424 -0.06600000911748863 0.0
1.792435443408493 -0.06600000901054354 0.0
1.8174354417746315 -0.06600000861998001 0.0
1.8424354405193106 -0.06600000812717274 0.0
1.86743543959363 -0.0660000076768005 0.0
1.892435438950359 -0.06600000738507773 0.0
1.9174354385449628 -0.06600000734373346 0.0
1.9424354383348343 -0.06600000761819835 0.0
1.9674354382721044 -0.0660000082395704 0.0
1.992435438276897 -0.06600000919804964 0.0
0.0 0.0 0.0
0.025291719125237005 -0.017087630334377976 0.0
0.05289983500432873 -0.03284108202771439 0.0
0.0789442324705315 -0.044025849539680285 0.0
0.10389716385903221 -0.05238856689554058 0.0
0.1282203507262717 -0.05865516637864852 0.0
0.15222061367161774 -0.06337265260879602 0.0
0.17608497165936537 -0.06690850380927461 0.0
0.19992708274490412 -0.06953486399682178 0.0
0.22381495509436203 -0.07145856864431827 0.0
0.2477874297945334 -0.0728406941434043 0.0
0.2718643421577507 -0.07380803924324579 0.0
0.29605307609211245 -0.07446084297214091 0.0
0.32035295274723175 -0.07487826302972105 0.0
0.3447582428742715 -0.07512250961099395 0.0
0.36926026045804533 -0.07524209529102557 0.0
0.39384881819140144 -0.07527446295797803 0.0
0.4185132272396534 -0.07524814503136751 0.0
0.44324296632455334 -0.07518455005270856 0.0
0.46802810957470725 -0.07509944181788687 0.0
0.49285957912886463 -0.0750041593391999 0.0
0.5177292720798223 -0.07490661631696464 0.0
0.542630099313103 -0.07481211287295496 0.0
0.5675559646524373 -0.07472398815094189 0.0
0.5925017056336109 -0.07464413906718595 0.0
0.617463011680061 -0.07457342755088718 0.0
0.6424363311124303 -0.07451199587387089 0.0
0.6674187750495544 -0.07445950708293994 0.0
0.6924080236643376 -0.07441532512538979 0.0
0.7174022382942788 -0.07437864702255777 0.0
0.7423999814481324 -0.07434859742040432 0.0
0.7674001456928334 -0.0743242940433327 0.0
0.7924018916612319 -0.07430489100059755 0.0
0.817404594919316 -0.074289605537441 0.0
0.8424078011126006 -0.0742777326723334 0.0
0.86741118862788 -0.0742686511996718 0.0
0.8924145379208782 -0.07426182374383122 0.0
0.9174177066431876 -0.07425679290457156 0.0
0.9424206097306361 -0.07425317501486312 0.0
0.9674232036728616 -0.07425065262075935 0.0
0.9924254742578921 -0.0742489664712251 0.0
1.0174274271668218 -0.07424790755800018 0.0
1.0424290808760972 -0.07424730955777296 0.0
1.067430461404135 -0.07424704188926705 0.0
1.0924315985125597 -0.07424700349628727 0.0
1.1174325230386901 -0.07424711739592126 0.0
1.1424332650944808 -0.07424732598211516 0.0
1.1674338529178634 -0.07424758704314126 0.0
1.1924343122056993 -0.07424787043258306 0.0
1.2174346657938444 -0.07424815532386861 0.0
1.2424349335799503 -0.07424842797532948 0.0
1.2674351326091762 -0.07424867993415034 0.0
1.292435277262887 -0.07424890661181316 0.0
1.3174353795061913 -0.07424910616953993 0.0
1.3424354491626098 -0.0742492786589791 0.0
1.3674354941938238 -0.07424942537034603 0.0
1.3924355209697534 -0.07424954834700623 0.0
1.4174355345197645 -0.074249650031863 0.0
1.4424355387598318 -0.0742497330166881 0.0
1.467435536693366 -0.07424979987067537 0.0
1.4924355305854353 -0.07424985302896557 0.0
1.517435522111446 -0.0742498947257279 0.0
1.5424355124821412 -0.07424992695961279 0.0
1.5674355025472657 -0.07424995148207571 0.0
1.5924354928804028 -0.07424996980128466 0.0
1.6174354838475191 -0.07424998319610002 0.0
1.6424354756616135 -0.07424999273605963 0.0
1.667435468425701 -0.07424999930441879 0.0
1.6924354621661146 -0.07425000362217882 0.0
1.717435456857873 -0.07425000627171098 0.0
1.742435452443603 -0.0742500077190781 0.0
1.767435448847282 -0.07425000833452759 0.0
1.792435445983823 -0.07425000841086514 0.0
1.8174354437653544 -0.07425000817956708 0.0
1.8424354421048692 -0.07425000782449354 0.0
1.8674354409178153 -0.07425000749293972 0.0
1.8924354401221968 -0.0742500073033453 0.0
1.917435439637947 -0.07425000734809716 0.0
1.9424354393866956 -0.07425000768789349 0.0
1.9674354392922115 -0.0742500083311916 0.0
1.9924354392712387 -0.0742500091895321 0.0
0.0 0.0 0.0
0.03592966745022187 -0.026132789924278473 0.0
0.06298504007929702 -0.04088106951834424 0.0
0.08721406026721179 -0.05197671514239525 0.0
0.11050386720133726 -0.060165735779963696 0.0
0.13344502141917045 -0.0663694990987385 0.0
0.15632266872795983 -0.07107307351861093 0.0
0.17927954447260183 -0.07462874561837038 0.0
0.20239097293318498 -0.07729371851275416 0.0
0.2256933080396933 -0.0792659126437859 0.0
0.24919950472292224 -0.08070040990708617 0.0
0.2729080093318644 -0.08172014026419278 0.0
0.29680838911098933 -0.08242289090320677 0.0
0.3208850504365914 -0.08288635810925644 0.0
0.3451197650476625 -0.08317198130802152 0.0
0.3694933947088583 -0.08332798139821798 0.0
0.3939870522264882 -0.0833918346229016 0.0
0.4185828549452956 -0.0833923186231395 0.0
0.443264380698805 -0.08335121590871186 0.0
0.4680169074626964 -0.08328473259531058 0.0
0.49282749844867674 -0.0832046753700135 0.0
0.5176849800472193 -0.08311942130820064 0.0
0.5425798489353141 -0.08303471010894381 0.0
0.5675041358344143 -0.08295428482093577 0.0
0.5924512463122238 -0.08288040432532177 0.0
0.6174157933510942 -0.0828142483218891 0.0
0.6423934319260224 -0.08275623317436376 0.0
0.6673807023571736 -0.08270625467377882 0.0
0.6923748865583639 -0.08266387159232934 0.0
0.7173738793440159 -0.0826284418551903 0.0
0.7423760755492399 -0.08259922128324514 0.0
0.7673802727447486 -0.08257543317490869 0.0
0.7923855886911757 -0.0825563155086506 0.0
0.8173913922937331 -0.08254115125820502 0.0
0.8423972466207711 -0.08252928621103009 0.0
0.8674028624852078 -0.08252013775352753 0.0
0.8924080611141268 -0.08251319731686804 0.0
0.9174127445170464 -0.08250802854670837 0.0
0.9424168722835633 -0.0825042627501632 0.0
0.9674204436787353 -0.08250159276640188 0.0
0.9924234840474305 -0.08249976608674162 0.0
1.0174260346785327 -0.0824985778013262 0.0
1.0424281454109567 -0.08249786375933224 0.0
1.0674298693828344 -0.08249749418682384 0.0
1.0924312594313705 -0.08249736790129832 0.0
1.117432365743443 -0.08249740718649207 0.0
1.1424332344363348 -0.08249755333854183 0.0
1.1674339068149546 -0.08249776285962097 0.0
1.1924344191076346 -0.08249800425331168 0.0
1.2174348025283475 -0.08249825536376183 0.0
1.2424350835503313 -0.08249850119533468 0.0
1.2674352843058014 -0.08249873214889931 0.0
1.292435423049862 -0.08249894261350757 0.0
1.317435514645035 -0.08249912985674404 0.0
1.3424355710368439 -0.082499293162655 0.0
1.3674356017014389 -0.08249943317222867 0.0
1.3924356140540928 -0.08249955138745621 0.0
1.4174356138130566 -0.08249964980580561 0.0
1.4424356053172236 -0.08249973065728075 0.0
1.4674355917987172 -0.08249979622103269 0.0
1.4924355756132606 -0.08249984870272223 0.0
1.517435558432115 -0.0824998901574583 0.0
1.5424355413999156 -0.08249992244625631 0.0
1.5674355252627687 -0.08249994721653561 0.0
1.592435510470906 -0.08249996589932593 0.0
1.6174354972598568 -0.08249997971760394 0.0
1.6424354857137504 -0.08249998970158062 0.0
1.6674354758139374 -0.08249999670788603 0.0
1.6924354674756945 -0.08250000144046885 0.0
1.7174354605753528 -0.08250000447170602 0.0
1.7424354549698238 -0.0825000062627258 0.0
1.767435450510091 -0.08250000718231838 0.0
1.792435447049975 -0.0825000075240601 0.0
1.8174354444510792 -0.082500007521428 0.0
1.8424354425846339 -0.08250000736070003 0.0
1.8674354413306098 -0.08250000719131309 0.0
1.8924354405743053 -0.08250000713295018 0.0
1.9174354402005185 -0.08250000727771112 0.0
1.9424354400861907 -0.08250000768368125 0.0
1.9674354400967953 -0.08250000835133502 0.0
1.9924354401134174 -0.082500009173077 0.0

CELL_DATA 1600
SCALARS STRESS_VM float 1
LOOKUP_TABLE default
127.43091556857041
109.72034166207874
100.45506298800989
96.43759465905838
94.49222818749794
93.73499308296613
93.6312890984196
93.90235974191081
94.3796990098504
94.95900343295928
95.57378611317536
96.18177053289159
96.75677062184454
97.28359225513337
97.75461813140922
98.16742284964705
98.52305965463155
98.82481326291311
99.07729121232309
99.28576860334712
99.45572538290088
99.59253036804975
99.70123638866997
99.78645841432025
99.85231238441548
99.90239720447893
99.93980627065498
99.96715809038226
99.98663818051402
100.00004652697876
100.0088465554314
100.01421285791712
100.0170759087119
100.01816273971782
100.01803308144383
100.01711085272736
100.01571113668737
100.01406294191021
100.01232814032926
100.01061701614739
100.00900086814765
100.00752209258698
100.00620214403929
100.00504773363454
100.00405558241111
100.00321600550298
100.00251556239283
100.00193897106324
100.00147045005906
100.00109462269104
100.00079709180761
100.00056477164918
100.00038604484982
100.00025079731547
100.0001503713587
100.00007746733156
100.00002601603714
99.99999103784079
99.99996849963499
99.99995517702239
99.99994852631046
99.99994656889326
99.99994778914186
99.99995104588007
99.99995549689474
99.99996053543957
99.99996573762428
99.99997081923792
99.9999756008143
99.99997997954797
99.99998390694996
99.99998737107327
99.99999038235924
99.99999296214366
99.99999513315744
99.99999691146071
99.99999830009205
99.99999928640865
99.99999984887705
99.9999999932531
102.0243511115448
106.77742971388659
103.47672359225966
100.40241039349377
98.40819350151064
97.2447013667966
96.6663787368577
96.47345858062079
96.52725419553587
96.7318401143075
97.0214524019721
97.35125177913427
97.6911334351811
98.0214579240229
98.33005040362761
98.6100413266197
98.85828680069794
99.074201801997
99.25889646482406
99.41453984085183
99.54389672860657
99.64999691609673
99.73590558456237
99.80457042781839
99.85872621450271
99.90084159589684
99.93309624334626
99.95737906701851
99.97530043747854
99.98821308616701
99.99723776588945
100.00329086289752
100.00711201683512
100.00929046669603
100.01028933737314
100.01046744550922
100.01009846284536
100.00938745354624
100.00848491855429
100.00749855031478
100.00650293798408
100.00554747613445
100.00466272658531
100.00386546925449
100.00316265777771
100.00255447243845
100.00203663874328
100.00160215628617
100.00124256023086
100.0009488173835
100.00071194081826
100.00052339120114
100.00037531946752
100.00026069408986
100.00017334668622
100.00010796186928
100.00006003104996
100.00002578458968
100.00000211303721
99.99998648475066
99.99997686500538
99.99997163984337
99.99996954654965
99.99996961169373
99.99997109701071
99.99997345295436
99.99997627938068
99.99997929272419
99.99998229896063
99.9999851715183
99.99998783347779
99.999990243303
99.99999238354815
99.99999425199711
99.99999585490815
99.99999720205922
99.99999830320218
99.9999991635926
99.999999766918
100.00000000138652
93.98600054301296
98.28612740172086
100.53314510603433
100.3611237058693
99.65480662667828
99.00905168432524
98.56159255008917
98.31162853564018
98.21844560738096
98.23782928545108
98.33189720526195
98.47111825066445
98.6336310530749
98.8039001309155
98.97134611619032
99.12915395135842
99.27329788623867
99.40176877454589
99.51397386339879
99.6102780455535
99.69165878914822
99.75945123598368
99.81516405270604
99.86035018694392
99.89651968813399
99.92508426089175
99.94732530446886
99.96437892274301
99.9772328204222
99.98673117703798
99.99358454716845
99.99838260528942
100.00160816434976
100.00365137433083
100.00482337316275
100.005368937903
100.00547788656148
100.00529512580268
100.00492933967782
100.00446038019821
100.0039454608054
100.00342427513561
100.00292317183407
100.0024585153639
100.00203935611239
100.00166952289415
100.00134923911041
100.00107635103953
100.00084724453626
100.00065751457826
100.00050244150789
100.0003773182561
100.0002776645481
100.00019935700635
100.00013869799575
100.00009244102942
100.0000577865424
100.00003235832841
100.00001416847597
100.00000157629076
99.99999324522415
99.99998810049739
99.99998528912018
99.99998414333517
99.99998414801418
99.99998491219759
99.99998614456221
99.99998763273472
99.9999892259807
99.99999082096872
99.99999235023758
99.99999377297203
99.99999506781522
99.99999622735236
99.99999725393148
99.99999815598579
99.99999894283116
99.9999996120216
100.00000011573728
100.00000028471403
89.72213155699055
93.73590229084326
96.76819506249095
98.51502668980922
99.21203035048649
99.42230764761752
99.44607229764785
99.4196025648255
99.39716678673388
99.3953968479305
99.41533713188315
99.45241615680929
99.50082572518117
99.55527130328979
99.61154251115241
99.66657339557796
99.71830432440997
99.76548591255248
99.80748509812526
99.8441161411793
99.87550253877205
99.90196875045675
99.92395799492691
99.94197172654897
99.95652657489268
99.96812500887248
99.97723654520603
99.98428686550162
99.98965270256043
99.99366079283264
99.996589566399
99.99867256082473
100.00010280472259
100.0010376265543
100.00160350991312
100.0019007447051
100.00200772021661
100.00198477715699
100.00187758611247
100.00172005438722
100.00153678556143
100.00134512924751
100.00115686545483
100.0009795700062
100.00081770669726
100.00067348906077
100.00054755068669
100.00043945865853
100.00034810012812
100.00027196763796
100.00020936471908
100.00015854962551
100.00011783177163
100.0000856326454
100.0000605206309
100.00004122698266
100.0000266488095
100.00001584329453
100.00000801648387
100.0000025090405
99.99999878060866
99.9999963940463
99.99999500029176
99.99999432433314
99.99999415255013
99.99999432161512
99.99999470882513
99.99999522395377
99.9999958024167
99.99999639970574
99.99999698692103
99.99999754735097
99.99999807387755
99.9999985669947
99.99999903299751
99.99999948113842
99.99999991735274
100.0000003299349
100.00000066151637
100.00000076847627
87.22738124994815
90.80479191325449
94.01993780090635
96.45566718241109
98.07671681163124
99.05599788310916
99.62424990077989
99.94489041484042
100.11945986662704
100.20808955465414
100.24602088140861
100.25411983932932
100.24497325042945
100.22633037341014
100.20303536564393
100.17812979025506
100.15350076698275
100.13027776147041
100.10908625036438
100.09021624637849
100.07373743732772
100.05957908728028
100.0475857033275
100.03755558247714
100.02926710197858
100.02249620826667
100.01702761192216
100.01266152285184
100.00921726743965
100.00653476493817
100.0044745707571
100.00291699546116
100.00176066243682
100.000920760736
100.00032717179464
99.99992259195135
99.9996607314217
99.99950464010156
99.99942518875706
99.99939971839166
99.99941085960094
99.99944551600471
99.99949400111431
99.99954931494001
99.99960654523802
99.99966237806738
99.99971470247158
99.99976229523767
99.99980457279827
99.99984139863426
99.99987293610458
99.99989953786611
99.99992166452138
99.99993982613674
99.99995454161045
99.99996631150893
99.99997560117055
99.99998283115376
99.99998837312039
99.99999254936934
99.99999563482281
99.99999786054443
99.99999941808986
100.00000046420244
100.00000112553874
100.0000015031957
100.00000167691321
100.00000170891421
100.00000164733302
100.0000015292822
100.00000138358726
100.00000123324969
100.00000109753758
100.00000099362248
100.00000093734413
100.0000009421185
100.00000101448028
100.00000114454848
100.00000129184002
100.00000137395703
85.63427521686775
88.9040389149978
92.05105339137278
94.75585967801075
96.85989908987032
98.37725999057285
99.41045811841657
100.08221093826333
100.49601448220453
100.73016218945966
100.8414741743171
100.8706256890266
100.84661629797333
100.79004329466206
100.7154170272252
100.63280314140137
100.54900898920731
100.46845804420326
100.39384407872618
100.32662425747039
100.26739093257383
100.21615039697028
100.17252968887082
100.13592775121819
100.10562378546715
100.08085297197496
100.06085760018895
100.04491992688152
100.03238168206728
100.02265401454466
100.0152207680778
100.0096372659362
100.00552622197073
100.00257196158226
100.00051380077569
99.99913917566157
99.9982769217171
99.99779095789134
99.9975745249904
99.9975450515178
99.99763966684569
99.99781134542086
99.99802564273816
99.99825797024478
99.99849134988294
99.99871458728737
99.998920804363
99.99910627574762
99.99926951871893
99.99941059161455
99.9995305617822
99.99963110939524
99.99971423897588
99.99978207489151
99.999836721567
99.99988017264369
99.99991425645388
99.99994060791352
99.99996065906777
99.99997564225858
99.99998660151822
99.99999440878635
99.99999978253986
100.0000033071922
100.00000545208029
100.00000658928981
100.00000700998298
100.00000693895926
100.00000654742763
100.00000596404738
100.00000528442033
100.0000045790699
100.00000390005907
100.00000328624253
100.00000276697631
100.00000236388664
100.00000209038168
100.00000194933816
100.00000193164003
100.00000202246444
84.5886999048349
87.63879520494092
90.6835104237018
93.4687450628541
95.82009271733673
97.67131018139307
99.04459048206488
100.0088046484874
100.64659946840331
101.03561797263171
101.24173770016094
101.31795658782775
101.30552614976321
101.23575600025289
101.13185907773824
101.0106155015218
100.88379381798534
100.7593291811156
100.64227971774999
100.53558927874793
100.44068585029102
100.35794343658735
100.28703258795844
100.22718160854467
100.17736722792
100.13645040388026
100.10327008272336
100.07670524839827
100.05571346228389
100.03935231774625
100.02678877604863
100.01730017264559
100.0102697434063
100.00517877931881
100.00159693998363
99.99917180986242
99.99761844097853
99.99670936945934
99.99626540371742
99.99614734405473
99.99624869590535
99.99648937187379
99.9968103339688
99.9971691008698
99.99753603100439
99.99789128702695
99.99822238833998
99.99852226303581
99.99878771809334
99.99901825506493
99.999215167549
99.9993808655198
99.99951837991722
99.9996310086406
99.99972207169026
99.99979474947098
99.99985198303347
99.99989641976211
99.99993039133008
99.99995591386504
99.99997470273915
99.99998819624683
99.99999758400216
100.00000383719686
100.00000773860373
100.00000991109535
100.00001084387674
100.00001091602631
100.00001041717094
100.00000956543735
100.00000852274131
100.00000740766413
100.00000630614723
100.00000528012959
100.00000437438806
100.00000362168078
100.00000304683255
100.00000267119573
100.00000252035125
100.00000264005267
83.90838789558813
86.81038699761169
89.76419097613449
92.56169761713153
95.03327137853545
97.08090068505966
98.67940382399266
99.8575450589184
100.67369807017555
101.19649875690726
101.49277235732717
101.62156522165371
101.63198117869963
101.56311313808015
101.44499401279477
101.29994921096322
101.14401704108184
100.98827002897598
100.83996501398477
100.70350203152582
100.58119911005052
100.47390278671789
100.3814586964095
100.30306676399539
100.23754353145668
100.18351124279594
100.13953018960473
100.10418785187335
100.07615571974766
100.05422240994379
100.03730979339115
100.0244772976117
100.01491829544673
100.00795149592362
100.00300947021005
99.9996258375712
99.99742216966342
99.99609531829046
99.99540560864035
99.9951661474309
99.99523335802078
99.99549875917042
99.99588194093776
99.99632465189543
99.9967858897878
99.99723787855187
99.99766281372393
99.99805026315849
99.99839511858136
99.99869600376769
99.99895405628638
99.99917201114269
99.99935352498663
99.99950268974686
99.99962369309985
99.99972059115659
99.99979716530883
99.99985684103417
99.99990265109673
99.99993722964057
99.99996282678612
99.99998133611356
99.99999432921655
100.00000309340231
100.00000866968001
100.00001188917886
100.00001340690085
100.00001373217162
100.00001325550362
100.00001227193799
100.00001100098775
100.00000960342642
100.00000819537392
100.00000685981847
100.00000565631207
100.00000462927451
100.00000381613198
100.00000325689562
100.00000300788787
100.00000316278673
83.49660850491316
86.30681130149506
89.19728587178777
91.98655154586481
94.51360965789569
96.66818757541279
98.40091572783902
99.71560429085078
100.65253197978645
101.27093765261347
101.63539594726943
101.80714192256741
101.83958338394804
101.7766811290129
101.6530360382156
101.49485195773799
101.32124837660501
101.14562122724746
100.97689701153284
100.82061423710086
100.67981609286448
100.55576408421328
100.44849393030549
100.35723868494259
100.28074356788908
100.21749457997585
100.16587984327602
100.12429940161265
100.09123625023905
100.0652987662403
100.04524251427355
100.02997758763429
100.0185661721321
100.0102138427053
100.00425717281279
100.00014951165943
99.99744622566622
99.99579027649919
99.9948986905108
99.99455024145081
99.99457450097708
99.99484229470973
99.9952575234862
99.9957502600231
99.99627100290753
99.99678595681753
99.99727320537629
99.99771964747994
99.9981185769931
99.99846779711173
99.99876817316057
99.99902254047034
99.99923489595209
99.99940981345931
99.9995520332586
99.9996661847291
99.99975660953618
99.99982725885035
99.99988164403011
99.99992282467022
99.9999534217138
99.9999756464706
99.9999913386602
100.00000200872921
100.00000888090871
100.00001293488748
100.00001494455849
100.00001551313792
100.00001510428712
100.00001406912494
100.00001266942824
100.00001109714775
100.00000949090288
100.00000794965942
100.00000654454013
100.00000532954718
100.00000435252656
100.00000366818136
100.0000033552567
100.00000354026153
83.3019516221134
86.06821903613145
88.92664074030967
91.7079850740491
94.25641776709546
96.45782051758547
98.25271160514949
99.63332692029664
100.63062474406782
101.29834003756521
101.69908306918305
101.8945843244252
101.94006884107529
101.88179282010448
101.75662114061839
101.59273697396019
101.41086404900012
101.22562711489192
101.04684845163483
100.8806869128927
100.73058897563848
100.59805481791273
100.48323830296233
100.38540559226306
100.30327764177879
100.23527979869837
100.17971864222096
100.13490291705264
100.09922229504238
100.07119494372103
100.04949253238097
100.03294935815832
100.02056068816658
100.01147414183437
100.00497693108274
100.00048098956957
99.99750741533097
99.99567118955424
99.99466678799935
99.99425504708964
99.99425146335406
99.99451597665607
99.99494420141596
99.99546001508004
99.99600938139277
99.99655527069002
99.99707353612202
99.99754960863055
99.99797588282837
99.99834967770076
99.99867166930757
99.99894470610379
99.99917293035381
99.99936114135433
99.99951434687975
99.9996374590309
99.99973509905487
99.99981148264841
99.99987036354393
99.9999150179028
99.9999482562539
99.99997245295184
99.99998958580133
100.00000128051701
100.00000885628197
100.00001336998652
100.00001565750436
100.00001637116316
100.00001601296422
100.00001496355337
100.00001350700114
100.00001185181272
100.00001014858289
100.0000085048823
100.00000699818091
100.00000568784374
100.00000462755868
100.00000388002815
100.00000353573408
100.00000373781724
83.30195162211264
86.06821903613061
88.9266407403089
91.70798507404834
94.2564177670944
96.4578205175847
98.25271160514858
99.63332692029553
100.63062474406682
101.29834003756444
101.6990830691826
101.89458432442434
101.94006884107432
101.88179282010385
101.75662114061734
101.59273697395999
101.41086404899963
101.22562711489087
101.04684845163361
100.88068691289206
100.73058897563836
100.59805481791159
100.48323830296266
100.38540559226257
100.30327764177825
100.235279798698
100.17971864222095
100.13490291705148
100.09922229504171
100.0711949437207
100.04949253238081
100.03294935815822
100.02056068816694
100.01147414183302
100.00497693108402
100.00048098956962
99.99750741533168
99.99567118955392
99.99466678799863
99.99425504708897
99.9942514633551
99.99451597665706
99.99494420141392
99.9954600150803
99.99600938139243
99.99655527068867
99.99707353612303
99.99754960863093
99.99797588282831
99.99834967770077
99.99867166930926
99.99894470610376
99.99917293035419
99.99936114135735
99.99951434687937
99.99963745903113
99.9997350990541
99.99981148264662
99.99987036354253
99.99991501790176
99.99994825625289
99.99997245295127
99.99998958580274
100.000001280517
100.00000885628197
100.00001336998788
100.00001565750375
100.00001637116378
100.00001601296356
100.00001496355392
100.00001350699762
100.00001185181118
100.0000101485835
100.00000850488176
100.00000699818216
100.00000568784176
100.00000462756138
100.0000038800289
100.0000035357367
100.00000373781424
83.49660850491075
86.30681130149262
89.19728587178535
91.98655154586234
94.51360965789304
96.66818757541034
98.40091572783638
99.71560429084776
100.65253197978376
101.27093765261088
101.63539594726733
101.80714192256468
101.8395833839458
101.77668112901064
101.65303603821329
101.49485195773605
101.32124837660314
101.14562122724551
100.97689701153072
100.82061423709831
100.67981609286315
100.55576408421193
100.44849393030489
100.35723868494134
100.28074356788771
100.21749457997542
100.1658798432753
100.12429940160979
100.0912362502373
100.0652987662407
100.0452425142718
100.02997758763127
100.01856617213305
100.01021384270264
100.00425717281304
100.00014951166013
99.99744622566662
99.99579027649817
99.99489869050909
99.99455024145286
99.99457450097982
99.99484229471017
99.99525752348522
99.99575026002204
99.99627100290584
99.99678595681544
99.99727320537659
99.99771964748165
99.99811857699585
99.99846779711251
99.99876817316158
99.99902254047203
99.99923489595126
99.99940981346248
99.99955203326033
99.99966618473104
99.9997566095351
99.99982725884837
99.99988164402517
99.99992282466677
99.99995342171435
99.99997564646834
99.9999913386609
100.00000200873117
100.00000888090858
100.0000129348894
100.00001494455329
100.00001551313777
100.00001510428507
100.0000140691261
100.00001266941932
100.00001109714734
100.00000949090551
100.00000794965757
100.00000654454
100.00000532954508
100.00000435252863
100.00000366818358
100.00000335526269
100.00000354026277
83.90838789558404
86.81038699760755
89.76419097613022
92.56169761712724
95.03327137853113
97.0809006850552
98.67940382398797
99.85754505891447
100.67369807017134
101.1964987569026
101.49277235732285
101.62156522164915
101.63198117869625
101.56311313807645
101.44499401279124
101.29994921095896
101.14401704107807
100.98827002897404
100.83996501398289
100.70350203152192
100.58119911004746
100.47390278671664
100.38145869640772
100.30306676399364
100.23754353145547
100.18351124279438
100.13953018960214
100.10418785187024
100.07615571974459
100.05422240994437
100.0373097933901
100.02447729760955
100.01491829544294
100.00795149592255
100.00300947021005
99.99962583757107
99.99742216966165
99.99609531828875
99.99540560863875
99.99516614743429
99.9952333580259
99.99549875916998
99.99588194093856
99.99632465189502
99.996785889782
99.99723787855204
99.99766281372293
99.99805026315951
99.99839511858575
99.99869600376825
99.99895405629111
99.9991720111422
99.99935352498736
99.99950268974558
99.9996236931042
99.99972059115623
99.99979716530576
99.99985684103486
99.99990265109507
99.9999372296354
99.99996282678488
99.99998133611312
99.99999432921655
100.00000309340562
100.00000866968008
100.0000118891795
100.0000134068954
100.0000137321659
100.0000132554992
100.00001227193283
100.0000110009781
100.00000960342815
100.0000081953738
100.00000685981772
100.00000565631409
100.00000462927412
100.00000381613422
100.00000325690122
100.00000300789087
100.00000316279167
84.58869990482918
87.638795204935
90.6835104236957
93.46874506284789
95.82009271733021
97.67131018138657
99.04459048205865
100.00880464848183
100.64659946839703
101.03561797262554
101.24173770015445
101.31795658782173
101.30552614975798
101.23575600024782
101.13185907773394
101.01061550151707
100.88379381798022
100.75932918111167
100.642279717747
100.53558927874332
100.44068585028661
100.35794343658493
100.28703258795638
100.22718160854244
100.17736722791807
100.13645040387748
100.1032700827207
100.07670524839526
100.05571346227977
100.03935231774462
100.02678877604791
100.01730017264516
100.01026974340084
100.00517877931594
100.00159693998219
99.99917180986301
99.99761844097682
99.99670936945763
99.99626540371675
99.99614734405579
99.99624869590971
99.99648937187588
99.99681033396695
99.99716910087051
99.99753603100203
99.9978912870259
99.99822238833829
99.99852226303673
99.99878771809635
99.99901825506682
99.99921516755516
99.99938086551927
99.99951837991922
99.99963100863843
99.99972207169415
99.99979474946701
99.99985198303203
99.99989641976036
99.99993039132869
99.99995591385904
99.99997470273941
99.99998819624754
99.99999758400484
100.0000038372008
100.0000077386023
100.00000991108982
100.00001084387236
100.0000109160179
100.00001041716436
100.00000956543089
100.00000852273503
100.00000740766382
100.00000630614315
100.0000052801296
100.00000437439222
100.00000362168383
100.00000304683772
100.00000267120082
100.00000252035342
100.00000264005118
85.63427521686029
88.90403891498997
92.05105339136473
94.75585967800245
96.85989908986193
98.37725999056454
99.41045811840876
100.0822109382553
100.4960144821966
100.73016218945162
100.84147417430914
100.8706256890192
100.84661629796638
100.79004329465552
100.71541702722003
100.63280314139627
100.54900898920194
100.46845804419638
100.39384407872171
100.32662425746437
100.267390932569
100.21615039696698
100.17252968886793
100.13592775121514
100.10562378546369
100.08085297197218
100.06085760018534
100.04491992687855
100.03238168206433
100.02265401454066
100.01522076807578
100.00963726593433
100.0055262219673
100.00257196157877
100.00051380077052
99.99913917566114
99.99827692171648
99.99779095789006
99.99757452499188
99.99754505151932
99.99763966684715
99.99781134542226
99.9980256427379
99.9982579702452
99.998491349884
99.9987145872864
99.99892080436231
99.99910627575062
99.99926951871973
99.99941059161769
99.99953056178428
99.9996311093992
99.99971423897554
99.99978207489008
99.99983672156495
99.99988017264069
99.99991425645285
99.99994060790982
99.99996065906237
99.99997564225606
99.99998660152085
99.99999440878624
99.99999978254257
100.00000330719757
100.00000545207625
100.00000658928087
100.00000700997595
100.00000693895616
100.00000654741922
100.00000596404296
100.00000528441878
100.00000457906839
100.00000390005759
100.00000328624041
100.00000276697823
100.00000236388942
100.00000209038122
100.00000194933631
100.0000019316468
100.00000202246407
87.22738124993884
90.80479191324454
94.0199378008961
96.45566718240062
98.07671681162105
99.05599788309902
99.6242499007699
99.94489041483041
100.11945986661794
100.20808955464445
100.24602088139969
100.25411983932041
100.24497325042121
100.2263303734018
100.20303536563748
100.17812979024889
100.15350076697636
100.13027776146355
100.10908625035798
100.0902162463729
100.07373743732104
100.05957908727576
100.0475857033229
100.03755558247381
100.02926710197427
100.02249620826218
100.01702761191764
100.0126615228493
100.00921726743512
100.00653476493292
100.00447457075454
100.00291699545983
100.0017606624324
100.0009207607342
100.0003271717932
99.99992259194858
99.99966073141962
99.99950464010294
99.9994251887575
99.99939971839225
99.99941085960089
99.99944551600443
99.99949400111832
99.99954931493842
99.999606545237
99.99966237806838
99.99971470247432
99.9997622952404
99.99980457279733
99.99984139863584
99.9998729361045
99.99989953787001
99.99992166451872
99.99993982613799
99.99995454160387
99.99996631150749
99.99997560116651
99.9999828311495
99.999988373117
99.99999254937283
99.9999956348201
99.99999786054468
99.99999941809267
100.00000046420251
100.00000112553619
100.00000150319305
100.00000167691024
100.00000170890972
100.00000164732452
100.00000152927589
100.0000013835856
100.00000123324806
100.00000109753725
100.00000099362033
100.00000093734471
100.00000094211767
100.00000101447552
100.0000011445465
100.00000129184288
100.00000137396106
89.7221315569791
93.73590229083106
96.76819506247847
98.51502668979667
99.2120303504739
99.42230764760554
99.44607229763585
99.41960256481366
99.39716678672325
99.39539684791995
99.41533713187276
99.45241615679943
99.50082572517167
99.55527130328063
99.61154251114405
99.66657339557136
99.71830432440176
99.76548591254502
99.80748509811798
99.84411614117379
99.87550253876323
99.90196875045163
99.92395799492076
99.94197172654462
99.9565265748873
99.96812500886625
99.97723654520306
99.9842868654972
99.98965270255614
99.99366079282699
99.9965895663932
99.99867256082271
100.00010280471989
100.00103762655188
100.00160350991335
100.00190074470304
100.0020077202152
100.00198477715857
100.00187758611169
100.00172005438674
100.00153678555994
100.00134512924771
100.00115686545671
100.00097957000541
100.00081770669583
100.00067348906136
100.00054755068959
100.00043945865987
100.00034810012693
100.00027196763834
100.00020936472082
100.00015854962896
100.0001178317701
100.00008563264441
100.00006052062525
100.00004122697919
100.00002664880705
100.00001584328894
100.00000801648261
100.00000250904357
99.99999878060322
99.99999639404862
99.99999500029237
99.99999432432975
99.99999415254742
99.99999432161184
99.99999470882494
99.99999522395092
99.99999580241528
99.99999639969954
99.99999698691596
99.99999754734864
99.99999807387657
99.99999856699301
99.99999903299381
99.99999948113748
99.9999999173494
100.0000003299343
100.00000066151453
100.00000076847955
93.98600054299908
98.28612740170603
100.53314510601926
100.36112370585455
99.65480662666367
99.0090516843111
98.56159255007536
98.31162853562697
98.21844560736879
98.23782928543916
98.33189720525039
98.47111825065333
98.633631053065
98.80390013090518
98.97134611618074
99.12915395135002
99.27329788622846
99.40176877453649
99.51397386339107
99.61027804554618
99.6916587891406
99.75945123597792
99.81516405269879
99.86035018693784
99.89651968812869
99.92508426088443
99.94732530446468
99.96437892273721
99.9772328204195
99.98673117703302
99.99358454716236
99.9983826052854
100.0016081643464
100.00365137433018
100.0048233731611
100.00536893790193
100.00547788656012
100.00529512580292
100.00492933967702
100.00446038019676
100.00394546080389
100.00342427513509
100.00292317183326
100.0024585153654
100.0020393561116
100.00166952289668
100.00134923911172
100.00107635104087
100.0008472445346
100.00065751457863
100.00050244151436
100.0003773182563
100.00027766454743
100.0001993570033
100.00013869799128
100.00009244102537
100.00005778654145
100.0000323583271
100.00001416847273
100.0000015762874
99.99999324521802
99.99998810049736
99.99998528912113
99.99998414333113
99.99998414800991
99.99998491218994
99.99998614455924
99.99998763273663
99.99998922598351
99.99999082096487
99.9999923502328
99.99999377297046
99.99999506781286
99.99999622734997
99.99999725392918
99.99999815598491
99.99999894282895
99.99999961201806
100.00000011573593
100.00000028471385
102.02435111152785
106.77742971386841
103.47672359224202
100.40241039347691
98.40819350149437
97.24470136678082
96.66637873684236
96.47345858060594
96.52725419552188
96.73184011429413
97.02145240195935
97.35125177912127
97.69113343516959
98.0214579240116
98.33005040361684
98.61004132660939
98.85828680068717
99.07420180198655
99.25889646481433
99.4145398408445
99.54389672859895
99.64999691608841
99.73590558455473
99.80457042781092
99.8587262144972
99.90084159589021
99.9330962433394
99.95737906701366
99.97530043747443
99.98821308616247
99.99723776588712
100.00329086289304
100.00711201683166
100.00929046669465
100.01028933737182
100.01046744550919
100.01009846284332
100.00938745354544
100.0084849185508
100.00749855031188
100.00650293798317
100.00554747613421
100.00466272658379
100.0038654692534
100.0031626577797
100.00255447244245
100.00203663874404
100.00160215628894
100.00124256023096
100.00094881738526
100.00071194082129
100.00052339119844
100.00037531946678
100.0002606940889
100.00017334668429
100.00010796186992
100.00006003104907
100.00002578458627
100.00000211303245
99.99998648474461
99.99997686499832
99.99997163983952
99.9999695465502
99.9999696116876
99.99997109700436
99.99997345294939
99.99997627937718
99.99997929272426
99.99998229896218
99.9999851715165
99.9999878334752
99.99999024330276
99.99999238354583
99.99999425199488
99.99999585490937
99.99999720205739
99.99999830320431
99.99999916359134
99.99999976691726
100.0000000013854
127.43091556854718
109.72034166205788
100.45506298799042
96.43759465903989
94.49222818748015
93.73499308294892
93.63128909840277
93.90235974189429
94.37969900983444
94.95900343294436
95.57378611316099
96.18177053287788
96.75677062183111
97.28359225512109
97.75461813139682
98.16742284963487
98.52305965462044
98.82481326290255
99.07729121231242
99.28576860333865
99.45572538289177
99.59253036804044
99.7012363886605
99.78645841431161
99.85231238440932
99.90239720447204
99.93980627064884
99.9671580903771
99.98663818051058
100.00004652697407
100.00884655542988
100.01421285791386
100.01707590870937
100.01816273971373
100.01803308144174
100.01711085272733
100.01571113668606
100.01406294190741
100.0123281403247
100.01061701614522
100.00900086814755
100.00752209258532
100.00620214403757
100.00504773363383
100.00405558241424
100.0032160055077
100.00251556239134
100.0019389710641
100.00147045006355
100.00109462269347
100.00079709180531
100.00056477164986
100.00038604485191
100.00025079731329
100.00015037135671
100.00007746733273
100.00002601603327
99.99999103783617
99.9999684996301
99.99995517701979
99.99994852630493
99.99994656888688
99.99994778913447
99.99995104587505
99.99995549688843
99.99996053543808
99.99996573762098
99.99997081923723
99.99997560081168
99.99997997954658
99.99998390694654
99.99998737107445
99.99999038235985
99.99999296214625
99.99999513315808
99.99999691145952
99.99999830009233
99.99999928641023
99.99999984888119
99.99999999325381
SCALARS STRESS_XX float 1
LOOKUP_TABLE default
130.70695524812584
110.03341930558001
100.990766767641
96.62773413057765
94.60699260597296
93.79652464655923
93.66494228516805
93.91861240908975
94.3852809917885
94.95801068694338
95.56888661932048
96.17471565330177
96.74871683813019
97.27529503276985
97.74655856712513
98.15989268587835
98.51622002548486
98.81873599068172
99.07198816074326
99.281212643751
99.45186536242406
99.58930173133326
99.69856862184837
99.78428015420101
99.8505548102516
99.90099617036766
99.9387035218012
99.96630182226194
99.98598313710197
99.99955378649615
100.00848311536909
100.01395110256821
100.01689302016203
100.0180400958418
100.01795567091176
100.01706672661348
100.01569090836557
100.01405934106747
100.01233562268733
100.01063142754796
100.00901915972119
100.00754208256814
100.00622232119362
100.00506709710184
100.0040735128709
100.00323216287985
100.0025298057327
100.00195129668235
100.00148094456456
100.00110342794765
100.00080437937005
100.00057072459876
100.00039084533681
100.00025461842253
100.00015337218207
100.00007979040062
100.00002778639187
99.99999236323559
99.99996947147676
99.99995587174521
99.99994900697305
99.99994688684788
99.99994798567293
99.99995115374563
99.99995554173444
99.99996053702272
99.99996571094111
99.99997077542572
99.9999755479391
99.99997992323944
99.99998385091128
99.99998731746966
99.99999033209967
99.99999291506136
99.99999508811679
99.99999686644635
99.99999825254365
99.99999923473969
99.9999997999359
99.99999998750285
105.7972562043836
109.18155308021656
104.89934549572227
101.3850673842951
99.01763142291783
97.62260917446959
96.88962884405599
96.59535401627126
96.58277257122718
96.74471011183493
97.00779626664921
97.32203761160994
97.65376539685201
97.98085888229953
98.28941050784005
98.57134369473506
98.82267954378275
99.04226229783681
99.23081915250867
99.39026937525624
99.52322195743805
99.63261671336188
99.72147444410787
99.79272949216964
99.84912382513127
99.89314631851765
99.92700451458809
99.95261903179663
99.97163313121851
99.98543181417402
99.99516630981023
100.00178097810652
100.00604055891942
100.00855638930719
100.00981073020053
100.01017872491205
100.00994778502813
100.00933438827806
100.00849839813577
100.00755509198993
100.00658512684296
100.00564268852004
100.00476207010982
100.00396291393348
100.00325433281353
100.00263810432935
100.00211110822988
100.00166715387768
100.00129832244583
100.00099592822983
100.00075118532524
100.00055564992645
100.00040149480618
100.00028166088342
100.00018992107978
100.00012088359007
100.00006995532922
100.0000332807766
100.00000766768245
99.99999050747168
99.99997969590807
99.99997355762058
99.999970776644
99.99997033412065
99.99997145359235
99.9999735538265
99.99997620870795
99.99997911361959
99.99998205763988
99.99998490072974
99.99998755527069
99.9999899711874
99.99999212411772
99.99999400609384
99.99999561850038
99.99999696724872
99.99999806056447
99.99999890962144
99.99999952766636
99.99999990213571
99.95467316001594
102.64704526290699
103.64861851233508
102.50734088658204
101.12065776815314
99.9727877872355
99.17160166128555
98.67451204971846
98.41170892632049
98.31695850083406
98.33645042607188
98.42906066106406
98.56451404601752
98.72117607509198
98.8840645988766
99.0432067070666
99.19233253964359
99.32785799892066
99.44810354004251
99.55270151328632
99.64215219947413
99.71749604665469
99.78007597293667
99.83136886743334
99.87286971710631
99.90601526853199
99.93213694717771
99.95243502553156
99.9679678558284
99.9796514443658
99.98826580792625
99.9944654731122
99.99879220047634
100.00168857479059
100.00351153125385
100.00454521101403
100.00501277934568
100.00508701419294
100.00489959600527
100.00454911377689
100.00410785678775
100.00362749389544
100.00314375896001
100.00268026635028
100.00225157827764
100.00186563855411
100.0015256775439
100.00123168144238
100.00098150743699
100.00077171458392
100.00059816952086
100.00045647623489
100.00034227037071
100.00025141098418
100.00018009606079
100.0001249225895
100.00008290752257
100.000051481989
100.00002846833544
100.00001204685096
100.00000071731787
99.99999325895752
99.99998869114643
99.99998623645811
99.99998528694982
99.99998537418476
99.99998614296105
99.99998732883739
99.99998873905471
99.99999023662853
99.9999917272726
99.99999314877317
99.99999446258029
99.9999956473153
99.99999669406108
99.9999976030944
99.99999838131974
99.99999903737503
99.99999956635882
99.99999990859122
97.07424607447173
99.71339861146907
101.38823319187064
101.94009826903333
101.65928331544926
101.1162524234639
100.57251929057031
100.13037865831586
99.81004037260293
99.59985214677275
99.47809795004919
99.42247792418516
99.41359574859746
99.43588020874513
99.47743746325537
99.52952289359688
99.58593155613178
99.6424304605752
99.69627515046125
99.74581749032217
99.79019698682262
99.82910312555838
99.86259567917836
99.89097116593383
99.91466541453444
99.93418399152432
99.9500538637578
99.96279103976167
99.97288006374947
99.980762152107
99.98682949736146
99.99142385082021
99.99483795930783
99.99731879703562
99.99907181923611
100.00026568550581
100.00103707026199
100.00149530617631
100.00172670190173
100.00179844534577
100.00176205364228
100.00165636529303
100.00151009294939
100.00134396921115
100.00117252568937
100.00100554874308
100.00084925537618
100.00070723085497
100.00058116639183
100.00047143132869
100.00037751011068
100.00029833023005
100.00023250335758
100.00017849828559
100.00013476114177
100.00009979528535
100.00007221116964
100.00005075405393
100.0000343159552
100.00002193670606
100.00001279773952
100.00000621145753
100.00000160817076
99.99999852203004
99.99999657694258
99.99999547320633
99.99999497509886
99.99999489981639
99.9999951077139
99.99999549394148
99.99999598137838
99.99999651486935
99.99999705660045
99.99999758252254
99.99999807964639
99.99999854356058
99.99999897488472
99.99999937178569
99.99999971445658
99.9999999405502
95.62608436914026
97.97028372548105
99.84888497118321
100.99096360066652
101.46637070816297
101.49505583449998
101.31124035560822
101.0560733176316
100.80245279922302
100.58128535552264
100.40166712870695
100.26241190874977
100.1582124810304
100.08267312925102
100.029683478467
99.99394857745612
99.97111432164154
99.95771424361205
99.95104987993497
99.94905743758834
99.95018341450351
99.95327720353336
99.95750200549851
99.9622626023676
99.96714763054898
99.97188390674258
99.97630059246222
99.98030130808499
99.98384262733968
99.98691766473712
99.98954370543048
99.99175302264784
99.99358618877754
99.99508731886681
99.99630079459648
99.99726910707876
99.99803153150145
99.99862340781027
99.99907585185377
99.99941576209405
99.99966601991629
99.99984580755957
99.99997098856045
100.00005451152663
100.00010681045237
100.00013618429772
100.00014914520231
100.00015073002994
100.00014477339427
100.00013414265473
100.0001209371181
100.00010665442333
100.00009232774464
100.00007863735799
100.00006600033726
100.0000546415642
100.00004464936919
100.00003601828257
100.00002868154246
100.00002253523313
100.00001745585395
100.00001331276732
100.00000997669449
100.00000732521865
100.00000524608313
100.00000363888218
100.00000241562478
100.00000150056852
100.00000082956441
100.00000034917497
100.00000001572049
99.99999979441253
99.9999996585486
99.99999958883265
99.99999957263361
99.99999960259267
99.99999967365365
99.99999977723546
99.99999989227841
99.99999997699729
94.80483254482655
96.94338800087255
98.79832395067564
100.18301011437504
101.05154659488215
101.49013317546155
101.63022064050062
101.59265374735332
101.46190981062459
101.29082952476045
101.10993492399504
100.93573667618416
100.7764124812293
100.63535977960524
100.51330709538445
100.40954042715653
100.32260896706269
100.25073119844672
100.19202924070015
100.14466375837259
100.10691004259648
100.077198286426
100.05413145352742
100.03648886945048
100.02322071922963
100.01343691723692
100.00639274887433
100.0014729729151
99.9981755692146
99.99609594312828
99.99491211639935
99.99437122155881
99.99427745849802
99.99448155724752
99.9948717109357
99.99536589014582
99.99590541834147
99.9964496718317
99.99697176325427
99.99745507062177
99.99789048241023
99.99827424043764
99.99860627531356
99.99888894246105
99.99912607979998
99.99932232031234
99.99948260384984
99.99961184239824
99.99971470165387
99.99979546901264
99.99985798453473
99.99990561631785
99.99994126631432
99.9999673957156
99.99998606211715
99.99999896265147
100.00000747900181
100.00001272161019
100.00001557130719
100.00001671724453
100.00001669073633
100.00001589478298
100.00001462938876
100.0000131129888
100.00001150030175
100.00000989698759
100.00000837161579
100.00000696526754
100.00000569917532
100.0000045807421
100.00000360831969
100.00000277489764
100.00000207096103
100.00000148661385
100.00000101293084
100.0000006422894
100.00000036743764
100.00000017938535
100.00000006544198
100.00000001140516
94.32273830357916
96.30935367310964
98.10599587306851
99.5730581788262
100.64586526023905
101.3396719984539
101.72204972870225
101.87546374104603
101.87460099842835
101.77738659419595
101.62541958414224
101.44718463464116
101.26151580402495
101.08041337916315
100.91112830486098
100.75764725761066
100.62174021765209
100.5037003662254
100.40286872841305
100.31800658117278
100.24755848293835
100.18983559795137
100.14314042895752
100.10584839930974
100.0764578262699
100.05361703132142
100.03613525050429
100.02298241120266
100.01328159676184
100.00629704252978
100.0014197394642
99.9981521231021
99.99609286409341
99.9949224256302
99.99438979103786
99.99430057329195
99.99450658236664
99.99489683300531
99.9953899151219
99.99592761256949
99.99646963755316
99.99698934175842
99.99747026772177
99.99790341187604
99.99828508183204
99.99861524317541
99.99889626443242
99.99913198159823
99.99932701594243
99.99948628969348
99.99961469414498
99.9997168732153
99.99979709281655
99.99985917269946
99.9999064623441
99.99994184705395
99.99996777339517
99.9999862863407
99.99999907226454
100.00000750378561
100.00001268379776
100.00001548688911
100.00001659709845
100.00001654160175
100.00001572006995
100.0000144298988
100.000012887557
100.00001124640922
100.00000961137616
100.00000805095391
100.00000660688227
100.00000530187637
100.00000414574643
100.00000314007437
100.00000228174801
100.00000156536676
100.00000098491948
100.00000053552361
100.00000021679011
100.00000004093154
94.03650238382488
95.91951321623405
97.65951661807382
99.14970534610039
100.3239961610307
101.1686895155477
101.71281319435069
102.0093397921216
102.11749156533952
102.09190335355609
101.97787796471897
101.8106022452143
101.61613191684344
101.4129703322261
101.21367657726945
101.02628715558168
100.85549228632554
100.70357360548316
100.57113315257864
100.45764876765296
100.36188920891371
100.28221810382085
100.21681117676104
100.16380680075544
100.1214060523018
100.08793515781993
100.06188047707563
100.04190391425227
100.0268448150122
100.01571293436908
100.00767588722327
100.00204356987861
99.99825132207626
99.9958430470718
99.99445508940859
99.99380135936973
99.993659966793
99.99386146635852
99.99427870654652
99.99481820252575
99.99541290998845
99.99601625405357
99.99659725925014
99.99713662845646
99.99762362669611
99.99805363803611
99.99842627774598
99.9987439565402
99.99901080832318
99.9992319063103
99.99941270477558
99.99955865497849
99.99967495307915
99.99976638656359
99.99983725235035
99.99989132583168
99.99993186471772
99.9999616356202
99.99998295427335
99.99999773288722
100.00000752991345
100.00001359920799
100.00001693637348
100.0000183212215
100.00001835566937
100.00001749687897
100.00001608578344
100.00001437126313
100.00001253032089
100.00001068477215
100.00000891485287
100.00000727015284
100.00000577843865
100.00000445246741
100.00000329549742
100.000002305679
100.00000148018087
100.00000081992548
100.00000033662599
100.00000006405878
93.87492121206932
95.69315354054685
97.3926578855709
98.88500077492712
100.10769403192381
101.03487720629519
101.67578305573892
102.06468230702316
102.24858479857475
102.27697694930231
102.19531212659211
102.04185756729775
101.84686294851495
101.63302638459747
101.41655383444038
101.20838963011738
101.0153966666099
100.84138724438769
100.68797410845744
100.55524612354151
100.44228857178527
100.3475731448877
100.26924253714434
100.20531202772469
100.15380710525295
100.1128528009434
100.08072730423733
100.05588976438659
100.0369899511948
100.02286562701701
100.01253201988553
100.0051666299061
100.0000916960754
99.99675595252059
99.9947167717729
99.99362339496666
99.99320165609352
99.9932403973961
99.99357962611185
99.99410036444648
99.99471608244279
99.99536556766154
99.99600706914151
99.99661354973647
99.99716888641498
99.99766486925493
99.99809886409895
99.99847201931463
99.99878791302184
99.999051552278
99.9992686496949
99.99944511587533
99.9995867169792
99.99969885662037
99.99978644957663
99.99985386148741
99.99990489483457
99.9999428058116
99.99997034078638
99.99998978389995
100.00000300974348
100.00001153698801
100.0000165800591
100.00001909726062
100.00001983420081
100.00001936226107
100.00001811191206
100.00001640119872
100.00001445972815
100.00001244853082
100.00001047643164
100.0000086132074
100.00000690031337
100.00000535929414
100.0000039987415
100.00000282025398
100.000001824272
100.00000101692953
100.00000041920202
100.00000007989584
93.80179049967141
95.58889158369101
97.26765673396581
98.75802131472241
99.99996213137369
100.96339823811822
101.64920094412325
102.08292996153135
102.30515716597063
102.36208677637612
102.29855700984992
102.15391511784559
101.96027233885113
101.74234679633982
101.51817957256742
101.30022097088258
101.0964838757515
100.91160659391348
100.747758886244
100.605376309138
100.48373377319011
100.38138004654914
100.2964576801182
100.2269316207347
100.17074689945572
100.12593243707846
100.09066477960582
100.06330270989017
100.04240125265724
100.02671159116072
100.01517180120044
100.00689202837334
100.00113673169133
99.99730584176527
99.99491609071566
99.99358332716481
99.99300630196359
99.99295217393595
99.99324381844436
99.99374890912604
99.99437067072809
99.99504015829676
99.99570989684919
99.9963487093922
99.99693756519761
99.99746629044783
99.99793099783281
99.99833210730407
99.99867284685928
99.99895813799621
99.99919378543606
99.99938590423497
99.99954052924473
99.99966336250993
99.9997596228568
99.99983396957023
99.9998904783132
99.99993265232732
99.9999634564164
99.99998536421867
100.0000004120438
100.00001025450293
100.00001621876456
100.00001935538319
100.00002048449596
100.0000202369069
100.00001908984751
100.00001739763694
100.000015417537
100.00001333133186
100.00001126301005
100.00000929317119
100.00000747062887
100.00000582174698
100.00000435814538
100.00000308349017
100.00000200023084
100.0000011175022
100.00000046124168
100.00000008793657
93.80179049967057
95.58889158369014
97.26765673396501
98.75802131472165
99.99996213137263
100.96339823811745
101.64920094412233
102.08292996153027
102.30515716596962
102.36208677637532
102.29855700984949
102.1539151178447
101.96027233885022
101.74234679633929
101.51817957256638
101.30022097088246
101.09648387575099
100.9116065939125
100.74775888624279
100.60537630913721
100.4837337731899
100.38138004654782
100.29645768011856
100.22693162073415
100.17074689945524
100.12593243707816
100.09066477960586
100.06330270988883
100.04240125265648
100.02671159116035
100.01517180120021
100.00689202837306
100.0011367316917
99.99730584176385
99.99491609071728
99.99358332716474
99.99300630196427
99.99295217393555
99.99324381844376
99.9937489091253
99.99437067072911
99.99504015829795
99.99570989684706
99.9963487093927
99.99693756519724
99.99746629044635
99.99793099783388
99.99833210730435
99.99867284685938
99.99895813799617
99.99919378543788
99.99938590423501
99.999540529245
99.9996633625132
99.99975962285649
99.99983396957077
99.99989047831266
99.9999326523257
99.99996345641505
99.99998536421765
100.0000004120427
100.00001025450202
100.00001621876592
100.00001935538322
100.00002048449599
100.00002023690834
100.00001908984666
100.00001739763778
100.00001541753626
100.00001333133284
100.00001126300664
100.00000929317011
100.00000747062975
100.00000582174597
100.00000435814701
100.00000308348788
100.00000200023376
100.00000111750279
100.00000046124482
100.00000008793418
93.87492121206672
95.69315354054427
97.3926578855684
98.88500077492459
100.10769403192113
101.03487720629272
101.67578305573628
102.06468230702019
102.24858479857217
102.27697694929971
102.19531212659008
102.04185756729491
101.84686294851271
101.63302638459528
101.41655383443805
101.20838963011535
101.01539666660797
100.84138724438584
100.68797410845548
100.55524612353884
100.4422885717838
100.34757314488628
100.26924253714398
100.20531202772352
100.15380710525154
100.11285280094319
100.08072730423667
100.05588976438347
100.03698995119305
100.02286562701772
100.01253201988379
100.00516662990279
100.0000916960766
99.99675595251757
99.99471677177344
99.99362339496734
99.99320165609377
99.99324039739498
99.99357962611003
99.99410036444864
99.99471608244563
99.99536556766172
99.99600706914035
99.99661354973546
99.99716888641318
99.99766486925286
99.9980988640994
99.99847201931642
99.9987879130247
99.99905155227856
99.999268649696
99.99944511587714
99.99958671697772
99.99969885662345
99.99978644957831
99.99985386148974
99.99990489483359
99.9999428058103
99.99997034078166
99.99998978389642
100.00000300974443
100.00001153698527
100.00001658005976
100.00001909726294
100.00001983420104
100.00001936226347
100.00001811190585
100.00001640119899
100.00001445972602
100.00001244853264
100.0000104764224
100.00000861320818
100.00000690031638
100.00000535929163
100.00000399874175
100.00000282025198
100.0000018242741
100.00000101693135
100.00000041920877
100.00000007989752
94.03650238382046
95.9195132162297
97.65951661806943
99.14970534609603
100.32399616102637
101.16868951554322
101.71281319434594
102.00933979211764
102.1174915653353
102.09190335355139
101.97787796471465
101.8106022452097
101.61613191684012
101.41297033222234
101.21367657726591
101.02628715557726
100.85549228632166
100.70357360548132
100.57113315257676
100.45764876764878
100.36188920891048
100.28221810381973
100.2168111767594
100.1638068007537
100.12140605230057
100.08793515781835
100.06188047707302
100.04190391424909
100.026844815009
100.01571293437
100.00767588722223
100.00204356987669
99.99825132207245
99.99584304707079
99.99445508940856
99.99380135936997
99.99365996679136
99.9938614663567
99.99427870654455
99.99481820252936
99.9954129099938
99.99601625405236
99.99659725925063
99.99713662845622
99.99762362669001
99.99805363803684
99.99842627774487
99.99874395654128
99.9990108083279
99.99923190631023
99.99941270478064
99.99955865497739
99.9996749530798
99.999766386562
99.9998372523552
99.99989132583134
99.99993186471451
99.99996163562092
99.99998295427152
99.99999773288192
100.0000075299128
100.00001359920782
100.00001693637347
100.00001832122527
100.00001835566923
100.00001749687975
100.00001608577766
100.00001437125789
100.00001253031725
100.00001068476789
100.000008914843
100.00000727015559
100.00000577843886
100.00000445246684
100.00000329549964
100.0000023056778
100.00000148018265
100.00000081993095
100.00000033662832
100.00000006406351
94.32273830357298
96.30935367310344
98.10599587306227
99.57305817881996
100.64586526023251
101.3396719984474
101.72204972869602
101.87546374104056
101.874600998422
101.7773865941898
101.62541958413578
101.44718463463529
101.26151580401985
101.08041337915799
100.91112830485669
100.75764725760588
100.62174021764683
100.5037003662214
100.4028687284102
100.31800658116802
100.24755848293368
100.18983559794894
100.14314042895545
100.10584839930745
100.07645782626804
100.05361703131868
100.03613525050181
100.02298241119985
100.01328159675762
100.00629704252835
100.00141973946356
99.9981521231019
99.9960928640877
99.9949224256276
99.99438979103657
99.99430057329283
99.99450658236485
99.99489683300355
99.99538991512115
99.99592761257053
99.99646963755794
99.99698934176048
99.99747026771924
99.99790341187673
99.99828508182947
99.99861524317441
99.9988962644306
99.99913198159949
99.99932701594574
99.99948628969493
99.99961469415138
99.99971687321431
99.99979709281875
99.99985917269655
99.99990646234879
99.99994184704937
99.99996777339388
99.99998628633901
99.99999907226317
100.00000750377892
100.0000126837983
100.00001548688978
100.00001659710145
100.00001654160639
100.00001572006865
100.00001442989323
100.0000128875533
100.00001124640106
100.00000961137056
100.0000080509481
100.0000066068761
100.00000530187698
100.00000414574211
100.00000314007434
100.00000228175212
100.00000156536895
100.00000098492374
100.00000053552803
100.00000021679203
100.00000004093033
94.8048325448185
96.94338800086435
98.7983239506674
100.18301011436668
101.05154659487378
101.49013317545321
101.63022064049287
101.59265374734532
101.46190981061672
101.29082952475241
101.10993492398707
100.9357366761769
100.77641248122248
100.63535977959863
100.5133070953793
100.40954042715147
100.32260896705738
100.25073119843974
100.19202924069613
100.14466375836649
100.1069100425916
100.07719828642271
100.0541314535244
100.03648886944727
100.02322071922612
100.01343691723416
100.00639274887065
100.0014729729122
99.99817556921168
99.99609594312429
99.99491211639767
99.99437122155729
99.99427745849447
99.99448155724409
99.99487171093043
99.99536589014562
99.99590541834066
99.99644967183009
99.99697176325552
99.9974550706229
99.99789048241149
99.998274240439
99.99860627531304
99.99888894246125
99.99912607980097
99.99932232031118
99.9994826038491
99.9996118424016
99.99971470165437
99.99979546901572
99.9998579845368
99.99990561632244
99.99994126631397
99.99996739571432
99.999986062115
99.99999896264809
100.00000747900073
100.0000127216061
100.00001557130133
100.00001671724125
100.00001669073836
100.0000158947822
100.00001462939163
100.00001311299471
100.00001150029735
100.00000989697841
100.00000837160908
100.00000696526537
100.00000569916713
100.00000458073842
100.00000360831861
100.00000277489646
100.00000207095985
100.00000148661184
100.00000101293325
100.00000064229212
100.00000036743654
100.00000017938282
100.00000006544923
100.00000001140381
95.62608436913021
97.97028372547065
99.84888497117277
100.99096360065592
101.46637070815275
101.49505583448986
101.3112403555983
101.05607331762161
100.80245279921405
100.58128535551295
100.4016671286981
100.2624119087409
100.15821248102226
100.0826731292426
100.02968347846074
99.99394857745007
99.97111432163511
99.95771424360504
99.95104987992862
99.9490574375829
99.95018341449666
99.95327720352891
99.9575020054937
99.96226260236439
99.9671476305446
99.97188390673801
99.97630059245775
99.98030130808277
99.98384262733522
99.98691766473199
99.98954370542829
99.99175302264682
99.99358618877284
99.99508731886516
99.99630079459521
99.99726910707597
99.99803153149934
99.99862340781172
99.99907585185396
99.99941576209494
99.9996660199164
99.99984580755911
99.99997098856495
100.00005451152465
100.00010681045129
100.00013618429884
100.00014914520516
100.00015073003281
100.00014477339305
100.00013414265673
100.00012093711827
100.00010665442804
100.00009232774165
100.00007863735968
100.00006600032961
100.00005464156293
100.00004464936477
100.00003601827758
100.0000286815378
100.00002253523654
100.00001745585001
100.00001331276688
100.0000099766972
100.00000732521853
100.00000524607992
100.00000363887916
100.00000241562238
100.00000150056503
100.00000082955643
100.00000034916887
100.00000001571962
99.99999979441168
99.99999965854926
99.99999958883069
99.99999957263451
99.99999960259228
99.99999967364862
99.99999977723319
99.99999989228105
99.99999997699966
97.0742460744594
99.7133986114564
101.38823319185795
101.94009826902072
101.65928331543662
101.11625242345204
100.57251929055842
100.13037865830402
99.81004037259244
99.59985214676219
99.4780979500388
99.42247792417534
99.41359574858792
99.43588020873594
99.47743746324696
99.5295228935904
99.58593155612337
99.6424304605678
99.69627515045397
99.74581749031712
99.79019698681374
99.82910312555353
99.86259567917196
99.89097116592957
99.9146654145291
99.93418399151805
99.95005386375539
99.9627910397575
99.97288006374558
99.98076215210163
99.9868294973559
99.99142385081858
99.9948379593049
99.99731879703316
99.99907181923666
100.00026568550368
100.00103707026061
100.00149530617836
100.00172670190118
100.0017984453457
100.00176205364112
100.00165636529367
100.00151009295189
100.00134396921061
100.00117252568803
100.00100554874403
100.00084925537975
100.00070723085649
100.00058116639008
100.00047143132895
100.0003775101124
100.00029833023352
100.00023250335545
100.00017849828441
100.00013476113539
100.00009979528187
100.00007221116722
100.00005075404745
100.00003431595357
100.00002193670929
100.00001279773274
100.00000621146022
100.0000016081716
99.99999852202642
99.99999657693965
99.99999547320252
99.99999497509923
99.99999489981377
99.99999510771255
99.99999549393512
99.99999598137393
99.99999651486779
99.9999970566003
99.99999758252173
99.99999807964335
99.99999854356035
99.99999897488095
99.99999937178487
99.99999971445402
99.99999994055194
99.95467316000114
102.64704526289171
103.6486185123198
102.50734088656725
101.12065776813857
99.97278778722145
99.17160166127177
98.67451204970533
98.41170892630844
98.3169585008221
98.33645042606024
98.42906066105282
98.56451404600772
98.72117607508177
98.8840645988672
99.04320670705846
99.19233253963334
99.32785799891136
99.44810354003504
99.55270151327913
99.64215219946644
99.71749604664905
99.78007597292931
99.83136886742732
99.87286971710132
99.90601526852477
99.93213694717407
99.95243502552597
99.96796785582652
99.97965144436111
99.98826580792023
99.99446547310829
99.99879220047268
100.00168857478981
100.00351153125197
100.00454521101305
100.00501277934421
100.0050870141935
100.00489959600476
100.00454911377562
100.00410785678658
100.00362749389544
100.00314375895951
100.00268026635244
100.00225157827711
100.00186563855735
100.00152567754539
100.00123168144387
100.0009815074351
100.00077171458422
100.00059816952766
100.0004564762345
100.00034227036997
100.00025141098094
100.00018009605618
100.00012492258514
100.00008290752139
100.00005148198744
100.00002846833252
100.00001204684828
100.00000071731138
99.99999325895756
99.99998869114764
99.99998623645374
99.99998528694582
99.99998537417724
99.99998614295865
99.99998732883975
99.99998873905739
99.99999023662377
99.99999172726757
99.99999314877215
99.99999446257874
99.99999564731384
99.99999669405939
99.99999760309404
99.9999983813179
99.99999903737171
99.99999956635739
99.99999990858954
105.79725620436577
109.181553080198
104.89934549570454
101.38506738427822
99.01763142290164
97.62260917445391
96.88962884404073
96.5953540162565
96.5827725712133
96.74471011182163
97.00779626663653
97.32203761159695
97.65376539684067
97.98085888228832
98.28941050782957
98.57134369472497
98.82267954377203
99.04226229782654
99.23081915249898
99.39026937524903
99.52322195743041
99.63261671335354
99.7214744441003
99.7927294921622
99.84912382512611
99.89314631851116
99.9270045145815
99.95261903179225
99.97163313121474
99.98543181416959
99.99516630980817
100.00178097810193
100.00604055891596
100.00855638930578
100.00981073019896
100.0101787249121
100.00994778502597
100.00933438827755
100.00849839813232
100.00755509198743
100.00658512684268
100.00564268852048
100.00476207010868
100.00396291393251
100.00325433281579
100.0026381043338
100.00211110823044
100.00166715388046
100.0012983224456
100.00099592823153
100.00075118532854
100.00055564992354
100.00040149480556
100.00028166088222
100.00018992107736
100.00012088359082
100.0000699553289
100.00003328077405
100.00000766767842
99.99999050746612
99.99997969590135
99.99997355761687
99.99997077664493
99.99997033411421
99.9999714535863
99.99997355382186
99.99997620870451
99.99997911361945
99.99998205764099
99.99998490072714
99.99998755526758
99.99998997118789
99.99999212411609
99.99999400609204
99.99999561850207
99.99999696724615
99.99999806056645
99.99999890961978
99.99999952766578
99.99999990213382
130.7069552481017
110.03341930555911
100.99076676762147
96.62773413055918
94.60699260595517
93.79652464654201
93.66494228515124
93.9186124090732
94.3852809917725
94.95801068692849
95.56888661930626
96.17471565328809
96.7487168381167
97.27529503275747
97.74655856711269
98.15989268586625
98.51622002547374
98.81873599067107
99.07198816073237
99.28121264374244
99.45186536241467
99.58930173132381
99.69856862183865
99.78428015419227
99.85055481024565
99.9009961703606
99.93870352179526
99.9663018222572
99.98598313709893
99.99955378649145
100.00848311536792
100.01395110256486
100.01689302015978
100.01804009583748
100.0179556709097
100.01706672661356
100.01569090836402
100.01405934106472
100.0123356226829
100.01063142754604
100.0090191597214
100.00754208256627
100.00622232119188
100.00506709710119
100.00407351287402
100.00323216288497
100.00252980573052
100.00195129668272
100.00148094456911
100.0011034279501
100.0008043793674
100.00057072459946
100.0003908453389
100.00025461841966
100.00015337217982
100.00007979040247
100.00002778638816
99.9999923632313
99.999969471472
99.99995587174313
99.99994900696746
99.99994688684187
99.99994798566586
99.99995115374107
99.99995554172831
99.99996053702158
99.99996571093729
99.99997077542498
99.99997554793596
99.99997992323806
99.99998385090774
99.99998731747145
99.99999033210051
99.99999291506445
99.9999950881176
99.9999968664446
99.9999982525431
99.99999923474071
99.99999979994011
99.99999998750356
SCALARS STRESS_YY float 1
LOOKUP_TABLE default
25.042976052077055
2.1407342097740796
1.345246846625647
0.43108328880838526
0.23730435093902774
0.12334587354902424
0.06810551627848509
0.034949444937910114
0.014745696485021513
0.002024000387307672
-0.0059009848868745675
-0.010641738440702824
-0.013209464623913533
-0.014286192315800729
-0.014351281292625256
-0.013750957896301551
-0.0127379049848388
-0.011496018628998171
-0.01015717381192082
-0.008813444039387587
-0.007526474501751913
-0.006334883112547692
-0.005260166758197911
-0.004311405375768295
-0.0034889708948607546
-0.002787406770216854
-0.002197620471460638
-0.0017085142128208323
-0.0013081639022708277
-0.000984641404455309
-0.0007265607629018156
-0.0005234154114658572
-0.0003657609819707905
-0.00024528729461528904
-0.0001548137046876033
-8.823400284845155e-05
-4.043058664128176e-05
-7.1723225436501e-06
1.4993599891967905e-05
2.884877157344394e-05
3.66050223274728e-05
3.99974766520831e-05
4.036776121149135e-05
3.873690758902474e-05
3.586808473236524e-05
3.231975628088879e-05
2.849007964735173e-05
2.4653489619279706e-05
2.09904639701232e-05
1.7611426665714672e-05
1.4575683597027656e-05
1.1906230994009477e-05
9.601164760663908e-06
7.642319816533888e-06
6.001702742247297e-06
4.646166229948364e-06
3.540722600650423e-06
2.650795165372511e-06
1.943685524727152e-06
1.3894462091749062e-06
9.613252440730414e-07
6.3590923732816e-07
3.9306224675573317e-07
2.1573130339481778e-07
8.967961650664908e-08
3.1665479808645263e-09
-5.336607187635765e-08
-8.762417974097062e-08
-1.0575018629266475e-07
-1.1261691911513754e-07
-1.1207725694216025e-07
-1.0720712381160979e-07
-1.0051906163137807e-07
-9.416455028520213e-08
-9.008127278145472e-08
-9.002871020575853e-08
-9.509678422855498e-08
-1.0333793430939436e-07
-9.788229435448313e-08
-1.1500517138147947e-08
26.689523860451764
13.616993955754593
5.195570243582071
2.6216227111720745
1.3801420783234901
0.7838578106698784
0.44829869966577807
0.24853879928842218
0.1233879229330843
0.043433036584303725
-0.007586323088089297
-0.03925927947085068
-0.057683255812980276
-0.06695578023806707
-0.06994961637912223
-0.06873282221970513
-0.06481284270092356
-0.05928864071721015
-0.05295289014820733
-0.04636533957895135
-0.03990819603058471
-0.033829256782024066
-0.028275986728075776
-0.023322495529709497
-0.018990756139056743
-0.01526709142921839
-0.012114774890601634
-0.00948346743743083
-0.00731611175904586
-0.00555381553504597
-0.004139171611436083
-0.003018386954682962
-0.002142523571377943
-0.0014680942879053147
-0.0009572045892261384
-0.0005773882096513808
-0.00030124835278164813
-0.0001059874336217906
2.7114837476770714e-05
0.00011323320116160343
0.00016451045311581265
0.00019053533173181707
0.00019877478649228363
0.0001949562520645615
0.000183399347274321
0.00016729898242822452
0.00014896342021644669
0.00013001171519704847
0.00011153532435087561
9.422868922608142e-05
7.849339053020485e-05
6.45201136473101e-05
5.235225008811963e-05
4.193448567060798e-05
3.314928128275068e-05
2.584370122911204e-05
1.9848687408574897e-05
1.4992433168485491e-05
1.110931496525185e-05
8.045450540552592e-06
5.661807487116582e-06
3.835554641139511e-06
2.460188857502025e-06
1.4448544479541525e-06
7.131643589665253e-07
2.0174562584686812e-07
-1.4134404096280209e-07
-3.5820786972763526e-07
-4.826403450085789e-07
-5.415761501580087e-07
-5.564134337479929e-07
-5.442306112668893e-07
-5.188603752582896e-07
-4.91806196001477e-07
-4.7281529447136843e-07
-4.696208514441831e-07
-4.852753339302084e-07
-5.079422766177477e-07
-4.785032550482026e-07
-1.9850162830371673e-07
27.712437091199938
18.331675870783677
10.640784398161385
5.914403814361453
3.4670148739590645
2.0724786702506512
1.2463399572708946
0.7300885213445482
0.39757646001725194
0.17992469448876033
0.03769134167418031
-0.0533387978776972
-0.10888265413834172
-0.13965055742800228
-0.15320906777582183
-0.15503123428988905
-0.1491215496397936
-0.13841244706712766
-0.12503283819043953
-0.11050109460764111
-0.0958702119302388
-0.08184027577725261
-0.06884689858759231
-0.05713100795530656
-0.04679367286273875
-0.037838743817192586
-0.030205545872799205
-0.023793499390967653
-0.018480259404516385
-0.01413472121824504
-0.010626023073086589
-0.007829482158532663
-0.005630227742807971
-0.00392514466081072
-0.002623611621073729
-0.0016474105619397337
-0.000930093967508738
-0.0004160245212757601
-5.9243565795341766e-05
0.00017772063958405323
0.00032502907441283896
0.00040664335896821094
0.00044134310942480767
0.00044363434749793883
0.0004245442315322338
0.00039230425816926597
0.0003529285569228284
0.00031069644027627595
0.00026854973036143505
0.00022841567209074722
0.00019146601469641154
0.00015832216177385242
0.00012921539227362663
0.00010411015077569445
8.279737288934917e-05
6.496379651509294e-05
5.024231126228665e-05
3.824749261748146e-05
2.8599796204831e-05
2.0941151343860568e-05
1.4944197763763827e-05
1.0316922649868583e-05
6.80405284480017e-06
4.186246465605915e-06
2.2778726227675383e-06
9.239762587349865e-07
-3.2000530466295852e-09
-6.077923418018324e-07
-9.738498222638878e-07
-1.1686785213692922e-06
-1.2459284078103524e-06
-1.248396480409898e-06
-1.2104689323277766e-06
-1.1600734238391358e-06
-1.1197402936025623e-06
-1.1057824355985107e-06
-1.1230226137970795e-06
-1.1492930221725057e-06
-1.098756868700855e-06
-7.52245625570542e-07
27.977550680547893
20.757246786682106
14.142913932058061
9.161350341925477
5.833164876145013
3.7160879957302657
2.34413576378008
1.4399814830707072
0.8344103737223402
0.4263347203814303
0.15276174645906634
-0.02708723214352816
-0.14075313846814755
-0.207513868694487
-0.24124021339581897
-0.2520897246890759
-0.24756075666194313
-0.23318488270706625
-0.21300806306042225
-0.18994213136997812
-0.166031532137103
-0.1426607631720659
-0.12071769012251315
-0.1007224646406361
-0.08292885987252363
-0.06740319582330617
-0.05408501818163982
-0.04283299435975043
-0.03345894502405696
-0.025752469066883103
-0.01949821660600175
-0.014487507928353283
-0.010525683086497492
-0.007436295379867344
-0.005063030428822263
-0.0032700381980115636
-0.0019412048286050103
-0.0009787605476182133
-0.00030151538241333264
0.00015706810721713888
0.0004508199294594378
0.0006227293052901482
0.0007066732584277797
0.0007289743486961181
0.0007097739585520833
0.0006642207515469686
0.0006034826226519847
0.0005355958041378094
0.00046616765475438946
0.00039895076900372373
0.000336305961802184
0.00027957080885845036
0.0002293490827195237
0.00018573481737457247
0.00014848307303668646
0.00011713775373132746
9.112533708232307e-05
6.982183381744e-05
5.259909353792469e-05
3.8855397370229115e-05
2.8034287326531152e-05
1.9634830549792843e-05
1.3215759895645907e-05
8.395394397520614e-06
4.848785999629827e-06
2.3031842763698145e-06
5.325498947168646e-07
-6.482721271572336e-07
-1.3894029919747788e-06
-1.8115261515459157e-06
-2.011083313116248e-06
-2.064961642770511e-06
-2.034552930834134e-06
-1.968943373278502e-06
-1.9067015365832397e-06
-1.8751552004609093e-06
-1.884935710497753e-06
-1.9162982518321433e-06
-1.8941194709049985e-06
-1.6558520786419926e-06
28.159345061162753
22.133326338068933
16.416128820152196
11.628448822232608
7.992528850878533
5.382264518529184
3.5522748597116798
2.273322162835184
1.3804265460251195
0.7593947869183538
0.33212276812509073
0.044267277882373356
-0.1428115626167964
-0.25718605536002653
-0.31958667431418547
-0.345471071195273
-0.34639682588474524
-0.33097291479284247
-0.3055489334998713
-0.27473366682398515
-0.24179620177324568
-0.20898141686864508
-0.17775992448247485
-0.14902606568862
-0.12325390272239356
-0.10061897223009537
-0.08109213430867551
-0.06451081033776895
-0.05063206744267094
-0.03917129685153861
-0.02982961215947359
-0.022312547605573996
-0.016342159865876355
-0.011664225706517125
-0.008051878205052437
-0.0053067312018199855
-0.0032582995519518715
-0.001762325706006169
-0.0006984649331210834
3.234362778642224e-05
0.0005105904790010949
0.0008008389655263992
0.0009541997425928256
0.0010105796397581093
0.0010006780351373376
0.000947724848208741
0.0008689681964122114
0.0007769286802941942
0.0006804422456925011
0.0005855158204252812
0.0004960203503508463
0.00041424489713486116
0.00034133382928823246
0.0002776269444573354
0.00022292011994737754
0.00017666163961570577
0.00013809724248759088
0.00010637470500693094
8.061706865303266e-05
5.997183278097526e-05
4.364210721213834e-05
3.0904462584862655e-05
2.1117214462193092e-05
1.3722033845700079e-05
8.241089735021037e-06
4.271374427753897e-06
1.477425201981667e-06
-4.1668896428436623e-07
-1.635534727487846e-06
-2.3602121261737527e-06
-2.7357314786961382e-06
-2.877672608769666e-06
-2.8779765795907234e-06
-2.809578603962483e-06
-2.7294202194668467e-06
-2.6790510956497827e-06
-2.681652870592008e-06
-2.734625792354018e-06
-2.799123085144042e-06
-2.7939194346010982e-06
28.286651819881207
23.001823340722414
17.9120062981993
13.41443051853775
9.723569118579956
6.855044647871081
4.700192340667539
3.11368726577947
1.9609975249176368
1.1344136428144618
0.5514893791151063
0.15003592726000708
-0.11690417990835968
-0.2849532742869049
-0.3812361073743857
-0.4264155497440915
-0.43617493489162806
-0.4223251473161647
-0.3936536790387903
-0.3565898718300327
-0.3157334595670357
-0.2742772764273698
-0.23434548625633772
-0.19726308883354313
-0.16376903089176773
-0.13418299066158812
-0.10853426755217764
-0.08665991096014694
-0.0682781264993438
-0.053042041756066055
-0.040578070204880495
-0.03051237007644652
-0.022488248686261453
-0.01617680667392441
-0.011282644736896597
-0.007546060482348065
-0.004742836823501884
-0.0026824577285719992
-0.0012053735421789084
-0.00017976885335268256
0.0005018464492243065
0.0009260040794759419
0.0011614604559143143
0.001262111410715807
0.0012695954325345172
0.001215571599511838
0.0011236782179500776
0.0010111909322322544
0.0008904065895038645
0.0007697828028576657
0.0006548642783194322
0.0005490261156556713
0.0004540624963378087
0.00037064650294557926
0.00029868403266980264
0.0002375817347812964
0.00018644607092424328
0.00014422792571818773
0.0001098247566448691
8.215010904748569e-05
6.017849924659538e-05
4.297201957965683e-05
2.969370748194435e-05
1.961159631912819e-05
1.2096444161056991e-05
6.61539669197819e-06
2.7232671566560873e-06
5.2618442423540935e-08
-1.6965025868281215e-06
-2.766608552722085e-06
-3.3521994543238616e-06
-3.6083429706374067e-06
-3.65819482304167e-06
-3.599256358381454e-06
-3.5080901568503904e-06
-3.4431938840298666e-06
-3.445887694061725e-06
-3.539905307753403e-06
-3.732395890148751e-06
-4.022118421085961e-06
28.383950354642323
23.573467053254515
18.913482222432904
14.670533847846132
11.024150704358375
8.037023414741313
5.678345604385219
3.86633839058439
2.504457437048505
1.5012817579708504
0.7782757995732024
0.27088012689737656
-0.07279175869902463
-0.2939109205840903
-0.42483600805703553
-0.4907670087167781
-0.5111275661005894
-0.5007071819544051
-0.4706021212631027
-0.42898915709228724
-0.3817598484857281
-0.3330377755403334
-0.28559729866424866
-0.24119958802161368
-0.20085949128914726
-0.16505500728612543
-0.13388956065145727
-0.1072158573371841
-0.08472881424840374
-0.06603389118413154
-0.050696108807387306
-0.03827411258024346
-0.028342837182405684
-0.020507633662299983
-0.014412134822833737
-0.009741643705270428
-0.0062234250039643725
-0.0036249493165936577
-0.001750874640258966
-0.0004393388426304637
0.0004420282245164101
0.0010000915924578589
0.0013200123460319444
0.0014687504586798092
0.0014982091908837538
0.001447998211702008
0.00134781818130755
0.0012194861232398767
0.001078630987315962
0.0009360939737305638
0.0007990700551755854
0.0006720266086305121
0.0005574330765767038
0.0004563327217089215
0.0003687841449591541
0.00029419686655668057
0.00023158171235362253
0.00017973371313731738
0.0001373621695585105
0.00010317999634912791
7.596219293311717e-05
5.458131890666692e-05
3.8026206822086216e-05
2.5408815081262377e-05
1.596293437284867e-05
9.037607908879606e-06
4.087361542590736e-06
6.607670440152497e-07
-1.6115881914029691e-06
-3.028965463664223e-06
-3.831716750085674e-06
-4.2115743183861656e-06
-4.32080059016546e-06
-4.2801096135097986e-06
-4.185279440253729e-06
-4.112627502612857e-06
-4.1238257662213965e-06
-4.271343926031639e-06
-4.607122042149244e-06
-5.198242026781566e-06
28.455045548482197
23.949202190038644
19.573361020877062
15.521585410505967
11.941287550025542
8.908555499547955
6.431138875787727
4.468467833510015
2.9545085268012814
1.8154284142173305
0.9800886277359073
0.3850633892969594
-0.023687033846400564
-0.29084851386435867
-0.45256937189329743
-0.5375677129594532
-0.5682865148900901
-0.561981564152163
-0.5316935341527292
-0.48708893558350164
-0.4351714331785941
-0.3808730920725765
-0.32753859397913304
-0.2773164804676768
-0.2314711842615325
-0.1906286338533794
-0.15496692186496103
-0.12436212133656446
-0.09849793698352353
-0.07694655885344313
-0.05922688052920891
-0.044845169825322724
-0.03332234117060378
-0.024211171872759344
-0.017106120900217358
-0.011647837508468813
-0.007523975663795978
-0.004467546119747421
-0.002253728819686883
-0.0006958227015510918
0.0003591826930608593
0.0010350782651429
0.0014307268406173561
0.0016240375786431133
0.0016755476984425233
0.0016315801844828343
0.001526976550667076
0.0013874237711253023
0.0012314067997354263
0.00107182465733998
0.0009173106227335274
0.0007732969400741084
0.0006428623249391369
0.0005273976008180267
0.00042712100058902067
0.0003414708842167829
0.00026939973329508164
0.0002095897020150726
0.00016060664972979055
0.00012100665276500883
8.940633650310525e-05
6.452622853385811e-05
4.521433180963696e-05
3.045564577300223e-05
1.9371981521512465e-05
1.1215401302201663e-05
5.35776583849997e-06
1.2781836976292762e-06
-1.4503646880430644e-06
-3.1743308370256526e-06
-4.172268921448796e-06
-4.666546405648326e-06
-4.833869851510639e-06
-4.814701541951043e-06
-4.721628841536229e-06
-4.6471906437306246e-06
-4.671901905611126e-06
-4.873940027708466e-06
-5.342523486381198e-06
-6.197455609321194e-06
28.50185020121452
24.179128453409035
19.97659461870395
16.049402606811626
12.52387714300658
9.477869466076827
6.93711096439036
4.88415506506495
3.2729529406677664
2.0430118157173727
1.1301259003321802
0.47313557050978156
0.01748034275169079
-0.28342263121315364
-0.4680964284266306
-0.5676124184408019
-0.6065066353969313
-0.6037820459787081
-0.5738763844403012
-0.5275371417886633
-0.4725810707540656
-0.4145352669518815
-0.357167029598167
-0.30291433587436656
-0.2532303074030239
-0.20885492950976534
-0.17002632581154312
-0.13664255895228528
-0.10838348343513672
-0.08480075986764246
-0.0653828244978637
-0.049600427380169114
-0.0369373181969512
-0.02690976909813268
-0.01907787048201973
-0.013050906089783758
-0.008488594555785052
-0.005099561324419095
-0.0026380642287893463
-0.0008997251426141628
0.00028319245523915977
0.0010465846393510284
0.001499136942365382
0.0017266268875018608
0.0017958118592336675
0.0017578642809000429
0.0016513501666472641
0.0015047696209885986
0.0013386918607836468
0.0011675249456632039
0.0010009635327655167
0.0008451580986147421
0.0007036469999896183
0.0005780895941769015
0.0004688347471078325
0.00037535484423916116
0.0002965714097883696
0.00023109440642310393
0.00017739379174444168
0.00013391861499790364
9.917614255160905e-05
7.17810771929521e-05
5.048281809220329e-05
3.4177071790856776e-05
2.190658781024345e-05
1.285474846175555e-05
6.3347075788175256e-06
1.776121870119363e-06
-1.2891176202426947e-06
-3.2411878755663162e-06
-4.385992773610608e-06
-4.967880254619361e-06
-5.181178619970361e-06
-5.180730205390812e-06
-5.091596933151033e-06
-5.018586113586868e-06
-5.0565088668307635e-06
-5.302503434558103e-06
-5.8721090705987135e-06
-6.9207310049295194e-06
28.525089481810934
24.28868291628078
20.168342277733508
16.302236793077256
12.806490696368378
9.758326868314459
7.190419144069973
5.0955427712956665
3.437274258251514
2.162108028714571
1.209831402328565
0.5208824212005655
0.04074468033620824
-0.27795104068417814
-0.47485064369793134
-0.5821935422316172
-0.625580961088279
-0.6249182205632653
-0.5953713906302127
-0.5482551481413751
-0.49181492829310497
-0.43189282782819594
-0.3724807848438608
-0.3161713604079171
-0.2645191183844045
-0.21832602144463065
-0.177863527020906
-0.14304279825349195
-0.11354298672436218
-0.08890608153622753
-0.06860544848312919
-0.05209394764442269
-0.0388364336927872
-0.02833051032020409
-0.020118620134433506
-0.013793891364297562
-0.009001618373774853
-0.00543780930344418
-0.00284587705524074
-0.0010122657214357757
0.00023841843219110613
0.0010483749989532506
0.0015314117544254536
0.0017774152104507725
0.0018563958455614575
0.0018220662982770762
0.0017149469067663072
0.0015650167625053573
0.0013939433783847367
0.0012169322118331454
0.001044240781284315
0.0008824023291051924
0.0007352019808398748
0.0006044451417093858
0.0004905538136057836
0.0003930222692848321
0.00031075925914771395
0.0002423398082008657
0.00018618601007248543
0.0001406927827459919
0.00010431166255648048
7.560314548116894e-05
5.326594788183471e-05
3.61497421873461e-05
2.3256432047453084e-05
1.3733842199929964e-05
6.864686667890919e-06
2.0529476103333934e-06
-1.190854403124494e-06
-3.264442903476814e-06
-4.487981987744291e-06
-5.11728283573629e-06
-5.3559077762128036e-06
-5.3662703879227365e-06
-5.280070850137344e-06
-5.2087069252053685e-06
-5.254655510544988e-06
-5.525051663068594e-06
-6.148984529388514e-06
-7.299760933085486e-06
28.525089481810674
24.288682916280546
20.168342277733302
16.302236793077128
12.806490696368225
9.758326868314395
7.190419144069909
5.095542771295698
3.437274258251486
2.1621080287145094
1.2098314023286105
0.5208824212005427
0.040744680336330975
-0.2779510406839482
-0.47485064369789043
-0.5821935422314469
-0.6255809610882799
-0.6249182205630965
-0.5953713906301721
-0.5482551481416463
-0.49181492829323314
-0.43189282782855326
-0.37248078484378205
-0.3161713604080388
-0.2645191183842775
-0.21832602144448912
-0.177863527020771
-0.14304279825386346
-0.11354298672457652
-0.08890608153630628
-0.0686054484832929
-0.05209394764479247
-0.03883643369273688
-0.028330510320327226
-0.02011862013374904
-0.013793891364524935
-0.009001618373851841
-0.005437809303601086
-0.002845877054979011
-0.001012265721579056
0.00023841843215733675
0.0010483749994097556
0.001531411754272724
0.0017774152109629492
0.0018563958455111336
0.0018220662980260427
0.0017149469068675409
0.0015650167623069912
0.0013939433786973755
0.0012169322117052477
0.0010442407815430398
0.0008824023292330901
0.000735201980613087
0.0006044451421765118
0.0004905538137188845
0.0003930222698822739
0.00031075925960128944
0.00024233980855320743
0.000186186010190934
0.00014069278276555042
0.00010431166236287617
7.560314481208692e-05
5.3265947791807845e-05
3.61497422655058e-05
2.325643211140193e-05
1.3733842330171348e-05
6.864686197760868e-06
2.0529480378308804e-06
-1.1908545250886043e-06
-3.2644420354428307e-06
-4.487981780440697e-06
-5.117281921479852e-06
-5.3559072492393344e-06
-5.366271334116421e-06
-5.280070087512926e-06
-5.208707561103939e-06
-5.254655051110256e-06
-5.525051967430125e-06
-6.1489834517816015e-06
-7.2997597227447895e-06
28.501850201213717
24.17912845340833
19.976594618703363
16.04940260681118
12.52387714300619
9.47786946607658
6.937110964390242
4.884155065064979
3.272952940667945
2.0430118157173682
1.1301259003323472
0.4731355705095779
0.017480342751736717
-0.28342263121294425
-0.46809642842660965
-0.5676124184409296
-0.6065066353970127
-0.6037820459784982
-0.5738763844399636
-0.5275371417888738
-0.4725810707542811
-0.4145352669519904
-0.3571670295976705
-0.3029143358742052
-0.2532303074031044
-0.2088549295093538
-0.17002632581143773
-0.13664255895280894
-0.10838348343513965
-0.08480075986703761
-0.06538282449784531
-0.04960042738074282
-0.03693731819648759
-0.026909769098819487
-0.0190778704814365
-0.013050906089811007
-0.008488594556075788
-0.005099561324605594
-0.0026380642290196495
-0.0008997251423619573
0.00028319245544990455
0.0010465846388329181
0.0014991369419799312
0.001726626887635106
0.0017958118590246806
0.0017578642809320544
0.0016513501669746997
0.0015047696211478478
0.0013386918609943914
0.0011675249452238392
0.0010009635329520157
0.0008451580988379399
0.0007036469986733564
0.0005780895940329608
0.00046883474695444275
0.00037535484498874656
0.0002965714099855638
0.00023109440778441636
0.00017739379216966984
0.0001339186148286196
9.917614334148334e-05
7.17810762438288e-05
5.048281800811001e-05
3.417707251202047e-05
2.190658850657533e-05
1.2854749431609206e-05
6.334705572817676e-06
1.7761227156652185e-06
-1.2891177800776327e-06
-3.241186537402282e-06
-4.3859934070167775e-06
-4.967877888512051e-06
-5.18117786210768e-06
-5.180731502094128e-06
-5.091596194186588e-06
-5.018585896834156e-06
-5.056508827788091e-06
-5.302504212639577e-06
-5.872107560806933e-06
-6.920730142829119e-06
28.455045548480825
23.94920219003751
19.573361020876167
15.521585410505265
11.941287550025027
8.908555499547637
6.431138875787422
4.468467833509898
2.9545085268012157
1.8154284142172517
0.9800886277359712
0.38506338929695516
-0.02368703384621088
-0.29084851386438276
-0.4525693718932218
-0.5375677129597021
-0.5682865148902742
-0.5619815641519389
-0.5316935341526614
-0.4870889355840484
-0.4351714331789262
-0.38087309207230857
-0.32753859397883756
-0.27731648046765134
-0.23147118426155586
-0.19062863385340334
-0.15496692186500094
-0.12436212133671895
-0.09849793698374908
-0.07694655885273143
-0.05922688052916803
-0.04484516982484307
-0.033322341170610226
-0.02421117187265452
-0.0171061209002742
-0.011647837507722743
-0.007523975663528901
-0.00446754611998483
-0.0022537288204003553
-0.0006958227011260123
0.00035918269354571174
0.0010350782635856397
0.0014307268400074612
0.001624037578969377
0.0016755476978641286
0.001631580185591867
0.0015269765504663663
0.0013874237712478523
0.00123140680035411
0.0010718246560900107
0.0009173106233741132
0.0007732969388365922
0.0006428623248124111
0.0005273976001904054
0.0004271210016198192
0.0003414708842446187
0.0002693997330340129
0.0002095897021015096
0.00016060664942132755
0.00012100665248621375
8.940633770216471e-05
6.452622905907382e-05
4.521433175989897e-05
3.0455646688356157e-05
1.937198110229225e-05
1.1215401587590603e-05
5.357765154109608e-06
1.2781846545926341e-06
-1.4503631105638357e-06
-3.174329040450021e-06
-4.172269378391127e-06
-4.666544341558855e-06
-4.833869190705895e-06
-4.814701180746093e-06
-4.721628433011334e-06
-4.647192229412771e-06
-4.6719028329065745e-06
-4.873940281234515e-06
-5.3425248317250145e-06
-6.1974560274439175e-06
28.38395035464046
23.573467053253015
18.9134822224318
14.670533847845364
11.024150704357771
8.037023414740952
5.678345604384986
3.866338390584482
2.504457437048336
1.5012817579709075
0.7782757995733512
0.2708801268977253
-0.07279175869869235
-0.2939109205841878
-0.42483600805692207
-0.4907670087167897
-0.511127566100783
-0.5007071819544828
-0.470602121262795
-0.4289891570925154
-0.38175984848618333
-0.3330377755403162
-0.28559729866425926
-0.24119958802168853
-0.20085949128900127
-0.16505500728603065
-0.13388956065108507
-0.10721585733676986
-0.0847288142485955
-0.06603389118375048
-0.05069610880721795
-0.038274112579775095
-0.028342837182919543
-0.02050763366172913
-0.014412134822530547
-0.009741643704686612
-0.006223425004130727
-0.0036249493167031686
-0.0017508746404235626
-0.0004393388426358114
0.00044202822534115125
0.0010000915923903202
0.0013200123446783976
0.001468750458680981
0.0014982091904462214
0.0014479982118281477
0.0013478181810630359
0.0012194861239095446
0.0010786309878896695
0.0009360939728524204
0.0007990700556408794
0.0006720266077269511
0.0005574330769639124
0.0004563327202339966
0.0003687841465364846
0.00029419686533462144
0.00023158171264260136
0.00017973371327649633
0.0001373621696059048
0.00010317999498144468
7.596219348792642e-05
5.4581318836784494e-05
3.802620748047291e-05
2.5408816516484347e-05
1.5962934597878652e-05
9.037607835555997e-06
4.087362906907144e-06
6.607675628601577e-07
-1.6115862053244896e-06
-3.0289641383904876e-06
-3.831716519047752e-06
-4.211572456764198e-06
-4.3208010519438834e-06
-4.280109712985782e-06
-4.185279575331204e-06
-4.1126292529660335e-06
-4.12382758411331e-06
-4.27134526785992e-06
-4.607122536013624e-06
-5.1982414606910684e-06
28.286651819878784
23.001823340720478
17.91200629819791
13.414430518536891
9.72356911857941
6.855044647870617
4.70019234066743
3.1136872657794283
1.9609975249177194
1.1344136428145442
0.5514893791151425
0.15003592726034637
-0.11690417990800192
-0.28495327428693734
-0.3812361073742026
-0.4264155497438905
-0.4361749348914382
-0.4223251473162901
-0.3936536790378597
-0.35658987183012825
-0.315733459567122
-0.27427727642729727
-0.23434548625652743
-0.1972630888338113
-0.16376903089188016
-0.13418299066150044
-0.1085342675523188
-0.08665991096000271
-0.06827812649923509
-0.05304204175607279
-0.04057807020418739
-0.030512370075760225
-0.022488248686516003
-0.01617680667380948
-0.011282644737075916
-0.00754606048190101
-0.0047428368238441165
-0.002682457729206726
-0.0012053735426028902
-0.00017976885412483045
0.0005018464488500625
0.0009260040793930205
0.001161460455373716
0.001262111410268751
0.0012695954323799555
0.0012155715991121765
0.0011236782178423244
0.0010111909329907028
0.000890406588915286
0.0007697828027421467
0.0006548642783087369
0.0005490261169274685
0.0004540624963088011
0.00037064650326297977
0.0002986840324673351
0.0002375817340157424
0.00018644607079458783
0.00014422792490172387
0.0001098247557188942
8.215010750802599e-05
6.017849804987961e-05
4.2972018243250567e-05
2.9693707806375965e-05
1.9611597401422482e-05
1.20964434221669e-05
6.6153962077859955e-06
2.723267819953233e-06
5.262029935812733e-08
-1.6965021319320598e-06
-2.766607088929694e-06
-3.352198518751141e-06
-3.608342312176353e-06
-3.6581942285294627e-06
-3.5992561629450237e-06
-3.5080891585750246e-06
-3.4431940214510325e-06
-3.4458889315779303e-06
-3.5399066755109916e-06
-3.732394954724741e-06
-4.022120383355757e-06
28.159345061159822
22.13332633806666
16.41612882015068
11.628448822231572
7.992528850877935
5.382264518528881
3.552274859711613
2.273322162835128
1.3804265460254008
0.7593947869184156
0.3321227681253492
0.04426727788258209
-0.1428115626164941
-0.2571860553600798
-0.31958667431372734
-0.34547107119494586
-0.34639682588476317
-0.3309729147930389
-0.3055489334996761
-0.27473366682364636
-0.2417962017735058
-0.20898141686847505
-0.17775992448289488
-0.1490260656883769
-0.12325390272250747
-0.10061897223023088
-0.08109213430858365
-0.06451081033711224
-0.050632067442508026
-0.039171296851312924
-0.02982961215874583
-0.02231254760496498
-0.01634215986646662
-0.011664225706235837
-0.008051878204706615
-0.005306731201902832
-0.0032582995520548633
-0.0017623257058261895
-0.0006984649336249829
3.234362835602827e-05
0.0005105904793279445
0.0008008389651847528
0.0009541997436088274
0.0010105796390020045
0.0010006780350289984
0.0009477248484378724
0.0008689681966229562
0.0007769286805973096
0.00068044224513652
0.0005855158212666513
0.0004960203508908588
0.0004142448987619297
0.0003413338286369512
0.0002776269453478575
0.00022292011782534718
0.0001766616399544226
0.00013809724171317365
0.00010637470354270133
8.061706609573909e-05
5.99718326091988e-05
4.364210475549259e-05
3.0904461213515175e-05
2.111721426082308e-05
1.3722033469112429e-05
8.241088415829594e-06
4.271373726734635e-06
1.4774263483735177e-06
-4.1668691784693183e-07
-1.635533711263023e-06
-2.3602116890784368e-06
-2.735729910740383e-06
-2.8776710194976285e-06
-2.8779746184927727e-06
-2.809578230890369e-06
-2.729419600122821e-06
-2.6790501873269265e-06
-2.681653390385695e-06
-2.73462637140917e-06
-2.7991235138877296e-06
-2.7939227114493107e-06
27.977550680544386
20.757246786679637
14.142913932056532
9.161350341924589
5.833164876144505
3.716087995730285
2.34413576378019
1.4399814830706925
0.8344103737226563
0.42633472038147635
0.15276174645916246
-0.027087232143317486
-0.14075313846810683
-0.20751386869445992
-0.24124021339581542
-0.252089724688746
-0.2475607566622272
-0.23318488270687987
-0.2130080630603706
-0.18994213136897112
-0.166031532137189
-0.14266076317149176
-0.12071769012297845
-0.10072246464043737
-0.08292885987244744
-0.06740319582338067
-0.05408501818052895
-0.042832994359217745
-0.03345894502323976
-0.02575246906633115
-0.01949821660549272
-0.014487507927553593
-0.010525683086964032
-0.007436295379942499
-0.005063030428182189
-0.003270038198150082
-0.0019412048285647214
-0.0009787605466844726
-0.00030151538198817886
0.0001570681080336771
0.00045081993013921514
0.0006227293061718072
0.0007066732596889559
0.0007289743491710099
0.0007097739587202699
0.0006642207523155266
0.0006034826240001837
0.0005355958045309517
0.0004661676536578099
0.0003989507687414088
0.00033630596176248103
0.00027957080885009875
0.00022934908151577688
0.00018573481696780534
0.00014848307155590232
0.00011713775368994109
9.112533713506503e-05
6.982183206664961e-05
5.2599092782405696e-05
3.885539768103579e-05
2.8034284630718927e-05
1.9634831299964174e-05
1.3215760344459677e-05
8.395393944019463e-06
4.84878555440595e-06
2.303183240223621e-06
5.32551017374387e-07
-6.482716486755545e-07
-1.3894028948424864e-06
-1.8115265173638916e-06
-2.0110820707639505e-06
-2.0649600759866005e-06
-2.0345512906522595e-06
-1.968941599265353e-06
-1.9067002421492598e-06
-1.8751537805472831e-06
-1.88493657611369e-06
-1.9162986793296302e-06
-1.8941209239277154e-06
-1.655855186131794e-06
27.712437091195927
18.331675870781147
10.640784398160045
5.9144038143608935
3.467014873958865
2.0724786702506632
1.2463399572709246
0.7300885213447035
0.3975764600175227
0.1799246944887543
0.03769134167413226
-0.05333879787786886
-0.10888265413810973
-0.1396505574276609
-0.1532090677754116
-0.15503123428932047
-0.14912154963983218
-0.1384124470669232
-0.12503283818992664
-0.11050109460734789
-0.0958702119303867
-0.0818402757770136
-0.06884689858781066
-0.057131007955196024
-0.04679367286208673
-0.03783874381699883
-0.030205545871725917
-0.0237934993905581
-0.018480259402886237
-0.014134721217706125
-0.010626023072968945
-0.007829482158304922
-0.005630227743410686
-0.003925144661089003
-0.0026236116215243004
-0.0016474105617638557
-0.0009300939677313499
-0.0004160245206356857
-5.9243565249395706e-05
0.00017772063994408633
0.0003250290750641946
0.0004066433600050174
0.0004413431100489134
0.0004436343488011616
0.0004245442320568636
0.0003923042595879334
0.0003529285572662326
0.00031069644059836385
0.0002685497298895472
0.0002284156719492246
0.0001914660153612434
0.0001583221606298786
0.00012921539211613537
0.00010411015042225521
8.27973726259368e-05
6.496379589699511e-05
5.024231082709781e-05
3.8247492103547e-05
2.8599796824835303e-05
2.0941152717040174e-05
1.4944197007147345e-05
1.0316922799082557e-05
6.8040533723595626e-06
4.186245797770099e-06
2.2778730989055264e-06
9.23976565588919e-07
-3.198913760206307e-09
-6.077914714241588e-07
-9.73850108899028e-07
-1.168680333178913e-06
-1.245928941814894e-06
-1.2483954098340576e-06
-1.2104673229113024e-06
-1.160071565732704e-06
-1.1197390963008748e-06
-1.1057814064833894e-06
-1.1230218996644523e-06
-1.149292580389809e-06
-1.09875702025852e-06
-7.522486110218775e-07
26.689523860447455
13.616993955752616
5.195570243581472
2.6216227111718267
1.3801420783235656
0.7838578106700809
0.44829869966589964
0.24853879928859962
0.1233879229333627
0.04343303658446591
-0.007586323087872798
-0.03925927947077318
-0.057683255812644336
-0.06695578023785874
-0.06994961637851853
-0.06873282221926766
-0.06481284270081383
-0.05928864071678008
-0.05295289014813137
-0.046365339578679436
-0.039908196030640226
-0.033829256782094974
-0.028275986727911033
-0.023322495529672357
-0.018990756138369494
-0.015267091428938201
-0.012114774890094365
-0.009483467436486613
-0.007316111758356267
-0.005553815534840425
-0.004139171610885668
-0.0030183869549179525
-0.0021425235713766967
-0.0014680942879573965
-0.0009572045897187566
-0.0005773882095021668
-0.00030124835299122105
-0.00010598743305452825
2.7114837527754907e-05
0.0001132332019527239
0.00016451045436519603
0.00019053533309605912
0.00019877478727153695
0.00019495625231149367
0.00018339934779653275
0.00016729898331632859
0.0001489634197912929
0.00013001171523015757
0.00011153532366875458
9.422868913664049e-05
7.849339105417435e-05
6.45201132234025e-05
5.235225031432146e-05
4.193448518568115e-05
3.314928029158075e-05
2.5843701436341278e-05
1.9848688515849718e-05
1.4992434854303899e-05
1.1109316407142037e-05
8.045451539562593e-06
5.661808178835437e-06
3.835554954438593e-06
2.4601895763220335e-06
1.4448538405516465e-06
7.131649452758154e-07
2.0174626423784038e-07
-1.4134394024061836e-07
-3.582083031587041e-07
-4.826412166324533e-07
-5.415777239729908e-07
-5.564144616169137e-07
-5.442291475488536e-07
-5.188590287426276e-07
-4.918053610765848e-07
-4.728143684221213e-07
-4.696223257831821e-07
-4.852756075263395e-07
-5.079431031910118e-07
-4.785029293703895e-07
-1.9850314410343454e-07
25.042976052072568
2.1407342097737967
1.345246846625442
0.4310832888083647
0.23730435093900837
0.12334587354900049
0.0681055162785064
0.03494944493787333
0.01474569648490219
0.0020240003874032694
-0.005900984886603861
-0.010641738440640702
-0.013209464624003738
-0.014286192315984953
-0.014351281292742126
-0.013750957896130213
-0.012737904984836235
-0.011496018629172362
-0.010157173812329782
-0.00881344403959379
-0.007526474502335873
-0.0063348831128264135
-0.005260166758711404
-0.004311405375989
-0.0034889708944304716
-0.002787406770569633
-0.002197620471051671
-0.0017085142119837823
-0.001308163901494797
-0.0009846414044916406
-0.0007265607621936166
-0.00052341541166327
-0.0003657609814064578
-0.0002452872950841729
-0.0001548137046555917
-8.823400260686702e-05
-4.0430587133899934e-05
-7.172322448861499e-06
1.4993600118830013e-05
2.8848772095730028e-05
3.660502295985584e-05
3.9997476279671264e-05
4.036776120145631e-05
3.873690770153973e-05
3.586808471632226e-05
3.2319757077794146e-05
2.8490078273074637e-05
2.465348863279715e-05
2.0990464105637887e-05
1.7611426691132413e-05
1.4575682889488889e-05
1.1906231009392177e-05
9.6011647783903e-06
7.642318455295804e-06
6.001702241351846e-06
4.646167596534107e-06
3.5407228926332226e-06
2.6507958114548332e-06
1.9436857936359017e-06
1.389447228254987e-06
9.613251352222958e-07
6.359099657459973e-07
3.9306285972896476e-07
2.1573221179202966e-07
8.967998254769111e-08
3.167270390764354e-09
-5.336713644426055e-08
-8.762428749422631e-08
-1.057512567941497e-07
-1.1261692145882818e-07
-1.1207744754249816e-07
-1.0720592775612307e-07
-1.0051861281760922e-07
-9.416354373256341e-08
-9.008091633824152e-08
-9.002980678526224e-08
-9.509846821483874e-08
-1.0333902620151677e-07
-9.788214521486403e-08
-1.1500480439165835e-08
SCALARS STRESS_XY float 1
LOOKUP_TABLE default
24.498099198253247
7.3523142010906595
2.9514137326083
1.2595540258977045
0.4804426817140303
0.07092849682675612
-0.15421396190980727
-0.2760375335230266
-0.3355972594613815
-0.3562444446116486
-0.35238093650678387
-0.33340287600082913
-0.3056567252674522
-0.27349630279088183
-0.23990274735002504
-0.20687774004777518
-0.17571102789583223
-0.14717276163899715
-0.12165700034830906
-0.0992909111163158
-0.08001832425366348
-0.06366333298830355
-0.0499780557964966
-0.038677774405826905
-0.029466067200775267
-0.022052112155641033
-0.01616196445657325
-0.011545293717534079
-0.007978784761596861
-0.005267161609758072
-0.003242585285459353
-0.0017630006392230439
-0.0007098631286301428
1.4439948068981892e-05
0.0004892513825198708
0.0007782382890499576
0.0009318221605917241
0.0009893886920940523
0.000981250627545365
0.0009303574391946083
0.0008537594824242005
0.000763843013876658
0.0006693574638421431
0.0005762586352711902
0.0004883919287161236
0.00040803882545270857
0.0003363482406975126
0.0002736722584026107
0.00021982353064991316
0.0001742692852281122
0.00013627472057348386
0.00010500651992339465
7.960537275182202e-05
5.9234792064524465e-05
4.311209953576457e-05
3.0526264432829975e-05
2.0846294313709485e-05
1.352301765926204e-05
8.08646212562952e-06
4.140451785469532e-06
1.355642017553867e-06
-5.381644785847939e-07
-1.7598007624543475e-06
-2.4842156693658948e-06
-2.849433035166357e-06
-2.962807942216622e-06
-2.906545283993807e-06
-2.7424603745522033e-06
-2.516007705213999e-06
-2.259634137331896e-06
-1.9954802612929723e-06
-1.7375056773336374e-06
-1.493088397541447e-06
-1.2641274957683141e-06
-1.047742678892434e-06
-8.367345347164543e-07
-6.204247234359807e-07
-3.8819490320142765e-07
-1.452073355432162e-07
2.5053059042528202e-08
21.033754691728156
16.146310076691375
8.594137688579986
4.495650264204763
2.193537712789594
0.8690864012001757
0.08779418441935552
-0.37045681136989006
-0.6273670120337005
-0.7549806580153543
-0.7986863463587424
-0.7884338324557607
-0.7446120194344172
-0.6813316144459549
-0.608384443496012
-0.5324915677204581
-0.45814752599886255
-0.3882204619394311
-0.32439433940104373
-0.2675019920027433
-0.2177783356431126
-0.1750527854985053
-0.13889426022518497
-0.10871883881650499
-0.08386800449118724
-0.06366389248613918
-0.047446778748026545
-0.03459907574958847
-0.02455928158781886
-0.016828631756304377
-0.010972614562855355
-0.0066190201816585855
-0.00345378950232395
-0.0012156020409053582
0.0003101181844690362
0.001297303783242976
0.001885133936345009
0.0021835132607554474
0.0022780269977068527
0.002234322651935482
0.0021019118464842904
0.0019174151398391695
0.0017072905496916117
0.0014900965105959013
0.0012783441383133962
0.0010799939004140459
0.0008996493924039715
0.0007394968304965224
0.0006000340216682599
0.00048062727518328194
0.00037992952478605444
0.00029618793100943735
0.00022746463044332954
0.00017179025163753598
0.00012726614406810492
9.212820178509679e-05
6.47825223899867e-05
4.382090193954422e-05
2.8022392292203462e-05
1.6345632489033895e-05
7.915465834933122e-06
2.0064606533011038e-06
-1.9748619641231273e-06
-4.507797758058529e-06
-5.9744181312033935e-06
-6.675165247069216e-06
-6.8428472295470775e-06
-6.654882269990822e-06
-6.243807652140834e-06
-5.706123385447595e-06
-5.1095625061569504e-06
-4.498930859223685e-06
-3.900688178566115e-06
-3.3264378648467485e-06
-2.775692263492953e-06
-2.2386024330584926e-06
-1.7003116816041365e-06
-1.150812203533744e-06
-6.06988254823744e-07
-1.4859135062473636e-07
16.777366042084783
14.937525018599175
10.855927037710266
6.730276153997081
3.840993306734998
1.9261637117735926
0.6901971778714364
-0.09142652321228925
-0.5676605643155324
-0.8374663552137905
-0.9677357941276455
-1.0046913485677336
-0.9808031166605813
-0.9190766895074306
-0.8358054164319599
-0.7424156576031046
-0.6467578056165864
-0.5540430071958642
-0.4675412727976128
-0.3891104122319142
-0.31959966765836795
-0.25915753445763373
-0.20746488585637884
-0.16390935757959818
-0.12771352111526335
-0.0980269046295829
-0.0739900130990244
-0.054776954151901217
-0.03962199245910768
-0.027834279683884015
-0.018804107080701533
-0.01200328090824547
-0.006981607716419135
-0.003360979796544208
-0.0008281540584876904
0.0008729950436332138
0.001949210228221807
0.0025652200821885403
0.0028505260371312693
0.0029054927482282996
0.0028066986365491184
0.002611552453566802
0.00236221375426542
0.0020888744289568233
0.0018124684726037957
0.0015468806160329148
0.0013007234498755213
0.0010787487828626636
0.0008829533735463001
0.0007134326900688812
0.0005690296329140191
0.0004478185443425064
0.0003474586127722063
0.0002654451431530432
0.00019928210590042572
0.0001465950105992725
0.00010519935318711036
7.313673057355379e-05
4.868805011937205e-05
3.0371092969549568e-05
1.692792999583433e-05
7.3062433165963515e-06
6.375365803496709e-07
-3.7856702324145646e-06
-6.532271085392634e-06
-8.05366990920135e-06
-8.703031556570478e-06
-8.752368991619034e-06
-8.407407603817302e-06
-7.820250727335476e-06
-7.099958698906257e-06
-6.321222581179391e-06
-5.531379374676237e-06
-4.756061583361297e-06
-4.003990488750564e-06
-3.2716584196515818e-06
-2.5490834364343267e-06
-1.827570009422375e-06
-1.1064991325423022e-06
-3.808786254225351e-07
13.660257897086156
12.682926113252087
10.302310212594996
7.38027692883938
4.739431412892405
2.723131507651339
1.2845655322999001
0.3038576308001157
-0.3361043815719768
-0.7292646341407193
-0.9469947399534271
-1.0424569350235535
-1.0549428536356933
-1.0133089671734188
-0.9385595546682328
-0.845774937582389
-0.745564335680834
-0.6451737822797935
-0.5493389472659871
-0.4609446886628704
-0.3815350293009351
-0.3117056473902256
-0.25140335991370444
-0.20015185137435101
-0.15721909944471718
-0.12173902946868005
-0.09279759034914782
-0.06949151907003245
-0.0509664558385496
-0.03643972930251761
-0.025212012265274877
-0.01667112246873674
-0.010290484382117602
-0.005624153166609547
-0.002299809875029392
-1.0748109396218236e-05
0.0014924305975404176
0.0024099278239904267
0.0029003561248837147
0.003087663649350414
0.0030672889291384624
0.0029115246497804607
0.002674113199094207
0.0023941245952512316
0.0020991833001082682
0.0018081178251980836
0.0015331084234272343
0.0012814055763881046
0.001056686977167714
0.0008601141842880615
0.0006911430743079289
0.0005481350548548867
0.00042880910525975105
0.00033056834291382044
0.0002507290692682921
0.00018667514115633879
0.00013595618763262345
9.634438040497421e-05
6.586137090257482e-05
4.278439586675226e-05
2.563842778431124e-05
1.317953332980645e-05
4.3732258181314e-06
-1.6294239349603033e-06
-5.516062597876757e-06
-7.83641701322063e-06
-9.023960812485154e-06
-9.41544050588958e-06
-9.268064986102584e-06
-8.774318053208801e-06
-8.074503709894742e-06
-7.267205280465061e-06
-6.417902494823442e-06
-5.566074708296753e-06
-4.731155128017039e-06
-3.9176933271607235e-06
-3.1196879939943217e-06
-2.322303737482937e-06
-1.4946054083300512e-06
-5.591161801505222e-07
11.016460718317962
10.422057818236778
8.936661324629606
6.920222355289219
4.854907266857662
3.0631587317129783
1.662373939452878
0.6367058876110946
-0.0742920926241432
-0.5386624616104235
-0.8175806606878266
-0.9615417231417012
-1.010443567341067
-0.9949584320264385
-0.9381595756605028
-0.857043245333901
-0.7638389291668488
-0.6670953635096825
-0.5725617689753718
-0.4838925333021838
-0.4032038206487307
-0.3315080059675622
-0.26904850040752387
-0.21555420917913845
-0.17042980663771148
-0.1328952988004903
-0.1020859769371494
-0.07712182833777703
-0.05715373415550639
-0.04139231914488939
-0.029124093769959294
-0.019718516069139838
-0.012628770922035059
-0.007388392060396449
-0.0036053134184938075
-0.0009545098655667014
0.0008299461048982477
0.0019628422203987164
0.0026154243620959646
0.002922405519003105
0.002988262759780162
0.0028927745068059105
0.0026958020698277354
0.002441353099106862
0.002160985036796576
0.0018766172957717566
0.0016028247588944333
0.0013486843125140142
0.0011192422501724254
0.0009166646682457572
0.0007411263591222075
0.0005914867726492484
0.0004657948169478699
0.0003616578620813793
0.00027650447157231685
0.0002077651734564199
0.00015299103918483571
0.00010992592382330432
7.654494931100546e-05
5.106902590984927e-05
3.196298744195479e-05
1.792304993590576e-05
7.857859719788262e-06
8.662220336317724e-07
-3.786321255059662e-06
-6.690545747239991e-06
-8.315299028912084e-06
-9.027340360327648e-06
-9.109013191778489e-06
-8.773647539380286e-06
-8.178739183921963e-06
-7.437066207689465e-06
-6.625934182036056e-06
-5.794780757344184e-06
-4.971279089484627e-06
-4.165819854154544e-06
-3.3734780426056766e-06
-2.570960541237803e-06
-1.7035050034576876e-06
-6.550676199852595e-07
8.695773607987356
8.30057158997902
7.328570716222464
5.943862658868261
4.414328334456578
2.9757860805570573
1.76325574550605
0.8194214915031767
0.13016285627515925
-0.34265312520901037
-0.643140216250323
-0.8127452651633619
-0.8869152009983226
-0.8943555822484922
-0.8574537520835934
-0.793145573313492
-0.7138820503250195
-0.6285413284261381
-0.543225365842895
-0.4619258495295095
-0.38706480821636563
-0.31992401425543604
-0.2609798546509015
-0.2101600602993686
-0.16703713201596201
-0.13097131118385202
-0.10121391277727364
-0.07697995319715106
-0.05749733775384067
-0.0420384400959098
-0.029938699258510643
-0.020605858584869328
-0.013522649786656588
-0.00824505989118992
-0.004397785189631674
-0.001668053164098891
0.00020133815144773138
0.0014191703130644008
0.0021527465186055453
0.002534374503859134
0.002667246943682971
0.002630653285602117
0.002484510742882248
0.002273237988356659
0.0020290175399255944
0.001774505406944733
0.0015250520885450169
0.0012904997018781312
0.0010766174390342766
0.0008862329497150756
0.0007201115976680018
0.0005776293961823433
0.00045727925041545166
0.00035704428609074137
0.00027466657911041524
0.00020783476224734215
0.00015430965758943908
0.00011200339416746202
7.90243317415927e-05
5.369743505122082e-05
3.456761023518065e-05
2.0391696417239335e-05
1.0123376196006978e-05
2.8941697438908794e-06
-2.0072712085515815e-06
-5.1560121524153e-06
-7.010784590547935e-06
-7.932428271668463e-06
-8.200473153658932e-06
-8.027709588965695e-06
-7.572773665974611e-06
-6.950837523950705e-06
-6.242521384845412e-06
-5.5011256097615925e-06
-4.75812945852438e-06
-4.026542615381061e-06
-3.3010532518887366e-06
-2.5529063903577827e-06
-1.7167036201234002e-06
-6.670070254984865e-07
6.584640564542315
6.316746178845229
5.6721199916835765
4.732080074911609
3.6470655795141016
2.5710752044203584
1.6150178424767594
0.834134029241706
0.23940970956248123
-0.18471971394471895
-0.46563159931441445
-0.6334316700950979
-0.7161803980199768
-0.7378579496772122
-0.7178528651657667
-0.6712132548295516
-0.6092219404093779
-0.5400609397637408
-0.46944951090213327
-0.4012058588528618
-0.3377173212815895
-0.2803209693140776
-0.22960409481062233
-0.1856365740556911
-0.14814713420325254
-0.11665446826990174
-0.09056265797287143
-0.06922882426180212
-0.052009495053277705
-0.03829092164920768
-0.027507503800077174
-0.01915158960289106
-0.012777182165948673
-0.007999489251098989
-0.0044917740631864175
-0.0019805859948478833
-0.000240152435107042
0.0009135180386185105
0.001628447218549148
0.002022172566506296
0.0021867634349223932
0.0021932963682800475
0.0020957675052758074
0.0019344538135260398
0.0017387564702309624
0.0015295722827772475
0.0013212452213982027
0.001123151710325073
0.0009409718953614306
0.0007776957767861548
0.0006344085662577006
0.0005108946737894352
0.00040609457100095254
0.000318443886756097
0.00024611944799474915
0.00018721279600283924
0.0001398480635830455
0.00010225783595120792
7.282792143438361e-05
5.011963229422517e-05
3.287627144743953e-05
2.0018943365378233e-05
1.0635577525648194e-05
3.96599437498298e-06
-6.149285357883302e-07
-3.6145372711052143e-06
-5.439183166888656e-06
-6.409875167913008e-06
-6.7764819754810425e-06
-6.7303059027776374e-06
-6.415003236315515e-06
-5.935898971406546e-06
-5.367734378228145e-06
-4.7608621778722855e-06
-4.145726424962726e-06
-3.535146509961691e-06
-2.923541864945684e-06
-2.2817976345468297e-06
-1.5465075725289982e-06
-6.033115296113408e-07
4.614365974464026
4.439286935313322
4.02646701052008
3.4178356624785953
2.6970231220113217
1.9580656957309286
1.277765107520813
0.7028867070810478
0.2511828405052781
-0.08039939328411592
-0.3066112330868726
-0.4468595300224801
-0.5208284217155891
-0.5461971950935948
-0.5377282138475157
-0.507137233449258
-0.4633548343894059
-0.41294529154787524
-0.36055567950607736
-0.3093329639576096
-0.26128368589596107
-0.21757034967792432
-0.17874807592044853
-0.1449490035433126
-0.11602297585519161
-0.0916427103282759
-0.07138072980619817
-0.054764234414799516
-0.04131301574936424
-0.030564543097454502
-0.02208951379465251
-0.01550045712067505
-0.010455402448942082
-0.006658152265537809
-0.0038563232651353404
-0.0018380189546441266
-0.0004277617259984977
0.0005178704186287552
0.0011145974010324637
0.0014545815287780723
0.0016102420198791391
0.0016376756966890228
0.0015796602907201258
0.0014682442923245349
0.0013269451492040824
0.0011725883133478416
0.0010168251507873688
0.0008673695697268724
0.0007289926000635279
0.0006043119072247718
0.0004944100310076912
0.0003993114982053004
0.0003183451462387811
0.0002504142626650834
0.00019419367389748415
0.0001482697313821515
0.00011123632083696027
8.175752579478415e-05
5.860551830101987e-05
4.0680410588112246e-05
2.7017354443607378e-05
1.678494793022484e-05
9.277993176206112e-06
3.906905713227972e-06
1.8541271707261378e-07
-2.282294470192371e-06
-3.8141761085411376e-06
-4.66221108481793e-06
-5.023221273379178e-06
-5.0485151516583865e-06
-4.852299116025312e-06
-4.518864884202485e-06
-4.1085550303649785e-06
-3.662456445395745e-06
-3.2056592611224996e-06
-2.7487021284971763e-06
-2.2866120893190497e-06
-1.7948534425893976e-06
-1.2216985358236152e-06
-4.77332028445419e-07
2.7347319426991032
2.6352002643330072
2.4038378852516855
2.061079993503633
1.649340131505423
1.2189401257404509
0.8140509804408408
0.46444555133434806
0.18410682984691673
-0.025653170865600778
-0.17153549956915923
-0.2640870342635168
-0.3147823971468901
-0.3343358593416551
-0.3319152669349746
-0.3149178408633123
-0.28905029943364385
-0.2585473550826205
-0.22643274918916775
-0.19477304096495365
-0.16490179355271758
-0.1376069066037001
-0.11328149283813299
-0.09204211722550372
-0.07381938109342157
-0.058425872647792414
-0.0456060410382314
-0.03507190765568946
-0.026527865591429244
-0.019687207761041024
-0.014282492754557454
-0.010071409522899654
-0.006839432266023575
-0.004400256246612361
-0.0025947637233840514
-0.0012890772840566474
-0.0003721070312744366
0.000247119166118772
0.000642143062748893
0.0008716497987873992
0.0009818473586943272
0.001008607890083676
0.0009793532431463926
0.0009146850281221599
0.000829771299046174
0.000735509078820057
0.0006394857750623728
0.0005467639501212147
0.00046051369178784973
0.00038251558582104314
0.00031355540680987363
0.00025372939450635896
0.00020267665833572737
0.0001597529636072974
0.00012415797605132606
9.502602300166413e-05
7.14887239921417e-05
5.2716215573456026e-05
3.794244278664142e-05
2.6478786180213307e-05
1.7719429004250995e-05
1.1141033137884801e-05
6.298705860271342e-06
2.819727486278968e-06
3.960773128370833e-07
-1.2234460159978977e-06
-2.2410338685188617e-06
-2.8172468490311e-06
-3.0777904337343474e-06
-3.1195603271505376e-06
-3.0159324210676186e-06
-2.821286068680383e-06
-2.5747496209762784e-06
-2.303115509092523e-06
-2.022816885496753e-06
-1.7407119841385835e-06
-1.4533806617522592e-06
-1.1445980834973383e-06
-7.808559235246452e-07
-3.052485030712121e-07
0.9060869569321127
0.8737455846805925
0.799114128561075
0.6883498562168195
0.5544500955943751
0.4132205578835493
0.27899711262654675
0.1618882123067243
0.06703858086030844
-0.0046072110223312765
-0.054910461772588834
-0.08717967725875884
-0.10516413352993008
-0.11244058772352253
-0.11211032721589996
-0.10669788207701829
-0.09816319776672221
-0.0879678523460761
-0.07716001369218725
-0.06645929623600721
-0.05633274269788153
-0.04705880615017659
-0.03877912389388426
-0.031539216593163444
-0.025319736709668028
-0.020059950881712123
-0.015675004715891082
-0.012068308380461294
-0.009140158555236737
-0.006793504519056066
-0.004937584243318228
-0.0034900025968776756
-0.0023776966953987034
-0.0015371300226533794
-0.0009139738796465182
-0.0004624686695931611
-0.00014460560368699928
7.077092991456854e-05
0.00020887110721217483
0.00028983173175436353
0.00032952431000690793
0.0003402835556879181
0.00033154982354674555
0.00031042520709879186
0.0002821471356773307
0.00025048583757784134
0.0002180733652685897
0.0001866724157054252
0.0001573931665527664
0.00013086590276790958
0.00010737661940425332
8.69720197115036e-05
6.95395504438e-05
5.486733613802599e-05
4.26881346579252e-05
3.271075449136473e-05
2.46418061865284e-05
1.8200063065178512e-05
1.3125343181099614e-05
9.18335158710202e-06
6.167665746623605e-06
3.899739859329629e-06
2.227621462265743e-06
1.0238741942802807e-06
1.8308301931271947e-07
-3.8080526956708863e-07
-7.37127426016769e-07
-9.409937888433932e-07
-1.035602640951999e-06
-1.0542960930696076e-06
-1.0223627858822258e-06
-9.58580215517596e-07
-8.76491788179112e-07
-7.853961750079529e-07
-6.910014813600491e-07
-5.956837760368957e-07
-4.982270223653757e-07
-3.929740561878737e-07
-2.683539509387179e-07
-1.0491693687109586e-07
-0.9060869569310624
-0.8737455846790113
-0.7991141285591112
-0.6883498562144234
-0.5544500955917232
-0.413220557880795
-0.27899711262370375
-0.16188821230385483
-0.06703858085751947
0.004607211025022421
0.054910461775370664
0.08717967726166907
0.10516413353281381
0.11244058772618515
0.11211032721848616
0.10669788207954436
0.09816319776926459
0.0879678523485614
0.0771600136943903
0.06645929623820518
0.0563327426999837
0.04705880615181818
0.03877912389561348
0.031539216595327775
0.025319736711416612
0.02005995088335473
0.01567500471752961
0.012068308381935768
0.009140158556490093
0.006793504520075053
0.004937584244002987
0.003490002597572625
0.002377696696051874
0.0015371300229763984
0.0009139738806430875
0.00046246867092803405
0.0001446056049556381
-7.077092900563214e-05
-0.00020887110582737148
-0.00028983173080364866
-0.00032952430942302836
-0.0003402835546546653
-0.00033154982335517597
-0.0003104252073769753
-0.00028214713604926095
-0.00025048583818210066
-0.00021807336573630474
-0.00018667241627809587
-0.00015739316660473473
-0.00013086590321830183
-0.0001073766197517279
-8.697201997949718e-05
-6.95395498548255e-05
-5.4867335175083274e-05
-4.268813191786915e-05
-3.2710752496188174e-05
-2.4641802881953545e-05
-1.8200060948742505e-05
-1.3125341618992537e-05
-9.183351027678155e-06
-6.167665810819786e-06
-3.899739752335993e-06
-2.2276220481832704e-06
-1.023874519337135e-06
-1.8308359605936387e-07
3.808062314908206e-07
7.371270408396814e-07
9.409941159382216e-07
1.0356041449768173e-06
1.054296921506042e-06
1.0223633096415459e-06
9.585806710047867e-07
8.764910147679758e-07
7.853943693629814e-07
6.910003064680333e-07
5.956827285182554e-07
4.982260339479816e-07
3.9297322877042624e-07
2.683548863687878e-07
1.0491746878231206e-07
-2.734731942698063
-2.6352002643314725
-2.403837885249815
-2.0610799935014223
-1.6493401315029144
-1.2189401257377535
-0.8140509804379958
-0.46444555133134613
-0.1841068298439097
0.025653170868636343
0.17153549957191255
0.2640870342660194
0.3147823971496373
0.33433585934410986
0.33191526693744866
0.3149178408653065
0.28905029943527116
0.2585473550844822
0.22643274919164796
0.19477304096762646
0.16490179355508877
0.13760690660607738
0.11328149284087101
0.09204211722816939
0.07381938109593031
0.058425872650449934
0.045606041040842045
0.03507190765832558
0.026527865594015432
0.019687207764244718
0.014282492757520669
0.010071409524546337
0.006839432266935569
0.00440025624797067
0.002594763723954684
0.001289077284007736
0.0003721070308454431
-0.00024711916725188554
-0.0006421430636262407
-0.0008716497987558106
-0.0009818473570853466
-0.0010086078892032713
-0.0009793532420092031
-0.0009146850267740402
-0.0008297712985641931
-0.0007355090780058864
-0.0006394857749859488
-0.00054676395017624
-0.00046051369042954005
-0.0003825155833550946
-0.00031355540556161454
-0.00025372939405698573
-0.0002026766576203985
-0.0001597529650899235
-0.00012415797690829412
-9.502602346836018e-05
-7.148872211414865e-05
-5.271621315539987e-05
-3.7942440529585206e-05
-2.6478785068498484e-05
-1.7719427277068023e-05
-1.1141030130854152e-05
-6.298704420442705e-06
-2.8197257305643597e-06
-3.9607529728078896e-07
1.223448506402136e-06
2.2410335302151765e-06
2.817244922126675e-06
3.07778861993748e-06
3.11955818014492e-06
3.01593032195439e-06
2.821284842839017e-06
2.574748998375219e-06
2.3031149690294107e-06
2.022815698376893e-06
1.740709954316471e-06
1.4533780164619963e-06
1.1445936916633501e-06
7.808527911585943e-07
3.0524822386877297e-07
-4.614365974462897
-4.439286935311711
-4.026467010518165
-3.41783566247634
-2.6970231220088934
-1.958065695728534
-1.2777651075185164
-0.7028867070785207
-0.2511828405025493
0.08039939328663893
0.3066112330892835
0.446859530024675
0.520828421718057
0.5461971950958263
0.5377282138497473
0.5071372334510718
0.46335483439110353
0.41294529154960546
0.3605556795081072
0.30933296395994714
0.26128368589848205
0.21757034968009478
0.17874807592265768
0.14494900354559717
0.11602297585781245
0.09164271033063791
0.07138072980760438
0.05476423441638302
0.04131301575084992
0.030564543098334906
0.022089513796026104
0.01550045712383391
0.010455402451297979
0.006658152266923632
0.003856323268151542
0.0018380189580393914
0.0004277617281261426
-0.0005178704170534013
-0.0011145973992370086
-0.0014545815280729334
-0.0016102420188499624
-0.0016376756951320107
-0.0015796602893669112
-0.0014682442909713202
-0.0013269451481117283
-0.0011725883125754495
-0.0010168251497031666
-0.000867369568819974
-0.0007289926004364772
-0.0006043119080501513
-0.0004944100306714255
-0.0003993114976367056
-0.0003183451456131231
-0.00025041426174188117
-0.00019419367233843403
-0.0001482697317836324
-0.00011123632235525091
-8.175752807731504e-05
-5.860551841310845e-05
-4.068040885991029e-05
-2.7017354588303532e-05
-1.6784947997477984e-05
-9.277991729244566e-06
-3.906903972798169e-06
-1.854115085540268e-07
2.282295668521088e-06
3.8141785031605973e-06
4.662213512044974e-06
5.023222100796626e-06
5.048513723038607e-06
4.8522962628617e-06
4.51886211051986e-06
4.108549908936296e-06
3.66245090618239e-06
3.2056566382499506e-06
2.748700516459736e-06
2.286610933787787e-06
1.7948546531459587e-06
1.221699939987707e-06
4.773307873192479e-07
-6.584640564541119
-6.316746178843566
-5.672119991681579
-4.732080074909384
-3.6470655795118025
-2.5710752044181167
-1.615017842474271
-0.8341340292391809
-0.23940970956039434
0.18471971394674672
0.4656315993164789
0.6334316700969648
0.7161803980219007
0.7378579496787977
0.7178528651674216
0.6712132548316507
0.6092219404120355
0.540060939766007
0.4694495109039593
0.40120585885456556
0.3377173212831832
0.2803209693156794
0.229604094812322
0.18563657405727663
0.14814713420476064
0.11665446827123051
0.09056265797491755
0.06922882426458599
0.05200949505615532
0.03829092165160434
0.02750750380209884
0.019151589604101616
0.01277718216776247
0.007999489252725292
0.004491774062786974
0.0019805859941998075
0.000240152435107042
-0.0009135180381823841
-0.001628447217615756
-0.0020221725658908277
-0.002186763434791963
-0.00219329636839825
-0.002095767505137225
-0.001934453814447204
-0.0017387564695054436
-0.0015295722810531214
-0.0013212452213085318
-0.0011231517099134023
-0.0009409718947500384
-0.0007776957748378517
-0.0006344085658786374
-0.0005108946738342706
-0.0004060945705240666
-0.00031844388709440066
-0.00024611944774611627
-0.00018721279603137086
-0.0001398480614105652
-0.00010225783368498083
-7.282792157296585e-05
-5.0119634658275016e-05
-3.2876272519413863e-05
-2.0018941906188842e-05
-1.063557640476249e-05
-3.965992332933024e-06
6.149304881674302e-07
3.6145369939407492e-06
5.439179702332841e-06
6.409871202015588e-06
6.776478237836711e-06
6.730304545486948e-06
6.415004234922779e-06
5.93590036130482e-06
5.367734802126739e-06
4.760862414277271e-06
4.145724986153076e-06
3.5351456377088155e-06
2.9235413962116624e-06
2.281796281332088e-06
1.5465069244532635e-06
6.033116274340933e-07
-8.695773607986
-8.300571589977217
-7.328570716220445
-5.943862658866153
-4.414328334454326
-2.9757860805547054
-1.763255745503857
-0.8194214915009798
-0.13016285627282376
0.34265312521123986
0.6431402162524058
0.8127452651655221
0.8869152010003931
0.8943555822505628
0.8574537520857618
0.7931455733153506
0.7138820503270819
0.6285413284283391
0.5432253658451368
0.4619258495314782
0.38706480821849737
0.31992401425790196
0.2609798546533675
0.21016006030161852
0.16703713201824455
0.13097131118596744
0.10121391277863093
0.07697995319795402
0.057497337755316166
0.042038440097373064
0.029938699260039125
0.020605858586923605
0.013522649787728562
0.008245059892645033
0.004397785192264736
0.0016680531656029158
-0.00020133815117056694
-0.0014191703131540717
-0.0021527465182224065
-0.0025343745028482984
-0.002667246942130035
-0.0026306532853575602
-0.0024845107425643244
-0.0022732379865224826
-0.0020290175389677464
-0.0017745054065738217
-0.0015250520861728152
-0.0012904996988741576
-0.0010766174369025558
-0.0008862329482966458
-0.0007201115964655971
-0.0005776293946294071
-0.00045727924938423684
-0.000357044284708995
-0.000274666579285681
-0.00020783476377582265
-0.0001543096597986029
-0.00011200339745267612
-7.902433406080711e-05
-5.369743591124586e-05
-3.4567611686218146e-05
-2.0391697407694703e-05
-1.0123377675576109e-05
-2.894170579460223e-06
2.007270128425357e-06
5.156011581782577e-06
7.010784195180977e-06
7.932429706402164e-06
8.20047568482265e-06
8.027710432686935e-06
7.572774697189459e-06
6.9508398594689186e-06
6.24252424616092e-06
5.501129477836261e-06
4.758132996447259e-06
4.026545069101767e-06
3.3010518538385666e-06
2.552902591574231e-06
1.716699703137356e-06
6.67005941296314e-07
-11.016460718316418
-10.422057818234846
-8.936661324627503
-6.920222355287097
-4.85490726685562
-3.063158731711046
-1.662373939450889
-0.6367058876092442
0.07429209262587548
0.5386624616123392
0.8175806606899747
0.9615417231438941
1.0104435673430399
0.9949584320281545
0.9381595756622433
0.8570432453357719
0.7638389291686218
0.6670953635120057
0.5725617689779804
0.4838925333048454
0.403203820651535
0.3315080059694942
0.2690485004092235
0.2155542091810745
0.1704298066398962
0.13289529880212067
0.10208597693902026
0.0771218283403775
0.057153734157613656
0.04139231914577387
0.029124093770562534
0.01971851607013437
0.012628770922919539
0.0073883920610526765
0.003605313420474718
0.0009545098691820673
-0.0008299461011891349
-0.0019628422169586162
-0.002615424358187131
-0.002922405516500473
-0.002988262757746264
-0.002892774504657886
-0.0026958020667626225
-0.0024413530966531415
-0.0021609850352721713
-0.0018766172949158076
-0.0016028247579447374
-0.0013486843114909513
-0.0011192422494428309
-0.0009166646671289474
-0.0007411263589184101
-0.000591486774487501
-0.00046579481975212215
-0.00036165786535436557
-0.00027650447315378466
-0.0002077651744142677
-0.00015299103918075976
-0.00010992592429611428
-7.654494989386603e-05
-5.106902590984927e-05
-3.19629876212965e-05
-1.792304891284281e-05
-7.85786013145901e-06
-8.662235947198629e-07
3.786318899161708e-06
6.6905465787333865e-06
8.315301882075696e-06
9.027343083060923e-06
9.10901430043635e-06
8.773648403481266e-06
8.178740215136812e-06
7.437066370727385e-06
6.625933399454037e-06
5.794779603850894e-06
4.97127723492828e-06
4.165817852864068e-06
3.373476232884757e-06
2.5709605819972835e-06
1.7035046936856383e-06
6.55066556162827e-07
-13.660257897084316
-12.682926113249927
-10.302310212592813
-7.380276928837346
-4.739431412890584
-2.723131507649721
-1.2845655322984368
-0.303857630798738
0.3361043815735379
0.7292646341422518
0.9469947399549598
1.042456935025192
1.0549428536372991
1.0133089671754323
0.9385595546703849
0.8457749375843129
0.7455643356829209
0.645173782281701
0.5493389472679925
0.4609446886648595
0.38153502930290784
0.31170564739230433
0.2514033599164353
0.20015185137703298
0.15721909944677148
0.12173902947066913
0.0927975903512184
0.0694915190715324
0.050966455840938105
0.036439729305647935
0.025212012267573712
0.01667112247044864
0.01029048438400069
0.005624153169046965
0.0022998098768065053
1.0748110284774903e-05
-0.0014924305959100384
-0.0024099278232078444
-0.002900356123766905
-0.0030876636475733006
-0.00306728892745102
-0.002911524648663651
-0.002674113199102359
-0.0023941245948599405
-0.0020991832989996104
-0.0018081178251980836
-0.0015331084235006012
-0.0012814055771543827
-0.0010566869786758147
-0.0008601141858206179
-0.00069114307469922
-0.0005481350542190388
-0.00042880910278972654
-0.0003305683421475422
-0.00025072906860798853
-0.00018667514206119925
-0.00013595618850487632
-9.63443812609233e-05
-6.586137084551154e-05
-4.278439658411911e-05
-2.5638429822285248e-05
-1.3179533337958347e-05
-4.373226731143756e-06
1.6294238942008231e-06
5.516062068003515e-06
7.836414820360596e-06
9.023955334411019e-06
9.415437025029974e-06
9.268065923570629e-06
8.77432013194229e-06
8.074506000577527e-06
7.267207098337877e-06
6.4179040110761045e-06
5.56607633867596e-06
4.731155820928202e-06
3.917693433135372e-06
3.119687325538847e-06
2.3223031423945267e-06
1.4946042263051264e-06
5.591148269357806e-07
-16.777366042082424
-14.937525018596656
-10.855927037708186
-6.730276153995426
-3.8409933067334654
-1.9261637117721944
-0.6901971778701811
0.09142652321354464
0.5676605643168855
0.8374663552150214
0.9677357941292107
1.0046913485690379
0.9808031166621138
0.9190766895088736
0.8358054164333458
0.7424156576047186
0.6467578056177683
0.5540430071969892
0.4675412727985829
0.38911041223263976
0.3195996676593299
0.25915753445862827
0.20746488585766684
0.16390935758117964
0.12771352111748066
0.09802690463177575
0.07399001310041836
0.05477695415336041
0.03962199246081142
0.02783427968523723
0.01880410708283733
0.012003280910430177
0.006981607717951691
0.0033609797977669923
0.0008281540605338162
-0.0008729950409023286
-0.0019492102263224153
-0.0025652200809005406
-0.0028505260355171937
-0.002905492747486477
-0.0028066986361333715
-0.0026115524534200676
-0.002362213753466534
-0.0020888744284840136
-0.001812468472196201
-0.0015468806155111935
-0.0013007234488157748
-0.0010787487818681323
-0.0008829533722827563
-0.0007134326878026541
-0.0005690296306640959
-0.0004478185429240765
-0.0003474586132042567
-0.0002654451443839795
-0.00019928210463688185
-0.0001465950089525895
-0.00010519935027688347
-7.31367258373022e-05
-4.868804482063963e-05
-3.0371090956031248e-05
-1.6927929099125766e-05
-7.306242313913139e-06
-6.375360178688446e-07
3.785671504110346e-06
6.532271916886029e-06
8.053672354770159e-06
8.70303286902574e-06
8.752368331315455e-06
8.407405745185007e-06
7.820249887690184e-06
7.099958764121425e-06
6.32122363277398e-06
5.531379937157063e-06
4.7560609882728865e-06
4.0039904398391876e-06
3.2716602782838777e-06
2.5490853358261025e-06
1.8275725039025612e-06
1.106500754769613e-06
3.808785275997827e-07
-21.033754691725086
-16.146310076688835
-8.594137688578465
-4.495650264203655
-2.193537712788632
-0.8690864011992789
-0.08779418441834468
0.37045681137079495
0.6273670120343934
0.7549806580159983
0.7986863463595901
0.7884338324562906
0.7446120194345395
0.6813316144461261
0.6083844434961506
0.5324915677204826
0.45814752599967773
0.3882204619406376
0.32439433940172846
0.2675019920039253
0.21777833564423757
0.17505278549873357
0.1388942602256333
0.10871883881724681
0.08386800449174972
0.06366389248677502
0.0474467787487276
0.03459907575020801
0.02455928158880524
0.016828631756834248
0.01097261456378467
0.00661902018348461
0.003453789505389063
0.0012156020440030786
-0.0003101181816484802
-0.0012973037803490528
-0.0018851339333777189
-0.0021835132581468405
-0.002278026995970499
-0.002234322650614875
-0.0021019118453593287
-0.0019174151387631193
-0.0017072905485014348
-0.0014900965102861293
-0.0012783441382726367
-0.0010799939013270581
-0.000899649392990908
-0.0007394968308225983
-0.0006000340210731716
-0.00048062727411538357
-0.00037992952520180114
-0.0002961879315148549
-0.00022746463065527884
-0.00017179025146634618
-0.00012726614290238378
-9.21281995025659e-05
-6.478251877869676e-05
-4.382089999939296e-05
-2.8022391990583307e-05
-1.6345631991768238e-05
-7.915465802325539e-06
-2.006460156035446e-06
1.9748617032624545e-06
4.5077971059068464e-06
5.9744164600647065e-06
6.675163380285025e-06
6.842845101902212e-06
6.6548795880170276e-06
6.24380572829337e-06
5.706122390916278e-06
5.10956088392964e-06
4.49893027228717e-06
3.900687730211833e-06
3.32643819092259e-06
2.7756920107841755e-06
2.238602041767483e-06
1.700311608237072e-06
1.1508151708239003e-06
6.069913362404448e-07
1.48593437510121e-07
-24.498099198249314
-7.35231420108949
-2.951413732607766
-1.259554025897297
-0.48044268171347604
-0.07092849682636483
0.1542139619101578
0.2760375335235728
0.3355972594615853
0.35624444461190946
0.3523809365070936
0.33340287600109814
0.3056567252681859
0.27349630279148507
0.23990274735031036
0.20687774004784037
0.17571102789590562
0.1471727616393966
0.1216570003486922
0.09929091111674784
0.08001832425347599
0.06366333298842584
0.04997805579640693
0.038677774405843204
0.02946606720107689
0.02205211215561658
0.016161964456597705
0.01154529371809656
0.007978784762607697
0.005267161611429211
0.003242585286380517
0.0017630006407556003
0.0007098631300567246
-1.4439947245640394e-05
-0.0004892513815905546
-0.0007782382883244388
-0.0009318221603308634
-0.0009893886920695966
-0.0009812506271051626
-0.0009303574385832162
-0.0008537594814215173
-0.0007638430137788353
-0.0006693574636546495
-0.0005762586347820765
-0.0004883919275911619
-0.00040803882452339243
-0.00033634824055077845
-0.00027367226013081265
-0.00021982353189715326
-0.00017426928539930202
-0.00013627472119302796
-0.0001050065194179771
-7.960537182250588e-05
-5.923479133085382e-05
-4.311209898958753e-05
-3.052626572082955e-05
-2.0846296661455543e-05
-1.352301963202088e-05
-8.086463266894964e-06
-4.1404536277980355e-06
-1.3556422213512679e-06
5.381658562552236e-07
1.7598009662517483e-06
2.484215930226568e-06
2.849434510659539e-06
2.962810909506778e-06
2.906547762170201e-06
2.7424610756152622e-06
2.5160080149860486e-06
2.2596346998127223e-06
1.99547964990077e-06
1.7375051800679795e-06
1.493087924731477e-06
1.2641283843249817e-06
1.047744129929928e-06
8.367370536523287e-07
6.204264760936279e-07
3.8819550644173414e-07
1.4520821594798784e-07
-2.5052561776870146e-08
SCALARS STRAIN_VM float 1
LOOKUP_TABLE default
0.0008699702713338371
0.0006708796258828539
0.0006027656735537218
0.0005780930094546242
0.000566332507971899
0.0005619422776174977
0.0005614414861798297
0.0005631553971612851
0.0005660734954978442
0.0005695792880578861
0.00057328161200478
0.0005769328467114279
0.0005803801261779306
0.0005835351384596008
0.0005863540005442862
0.0005888232604422606
0.0005909498558651817
0.00059275380439861
0.0005942628719155009
0.0005955087211859743
0.000596524186725969
0.000597341410056613
0.0005979906284517143
0.0005984994532518191
0.0005988925074010826
0.0005991913191602543
0.0005994143915158614
0.0005995773854798777
0.000599693370796157
0.0005997731099703014
0.000599825351409659
0.0005998571151705895
0.0005998739607106746
0.0005998802304571748
0.0005998792662164024
0.0005998735977141275
0.0005998651040865925
0.0005998551501133794
0.0005998446995399058
0.0005998344080953916
0.000599824698860232
0.0005998158225455088
0.0005998079050679594
0.0005998009845756173
0.0005997950398286362
0.0005997900115874287
0.0005997858184171799
0.0005997823680933296
0.0005997795655897182
0.0005997773184525485
0.0005997755402086758
0.0005997741523254196
0.000599773085128648
0.0005997722779941088
0.0005997716790530395
0.0005997712445925164
0.0005997709382833553
0.0005997707303304389
0.0005997705966117938
0.0005997705178501934
0.0005997704788444976
0.0005997704677759074
0.0005997704755956664
0.0005997704954945168
0.0005997705224504844
0.0005997705528487062
0.0005997705841665333
0.0005997706147152516
0.0005997706434311487
0.0005997706697076819
0.000599770693261978
0.0005997707140287288
0.0005997707320757428
0.0005997707475354247
0.0005997707605481062
0.0005997707712137411
0.0005997707795528031
0.0005997707854854458
0.0005997707888477103
0.0005997707895354052
0.0007011306855255038
0.0006953805536472856
0.0006347505233596408
0.0006038143560630362
0.0005890804026477855
0.0005818938730411409
0.0005788516695388374
0.0005781561181515574
0.0005788312351866125
0.0005802873520735715
0.0005821536449078592
0.0005841903102469219
0.0005862417882972281
0.0005882089889237339
0.0005900317815067661
0.0005916772721428397
0.0005931315987905806
0.000594393999112699
0.000595472438689103
0.0005963803673047219
0.0005971343234915672
0.0005977521927509735
0.0005982519748285076
0.0005986509468862768
0.0005989651312725659
0.0005992089933297377
0.0005993953084731616
0.0005995351495779716
0.0005996379559116622
0.0005997116535984595
0.0005997628049774201
0.00059979677030211
0.0005998178701353135
0.0005998295406500825
0.0005998344770022779
0.000599834762139456
0.0005998319799957067
0.0005998273131189868
0.0005998216254981528
0.0005998155317929243
0.0005998094543987197
0.0005998036698593722
0.0005997983461212016
0.000599793572038644
0.0005997893804193965
0.0005997857657563064
0.0005997826976468754
0.0005997801307584003
0.000599778012062644
0.000599776285941999
0.0005997748976615075
0.0005997737956069515
0.000599772932609092
0.0005997722666065897
0.0005997717608441024
0.0005997713837558758
0.0005997711086487553
0.0005997709132675422
0.0005997707793040785
0.0005997706918916345
0.0005997706391132833
0.0005997706115423533
0.0005997706018251652
0.0005997706043108138
0.000599770614729004
0.0005997706299144734
0.0005997706475744463
0.0005997706660950522
0.0005997706843823185
0.0005997707017326796
0.0005997707177289465
0.0005997707321572354
0.0005997707449414526
0.0005997707560920416
0.0005997707656666489
0.0005997707737398756
0.0005997707803765083
0.0005997707855836465
0.0005997707891414747
0.0005997707899700242
0.0006067928202308924
0.0006286946323023352
0.0006213662101172157
0.0006053692064066349
0.000595655717243622
0.0005908226591256004
0.0005887215427792304
0.0005881335481148531
0.0005883788197654538
0.0005890818660072702
0.0005900238208333212
0.0005910720880463954
0.0005921436577092607
0.00059318583821253
0.0005941655464422828
0.0005950630411026729
0.0005958679963214246
0.0005965768493703068
0.0005971908759742337
0.0005977147175365072
0.0005981552227521818
0.0005985205335206397
0.0005988193751565672
0.0005990605224396886
0.0005992524164397847
0.0005994029077539761
0.0005995191023424577
0.0005996072874635302
0.0005996729173839256
0.0005997206413233194
0.0005997543591414559
0.0005997772932959149
0.0005997920683728364
0.000599800791900773
0.0005998051321486327
0.0005998063901871346
0.0005998055646944928
0.0005998034088650442
0.0005998004793916642
0.000599797177895366
0.0005997937854196126
0.0005997904907329739
0.0005997874132287111
0.0005997846211986529
0.0005997821462125121
0.0005997799942671927
0.0005997781542954092
0.0005997766045437457
0.0005997753172556472
0.0005997742620238128
0.0005997734081135755
0.0005997727260029045
0.0005997721883367151
0.0005997717704526685
0.0005997714506012639
0.0005997712099549138
0.0005997710324784405
0.0005997709047142082
0.0005997708155217241
0.000599770755798962
0.0005997707182048803
0.0005997706968956339
0.0005997706872818596
0.0005997706858110702
0.0005997706897766688
0.0005997706971535042
0.0005997707064579028
0.0005997707166309753
0.0005997707269420791
0.0005997707369103359
0.0005997707462418287
0.0005997707547800631
0.0005997707624678956
0.0005997707693184774
0.0005997707753923778
0.0005997707807738351
0.0005997707855286738
0.0005997707895964849
0.000599770792513353
0.0005997707928118733
0.0005488615803258185
0.0005769272575149456
0.000588412937679268
0.000590790256175005
0.0005906755520991623
0.0005911139588486511
0.0005921262029883266
0.0005933227453041518
0.000594464046993475
0.0005954512634835551
0.0005962666781287963
0.0005969273491381458
0.0005974608426080607
0.000597894049030507
0.0005982491290773754
0.0005985428622056484
0.0005987874118640708
0.0005989914908415242
0.0005991614589515219
0.0005993021790162406
0.0005994176057870194
0.0005995111480688748
0.0005995858646213357
0.0005996445520541309
0.0005996897712481122
0.000599723845111972
0.0005997488482808834
0.0005997665999809348
0.0005997786648289316
0.0005997863623594628
0.0005997907839445966
0.0005997928148980259
0.0005997931594448303
0.0005997923665341996
0.0005997908549357485
0.0005997889365467115
0.000599786837269288
0.0005997847151643528
0.0005997826758416583
0.0005997807852186842
0.0005997790798844675
0.0005997775753565335
0.0005997762725358387
0.0005997751626554011
0.0005997742309958222
0.0005997734596100215
0.0005997728292659407
0.000599772320783008
0.0005997719159073055
0.000599771597842691
0.0005997713515312234
0.0005997711637561326
0.0005997710231235047
0.0005997709199653098
0.0005997708461956834
0.0005997707951426862
0.0005997707613724825
0.000599770740516232
0.0005997707291070715
0.0005997707244313749
0.0005997707243959952
0.0005997707274124266
0.0005997707322974352
0.0005997707381890319
0.0005997707444764134
0.000599770750742737
0.0005997707567184456
0.0005997707622444155
0.0005997707672430326
0.0005997707716963565
0.000599770775630042
0.0005997707791024993
0.0005997707821977058
0.0005997707850199035
0.0005997707876864263
0.000599770790309153
0.000599770792945617
0.0005997707954848729
0.0005997707974278392
0.0005997707975777383
0.0005082924312477181
0.0005374593831051582
0.000557836902090804
0.0005708388360902458
0.000579580669073194
0.0005860135088956906
0.0005910057977108338
0.000594822757470579
0.0005976146992148923
0.000599546407953008
0.000600794850873167
0.0006015285531570366
0.0006018930680431465
0.000602005597053491
0.0006019555759955062
0.0006018082807984732
0.0006016094649150559
0.0006013899210903024
0.0006011694454996675
0.0006009600330584455
0.0006007683208483817
0.0006005973828149339
0.0006004480056299678
0.0006003195709844556
0.0006002106509999974
0.0006001194009638899
0.0006000438123885
0.0005999818716713197
0.0005999316558976138
0.0005998913872452632
0.0005998594603522016
0.0005998344521662245
0.0005998151205762836
0.0005998003960163351
0.0005997893688602271
0.0005997812745278225
0.0005997754776249178
0.0005997714560287744
0.0005997687855406839
0.0005997671255140769
0.0005997662057082982
0.000599765814497814
0.0005997657884781686
0.0005997660034441451
0.000599766366670135
0.0005997668103936035
0.0005997672863840083
0.0005997677614733083
0.0005997682139234774
0.0005997686305109726
0.0005997690042172385
0.0005997693324239159
0.0005997696155236066
0.0005997698558675134
0.0005997700569838004
0.000599770223009315
0.0005997703582886622
0.0005997704671008443
0.000599770553483242
0.0005997706211271295
0.0005997706733251728
0.0005997707129555992
0.000599770742491131
0.0005997707640237798
0.0005997707792990555
0.00059977078975481
0.0005997707965614482
0.0005997708006614886
0.0005997708028069733
0.000599770803594155
0.0005997708034951204
0.000599770802886301
0.0005997708020729625
0.0005997708013085818
0.0005997708008056476
0.0005997708007303543
0.0005997708011697252
0.000599770802059133
0.0005997708030756199
0.0005997708035573962
0.0004789460141729785
0.00050819493061811
0.0005326489807785438
0.0005519596652833293
0.0005669278825516693
0.0005785062395862762
0.0005873566137923192
0.0005939456672846099
0.0005986527931419837
0.0006018330748236875
0.0006038205313094565
0.0006049135647584937
0.0006053642654167235
0.0006053753443263065
0.0006051030499433096
0.0006046633384040094
0.0006041391806890584
0.0006035876950104925
0.0006030464380594228
0.0006025386108693432
0.0006020771779435519
0.0006016680183545548
0.0006013122720708823
0.0006010080473301387
0.0006007516371240745
0.0006005383676927603
0.0006003631763386679
0.0006002209931623337
0.0006001069826351585
0.0006000166862664007
0.0005999460964850456
0.0005998916835707014
0.000599850391379677
0.0005998196131686345
0.0005997971555777006
0.000599781196467866
0.0005997702405736117
0.0005997630756562974
0.0005997587309076976
0.0005997564386664758
0.0005997556000133042
0.0005997557544550875
0.0005997565536631536
0.0005997577390660965
0.0005997591229967305
0.0005997605730368975
0.0005997619991821057
0.0005997633434495674
0.0005997645715708883
0.0005997656664376188
0.0005997666230019015
0.0005997674443683479
0.0005997681388500313
0.0005997687177934612
0.0005997691940099025
0.000599769580677509
0.0005997698906033282
0.0005997701357561098
0.0005997703269986301
0.0005997704739630951
0.0005997705850267449
0.0005997706673541354
0.000599770726981227
0.0005997707689233371
0.0005997707972936758
0.0005997708154233164
0.0005997708259771047
0.0005997708310614481
0.000599770832322098
0.0005997708310310897
0.0005997708281631253
0.0005997708244611341
0.0005997708204914812
0.0005997708166883787
0.0005997708133858667
0.0005997708108343505
0.0005997708091995041
0.00059977080854755
0.0005997708088385642
0.0005997708099810824
0.0004576676380828043
0.00048679174883455256
0.0005133193395263367
0.0005362670465178138
0.0005553766534021318
0.0005707913558296436
0.0005828300606339047
0.0005918900541736387
0.0005984158258734546
0.0006028656938802237
0.0006056800017445659
0.0006072553136739669
0.0006079294264420727
0.0006079769976335251
0.0006076126593344931
0.0006069982916964266
0.0006062518978128452
0.0006054564639047712
0.0006046679427121722
0.0006039220060739399
0.000603239513987193
0.0006026308041023399
0.0006020989714625458
0.0006016423223035044
0.0006012561732823097
0.0006009341438918045
0.0006006690635430053
0.0006004535901217074
0.0006002806155209557
0.000600143516141651
0.0006000362923992977
0.000599953630370954
0.0005998909103004844
0.0005998441802346746
0.0005998101081496059
0.000599785922194807
0.000599769345859528
0.0005997585327384706
0.0005997520039856421
0.0005997485903683358
0.0005997473799769767
0.00059974767203449
0.0005997489368249379
0.0005997507814795301
0.0005997529211828775
0.0005997551552655418
0.0005997573476093447
0.0005997594107901083
0.0005997612934087011
0.0005997629701021377
0.0005997644337775203
0.0005997656896655295
0.000599766750844285
0.0005997676349366785
0.0005997683617308079
0.0005997689515176489
0.0005997694239759451
0.0005997697974689173
0.0005997700886435353
0.0005997703122470498
0.0005997704810949648
0.0005997706061397866
0.0005997706966026884
0.0005997707601408161
0.0005997708030298891
0.0005997708303488106
0.0005997708461571526
0.000599770853659941
0.0005997708553564776
0.0005997708531724859
0.0005997708485750054
0.0005997708426708516
0.000599770836289638
0.0005997708300519245
0.0005997708244238875
0.0005997708197594654
0.0005997708163347978
0.000599770814386209
0.0005997708141742939
0.0005997708161118781
0.0004427681656223243
0.00047176903019612574
0.000499395614726434
0.0005244516973198049
0.0005461720293423103
0.00056422030571409
0.0005786080095006148
0.0005895998801819202
0.0005976183330350444
0.0006031585721434241
0.000606721482040665
0.0006087693067988205
0.0006097018501407093
0.0006098482201104462
0.0006094686731535977
0.0006087619690423555
0.0006078750004748655
0.0006069126972111783
0.0006059471294125185
0.0006050253406645994
0.0006041757990989344
0.0006034135443283489
0.0006027441927598572
0.0006021669889652188
0.0006016770847154621
0.0006012672070307758
0.0006009288516688841
0.000600653113785931
0.0006004312452991236
0.0006002550095409522
0.0006001168881516304
0.0006000101825018923
0.0005999290418441668
0.0005998684424207497
0.0005998241355161682
0.0005997925775903678
0.0005997708518886031
0.0005997565880648353
0.0005997478841943332
0.0005997432339381913
0.000599741460440552
0.0005997416576900933
0.0005997431394860477
0.0005997453957534111
0.0005997480557017772
0.0005997508571820442
0.0005997536215309121
0.0005997562331834401
0.0005997586233613218
0.0005997607571932407
0.00059976262368556
0.0005997642280302783
0.0005997655858035796
0.0005997667186755009
0.0005997676513103114
0.0005997684091927969
0.000599769017162974
0.0005997694984842676
0.0005997698743049021
0.0005997701634026418
0.0005997703821271701
0.000599770544475438
0.0005997706622502436
0.0005997707452666833
0.0005997708015803642
0.000599770837719359
0.0005997708589082068
0.0005997708692764425
0.00059977087204731
0.0005997708697052098
0.0005997708641414545
0.0005997708567791257
0.0005997708486792732
0.0005997708406294509
0.0005997708332191343
0.0005997708269056746
0.0005997708220796688
0.0005997708191423946
0.0005997708186157407
0.0005997708213087499
0.0004332773154796485
0.0004621948187231394
0.0004904005664240781
0.0005166224323742808
0.0005398666502434091
0.000559536640194891
0.0005754436991899385
0.0005877373120018343
0.0005967969346637562
0.0006031215104419104
0.0006072405114321138
0.0006096544290557157
0.0006108022943771622
0.0006110491508193921
0.0006106861610673168
0.000609937569221432
0.0006089705950419629
0.0006079058952685092
0.0006068273280212398
0.000605790454757937
0.0006048296195081497
0.0006039636591386287
0.0006032003969334478
0.0006025401050525727
0.0006019781204801028
0.0006015067820067733
0.0006011168326647023
0.0006007984081049385
0.0006005417091998688
0.0006003374376818352
0.0006001770571322159
0.0006000529279677598
0.0005999583539272005
0.0005998875685888622
0.0005998356833024192
0.0005997986122839897
0.0005997729862264043
0.0005997560623859561
0.0005997456365235956
0.0005997399601410983
0.0005997376650248169
0.0005997376960800045
0.0005997392527186108
0.000599741738577761
0.0005997447190373465
0.0005997478858271364
0.0005997510279294817
0.0005997540079643725
0.0005997567432692766
0.0005997591909389913
0.0005997613361590815
0.0005997631832434466
0.0005997647488626047
0.0005997660570245828
0.0005997671354396582
0.0005997680129616596
0.0005997687178555233
0.0005997692766870592
0.0005997697136731588
0.0005997700503643563
0.0005997703055601956
0.0005997704953817085
0.0005997706334433312
0.0005997707310827506
0.0005997707976176274
0.0005997708406087661
0.0005997708661149123
0.0005997708789307634
0.0005997708828030687
0.0005997708806221519
0.000599770874589242
0.000599770866359764
0.000599770857166072
0.0005997708479212183
0.0005997708393098152
0.0005997708318719997
0.0005997708260903606
0.0005997708224934154
0.000599770821791845
0.0005997708250650587
0.0004286540659822247
0.0004575312389726765
0.00048598955624630286
0.0005127327442916725
0.0005366781092170106
0.0005571173896709372
0.0005737657023235942
0.000586710090247444
0.000596300994548786
0.0006030331143271759
0.0006074463079568383
0.0006100581689695334
0.0006113264893106666
0.0006116340425431949
0.0006112875126081752
0.0006105241016317281
0.000609521475859869
0.0006084084601346896
0.0006072751047310658
0.0006061815040630127
0.0006051651797544531
0.0006042470680998315
0.0006034362575633248
0.000602733659447236
0.0006021347966545732
0.0006016318802477383
0.0006012153215439948
0.0006008748041823704
0.0006006000185803482
0.0006003811416063538
0.0006002091274650196
0.0006000758616765408
0.0005999742183911923
0.0005998980518156724
0.0005998421449250008
0.0005998021325976425
0.0005997744115742884
0.0005997560459711335
0.0005997446742720714
0.0005997384216140407
0.0005997358196200553
0.000599735734907827
0.0005997373066114599
0.0005997398927190482
0.0005997430246880207
0.0005997463696001268
0.0005997496990228791
0.0005997528637181611
0.0005997557733634484
0.0005997583805046721
0.0005997606680319096
0.0005997626395491545
0.0005997643120906242
0.0005997657107160583
0.000599766864589993
0.0005997678042173293
0.0005997685595666109
0.000599769158862567
0.0005997696278747263
0.0005997699895643419
0.0005997702639831064
0.0005997704683418411
0.0005997706171877806
0.0005997707226449544
0.0005997707946848048
0.0005997708414045386
0.0005997708692974522
0.0005997708835057744
0.0005997708880503003
0.0005997708860346512
0.0005997708798231899
0.0005997708711942822
0.0005997708614711592
0.0005997708516341041
0.0005997708424194947
0.0005997708344132309
0.000599770828148756
0.0005997708242231912
0.0005997708234455692
0.000599770827031988
0.00042865406598221973
0.00045753123897267087
0.0004859895562462974
0.0005127327442916668
0.0005366781092170035
0.0005571173896709318
0.0005737657023235882
0.0005867100902474371
0.0005963009945487799
0.0006030331143271714
0.0006074463079568356
0.0006100581689695285
0.0006113264893106608
0.0006116340425431909
0.000611287512608169
0.0006105241016317268
0.0006095214758598661
0.000608408460134683
0.0006072751047310587
0.0006061815040630096
0.0006051651797544526
0.0006042470680998254
0.0006034362575633266
0.0006027336594472333
0.0006021347966545697
0.0006016318802477359
0.0006012153215439944
0.0006008748041823643
0.0006006000185803446
0.0006003811416063518
0.0006002091274650191
0.0006000758616765408
0.0005999742183911942
0.0005998980518156644
0.000599842144925007
0.0005998021325976431
0.0005997744115742928
0.0005997560459711319
0.0005997446742720664
0.000599738421614037
0.0005997358196200616
0.0005997357349078319
0.0005997373066114477
0.0005997398927190487
0.0005997430246880189
0.0005997463696001192
0.000599749699022885
0.0005997528637181638
0.0005997557733634473
0.0005997583805046725
0.0005997606680319192
0.0005997626395491542
0.0005997643120906269
0.0005997657107160756
0.0005997668645899906
0.0005997678042173295
0.0005997685595666054
0.0005997691588625555
0.0005997696278747177
0.0005997699895643356
0.0005997702639831008
0.0005997704683418391
0.0005997706171877893
0.0005997707226449542
0.0005997707946848046
0.0005997708414045465
0.0005997708692974495
0.0005997708835057772
0.0005997708880502966
0.0005997708860346526
0.0005997708798231685
0.000599770871194271
0.0005997708614711617
0.0005997708516341029
0.0005997708424195008
0.0005997708344132203
0.0005997708281487713
0.0005997708242231963
0.0005997708234455826
0.0005997708270319677
0.00043327731547963334
0.00046219481872312274
0.0004904005664240611
0.0005166224323742632
0.0005398666502433909
0.0005595366401948743
0.0005754436991899212
0.0005877373120018151
0.0005967969346637393
0.0006031215104418948
0.0006072405114321011
0.0006096544290557002
0.0006108022943771493
0.0006110491508193787
0.0006106861610673034
0.000609937569221421
0.0006089705950419521
0.0006079058952684975
0.0006068273280212268
0.0006057904547579224
0.0006048296195081425
0.000603963659138621
0.0006032003969334435
0.0006025401050525651
0.0006019781204800948
0.0006015067820067701
0.0006011168326646981
0.0006007984081049225
0.0006005417091998585
0.0006003374376818365
0.0006001770571322055
0.0006000529279677428
0.0005999583539272053
0.0005998875685888478
0.0005998356833024194
0.0005997986122839939
0.0005997729862264073
0.0005997560623859505
0.0005997456365235858
0.00059973996014111
0.0005997376650248329
0.0005997376960800082
0.0005997392527186057
0.0005997417385777543
0.0005997447190373368
0.0005997478858271239
0.0005997510279294828
0.0005997540079643825
0.0005997567432692927
0.0005997591909389969
0.0005997613361590872
0.0005997631832434562
0.0005997647488626024
0.000599766057024602
0.0005997671354396691
0.0005997680129616698
0.0005997687178555164
0.0005997692766870447
0.0005997697136731283
0.0005997700503643359
0.0005997703055601974
0.0005997704953816968
0.0005997706334433357
0.0005997707310827609
0.0005997707976176254
0.0005997708406087756
0.0005997708661148852
0.0005997708789307608
0.0005997708828030568
0.0005997708806221562
0.0005997708745891898
0.0005997708663597566
0.0005997708571660862
0.0005997708479212098
0.0005997708393098129
0.0005997708318719866
0.000599770826090373
0.0005997708224934304
0.0005997708217918777
0.0005997708250650644
0.00044276816562229855
0.0004717690301960976
0.0004993956147264042
0.0005244516973197746
0.0005461720293422807
0.0005642203057140604
0.0005786080095005853
0.0005895998801818955
0.0005976183330350187
0.0006031585721433965
0.0006067214820406396
0.0006087693067987938
0.0006097018501406894
0.000609848220110425
0.0006094686731535772
0.0006087619690423311
0.0006078750004748439
0.0006069126972111667
0.0006059471294125075
0.0006050253406645776
0.0006041757990989172
0.0006034135443283412
0.0006027441927598463
0.0006021669889652086
0.000601677084715455
0.0006012672070307668
0.0006009288516688687
0.0006006531137859129
0.0006004312452991056
0.0006002550095409541
0.000600116888151624
0.0006000101825018783
0.000599929041844144
0.0005998684424207431
0.0005998241355161684
0.0005997925775903654
0.0005997708518885919
0.0005997565880648257
0.0005997478841943249
0.0005997432339382107
0.0005997414604405818
0.000599741657690094
0.0005997431394860537
0.000599745395753408
0.0005997480557017437
0.0005997508571820429
0.0005997536215309065
0.0005997562331834461
0.000599758623361347
0.0005997607571932467
0.0005997626236855871
0.000599764228030278
0.0005997655858035843
0.0005997667186754945
0.0005997676513103353
0.0005997684091927948
0.000599769017162956
0.0005997694984842717
0.0005997698743048927
0.0005997701634026114
0.0005997703821271601
0.0005997705444754343
0.0005997706622502437
0.0005997707452667012
0.0005997708015803655
0.0005997708377193622
0.0005997708589081756
0.0005997708692764063
0.0005997708720472802
0.0005997708697051751
0.0005997708641413977
0.0005997708567791318
0.0005997708486792712
0.0005997708406294456
0.0005997708332191455
0.0005997708269056752
0.0005997708220796842
0.0005997708191424287
0.0005997708186157616
0.0005997708213087802
0.0004576676380827685
0.0004867917488345125
0.000513319339526294
0.0005362670465177704
0.000555376653402088
0.0005707913558296014
0.0005828300606338649
0.0005918900541736035
0.000598415825873417
0.0006028656938801869
0.0006056800017445273
0.0006072553136739309
0.0006079294264420416
0.0006079769976334958
0.0006076126593344679
0.0006069982916963993
0.000606251897812816
0.0006054564639047486
0.0006046679427121544
0.0006039220060739131
0.0006032395139871677
0.0006026308041023257
0.0006020989714625337
0.0006016423223034914
0.0006012561732822979
0.0006009341438917878
0.0006006690635429888
0.0006004535901216885
0.0006002806155209314
0.0006001435161416405
0.000600036292399293
0.0005999536303709504
0.0005998909103004527
0.0005998441802346562
0.0005998101081495967
0.0005997859221948094
0.0005997693458595181
0.0005997585327384605
0.0005997520039856384
0.0005997485903683421
0.0005997473799770012
0.0005997476720345027
0.0005997489368249296
0.0005997507814795342
0.0005997529211828643
0.0005997551552655352
0.0005997573476093349
0.0005997594107901124
0.000599761293408718
0.0005997629701021508
0.0005997644337775564
0.0005997656896655282
0.0005997667508442963
0.0005997676349366685
0.000599768361730828
0.0005997689515176278
0.000599769423975936
0.0005997697974689066
0.0005997700886435269
0.0005997703122470167
0.0005997704810949651
0.000599770606139791
0.000599770696602703
0.0005997707601408366
0.0005997708030298801
0.0005997708303487775
0.0005997708461571234
0.0005997708536598895
0.0005997708553564341
0.0005997708531724444
0.0005997708485749673
0.0005997708426708458
0.0005997708362896144
0.0005997708300519248
0.0005997708244239128
0.0005997708197594875
0.0005997708163348325
0.0005997708143862423
0.000599770814174308
0.000599770816111868
0.00047894601417293193
0.0005081949306180573
0.0005326489807784886
0.0005519596652832729
0.0005669278825516132
0.0005785062395862224
0.0005873566137922699
0.0005939456672845605
0.0005986527931419359
0.0006018330748236395
0.0006038205313094097
0.00060491356475845
0.0006053642654166824
0.0006053753443262688
0.0006051030499432796
0.0006046633384039795
0.0006041391806890268
0.0006035876950104524
0.0006030464380593951
0.0006025386108693078
0.0006020771779435238
0.0006016680183545355
0.0006013122720708657
0.0006010080473301213
0.0006007516371240544
0.0006005383676927437
0.0006003631763386465
0.0006002209931623157
0.0006001069826351405
0.0006000166862663768
0.0005999460964850321
0.000599891683570689
0.000599850391379657
0.0005998196131686133
0.00059979715557767
0.0005997811964678625
0.0005997702405736086
0.0005997630756562909
0.0005997587309077072
0.0005997564386664865
0.0005997556000133138
0.0005997557544550959
0.0005997565536631532
0.0005997577390661
0.0005997591229967372
0.0005997605730368925
0.0005997619991821019
0.0005997633434495838
0.0005997645715708943
0.0005997656664376379
0.000599766623001914
0.0005997674443683689
0.0005997681388500293
0.0005997687177934518
0.0005997691940098906
0.0005997695806774926
0.0005997698906033223
0.0005997701357560894
0.0005997703269985998
0.0005997704739630831
0.0005997705850267632
0.0005997706673541375
0.0005997707269812426
0.000599770768923367
0.0005997707972936531
0.0005997708154232638
0.0005997708259770611
0.0005997708310614257
0.0005997708323220467
0.0005997708310310602
0.0005997708281631142
0.0005997708244611238
0.000599770820491471
0.0005997708166883656
0.000599770813385876
0.0005997708108343677
0.0005997708091995036
0.0005997708085475418
0.0005997708088386029
0.0005997708099810844
0.0005082924312476601
0.0005374593831050923
0.0005578369020907348
0.0005708388360901761
0.0005795806690731277
0.0005860135088956265
0.0005910057977107718
0.0005948227574705183
0.0005976146992148372
0.0005995464079529506
0.0006007948508731142
0.0006015285531569842
0.0006018930680430979
0.0006020055970534424
0.0006019555759954677
0.0006018082807984368
0.0006016094649150187
0.0006013899210902628
0.0006011694454996296
0.0006009600330584123
0.0006007683208483429
0.0006005973828149069
0.0006004480056299415
0.0006003195709844355
0.000600210650999972
0.0006001194009638634
0.0006000438123884728
0.0005999818716713034
0.0005999316558975865
0.0005998913872452313
0.0005998594603521848
0.0005998344521662153
0.0005998151205762584
0.0005998003960163238
0.0005997893688602176
0.0005997812745278062
0.0005997754776249056
0.0005997714560287821
0.0005997687855406876
0.0005997671255140791
0.0005997662057082971
0.000599765814497813
0.0005997657884781904
0.000599766003444137
0.0005997663666701291
0.000599766810393609
0.0005997672863840243
0.000599767761473324
0.0005997682139234729
0.0005997686305109804
0.0005997690042172369
0.0005997693324239359
0.0005997696155235919
0.000599769855867519
0.0005997700569837654
0.0005997702230093056
0.0005997703582886395
0.0005997704671008218
0.0005997705534832268
0.0005997706211271508
0.0005997706733251616
0.0005997707129556034
0.0005997707424911483
0.000599770764023781
0.000599770779299043
0.0005997707897547954
0.0005997707965614279
0.0005997708006614574
0.0005997708028069202
0.0005997708035941162
0.0005997708034951073
0.0005997708028862877
0.0005997708020729565
0.000599770801308568
0.0005997708008056499
0.0005997708007303474
0.0005997708011696977
0.0005997708020591223
0.0005997708030756379
0.0005997708035574271
0.0005488615803257472
0.0005769272575148652
0.000588412937679185
0.0005907902561749234
0.0005906755520990825
0.0005911139588485763
0.0005921262029882532
0.0005933227453040804
0.0005944640469934112
0.0005954512634834925
0.0005962666781287349
0.0005969273491380874
0.0005974608426080049
0.0005978940490304537
0.0005982491290773268
0.0005985428622056093
0.0005987874118640231
0.0005989914908414801
0.000599161458951479
0.0005993021790162062
0.0005994176057869672
0.0005995111480688434
0.0005995858646213004
0.0005996445520541046
0.00059968977124808
0.0005997238451119349
0.0005997488482808635
0.0005997665999809072
0.0005997786648289043
0.0005997863623594279
0.0005997907839445607
0.0005997928148980122
0.0005997931594448151
0.0005997923665341854
0.0005997908549357486
0.0005997889365466994
0.0005997868372692796
0.0005997847151643603
0.0005997826758416528
0.0005997807852186796
0.0005997790798844571
0.0005997775753565328
0.0005997762725358474
0.0005997751626553953
0.0005997742309958134
0.0005997734596100234
0.0005997728292659552
0.0005997723207830151
0.0005997719159073006
0.0005997715978426938
0.000599771351531234
0.0005997711637561534
0.0005997710231234979
0.0005997709199653048
0.0005997708461956526
0.0005997707951426655
0.0005997707613724679
0.000599770740516202
0.0005997707291070654
0.0005997707244313927
0.0005997707243959682
0.0005997707274124389
0.0005997707322974381
0.0005997707381890125
0.000599770744476398
0.0005997707507427194
0.0005997707567184422
0.0005997707622443974
0.000599770767243024
0.0005997707716963201
0.000599770775630009
0.0005997707791024821
0.0005997707821976966
0.0005997707850198897
0.0005997707876864015
0.0005997707903091444
0.0005997707929455988
0.0005997707954848699
0.0005997707974278311
0.0005997707975777646
0.000606792820230804
0.0006286946323022372
0.0006213662101171186
0.000605369206406542
0.0005956557172435313
0.0005908226591255139
0.0005887215427791468
0.0005881335481147737
0.0005883788197653809
0.0005890818660071994
0.0005900238208332531
0.00059107208804633
0.0005921436577092021
0.0005931858382124682
0.0005941655464422255
0.0005950630411026222
0.0005958679963213641
0.0005965768493702506
0.0005971908759741868
0.0005977147175364628
0.0005981552227521368
0.0005985205335206049
0.0005988193751565243
0.0005990605224396521
0.0005992524164397517
0.0005994029077539319
0.0005995191023424306
0.0005996072874634947
0.0005996729173839061
0.0005997206413232886
0.0005997543591414193
0.0005997772932958903
0.0005997920683728174
0.0005998007919007696
0.0005998051321486237
0.0005998063901871278
0.0005998055646944851
0.0005998034088650444
0.0005998004793916584
0.0005997971778953565
0.0005997937854196025
0.0005997904907329687
0.000599787413228705
0.0005997846211986593
0.0005997821462125064
0.000599779994267205
0.0005997781542954165
0.0005997766045437531
0.0005997753172556383
0.0005997742620238153
0.0005997734081136131
0.0005997727260029081
0.0005997721883367114
0.0005997717704526509
0.0005997714506012377
0.0005997712099548908
0.0005997710324784357
0.0005997709047142015
0.0005997708155217033
0.0005997707557989391
0.0005997707182048452
0.0005997706968956334
0.0005997706872818642
0.0005997706858110472
0.0005997706897766424
0.0005997706971534575
0.0005997707064578825
0.000599770716630985
0.0005997707269420968
0.0005997707369103165
0.0005997707462418012
0.0005997707547800515
0.0005997707624678781
0.0005997707693184592
0.0005997707753923617
0.0005997707807738278
0.0005997707855286591
0.0005997707895964628
0.0005997707925133452
0.0005997707928118783
0.0007011306855253925
0.0006953805536471685
0.0006347505233595317
0.0006038143560629333
0.0005890804026476865
0.0005818938730410453
0.000578851669538745
0.0005781561181514682
0.0005788312351865283
0.0005802873520734914
0.0005821536449077827
0.000584190310246844
0.0005862417882971585
0.0005882089889236658
0.0005900317815067004
0.0005916772721427769
0.0005931315987905161
0.0005943939991126355
0.0005954724386890447
0.0005963803673046776
0.0005971343234915218
0.0005977521927509238
0.0005982519748284613
0.000598650946886232
0.0005989651312725316
0.0005992089933296973
0.0005993953084731194
0.0005995351495779406
0.0005996379559116363
0.0005997116535984317
0.0005997628049774048
0.0005997967703020836
0.0005998178701352926
0.0005998295406500745
0.0005998344770022711
0.0005998347621394555
0.0005998319799956948
0.000599827313118981
0.0005998216254981318
0.0005998155317929051
0.0005998094543987117
0.0005998036698593679
0.0005997983461211909
0.000599793572038637
0.0005997893804194074
0.0005997857657563286
0.0005997826976468809
0.0005997801307584167
0.000599778012062646
0.0005997762859420097
0.0005997748976615247
0.0005997737956069362
0.0005997729326090871
0.0005997722666065849
0.0005997717608440929
0.0005997713837558792
0.0005997711086487477
0.0005997709132675183
0.000599770779304047
0.000599770691891596
0.0005997706391132396
0.0005997706115423295
0.0005997706018251672
0.0005997706043107782
0.0005997706147289648
0.0005997706299144422
0.0005997706475744251
0.0005997706660950536
0.0005997706843823296
0.000599770701732672
0.0005997707177289329
0.0005997707321572309
0.000599770744941436
0.0005997707560920267
0.0005997707656666543
0.0005997707737398677
0.0005997707803765217
0.0005997707855836409
0.0005997707891414694
0.0005997707899700206
0.0008699702713336849
0.0006708796258827272
0.0006027656735536049
0.000578093009454513
0.0005663325079717922
0.0005619422776173945
0.0005614414861797286
0.0005631553971611862
0.0005660734954977489
0.0005695792880577964
0.0005732816120046934
0.0005769328467113456
0.0005803801261778504
0.0005835351384595277
0.0005863540005442122
0.0005888232604421872
0.0005909498558651152
0.0005927538043985471
0.0005942628719154377
0.0005955087211859239
0.0005965241867259156
0.0005973414100565578
0.0005979906284516586
0.0005984994532517678
0.0005988925074010449
0.0005991913191602139
0.0005994143915158238
0.000599577385479845
0.0005996933707961349
0.0005997731099702734
0.0005998253514096485
0.0005998571151705704
0.0005998739607106584
0.0005998802304571513
0.0005998792662163899
0.0005998735977141268
0.0005998651040865858
0.0005998551501133623
0.000599844699539878
0.0005998344080953776
0.0005998246988602301
0.0005998158225454996
0.0005998079050679491
0.0005998009845756128
0.000599795039828655
0.0005997900115874554
0.0005997858184171737
0.0005997823680933368
0.0005997795655897449
0.000599777318452563
0.0005997755402086635
0.0005997741523254237
0.0005997730851286605
0.0005997722779940984
0.0005997716790530287
0.0005997712445925205
0.0005997709382833315
0.00059977073033041
0.0005997705966117639
0.0005997705178501757
0.0005997704788444646
0.0005997704677758677
0.0005997704755956208
0.000599770495494485
0.0005997705224504458
0.0005997705528486957
0.0005997705841665158
0.0005997706147152478
0.0005997706434311353
0.0005997706697076737
0.0005997706932619577
0.0005997707140287335
0.0005997707320757455
0.0005997707475354383
0.0005997707605481092
0.0005997707712137362
0.0005997707795528082
0.0005997707854854574
0.0005997707888477348
0.0005997707895354092
SCALARS STRAIN_XX float 1
LOOKUP_TABLE default
0.000612213865754702
0.0005466348850817728
0.0005027341765412727
0.0004824273832263544
0.0004726434108508154
0.0004687791025414403
0.0004682123373239808
0.00046953539546130117
0.00047190207455974223
0.00047478671383407783
0.00047785416972166575
0.000480891137134936
0.0004837653798072804
0.0004864000473811703
0.0004887564724497585
0.0004908221525099206
0.0004926021176706492
0.0004941126483841464
0.000495376700140506
0.00049642060540142
0.0004972717454950482
0.000497956961213802
0.0004985015223843928
0.0004989285145898751
0.0004992585308532345
0.0004995095800730091
0.0004996971436827839
0.0004998343281597609
0.0004999320741559485
0.0004999993935907981
0.0005000436144021042
0.00050007061914827
0.0005000850686064304
0.0005000906052032451
0.0005000900337971716
0.0005000854792191721
0.0005000785212522958
0.0005000703085396695
0.0005000616533739968
0.0005000531095372667
0.0005000450354003191
0.0005000376444170042
0.0005000310449991621
0.0005000252715696117
0.0005000203083820147
0.0005000161074868014
0.0005000126020200321
0.0005000097158051539
0.0005000073700885573
0.0005000054880808843
0.0005000039978469723
0.0005000028339777127
0.0005000019383847622
0.000500001260482285
0.0005000007569581008
0.0005000003912858288
0.0005000001330897671
0.0004999999574423659
0.0004999998441503027
0.0004999997770661398
0.0004999997434486786
0.0004999997333849891
0.000499999739279812
0.0004999997554127715
0.0004999997775607008
0.0004999998026798888
0.0004999998286427595
0.0004999998540217085
0.0004999998779141833
0.0004999998998020151
0.0004999999194394839
0.0004999999367642401
0.0004999999518263548
0.0004999999647306783
0.000499999975589218
0.0004999999844807791
0.0004999999914196279
0.000499999996344206
0.0004999999991611853
0.0004999999999564901
0.0004849485666521726
0.0005234397253740877
0.0005159240365767009
0.0005025996594480416
0.0004928109226853554
0.00048681968048474265
0.00048370845136583144
0.0004825666810625304
0.0004827102727832963
0.0004836518860488106
0.0004850514987663414
0.0004866749658691766
0.0004883640043563515
0.0004900147714488904
0.0004915624694062258
0.0004929701276303378
0.0004942203389093703
0.0004953091377463675
0.0004962414680312879
0.0004970278496865864
0.0004976819583106407
0.0004982189018404998
0.0004986540275986407
0.0004990021295784722
0.0004992769538732858
0.0004994909222934465
0.00049965501195151
0.0004997787428802549
0.000499870237240495
0.0004999363228665029
0.0004999826611822101
0.0005000138852290078
0.0005000337379584899
0.000500045204302111
0.0005000506330385748
0.0005000518463151062
0.0005000502359849227
0.0005000468468206558
0.000500042447251197
0.0005000375886251678
0.0005000326541919672
0.0005000278990593028
0.0005000234823721514
0.0005000194928918514
0.0005000159690551446
0.0005000129144783257
0.0005000103097515061
0.0005000081212500583
0.000500006307578944
0.0005000048241638119
0.0005000036264125318
0.0005000026717914448
0.0005000019210928183
0.0005000013391125158
0.0005000008949090848
0.0005000005617758433
0.0005000003170263119
0.0005000001416663683
0.0005000000200080425
0.000499999939262365
0.000499999889137558
0.0004999998614594377
0.0004999998498239084
0.0004999998492865934
0.0004999998560912405
0.0004999998674362523
0.0004999998812767574
0.0004999998961591409
0.000499999911084556
0.0004999999253972494
0.0004999999386944357
0.0004999999507539175
0.0004999999614767082
0.0004999999708419495
0.0004999999788726471
0.000499999985611118
0.0004999999911035266
0.0004999999953862119
0.0004999999984278622
0.0004999999998382063
0.00045404784459959985
0.00048298796112774184
0.0005006857983047091
0.0005027779381392138
0.0004998827142987332
0.0004964443491302639
0.0004938015473769308
0.0004921679141883738
0.000491402543472574
0.0004912879167582639
0.000491620061416597
0.0004922333123218185
0.0004930022266094159
0.0004938363037952161
0.0004946731179562131
0.0004954718350719113
0.0004962077132551236
0.0004968676705322641
0.0004974468218832268
0.0004979458343725342
0.0004983689468470555
0.0004987225166883059
0.0004990139772473529
0.000499251110500293
0.0004994415581457551
0.0004995925102699583
0.0004997105238865786
0.0004998014344016529
0.0004998703317071595
0.0004999215795118391
0.0004999588619777019
0.0004999852460111226
0.0005000032508781574
0.0005000149193626433
0.0005000218866154441
0.0005000254442824974
0.0005000265985517748
0.0005000261215114248
0.0005000245957319099
0.0005000224523298291
0.000500020002985966
0.0005000174665079349
0.0005000149905786695
0.000500012669335078
0.0005000105573934061
0.0005000086808907445
0.0005000070460556005
0.0005000056457580854
0.0005000044644301298
0.0005000034816870606
0.00050000267492868
0.0005000020211496075
0.0005000014981464563
0.0005000010852731721
0.0005000007638646387
0.0005000005174226833
0.0005000003316377993
0.0005000001943015822
0.0005000000951520134
0.0005000000256813551
0.0004999999789286631
0.0004999999492718652
0.0004999999322290449
0.0004999999242749839
0.0004999999226762593
0.000499999925346363
0.0004999999307200853
0.0004999999376470443
0.0004999999453021257
0.0004999999531114623
0.0004999999606921449
0.0004999999678037201
0.0004999999743101752
0.0004999999801506977
0.0004999999853178769
0.000499999989840013
0.000499999993759586
0.0004999999970832086
0.000499999999644743
0.0005000000007841614
0.0004392082717494546
0.0004643175358593199
0.0004836053579714574
0.0004945842632809896
0.000498671694531607
0.0004994497169243646
0.0004989947724426144
0.0004982759238445127
0.0004976734247463727
0.0004972958084452344
0.0004971384328685885
0.0004971570835539626
0.0004973002214214597
0.0004975217989270715
0.0004977852336683799
0.0004980635625137213
0.0004983381330291511
0.0004985969073593426
0.0004988328390563559
0.0004990424919683713
0.0004992249369621393
0.0004993809058870258
0.0004995121625845939
0.0004996210478963262
0.0004997101596914619
0.0004997821352307301
0.0004998395095987887
0.0004998846296395019
0.0004999196075780371
0.0004999463023344954
0.0004999663195442072
0.0004999810236421829
0.0004999915571736319
0.0004999988638725548
0.0005000037130963881
0.0005000067239905558
0.0005000083883392771
0.0005000090914857851
0.0005000091310098896
0.000500008733064352
0.0005000080664153278
0.0005000072543231114
0.0005000063844538705
0.0005000055170383804
0.0005000046915014152
0.0005000039317794754
0.0005000032505305535
0.0005000026524211981
0.0005000021366553288
0.0005000016988878746
0.0005000013326457164
0.0005000010303593157
0.0005000007840908014
0.0005000005860289793
0.0005000004288086383
0.0005000003056991331
0.000500000210699042
0.0005000001385642439
0.0005000000847912717
0.0005000000455721246
0.0005000000177321235
0.0004999999986598173
0.00049999998623485
0.0004999999787577494
0.000499999974884216
0.0004999999735657776
0.000499999973996787
0.0004999999755687309
0.0004999999778310844
0.0004999999804587256
0.0004999999832251793
0.0004999999859815335
0.0004999999886400146
0.0004999999911613692
0.0004999999935442895
0.000499999995811809
0.0004999999979845675
0.0005000000000208206
0.00050000000169758
0.0005000000024349069
0.00043166750249478276
0.00045333143016959153
0.0004721578123026649
0.00048576787744664877
0.0004941441809368653
0.0004985945427169267
0.0005006949482595168
0.00050152938501948
0.0005017345601951737
0.0005016534253791979
0.0005014603330761283
0.0005012390185352429
0.0005010267014834697
0.0005008377226375991
0.0005006757354049534
0.0005005397701547528
0.0005004271263709175
0.0005003346765274684
0.0005002594051399497
0.0005001985977382013
0.0005001498808054434
0.0005001112053555001
0.0005000808139028886
0.0005000572060202242
0.0005000391070922369
0.0005000254408378925
0.0005000153049839204
0.0005000079493774822
0.0005000027560479788
0.0004999992209634907
0.0004999969373872155
0.0004999955808167884
0.0004999948955076664
0.0004999946825667498
0.0004999947895720207
0.0004999951016418768
0.000499995533851768
0.0004999960248764663
0.0004999965317264085
0.0004999970254434844
0.0004999974876252911
0.0004999979076535047
0.000499998280513227
0.0004999986051012276
0.0004999988829335038
0.000499999117175489
0.0004999993119284875
0.0004999994717178272
0.0004999996011372659
0.0004999997046121699
0.0004999997862520124
0.0004999998497680364
0.0004999998984379049
0.0004999999351023316
0.0004999999621834884
0.0004999999817161156
0.0004999999953863958
0.0005000000045731496
0.000500000010389549
0.0005000000137226415
0.0005000000152697928
0.0005000000155714734
0.0005000000150400686
0.0005000000139847374
0.0005000000126326176
0.0005000000111466431
0.0005000000096403723
0.0005000000081903794
0.0005000000068464544
0.0005000000056402248
0.0005000000045925594
0.0005000000037202225
0.0005000000030414044
0.0005000000025799679
0.0005000000023667114
0.0005000000024333977
0.0005000000027929954
0.0005000000033983099
0.0005000000040799452
0.0005000000044949535
0.0004273511872213288
0.00044676393149217076
0.00046443680936134935
0.0004787812402162879
0.0004892138439287539
0.0004961398422083205
0.0005003957858404017
0.0005028256847482305
0.0005040739031370088
0.0005045823651131584
0.0005046397171444353
0.0005044311241009418
0.0005040749543029953
0.0005036469718005996
0.00050319557505409
0.0005027512877928604
0.0005023327334778846
0.0005019504924853053
0.0005016096747739148
0.0005013116920803825
0.000501055510421268
0.0005008385489382351
0.00050065732731996
0.0005005079284438278
0.0005003863224971195
0.0005002885865207762
0.0005002110452858328
0.0005001503537176597
0.0005001035367547969
0.0005000679990845389
0.0005000415143978348
0.0005000222015184201
0.0005000084929028224
0.0004999990995172496
0.0004999929749184943
0.0004999892804505249
0.0004999873527724661
0.0004999866744144106
0.000499986847682616
0.0004999875719717169
0.0004999886243654099
0.0004999898432954571
0.0004999911149668156
0.0004999923622284776
0.0004999935355665362
0.0004999946059084225
0.0004999955589501896
0.000499996390746953
0.0004999971043373967
0.0004999977072034385
0.0004999982093966144
0.0004999986221884984
0.0004999989571284526
0.0004999992254118481
0.0004999994374819319
0.000499999602803395
0.000499999729758992
0.0004999998256319735
0.0004999998966456875
0.0004999999480385427
0.0004999999841591579
0.0005000000085700826
0.0005000000241523264
0.0005000000332058101
0.0005000000375423759
0.0005000000385695334
0.0005000000373646882
0.0005000000347395173
0.0005000000312951058
0.0005000000274686146
0.0005000000235727275
0.0005000000198282541
0.0005000000163908266
0.0005000000133718423
0.000500000010853003
0.0005000000088927169
0.0005000000075229029
0.0005000000067377705
0.0005000000064856631
0.0005000000066935212
0.000424780173432736
0.00044265054772767826
0.00045932273369832824
0.0004736589100451849
0.0004850394776390039
0.0004934372713579463
0.0004992409783962756
0.000502997860360766
0.0005052406502210117
0.0005064098180703278
0.0005068429428514154
0.0005067889709638252
0.0005064276854219781
0.0005058870199147795
0.000505256620937599
0.0005045980018524359
0.0005039520615723264
0.0005033446686813518
0.0005027908371421494
0.0005022978650150662
0.0005018676961646932
0.0005014986903193984
0.0005011869376875836
0.0005009272213167843
0.0005007137072919766
0.0005005404259186292
0.0005004015940275964
0.0005002918182206197
0.0005002062105273191
0.0005001404411331027
0.0005000907472768532
0.0005000539129012679
0.000500027230001818
0.0005000084497236938
0.000499995728977647
0.0004999875765785734
0.0004999828015630897
0.000499980465331399
0.0004999798385187659
0.0004999803629719378
0.0004999816188411953
0.0004999832965576646
0.0004999851733182379
0.0004999870936211234
0.0004999889533639952
0.0004999906870188277
0.0004999922574221629
0.0004999936477558878
0.0004999948553385831
0.0004999958868934107
0.0004999967550051339
0.0004999974755221723
0.0004999980656995064
0.0004999985429145065
0.0004999989238178813
0.0004999992238104399
0.0004999994567571504
0.0004999996348710768
0.0004999997687137429
0.0004999998672719341
0.0004999999380813705
0.0004999999873752693
0.000500000020242251
0.0005000000407834639
0.0005000000522615081
0.0005000000572374409
0.0005000000576936385
0.0005000000551417805
0.0005000000507160013
0.0005000000452525626
0.000500000039356744
0.0005000000334584795
0.0005000000278580531
0.0005000000227625527
0.0005000000183144511
0.0005000000146126692
0.00050000001172891
0.0005000000097253356
0.0005000000086857019
0.000500000008781757
0.0004232316867641288
0.00044008138246760646
0.00045600153740592194
0.0004701379108031671
0.0004819168563476114
0.0004911443310034844
0.0004979526868267037
0.0005026737270353164
0.0005057125187574755
0.0005074640598843219
0.0005082722435878306
0.0005084176566337315
0.0005081197431900638
0.0005075447517090066
0.0005068151223499712
0.0005060184225042915
0.0005052151341811964
0.0005044451376082669
0.0005037329600942452
0.0005030919405819775
0.0005025274789093133
0.000502039531121024
0.0005016244945638708
0.0005012766061965488
0.0005009889577155405
0.0005007542130349577
0.0005005650978064553
0.0005004147170714667
0.0005002967456710838
0.0005002055264939536
0.0005001361037889895
0.0005000842123796048
0.0005000462384733128
0.000500019163668949
0.0005000005005465283
0.0004999882257287376
0.0004999807143938103
0.0004999766787828902
0.0004999751121852851
0.0004999752391200863
0.0004999764718984986
0.0004999783733911304
0.0004999806255969637
0.0004999830034802775
0.0004999853534797781
0.0004999875760828762
0.0004999896118774213
0.0004999914305334786
0.0004999930222203963
0.0004999943910208669
0.0004999955499613504
0.0004999965173349413
0.0004999973140425596
0.0004999979617267766
0.0004999984815121008
0.0004999988932021995
0.0004999992148140286
0.0004999994623550927
0.0004999996497703947
0.000499999789003459
0.000499999890129112
0.0004999999615277629
0.00050000001007822
0.000500000041354292
0.0005000000598145773
0.0005000000689789827
0.0005000000715886035
0.0005000000697473125
0.0005000000650447062
0.0005000000586615067
0.000500000051458508
0.0005000000440505657
0.0005000000368680785
0.0005000000302065946
0.0005000000242681747
0.0005000000191962596
0.0005000000151095425
0.0005000000121416284
0.0005000000104982937
0.0005000000105460957
0.0004223465532283427
0.0004385702057546093
0.000454001908306993
0.00046794348957339643
0.0004798740728736582
0.0004895359014124492
0.0004969326821874505
0.0005022645556777587
0.000505842551640772
0.0005080139152505779
0.0005091118528974124
0.0005094286141451476
0.0005092054721770344
0.0005086327792644891
0.0005078551282791059
0.0005069785086410142
0.0005060777192814545
0.0005052031765978033
0.0005043867665766137
0.0005036466669016589
0.0005029912016256705
0.0005024218489149091
0.0005019355382845586
0.0005015263687928161
0.0005011868655334798
0.0005009088746384081
0.0005006841799587757
0.0005005049090442042
0.0005003637825036419
0.0005002542493888667
0.0005001705417598491
0.0005001076738547078
0.000500061405055402
0.0005000281808816148
0.0005000050623451598
0.0004999896509698815
0.0004999800144614847
0.0004999746162631657
0.0004999722509365367
0.0004999719863687177
0.0004999731131446628
0.0004999751009736528
0.0004999775617697527
0.0004999802188143179
0.0004999828813425072
0.0004999854238702112
0.0004999877695927198
0.0004999898772266986
0.000499991730723539
0.0004999933313452297
0.0004999946916586454
0.000499995831068514
0.000499996772567346
0.0004999975404352715
0.0004999981586705504
0.0004999986499719441
0.0004999990351313467
0.0004999993327232874
0.0004999995590041755
0.000499999727953785
0.0004999998514080822
0.0004999999392461627
0.0004999999996036456
0.0005000000390941346
0.0005000000630251342
0.0005000000756009704
0.0005000000801072928
0.0005000000790753925
0.0005000000744256848
0.0005000000675906141
0.0005000000596190463
0.0005000000512630394
0.0005000000430505115
0.0005000000353446755
0.0005000000283948425
0.000500000022381937
0.0005000000174645997
0.0005000000138337783
0.0005000000117849901
0.0005000000118186854
0.000421942554853369
0.00043786813110659173
0.00045306051891156875
0.00046689141586503456
0.00047886910100786064
0.0004887157518578722
0.0004963818131329008
0.0005020070042350189
0.0005058542833037381
0.0005082429556345015
0.0005094965632354074
0.000509910119594247
0.0005097341329717009
0.000509170353198828
0.0005083744014249387
0.0005074617241990951
0.0005065146279645532
0.0005055891480334968
0.0005047211572257598
0.0005039315025401232
0.0005032301634976342
0.0005026195233986622
0.0005020968816955833
0.0005016563408483466
0.0005012901910426129
0.000500989900120776
0.0005007467987176136
0.0005005525341665691
0.0005003993521913814
0.0005002802529903384
0.0005001890579959993
0.00050012041515548
0.0005000697637740498
0.0005000332745508547
0.0005000077761768001
0.0004999906765565752
0.0004999798841801347
0.0004999737332550304
0.0004999709147893629
0.0004999704147840706
0.0004999714599632273
0.0004999734709727355
0.0004999760226548512
0.0004999788108118637
0.0004999816247728429
0.000499984325042847
0.0004999868253267679
0.0004999890782588622
0.0004999910642277221
0.0004999927827518316
0.0004999942459298912
0.0004999954735573318
0.0004999964895629552
0.0004999973194780658
0.0004999979887004916
0.0004999985213611068
0.0004999989396387884
0.0004999992634009531
0.0004999995100751654
0.0004999996946780019
0.0004999998299459758
0.0004999999265273246
0.0004999999932050088
0.0005000000371298413
0.000500000064049367
0.0005000000785236949
0.0005000000841225045
0.0005000000836008212
0.0005000000790525948
0.0005000000720429901
0.0005000000637202205
0.0005000000549093726
0.0005000000461903922
0.000500000037963081
0.0005000000305028438
0.0005000000240118173
0.0005000000186713358
0.0005000000147038462
0.0005000000124520329
0.0005000000124842884
0.00042194255485336526
0.00043786813110658783
0.0004530605189115651
0.000466891415865031
0.00047886910100785555
0.0004887157518578685
0.0004963818131328963
0.0005020070042350134
0.0005058542833037331
0.0005082429556344976
0.0005094965632354053
0.0005099101195942426
0.0005097341329716961
0.000509170353198825
0.0005083744014249335
0.0005074617241990942
0.0005065146279645506
0.0005055891480334916
0.0005047211572257538
0.0005039315025401198
0.0005032301634976333
0.0005026195233986562
0.0005020968816955851
0.000501656340848344
0.0005012901910426103
0.0005009899001207742
0.0005007467987176136
0.000500552534166563
0.000500399352191378
0.0005002802529903367
0.0005001890579959985
0.0005001204151554792
0.0005000697637740515
0.0005000332745508478
0.0005000077761768071
0.0004999906765565752
0.0004999798841801382
0.0004999737332550287
0.0004999709147893595
0.0004999704147840671
0.0004999714599632325
0.0004999734709727408
0.0004999760226548407
0.0004999788108118654
0.0004999816247728411
0.0004999843250428401
0.0004999868253267731
0.000499989078258864
0.0004999910642277221
0.0004999927827518316
0.0004999942459298998
0.0004999954735573318
0.000499996489562957
0.0004999973194780814
0.0004999979887004898
0.0004999985213611086
0.0004999989396387849
0.0004999992634009444
0.0004999995100751584
0.0004999996946779967
0.0004999998299459706
0.0004999999265273211
0.0004999999932050157
0.0005000000371298413
0.000500000064049367
0.0005000000785237019
0.0005000000841225011
0.0005000000836008246
0.0005000000790525913
0.0005000000720429935
0.0005000000637202032
0.0005000000549093657
0.0005000000461903957
0.0005000000379630776
0.0005000000305028507
0.0005000000240118069
0.0005000000186713496
0.0005000000147038497
0.0005000000124520468
0.0005000000124842745
0.00042234655322833097
0.0004385702057545976
0.00045400190830698143
0.0004679434895733845
0.0004798740728736454
0.0004895359014124372
0.0004969326821874375
0.0005022645556777437
0.0005058425516407587
0.0005080139152505649
0.000509111852897402
0.0005094286141451338
0.0005092054721770232
0.0005086327792644778
0.0005078551282790941
0.0005069785086410043
0.0005060777192814449
0.0005052031765977938
0.0005043867665766033
0.0005036466669016458
0.0005029912016256636
0.0005024218489149022
0.000501935538284556
0.0005015263687928101
0.0005011868655334728
0.0005009088746384064
0.0005006841799587722
0.0005005049090441895
0.0005003637825036333
0.0005002542493888693
0.0005001705417598404
0.0005001076738546922
0.0005000614050554072
0.000500028180881601
0.0005000050623451616
0.0004999896509698849
0.0004999800144614864
0.0004999746162631605
0.0004999722509365281
0.0004999719863687281
0.0004999731131446767
0.0004999751009736545
0.0004999775617697474
0.0004999802188143127
0.0004999828813424985
0.0004999854238702008
0.0004999877695927215
0.0004999898772267072
0.0004999917307235528
0.0004999933313452332
0.0004999946916586506
0.0004999958310685226
0.0004999967725673408
0.0004999975404352871
0.0004999981586705591
0.0004999986499719545
0.0004999990351313415
0.0004999993327232787
0.0004999995590041512
0.0004999997279537677
0.0004999998514080856
0.0004999999392461506
0.0004999999996036491
0.000500000039094145
0.0005000000630251342
0.0005000000756009808
0.000500000080107265
0.0005000000790753925
0.0005000000744256744
0.000500000067590621
0.0005000000596190012
0.0005000000512630394
0.0005000000430505254
0.0005000000353446651
0.0005000000283948425
0.0005000000223819266
0.0005000000174646101
0.0005000000138337887
0.0005000000117850213
0.0005000000118186923
0.00042323168676410895
0.0004400813824675866
0.0004560015374059015
0.0004701379108031465
0.0004819168563475906
0.0004911443310034625
0.0004979526868266805
0.0005026737270352969
0.0005057125187574545
0.0005074640598842985
0.0005082722435878089
0.0005084176566337085
0.0005081197431900468
0.000507544751708988
0.0005068151223499534
0.0005060184225042699
0.0005052151341811773
0.0005044451376082573
0.0005037329600942357
0.0005030919405819576
0.0005025274789092976
0.000502039531121018
0.0005016244945638621
0.0005012766061965402
0.0005009889577155344
0.0005007542130349499
0.0005005650978064423
0.0005004147170714511
0.0005002967456710682
0.000500205526493957
0.0005001361037889843
0.0005000842123795944
0.0005000462384732937
0.0005000191636689438
0.0005000005005465283
0.0004999882257287376
0.0004999807143938016
0.0004999766787828815
0.0004999751121852764
0.0004999752391201037
0.0004999764718985247
0.0004999783733911269
0.0004999806255969672
0.0004999830034802758
0.0004999853534797486
0.0004999875760828779
0.0004999896118774161
0.0004999914305334838
0.0004999930222204189
0.0004999943910208686
0.0004999955499613747
0.0004999965173349379
0.0004999973140425631
0.0004999979617267697
0.0004999984815121233
0.0004999988932021977
0.000499999214814013
0.0004999994623550962
0.000499999649770386
0.000499999789003433
0.0004999998901291068
0.0004999999615277612
0.00050000001007822
0.0005000000413543093
0.0005000000598145773
0.0005000000689789862
0.0005000000715885758
0.0005000000697472848
0.0005000000650446854
0.0005000000586614824
0.0005000000514584595
0.0005000000440505761
0.0005000000368680785
0.0005000000302065911
0.0005000000242681851
0.0005000000191962561
0.0005000000151095529
0.0005000000121416562
0.0005000000104983075
0.00050000001054612
0.0004247801734327081
0.00044265054772764975
0.0004593227336982989
0.00047365891004515497
0.00048503947763897225
0.0004934372713579144
0.0004992409783962449
0.0005029978603607384
0.0005052406502209803
0.000506409818070297
0.0005068429428513829
0.0005067889709637952
0.0005064276854219521
0.0005058870199147539
0.0005052566209375773
0.0005045980018524121
0.0005039520615723004
0.0005033446686813318
0.0005027908371421346
0.0005022978650150427
0.0005018676961646706
0.0005014986903193863
0.0005011869376875732
0.000500927221316773
0.000500713707291967
0.0005005404259186153
0.0005004015940275833
0.0005002918182206049
0.0005002062105272983
0.0005001404411330949
0.0005000907472768497
0.0005000539129012662
0.0005000272300017903
0.0005000084497236799
0.00049999572897764
0.0004999875765785769
0.000499982801563081
0.0004999804653313903
0.0004999798385187625
0.000499980362971943
0.0004999816188412179
0.000499983296557675
0.0004999851733182275
0.0004999870936211268
0.0004999889533639831
0.0004999906870188225
0.0004999922574221542
0.000499993647755893
0.0004999948553385987
0.0004999958868934194
0.0004999967550051651
0.0004999974755221688
0.0004999980656995168
0.0004999985429144944
0.0004999989238179021
0.0004999992238104191
0.0004999994567571435
0.0004999996348710681
0.000499999768713736
0.0004999998672719028
0.0004999999380813722
0.0004999999873752728
0.0005000000202422649
0.0005000000407834847
0.0005000000522615011
0.0005000000572374132
0.0005000000576936177
0.0005000000551417388
0.0005000000507159701
0.0005000000452525313
0.0005000000393567128
0.0005000000334584795
0.0005000000278580323
0.0005000000227625527
0.0005000000183144719
0.000500000014612683
0.0005000000117289342
0.0005000000097253599
0.0005000000086857123
0.0005000000087817501
0.0004273511872212925
0.0004467639314921329
0.00046443680936131043
0.00047878124021624756
0.0004892138439287129
0.0004961398422082795
0.0005003957858403631
0.0005028256847481906
0.0005040739031369694
0.0005045823651131181
0.0005046397171443954
0.000504431124100905
0.0005040749543029606
0.0005036469718005666
0.000503195575054064
0.0005027512877928348
0.0005023327334778577
0.0005019504924852706
0.0005016096747738931
0.0005013116920803522
0.0005010555104212437
0.0005008385489382186
0.0005006573273199453
0.0005005079284438121
0.0005003863224971022
0.0005002885865207623
0.0005002110452858146
0.000500150353717645
0.0005001035367547821
0.000500067999084519
0.0005000415143978252
0.0005000222015184115
0.0005000084929028051
0.0004999990995172322
0.0004999929749184683
0.0004999892804505232
0.0004999873527724626
0.0004999866744144037
0.0004999868476826229
0.0004999875719717238
0.0004999886243654168
0.000499989843295464
0.0004999911149668138
0.0004999923622284793
0.0004999935355665414
0.0004999946059084173
0.0004999955589501861
0.0004999963907469686
0.0004999971043374001
0.0004999977072034541
0.0004999982093966248
0.0004999986221885192
0.0004999989571284509
0.0004999992254118412
0.0004999994374819215
0.0004999996028033794
0.0004999997297589868
0.0004999998256319544
0.0004999998966456597
0.0004999999480385289
0.0004999999841591701
0.0005000000085700809
0.0005000000241523403
0.0005000000332058378
0.0005000000375423551
0.0005000000385694883
0.0005000000373646535
0.0005000000347395034
0.0005000000312950642
0.0005000000274685938
0.0005000000235727206
0.0005000000198282471
0.0005000000163908197
0.0005000000133718319
0.0005000000108530134
0.0005000000088927307
0.0005000000075228994
0.0005000000067377601
0.0005000000064856978
0.0005000000066935177
0.00043166750249473733
0.0004533314301695433
0.0004721578123026152
0.0004857678774465975
0.0004941441809368152
0.0004985945427168766
0.0005006949482594674
0.0005015293850194301
0.0005017345601951283
0.0005016534253791493
0.0005014603330760837
0.0005012390185351982
0.0005010267014834285
0.0005008377226375571
0.0005006757354049213
0.000500539770154722
0.0005004271263708854
0.0005003346765274337
0.0005002594051399176
0.0005001985977381735
0.0005001498808054096
0.0005001112053554775
0.0005000808139028652
0.0005000572060202078
0.0005000391070922152
0.00050002544083787
0.0005000153049838979
0.0005000079493774701
0.0005000027560479563
0.0004999992209634646
0.0004999969373872034
0.0004999955808167823
0.0004999948955076439
0.0004999946825667411
0.0004999947895720138
0.0004999951016418629
0.0004999955338517575
0.0004999960248764732
0.0004999965317264102
0.0004999970254434879
0.0004999974876252911
0.000499997907653503
0.0004999982805132478
0.0004999986051012189
0.0004999988829334986
0.0004999991171754942
0.0004999993119285014
0.0004999994717178411
0.0004999996011372607
0.0004999997046121786
0.0004999997862520124
0.0004999998497680572
0.000499999898437891
0.0004999999351023385
0.0004999999621834537
0.0004999999817161087
0.000499999995386375
0.000500000004573127
0.00050000001038953
0.0005000000137226589
0.0005000000152697772
0.0005000000155714734
0.0005000000150400825
0.0005000000139847374
0.0005000000126326037
0.0005000000111466292
0.0005000000096403584
0.0005000000081903586
0.0005000000068464128
0.0005000000056401936
0.0005000000045925525
0.0005000000037202156
0.0005000000030414044
0.0005000000025799575
0.0005000000023667149
0.0005000000024333942
0.0005000000027929712
0.0005000000033982994
0.000500000004079959
0.0005000000044949708
0.00043920827174939877
0.0004643175358592606
0.00048360535797139646
0.000494584263280928
0.0004986716945315447
0.0004994497169243052
0.0004989947724425548
0.0004982759238444535
0.0004976734247463198
0.0004972958084451815
0.0004971384328685364
0.0004971570835539132
0.000497300221421412
0.0004975217989270256
0.0004977852336683379
0.0004980635625136884
0.0004983381330291095
0.0004985969073593053
0.0004988328390563195
0.0004990424919683444
0.0004992249369620951
0.0004993809058870006
0.0004995121625845627
0.0004996210478963046
0.000499710159691435
0.0004997821352306989
0.0004998395095987748
0.0004998846296394802
0.0004999196075780163
0.0004999463023344676
0.0004999663195441786
0.0004999810236421733
0.000499991557173618
0.0004999988638725427
0.0005000037130963898
0.0005000067239905454
0.0005000083883392702
0.0005000090914857938
0.0005000091310098861
0.0005000087330643502
0.0005000080664153209
0.0005000072543231131
0.0005000063844538809
0.0005000055170383769
0.0005000046915014083
0.0005000039317794788
0.0005000032505305691
0.000500002652421205
0.0005000021366553219
0.0005000016988878763
0.0005000013326457251
0.000500001030359333
0.0005000007840907927
0.0005000005860289741
0.0005000004288086089
0.0005000003056991158
0.0005000002106990298
0.0005000001385642144
0.0005000000847912647
0.0005000000455721403
0.000500000017732094
0.0004999999986598294
0.0004999999862348534
0.0004999999787577321
0.0004999999748842021
0.0004999999735657602
0.000499999973996787
0.0004999999755687171
0.0004999999778310775
0.0004999999804586944
0.000499999983225155
0.0004999999859815231
0.0004999999886400111
0.0004999999911613623
0.0004999999935442721
0.0004999999958118055
0.0004999999979845501
0.0005000000000208171
0.0005000000016975696
0.0005000000024349208
0.0004540478445995324
0.0004829879611276697
0.0005006857983046349
0.0005027779381391407
0.0004998827142986607
0.0004964443491301937
0.0004938015473768618
0.0004921679141883079
0.0004914025434725132
0.000491287916758204
0.0004916200614165389
0.0004922333123217625
0.0004930022266093665
0.0004938363037951645
0.0004946731179561654
0.0004954718350718697
0.0004962077132550724
0.0004968676705322172
0.0004974468218831886
0.0004979458343724978
0.0004983689468470174
0.0004987225166882773
0.0004990139772473165
0.0004992511105002626
0.0004994415581457291
0.0004995925102699219
0.0004997105238865587
0.0004998014344016243
0.0004998703317071473
0.0004999215795118148
0.0004999588619776715
0.0004999852460111026
0.00050000325087814
0.0005000149193626399
0.0005000218866154354
0.0005000254442824922
0.0005000265985517678
0.0005000261215114266
0.0005000245957319065
0.0005000224523298222
0.000500020002985959
0.0005000174665079331
0.000500014990578666
0.0005000126693350867
0.0005000105573934027
0.0005000086808907584
0.0005000070460556075
0.0005000056457580924
0.0005000044644301212
0.0005000034816870624
0.000500002674928713
0.0005000020211496075
0.0005000014981464528
0.0005000010852731565
0.0005000007638646161
0.0005000005174226625
0.0005000003316377941
0.0005000001943015753
0.0005000000951519978
0.0005000000256813394
0.0004999999789286318
0.0004999999492718652
0.0004999999322290501
0.0004999999242749631
0.0004999999226762385
0.0004999999253463248
0.0004999999307200714
0.0004999999376470547
0.0004999999453021396
0.0004999999531114414
0.0004999999606921206
0.0004999999678037131
0.0004999999743101648
0.0004999999801506873
0.0004999999853178665
0.0004999999898400095
0.0004999999937595756
0.0004999999970831913
0.000499999999644736
0.0005000000007841579
0.00048494856665209056
0.0005234397253739982
0.0005159240365766132
0.0005025996594479576
0.0004928109226852743
0.00048681968048466394
0.0004837084513657549
0.00048256668106245624
0.00048271027278322647
0.0004836518860487438
0.00048505149876627764
0.00048667496586911156
0.0004883640043562942
0.0004900147714488341
0.0004915624694061724
0.0004929701276302867
0.0004942203389093165
0.0004953091377463154
0.0004962414680312393
0.00049702784968655
0.0004976819583106026
0.0004982189018404581
0.0004986540275986025
0.0004990021295784349
0.0004992769538732589
0.0004994909222934135
0.0004996550119514762
0.0004997787428802315
0.000499870237240475
0.0004999363228664804
0.0004999826611821988
0.0005000138852289853
0.0005000337379584725
0.0005000452043021041
0.0005000506330385679
0.0005000518463151062
0.0005000502359849123
0.0005000468468206523
0.0005000424472511797
0.0005000375886251539
0.0005000326541919637
0.0005000278990593028
0.0005000234823721444
0.0005000194928918462
0.000500015969055155
0.0005000129144783465
0.0005000103097515095
0.0005000081212500722
0.000500006307578944
0.0005000048241638206
0.0005000036264125474
0.0005000026717914309
0.0005000019210928148
0.0005000013391125106
0.0005000008949090744
0.0005000005617758468
0.0005000003170263084
0.0005000001416663527
0.00050000002000802
0.0004999999392623355
0.0004999998891375233
0.0004999998614594187
0.0004999998498239119
0.0004999998492865622
0.0004999998560912093
0.000499999867436228
0.0004999998812767401
0.0004999998961591409
0.0004999999110845629
0.000499999925397239
0.0004999999386944218
0.0004999999507539175
0.0004999999614766978
0.0004999999708419391
0.000499999978872654
0.0004999999856111076
0.000499999991103537
0.000499999995386205
0.0004999999984278587
0.0004999999998381993
0.0006122138657545888
0.0005466348850816688
0.0005027341765411754
0.00048242738322626204
0.0004726434108507265
0.0004687791025413542
0.00046821233732389665
0.00046953539546121855
0.00047190207455966244
0.00047478671383400324
0.0004778541697215942
0.0004808911371348675
0.0004837653798072132
0.0004864000473811087
0.0004887564724496965
0.0004908221525098599
0.0004926021176705937
0.0004941126483840935
0.0004953767001404522
0.0004964206054013775
0.0004972717454950022
0.0004979569612137552
0.0004985015223843451
0.0004989285145898317
0.0004992585308532041
0.0004995095800729744
0.0004996971436827535
0.0004998343281597357
0.0004999320741559321
0.0004999993935907747
0.0005000436144020973
0.0005000706191482535
0.0005000850686064182
0.0005000906052032243
0.0005000900337971612
0.0005000854792191721
0.0005000785212522889
0.0005000703085396557
0.0005000616533739743
0.0005000531095372563
0.0005000450354003191
0.0005000376444169955
0.0005000310449991534
0.0005000252715696082
0.0005000203083820303
0.0005000161074868257
0.0005000126020200234
0.0005000097158051574
0.0005000073700885798
0.0005000054880808964
0.0005000039978469602
0.0005000028339777161
0.0005000019383847726
0.0005000012604822728
0.0005000007569580904
0.0005000003912858358
0.000500000133089748
0.0004999999574423434
0.0004999998441502784
0.0004999997770661277
0.0004999997434486508
0.0004999997333849579
0.0004999997392797755
0.0004999997554127472
0.0004999997775606696
0.0004999998026798819
0.0004999998286427422
0.000499999854021705
0.0004999998779141694
0.0004999998998020082
0.0004999999194394665
0.000499999936764247
0.0004999999518263583
0.0004999999647306921
0.0004999999755892215
0.0004999999844807722
0.0004999999914196279
0.000499999996344213
0.0004999999991612061
0.0004999999999564936
SCALARS STRAIN_YY float 1
LOOKUP_TABLE default
-9.045159589902234e-05
-0.0001708514708053366
-0.00015990853093347942
-0.0001572803448714112
-0.00015491501604516025
-0.00015414753629907762
-0.00015420662718913488
-0.00015479096325030854
-0.00015566198515402593
-0.00015667059763152004
-0.00015771816784631318
-0.00015874148952015141
-0.0001597014301060344
-0.00016057566776564924
-0.0001613535780422196
-0.0001620325777211808
-0.0001626154525669742
-0.0001631083944777698
-0.000163519566334286
-0.0001638580680823861
-0.00016413321022050844
-0.0001643540222722626
-0.0001645289390598408
-0.00016466561928131051
-0.0001647708602913894
-0.0001648505807149577
-0.00016490984891332926
-0.00016495294057779632
-0.00016498341299572958
-0.00016500418695474092
-0.00016501762994417348
-0.0001650256363962949
-0.00016502970228817718
-0.000165030992594612
-0.00016503040092552784
-0.00016502860126892647
-0.0001650260921517364
-0.00016502323377437403
-0.00016502027880943462
-0.00016501739761159626
-0.00016501469858842832
-0.00016501224444885414
-0.00016501006499116343
-0.0001650081670256801
-0.00016500654195581333
-0.00016500517146997035
-0.00016500403172906074
-0.0001650030963720778
-0.00016500233860621168
-0.0001650017325989803
-0.0001650012543475426
-0.00016500088216443297
-0.00016500059688898192
-0.0001650003819087981
-0.0001650002230555867
-0.00016500010842332988
-0.00016500002814393358
-0.00016499997414536288
-0.00016499993990950904
-0.00016499992024114857
-0.0001649999110548793
-0.0001649999091837528
-0.00016499991221104909
-0.00016499991832502376
-0.00016499992619546373
-0.00016499993487025476
-0.00016499994368988316
-0.00016499995221757333
-0.00016499996018285042
-0.00016499996743642967
-0.00016499997391438987
-0.00016499997960986055
-0.00016499998455055977
-0.00016499998878067397
-0.00016499999234579905
-0.00016499999527978002
-0.00016499999759218094
-0.00016499999925401014
-0.00016500000015930573
-0.00016500000003688228
-4.1117853434974105e-05
-0.00011206459280358437
-0.0001471060688500314
-0.00015417724762822654
-0.00015647838145619697
-0.00015715801608452544
-0.0001576263940943635
-0.00015813964013040545
-0.00015874463512785943
-0.00015941160650160614
-0.00016010079545541165
-0.00016077765845651064
-0.0001614171291838707
-0.00016200319605698453
-0.00016252727541983167
-0.0001629863812074114
-0.00016338148546074613
-0.0001637161759950168
-0.00016399561605238034
-0.00016422577116706753
-0.00016441285720992572
-0.00016456296386095724
-0.00016468181276641837
-0.00016477461613972845
-0.00016484600809216188
-0.00016490002688270022
-0.00016494013132352338
-0.00016496923873965158
-0.00016498977522530576
-0.00016500373157106235
-0.00016501272026924407
-0.00016501803054864918
-0.00016502067954007394
-0.00016502145851379638
-0.000165020973727777
-0.00016501968183715312
-0.0001650179200870603
-0.00016501593167782692
-0.00016501388678273664
-0.0001650118997357776
-0.0001650100429070253
-0.00016500835775939938
-0.00016500686354174873
-0.0001650055640267299
-0.00016500445265240596
-0.00016500351637723128
-0.00016500273851147824
-0.00016500210074532216
-0.00016500158455541385
-0.00016500117213813308
-0.000165000846988834
-0.00016500059422181043
-0.00016500040070517976
-0.0001650002550680293
-0.00016500014762337522
-0.00016500007023941747
-0.00016500001618285616
-0.00016499997995111557
-0.0001649999571051012
-0.00016499994411007558
-0.00016499993818921087
-0.00016499993719230074
-0.00016499993948051832
-0.00016499994382702683
-0.00016499994933260557
-0.0001649999553550856
-0.00016499996145108832
-0.00016499996732851165
-0.00016499997280830753
-0.00016499997779408483
-0.00016499998224826383
-0.00016499998617361226
-0.00016499998959909612
-0.00016499999256908583
-0.0001649999951346021
-0.00016499999734406463
-0.00016499999922630802
-0.00016500000074058674
-0.00016500000161316576
-0.00016500000083103207
-2.636302525802662e-05
-7.770924532987814e-05
-0.00011781629855454594
-0.0001395650933910531
-0.00014951401094765734
-0.00015459270649768533
-0.00015740144295476666
-0.00015916250227531272
-0.00016039143742834253
-0.00016132335805393242
-0.00016206668649464768
-0.00016267464408014417
-0.00016317586144662063
-0.00016358819331104175
-0.0001639247519270255
-0.0001641964472381093
-0.00016441295643861088
-0.0001645830279335547
-0.00016471453503202232
-0.00016481446296996065
-0.0001648889021887835
-0.0001649430698558665
-0.00016498135984828347
-0.00016500741367104154
-0.0001650242033975391
-0.00016503411891216375
-0.00016503905369220722
-0.0001650404852890819
-0.00016503954825913944
-0.00016503709848929478
-0.00016503376869844374
-0.0001650300154414278
-0.00016502615826950002
-0.00016502241187170853
-0.00016501891208467424
-0.00016501573665098285
-0.0001650129215557579
-0.00016501047369602473
-0.00016500838055123767
-0.00016500661743453393
-0.00016500515281832773
-0.00016500395214813263
-0.00016500298048673686
-0.00016500220426774045
-0.00016500159238300042
-0.0001650011167823234
-0.0001650007527251628
-0.00016500047879217854
-0.00016500027673861922
-0.000165000131250703
-0.00016500002964963594
-0.0001649999615749787
-0.00016499991866915028
-0.00016499989427737002
-0.00016499988317163585
-0.0001649998813032901
-0.00016499988558585593
-0.00016499989370781878
-0.00016499990397377245
-0.00016499991517154736
-0.00016499992646258567
-0.00016499993729266664
-0.00016499994732012738
-0.00016499995635892357
-0.0001649999643341041
-0.00016499997124752358
-0.00016499997715188597
-0.0001649999821315434
-0.00016499998628868937
-0.0001649999897338297
-0.00016499999257964183
-0.00016499999493745814
-0.00016499999691560214
-0.00016499999861843738
-0.00016500000014390225
-0.00016500000157401793
-0.00016500000294429064
-0.0001650000041581339
-0.0001650000047782764
-0.00016500000361040364
-2.0284752620138884e-05
-6.074087377551344e-05
-9.657601510629625e-05
-0.0001223944104342776
-0.00013857199308976622
-0.0001482613765200641
-0.0001542239780105406
-0.00015801521737086763
-0.00016051451474618313
-0.00016220808244026789
-0.00016337505288528583
-0.00016418252473562314
-0.00016473619867752654
-0.00016510677168790188
-0.00016534397288135044
-0.00016548416139788023
-0.00016555459085092715
-0.0001655759346734844
-0.00016556389431356317
-0.00016553030951588145
-0.00016548398268894282
-0.00016543132397303162
-0.00016537687132125686
-0.000165323714746994
-0.00016527384223334444
-0.00016522841956513167
-0.00016518801396610857
-0.0001651527701874055
-0.00016512254683030692
-0.00016509701989631095
-0.0001650757597536764
-0.00016505828689349512
-0.0001650441110482904
-0.0001650327574920081
-0.00016502378365388368
-0.00016501678857207464
-0.0001650114171900753
-0.000165007361057929
-0.0001650043566350499
-0.00016500218209428445
-0.00016500065328886246
-0.00016499961935620704
-0.00016499895828707434
-0.0001649985726774549
-0.00016499838579759468
-0.00016499833805166833
-0.00016499838385825743
-0.00016499848895189
-0.00016499862808627274
-0.0001649987831078473
-0.00016499894136187362
-0.0001649990943908353
-0.0001649992368851264
-0.00016499936584808434
-0.00016499947994051873
-0.00016499957897345217
-0.00016499966352174448
-0.0001649997346350199
-0.00016499979362585837
-0.00016499984191857813
-0.00016499988094483356
-0.0001649999120747522
-0.00016499993657468227
-0.00016499995558437756
-0.00016499997010802525
-0.00016499998101486904
-0.00016499998904616364
-0.00016499999482605767
-0.00016499999887474289
-0.0001650000016226342
-0.00016500000342469087
-0.00016500000457434264
-0.0001650000053161554
-0.00016500000585587904
-0.0001650000063649242
-0.00016500000697265097
-0.0001650000077332383
-0.00016500000854493765
-0.0001650000089994507
-0.0001650000081811682
-1.6986313903267667e-05
-5.0984336456699075e-05
-8.267001610169132e-05
-0.00010849284582993671
-0.00012745686741407624
-0.00014055551953427904
-0.00014940217228819513
-0.0001553759101599162
-0.00015942191438859238
-0.0001621621469020206
-0.000164002136921741
-0.00016521164326002523
-0.00016597510840678416
-0.00016642234094006432
-0.0001666469111110415
-0.00016671737050877897
-0.00016668432276013227
-0.0001665850930759241
-0.00016644697696939205
-0.0001662896131061407
-0.00016612678364279703
-0.00016596781447017326
-0.0001658186779314849
-0.00016568286362234964
-0.0001655620631040178
-0.00016545670330727572
-0.00016536635664910604
-0.00016529005121002907
-0.00016522650067232384
-0.00016517427063107395
-0.00016513189517475767
-0.00016509795522539678
-0.00016507112801081232
-0.00016505021520466282
-0.00016503415570210946
-0.00016502202768268906
-0.00016501304352473713
-0.000165006540251417
-0.0001650019674802243
-0.00016499887428931626
-0.0001649968959804669
-0.00016499574138764564
-0.00016499518113241178
-0.00016499503704582016
-0.00016499517284707072
-0.00016499548607985017
-0.00016499590124860176
-0.00016499636406114792
-0.00016499683666487209
-0.00016499729375627815
-0.00016499771944449308
-0.00016499810475531284
-0.00016499844567163222
-0.0001649987416169184
-0.00016499899429995674
-0.00016499920685038283
-0.0001649993831852467
-0.0001649995275566412
-0.0001649996442392018
-0.00016499973732397074
-0.00016499981059162294
-0.00016499986744375315
-0.0001649999108754736
-0.00016499994347644154
-0.00016499996745058848
-0.00016499998464728345
-0.00016499999659865488
-0.00016500000455938287
-0.00016500000954645493
-0.0001650000123771993
-0.0001650000137045962
-0.00016500001404914374
-0.00016500001382648808
-0.00016500001336946688
-0.00016500001294194656
-0.00016500001273953339
-0.00016500001286979285
-0.00016500001330556748
-0.0001650000138178748
-0.00016500001393164268
-1.4994714599557783e-05
-4.4947473497827625e-05
-7.34572030276183e-05
-9.822981409603006e-05
-0.00011811720628865578
-0.00013318349650015616
-0.00014418890235348833
-0.00015205944235423561
-0.00015760716356294236
-0.00016145780050178242
-0.0001640739457290163
-0.00016579378587940383
-0.00016686560149357016
-0.00016747311000778317
-0.00016775313724425625
-0.0001678078194535287
-0.00016771317947011157
-0.00016752533221401793
-0.0001672851166423492
-0.00016702164456046495
-0.00016675506886811936
-0.00016649876355473973
-0.0001662610443296019
-0.00016604652207876102
-0.0001658571593411877
-0.00016569308586674884
-0.00016555321937340354
-0.00016543572996011066
-0.0001653383803217008
-0.000165258768514942
-0.0001651944953430833
-0.00016514327436595425
-0.00016510299904995304
-0.00016507177860282802
-0.00016504795154672838
-0.00016503008402115232
-0.00016501695812438092
-0.00016500755424716515
-0.00016500103027708045
-0.00016499669971079266
-0.00016499401006373073
-0.00016499252247632472
-0.0001649918930519878
-0.00016499185619800715
-0.0001649922100545073
-0.0001649928039705178
-0.00016499352790526247
-0.0001649943035852959
-0.00016499507722478134
-0.00016499581360985654
-0.0001649964913530907
-0.00016499709913634617
-0.00016499763277693692
-0.000164998092970416
-0.00016499848358232996
-0.00016499881037970103
-0.00016499908010999837
-0.0001649992998510282
-0.00016499947656887365
-0.00016499961683290825
-0.00016499972664721872
-0.000164999811366294
-0.000164999875669954
-0.00016499992357844992
-0.00016499995849327708
-0.00016499998325304608
-0.0001650000001968303
-0.00016500001122959923
-0.0001650000178861522
-0.00016500002139126723
-0.00016500002271472474
-0.00016500002262029593
-0.00016500002170805983
-0.00016500002044919464
-0.00016500001921178667
-0.0001650000182757469
-0.00016500001783571056
-0.00016500001799551236
-0.00016500001876995873
-0.00016500002012941062
-1.3712766427693995e-05
-4.104309829435833e-05
-6.73074820783985e-05
-9.094287675583256e-05
-0.00011094492415760255
-0.00012702534172374236
-0.0001394496540304326
-0.00014876282321980402
-0.00015557080446216423
-0.00016042627909056907
-0.0001637905633159687
-0.00016603345401267105
-0.00016744545987013628
-0.00016825223667853964
-0.00016862754174330578
-0.00016870395301864146
-0.0001685815091896289
-0.00016833464151404394
-0.00016801774400819703
-0.00016766965664439653
-0.00016731727073927692
-0.0001669784176143214
-0.00016666416820110117
-0.00016638064779896913
-0.00016613045286979105
-0.00016591374313811095
-0.00016572907096658936
-0.0001655740002651703
-0.00016544555870589905
-0.0001653405595760948
-0.00016525582311415285
-0.00016518832156601967
-0.00016513526741166617
-0.0001650941601706013
-0.00016506280382932661
-0.00016503930416445807
-0.00016502205298592475
-0.00016500970452104174
-0.00016500114773315244
-0.00016499547725495282
-0.00016499196476084014
-0.0001649900319559391
-0.00016498922588001076
-0.00016498919687730205
-0.00016498967933906844
-0.0001649904751601809
-0.00016499143974540694
-0.00016499247033902086
-0.00016499349642136842
-0.0001649944719081256
-0.00016499536889506334
-0.0001649961727077621
-0.0001649968780377644
-0.00016499748597134558
-0.00016499800174214296
-0.0001649984330633062
-0.00016499878891754026
-0.00016499907870389646
-0.0001649993116583887
-0.0001649994964812645
-0.00016499964111730165
-0.00016499975264677247
-0.00016499983725417835
-0.00016499990024956748
-0.00016499994612344357
-0.00016499997862129347
-0.00016500000082766134
-0.00016500001525274
-0.0001650000239167116
-0.00016500002842890127
-0.0001650000300599395
-0.0001650000298059676
-0.00016500002844448456
-0.00016500002658167078
-0.0001650000246912814
-0.00016500002314599266
-0.000165000022244246
-0.0001650000222403336
-0.00016500002339331387
-0.00016500002605874717
-1.288500119090007e-05
-3.852118585659294e-05
-6.327139731543649e-05
-8.598908676853579e-05
-0.00010582815591557296
-0.00012238556020291393
-0.00013567044739173998
-0.00014597307148945054
-0.0001537213184488038
-0.00015937449846228091
-0.00016336305550310678
-0.0001660621767581188
-0.00016778505283202366
-0.00016878564361749482
-0.00016926541321196105
-0.00016938121237150704
-0.0001692529948468876
-0.00016897080426980804
-0.0001686008373725184
-0.00016819056514454488
-0.0001677729743606006
-0.00016737002533166728
-0.00016699543141155136
-0.00016665686362358483
-0.00016635767590760563
-0.00016609823617966976
-0.00016587693739649958
-0.00016569095206519905
-0.00016553678362968773
-0.0001654106591359762
-0.00016530879961656445
-0.0001652275977394263
-0.00016516372638727885
-0.00016511419688703226
-0.00016507638150202526
-0.0001650480114305024
-0.00016502715882352743
-0.00016501220915009028
-0.00016500182850990019
-0.00016499492914767523
-0.00016499063538801562
-0.0001649882514278627
-0.00016498723184355963
-0.00016498715524905996
-0.00016498770124555634
-0.0001649886306018372
-0.00016498976847552753
-0.0001649909904094357
-0.00016499221079973456
-0.00016499337352212528
-0.00016499444440976603
-0.00016499540529601415
-0.0001649962493609559
-0.00016499697754982583
-0.00016499759586137514
-0.0001649981133332012
-0.00016499854057811775
-0.00016499888875026327
-0.00016499916884130239
-0.0001649993912260001
-0.00016499956539267466
-0.00016499969980755051
-0.0001649998018733572
-0.0001649998779517866
-0.00016499993342694686
-0.00016499997279284377
-0.00016499999975271346
-0.00016500001732166567
-0.0001650000279268529
-0.00016500003350152824
-0.00016500003557085182
-0.0001650000353284842
-0.000165000033703773
-0.00016500003142007894
-0.00016500002904571497
-0.0001650000270403236
-0.00016500002580180798
-0.00016500002572257717
-0.00016500002726805028
-0.00016500003109297504
-1.2384368993841784e-05
-3.6998061074857113e-05
-6.0814912417672237e-05
-8.291323824457161e-05
-0.00010255830943764138
-0.00011931820006000292
-0.0001330794872200174
-0.00014398595048126348
-0.00015234540021430952
-0.00015854195288776194
-0.0001629716355072161
-0.00016600338713349238
-0.0001679599221512912
-0.00016911160669065158
-0.00016967779596895977
-0.0001698319049818977
-0.000169707937676891
-0.0001694071991831332
-0.00016900453920115627
-0.00016855384181278682
-0.000168092681497216
-0.00016764617202382411
-0.000167230085334279
-0.00016685333652511757
-0.0001665199332606825
-0.00016623048176910544
-0.0001659833316810493
-0.00016577543090599928
-0.0001656029508366471
-0.00016546173208391627
-0.0001653475919553004
-0.0001652565270762459
-0.00016518483788950915
-0.0001651291961671496
-0.00016508667202583537
-0.0001650547331321439
-0.00016503122570533322
-0.00016501434446232564
-0.00016500259670422849
-0.00016499476422704977
-0.0001649898655737544
-0.00016498712026344478
-0.00016498591597937165
-0.00016498577922262765
-0.00016498634960328853
-0.00016498735771286612
-0.00016498860637493
-0.0001649899549837642
-0.00016499130659718212
-0.0001649925974365304
-0.00016499378845433274
-0.00016499485865070123
-0.0001649957998480157
-0.00016499661266545273
-0.0001649973034680659
-0.00016499788209723305
-0.0001649983602194281
-0.00016499875015755703
-0.0001649990640933388
-0.00016499931355035992
-0.00016499950908536396
-0.00016499966013064425
-0.00016499977494300705
-0.00016499986062512107
-0.00016499992319349228
-0.00016499996767398845
-0.000164999998211117
-0.00016500001818136855
-0.00016500003030413954
-0.00016500003674601522
-0.00016500003921607608
-0.00016500003905119348
-0.00016500003729141014
-0.00016500003474648637
-0.00016500003205590814
-0.00016500002974634964
-0.00016500002829259315
-0.0001650000281904509
-0.0001650000300522287
-0.00016500003473548315
-1.2147506915403156e-05
-3.627825653168625e-05
-5.964992222237604e-05
-8.143955120390568e-05
-0.0001009674840349247
-0.00011779797275132275
-0.0001317690858374535
-0.00014295912058004837
-0.00015161713803259395
-0.00015808690303744773
-0.00016274346205460952
-0.00016594954783844237
-0.00016803072595742333
-0.0001692646274173816
-0.0001698792495132259
-0.00017005633231311434
-0.00016993710320043138
-0.00016962874198277357
-0.00016921065911545366
-0.00016874014665078455
-0.0001682572353672292
-0.00016778874121594706
-0.0001673515590964143
-0.00016695529397625183
-0.00016660432797602396
-0.0001662994186284026
-0.00016603891452145411
-0.0001658196634625862
-0.00016563767700050627
-0.00016548860453309634
-0.00016536806071439637
-0.00016527184158503813
-0.00016519605777575463
-0.00016513720719051373
-0.00016509220465035302
-0.00016505838194664344
-0.0001650334684901088
-0.0001650155601335115
-0.0001650030816857094
-0.00016499474702866515
-0.0001649895195145404
-0.00016498657438619488
-0.00016498526427102903
-0.00016498508829444484
-0.00016498566500334824
-0.00016498670904774754
-0.00016498801141189029
-0.0001649894228932392
-0.0001649908404804259
-0.0001649921962666346
-0.00016499344854206305
-0.00016499457473034216
-0.0001649955658633496
-0.00016499642232243282
-0.00016499715060864568
-0.00016499776093844445
-0.00016499826549292105
-0.00016499867717729907
-0.0001649990087730367
-0.0001649992723870471
-0.00016499947912155947
-0.00016499963890420242
-0.00016499976043122212
-0.0001649998511876713
-0.0001649999175172581
-0.00016499996472168541
-0.00016499999717481503
-0.0001650000184413629
-0.00016500003139320807
-0.0001650000383189121
-0.00016500004102387651
-0.00016500004092014664
-0.00016500003910607653
-0.00016500003643723444
-0.0001650000335912941
-0.0001650000311312934
-0.00016500002957365844
-0.00016500002946913693
-0.00016500003150597141
-0.0001650000366439
-1.2147506915403072e-05
-3.6278256531686e-05
-5.964992222237576e-05
-8.143955120390507e-05
-0.0001009674840349237
-0.00011779797275132182
-0.00013176908583745228
-0.00014295912058004645
-0.00015161713803259243
-0.00015808690303744673
-0.0001627434620546086
-0.00016594954783844104
-0.0001680307259574212
-0.00016926462741737958
-0.000169879249513224
-0.0001700563323131133
-0.0001699371032004305
-0.00016962874198277108
-0.00016921065911545147
-0.00016874014665078463
-0.0001682572353672295
-0.00016778874121594665
-0.00016735155909641456
-0.0001669552939762515
-0.00016660432797602253
-0.0001662994186284014
-0.00016603891452145352
-0.0001658196634625859
-0.00016563767700050608
-0.0001654886045330961
-0.0001653680607143968
-0.0001652718415850395
-0.000165196057775755
-0.00016513720719051197
-0.00016509220465035226
-0.00016505838194664444
-0.0001650334684901103
-0.00016501556013351164
-0.00016500308168570707
-0.00016499474702866463
-0.00016498951951454227
-0.00016498657438619458
-0.00016498526427102627
-0.00016498508829444316
-0.0001649856650033479
-0.00016498670904774637
-0.00016498801141189156
-0.00016498942289324065
-0.0001649908404804245
-0.00016499219626663514
-0.0001649934485420648
-0.00016499457473034162
-0.00016499556586335116
-0.0001649964223224359
-0.00016499715060864462
-0.00016499776093844236
-0.00016499826549291787
-0.00016499867717729462
-0.00016499900877303388
-0.00016499927238704528
-0.00016499947912155863
-0.00016499963890420424
-0.0001649997604312248
-0.00016499985118767095
-0.00016499991751725782
-0.00016499996472168712
-0.000164999997174816
-0.00016500001844136215
-0.00016500003139320748
-0.00016500003831890935
-0.00016500004102386987
-0.00016500004092014027
-0.0001650000391060753
-0.00016500003643723753
-0.000165000033591293
-0.0001650000311312928
-0.00016500002957366096
-0.00016500002946913942
-0.0001650000315059712
-0.00016500003664389002
-1.2384368993841493e-05
-3.699806107485638e-05
-6.081491241767103e-05
-8.291323824456967e-05
-0.0001025583094376389
-0.00011931820006000009
-0.00013307948722001363
-0.0001439859504812584
-0.00015234540021430434
-0.00015854195288775766
-0.00016297163550721189
-0.00016600338713348872
-0.00016795992215128727
-0.00016911160669064694
-0.00016967779596895584
-0.00016983190498189496
-0.0001697079376768882
-0.00016940719918312914
-0.00016900453920115134
-0.00016855384181278346
-0.00016809268149721467
-0.00016764617202382232
-0.00016723008533427592
-0.00016685333652511483
-0.00016651993326068055
-0.00016623048176910303
-0.00016598333168104767
-0.00016577543090599676
-0.00016560295083664425
-0.00016546173208391443
-0.00016534759195529748
-0.00016525652707624332
-0.00016518483788950883
-0.0001651291961671481
-0.00016508667202583336
-0.00016505473313214517
-0.0001650312257053351
-0.00016501434446232474
-0.00016500259670422664
-0.00016499476422705207
-0.00016498986557375806
-0.00016498712026344768
-0.00016498591597937165
-0.00016498577922262534
-0.0001649863496032866
-0.00016498735771286254
-0.00016498860637492914
-0.00016498995498376637
-0.00016499130659718576
-0.0001649925974365335
-0.00016499378845433364
-0.0001649948586507031
-0.00016499579984801985
-0.00016499661266545853
-0.00016499730346806945
-0.00016499788209723313
-0.00016499836021942552
-0.00016499875015754808
-0.00016499906409332888
-0.00016499931355035496
-0.0001649995090853616
-0.0001649996601306445
-0.00016499977494300856
-0.00016499986062512128
-0.0001649999231934892
-0.00016499996767398755
-0.00016499999821111678
-0.00016500001818136478
-0.00016500003030413683
-0.00016500003674601156
-0.00016500003921606402
-0.00016500003905118291
-0.00016500003729141133
-0.0001650000347464887
-0.00016500003205590486
-0.00016500002974634525
-0.0001650000282925964
-0.00016500002819045778
-0.00016500003005223227
-0.0001650000347354816
-1.2885001190899622e-05
-3.852118585659144e-05
-6.327139731543372e-05
-8.598908676853212e-05
-0.00010582815591556838
-0.00012238556020290812
-0.0001356704473917337
-0.00014597307148944463
-0.00015372131844879717
-0.00015937449846227354
-0.00016336305550309932
-0.0001660621767581112
-0.00016778505283201724
-0.0001687856436174888
-0.00016926541321195487
-0.000169381212371501
-0.00016925299484688212
-0.00016897080426980386
-0.00016860083737251495
-0.00016819056514454073
-0.00016777297436059693
-0.00016737002533166409
-0.0001669954314115472
-0.00016665686362358188
-0.0001663576759076037
-0.0001660982361796673
-0.00016587693739649546
-0.0001656909520651946
-0.00016553678362968359
-0.00016541065913597416
-0.00016530879961656255
-0.00016522759773942073
-0.00016516372638727256
-0.00016511419688703007
-0.0001650763815020255
-0.00016504801143049907
-0.0001650271588235234
-0.0001650122091500885
-0.0001650018285099005
-0.00016499492914767906
-0.00016499063538802204
-0.00016498825142786846
-0.0001649872318435635
-0.00016498715524905792
-0.00016498770124554922
-0.00016498863060183282
-0.0001649897684755267
-0.00016499099040943687
-0.00016499221079973925
-0.0001649933735221314
-0.0001649944444097712
-0.0001649954052960185
-0.0001649962493609576
-0.00016499697754982634
-0.00016499759586137799
-0.00016499811333320049
-0.00016499854057811376
-0.000164998888750264
-0.0001649991688413009
-0.00016499939122599272
-0.00016499956539266762
-0.00016499969980754761
-0.0001649998018733574
-0.00016499987795178824
-0.00016499993342694873
-0.00016499997279284366
-0.00016499999975270736
-0.00016500001732165225
-0.000165000027926839
-0.00016500003350151222
-0.00016500003557083783
-0.00016500003532847842
-0.00016500003370377008
-0.00016500003142007618
-0.00016500002904571657
-0.0001650000270403295
-0.00016500002580181554
-0.00016500002572258747
-0.00016500002726806086
-0.0001650000310929849
-1.37127664276931e-05
-4.1043098294355606e-05
-6.730748207839375e-05
-9.094287675582611e-05
-0.0001109449241575948
-0.00012702534172373344
-0.0001394496540304235
-0.0001487628232197945
-0.0001555708044621546
-0.00016042627909055863
-0.00016379056331595728
-0.0001660334540126596
-0.0001674454598701262
-0.00016825223667853162
-0.00016862754174329814
-0.00016870395301863366
-0.0001685815091896212
-0.0001683346415140377
-0.0001680177440081908
-0.0001676696566443898
-0.0001673172707392715
-0.00016697841761431734
-0.00016666416820109776
-0.00016638064779896572
-0.00016613045286978725
-0.00016591374313810597
-0.0001657290709665834
-0.00016557400026516358
-0.00016544555870589303
-0.00016534055957609053
-0.00016525582311415095
-0.000165188321566017
-0.0001651352674116593
-0.0001650941601705942
-0.00016506280382932298
-0.0001650393041644566
-0.00016502205298592264
-0.00016500970452103936
-0.000165001147733152
-0.00016499547725495455
-0.00016499196476084388
-0.00016499003195594283
-0.00016498922588001336
-0.00016498919687730319
-0.00016498967933906638
-0.00016499047516017862
-0.00016499143974540515
-0.0001649924703390196
-0.00016499349642137102
-0.00016499447190813238
-0.00016499536889507158
-0.00016499617270776496
-0.00016499687803776613
-0.00016499748597134813
-0.0001649980017421428
-0.0001649984330633048
-0.00016499878891753668
-0.000164999078703893
-0.0001649993116583862
-0.00016499949648126028
-0.00016499964111729975
-0.00016499975264677394
-0.00016499983725417998
-0.00016499990024956796
-0.00016499994612344026
-0.00016499997862128463
-0.0001650000008276484
-0.00016500001525272394
-0.00016500002391669246
-0.00016500002842888506
-0.00016500003005992818
-0.0001650000298059593
-0.00016500002844447974
-0.00016500002658167122
-0.0001650000246912889
-0.00016500002314600502
-0.0001650000222442621
-0.00016500002224034758
-0.0001650000233933195
-0.00016500002605874235
-1.499471459955659e-05
-4.494747349782377e-05
-7.345720302761165e-05
-9.822981409602057e-05
-0.00011811720628864469
-0.0001331834965001447
-0.00014418890235347607
-0.00015205944235422266
-0.00015760716356292897
-0.00016145780050176876
-0.00016407394572900296
-0.00016579378587939017
-0.0001668656014935571
-0.00016747311000777244
-0.00016775313724424687
-0.00016780781945351938
-0.00016771317947010186
-0.00016752533221400703
-0.00016728511664233791
-0.00016702164456045536
-0.00016675506886811172
-0.00016649876355473398
-0.0001662610443295979
-0.00016604652207875706
-0.0001658571593411825
-0.00016569308586674385
-0.00016555321937339817
-0.00016543572996010513
-0.00016533838032169542
-0.00016525876851493544
-0.00016519449534307707
-0.00016514327436594834
-0.00016510299904994843
-0.0001650717786028218
-0.00016504795154672058
-0.00016503008402114978
-0.0001650169581243813
-0.0001650075542471657
-0.00016500103027708462
-0.0001649966997107984
-0.0001649940100637347
-0.00016499252247632738
-0.00016499189305198964
-0.0001649918561980097
-0.00016499221005450968
-0.00016499280397051785
-0.00016499352790526182
-0.0001649943035852977
-0.00016499507722478513
-0.00016499581360986224
-0.00016499649135309416
-0.00016499709913634736
-0.0001649976327769365
-0.00016499809297041232
-0.00016499848358232742
-0.0001649988103796993
-0.00016499908010999723
-0.00016499929985102556
-0.0001649994765688686
-0.00016499961683291052
-0.00016499972664722805
-0.00016499981136629938
-0.00016499987566995716
-0.00016499992357845426
-0.0001649999584932735
-0.00016499998325303334
-0.00016500000019681587
-0.00016500001122958638
-0.00016500001788613642
-0.00016500002139125384
-0.0001650000227147183
-0.00016500002262029073
-0.0001650000217080549
-0.00016500002044919035
-0.00016500001921178564
-0.0001650000182757521
-0.00016500001783571495
-0.00016500001799551502
-0.000165000018769966
-0.0001650000201294182
-1.698631390326573e-05
-5.0984336456693274e-05
-8.267001610168167e-05
-0.0001084928458299244
-0.00012745686741406237
-0.00014055551953426386
-0.00014940217228817914
-0.0001553759101599
-0.00015942191438857617
-0.00016216214690200427
-0.0001640021369217251
-0.00016521164326000956
-0.0001659751084067692
-0.00016642234094005066
-0.00016664691111102886
-0.00016671737050876737
-0.00016668432276012175
-0.00016658509307591353
-0.0001664469769693806
-0.00016628961310613
-0.000166126783642787
-0.00016596781447016508
-0.00016581867793147905
-0.00016568286362234313
-0.00016556206310401112
-0.0001654567033072689
-0.00016536635664909818
-0.00016529005121002213
-0.00016522650067231565
-0.00016517427063106435
-0.0001651318951747504
-0.00016509795522539207
-0.0001650711280108075
-0.0001650502152046587
-0.0001650341557021056
-0.00016502202768268483
-0.00016501304352473415
-0.00016500654025141846
-0.00016500196748022713
-0.00016499887428931485
-0.00016499689598046543
-0.00016499574138764662
-0.0001649951811324141
-0.00016499503704582065
-0.00016499517284706948
-0.00016499548607985088
-0.0001649959012486054
-0.00016499636406115117
-0.00016499683666487284
-0.00016499729375627728
-0.0001649977194444907
-0.00016499810475531246
-0.00016499844567163054
-0.00016499874161691672
-0.00016499899429995473
-0.00016499920685037904
-0.00016499938318524328
-0.00016499952755664028
-0.0001649996442392069
-0.00016499973732397725
-0.00016499981059162874
-0.00016499986744375928
-0.00016499991087547908
-0.00016499994347644322
-0.00016499996745058978
-0.000164999984647282
-0.00016499999659864517
-0.00016500000455936688
-0.00016500000954643667
-0.00016500001237718706
-0.00016500001370458694
-0.00016500001404913436
-0.00016500001382647935
-0.0001650000133694618
-0.00016500001294194493
-0.00016500001273952818
-0.00016500001286978716
-0.0001650000133055666
-0.0001650000138178813
-0.000165000013931663
-2.0284752620136078e-05
-6.0740873775504877e-05
-9.657601510628294e-05
-0.00012239441043426124
-0.0001385719930897479
-0.00014826137652004443
-0.00015422397801052043
-0.00015801521737084817
-0.00016051451474616426
-0.0001622080824402502
-0.0001633750528852682
-0.0001641825247356059
-0.0001647361986775106
-0.0001651067716878866
-0.00016534397288133656
-0.00016548416139786787
-0.00016555459085091468
-0.00016557593467347127
-0.00016556389431355092
-0.00016553030951586812
-0.00016548398268892862
-0.00016543132397302078
-0.00016537687132124862
-0.00016532371474698598
-0.00016527384223333523
-0.0001652284195651217
-0.00016518801396609903
-0.00016515277018739596
-0.0001651225468302964
-0.00016509701989629935
-0.0001650757597536647
-0.0001650582868934884
-0.0001650441110482879
-0.0001650327574920044
-0.0001650237836538814
-0.00016501678857207182
-0.0001650114171900728
-0.0001650073610579277
-0.00016500435663504686
-0.00016500218209428022
-0.00016500065328885715
-0.00016499961935620368
-0.00016499895828707217
-0.00016499857267745165
-0.00016499838579759165
-0.00016499833805166605
-0.00016499838385825656
-0.00016499848895189055
-0.00016499862808627534
-0.00016499878310784904
-0.00016499894136187666
-0.00016499909439084105
-0.0001649992368851289
-0.00016499936584808445
-0.0001649994799405156
-0.00016499957897344664
-0.00016499966352174025
-0.00016499973463501795
-0.00016499979362585946
-0.00016499984191858193
-0.00016499988094483583
-0.00016499991207475284
-0.0001649999365746814
-0.00016499995558437387
-0.00016499997010802265
-0.00016499998101486796
-0.00016499998904615865
-0.00016499999482605095
-0.00016499999887474017
-0.00016500000162262554
-0.00016500000342467732
-0.00016500000457433223
-0.00016500000531614694
-0.00016500000585586885
-0.00016500000636491272
-0.0001650000069726435
-0.00016500000773323647
-0.0001650000085449384
-0.00016500000899945374
-0.00016500000818118663
-2.636302525802224e-05
-7.770924532986558e-05
-0.00011781629855452743
-0.00013956509339103148
-0.0001495140109476343
-0.00015459270649766208
-0.0001574014429547438
-0.00015916250227529028
-0.00016039143742832128
-0.0001613233580539127
-0.0001620666864946287
-0.0001626746440801265
-0.00016317586144660328
-0.00016358819331102321
-0.00016392475192700793
-0.00016419644723809305
-0.0001644129564385942
-0.00016458302793353834
-0.00016471453503200746
-0.00016481446296994732
-0.00016488890218877158
-0.00016494306985585599
-0.0001649813598482724
-0.00016500741367103102
-0.0001650242033975276
-0.00016503411891215084
-0.00016503905369219583
-0.00016504048528907063
-0.00016503954825912816
-0.00016503709848928437
-0.00016503376869843323
-0.0001650300154414202
-0.00016502615826949698
-0.00016502241187170863
-0.00016501891208467337
-0.00016501573665098036
-0.0001650129215557566
-0.00016501047369602245
-0.0001650083805512341
-0.00016500661743453003
-0.00016500515281832253
-0.00016500395214812742
-0.00016500298048673296
-0.00016500220426773752
-0.00016500159238299695
-0.00016500111678232168
-0.00016500075272516356
-0.0001650004787921794
-0.00016500027673861846
-0.0001650001312507042
-0.00016500002964964385
-0.0001649999615749838
-0.00016499991866914985
-0.00016499989427736644
-0.00016499988317162956
-0.00016499988130328597
-0.00016499988558585615
-0.00016499989370781878
-0.00016499990397376453
-0.00016499991517153608
-0.00016499992646257873
-0.000164999937292666
-0.00016499994732012673
-0.00016499995635891967
-0.0001649999643340951
-0.0001649999712475096
-0.00016499997715187632
-0.00016499998213154296
-0.00016499998628869523
-0.0001649999897338309
-0.0001649999925796362
-0.0001649999949374511
-0.0001649999969155915
-0.00016499999861842567
-0.00016500000014389347
-0.0001650000015740122
-0.00016500000294428403
-0.0001650000041581262
-0.00016500000477827478
-0.00016500000361041578
-4.1117853434966244e-05
-0.0001120645928035636
-0.0001471060688500051
-0.00015417724762819993
-0.00015647838145616986
-0.00015715801608449855
-0.0001576263940943377
-0.0001581396401303802
-0.00015874463512783514
-0.00015941160650158337
-0.00016010079545538964
-0.00016077765845648885
-0.00016141712918385032
-0.00016200319605696502
-0.0001625272754198114
-0.00016298638120739253
-0.00016338148546072792
-0.0001637161759949977
-0.00016399561605236397
-0.0001642257711670543
-0.00016441285720991336
-0.0001645629638609438
-0.00016468181276640503
-0.00016477461613971598
-0.00016484600809214996
-0.00016490002688268808
-0.00016494013132350993
-0.00016496923873963966
-0.0001649897752252961
-0.000165003731571054
-0.0001650127202692379
-0.00016501803054864278
-0.0001650206795400682
-0.00016502145851379432
-0.0001650209737277769
-0.00016501968183715247
-0.0001650179200870578
-0.00016501593167782323
-0.00016501388678273068
-0.00016501189973576946
-0.0001650100429070186
-0.0001650083577593933
-0.00016500686354174298
-0.0001650055640267271
-0.00016500445265240705
-0.0001650035163772342
-0.00016500273851148127
-0.0001650021007453266
-0.0001650015845554169
-0.00016500117213813633
-0.0001650008469888368
-0.00016500059422180772
-0.0001650004007051776
-0.00016500025506802974
-0.0001650001476233762
-0.0001650000702394177
-0.0001650000161828501
-0.00016499997995110289
-0.00016499995710508733
-0.00016499994411006138
-0.00016499993818919634
-0.00016499993719229305
-0.00016499993948051626
-0.00016499994382701924
-0.00016499994933259266
-0.00016499995535507476
-0.00016499996145108214
-0.0001649999673285136
-0.0001649999728083137
-0.0001649999777940884
-0.00016499998224826383
-0.00016499998617360576
-0.0001649999895990867
-0.00016499999256907867
-0.00016499999513460025
-0.00016499999734406778
-0.00016499999922631268
-0.00016500000074058815
-0.00016500000161316316
-0.00016500000083103652
-9.045159589900496e-05
-0.00017085147080530356
-0.0001599085309334482
-0.0001572803448713808
-0.00015491501604513098
-0.00015414753629904932
-0.000154206627189107
-0.00015479096325028143
-0.00015566198515400012
-0.000156670597631495
-0.00015771816784628835
-0.00015874148952012854
-0.0001597014301060126
-0.00016057566776562972
-0.00016135357804219965
-0.00016203257772115997
-0.00016261545256695588
-0.0001631083944777531
-0.00016351956633427005
-0.00016385806808237298
-0.00016413321022049586
-0.0001643540222722484
-0.00016452893905982734
-0.00016466561928129718
-0.00016477086029137748
-0.00016485058071494783
-0.00016490984891331744
-0.00016495294057778428
-0.0001649834129957207
-0.00016500418695473333
-0.00016501762994416806
-0.00016502563639629033
-0.00016502970228817067
-0.00016503099259460724
-0.00016503040092552426
-0.0001650286012689254
-0.0001650260921517363
-0.00016502323377436904
-0.00016502027880942616
-0.0001650173976115905
-0.0001650146985884255
-0.00016501224444885295
-0.0001650100649911606
-0.00016500816702567846
-0.00016500654195581853
-0.0001650051714699748
-0.000165004031729064
-0.00016500309637208332
-0.0001650023386062185
-0.0001650017325989842
-0.00016500125434754174
-0.00016500088216443406
-0.00016500059688898529
-0.00016500038190880016
-0.0001650002230555855
-0.0001650001084233261
-0.000165000028143926
-0.00016499997414535258
-0.00016499993990949982
-0.00016499992024114
-0.00016499991105487063
-0.00016499990918373924
-0.00016499991221103434
-0.00016499991832501172
-0.0001649999261954518
-0.00016499993487024923
-0.0001649999436898822
-0.00016499995221757268
-0.00016499996018285064
-0.0001649999674364274
-0.000164999973914385
-0.00016499997960985752
-0.0001649999845505589
-0.00016499998878067408
-0.00016499999234579862
-0.00016499999527978262
-0.00016499999759218842
-0.0001649999992540173
-0.0001650000001593119
-0.00016500000003688326
SCALARS STRAIN_XY float 1
LOOKUP_TABLE default
0.00032582471933676816
9.778577887450577e-05
3.925380264369039e-05
1.675206854443947e-05
6.3898876667966035e-06
9.433490077958564e-07
-2.0510456934004365e-06
-3.6712991958562542e-06
-4.463443550836374e-06
-4.738051113334927e-06
-4.686666455540225e-06
-4.434258250811027e-06
-4.065234446057114e-06
-3.6375008271187287e-06
-3.190706539755333e-06
-2.7514739426354098e-06
-2.336956671014569e-06
-1.957397729798662e-06
-1.6180381046325106e-06
-1.3205691178470001e-06
-1.0642437125737243e-06
-8.467223287444373e-07
-6.647081420934047e-07
-5.144143995974978e-07
-3.9189869377031106e-07
-2.9329309167002576e-07
-2.149541272724242e-07
-1.5355240644320325e-07
-1.0611783732923825e-07
-7.005324940978237e-08
-4.3126384296609394e-08
-2.3447908501666483e-08
-9.441179610780899e-09
1.9205130931745917e-10
6.507043387514282e-09
1.0350569244364435e-08
1.239323473586993e-08
1.3158869604850895e-08
1.3050633346353355e-08
1.2373753941288292e-08
1.1355001116241867e-08
1.0159112084559552e-08
8.902454269100503e-09
7.66423984910683e-09
6.495612651924443e-09
5.426916378521024e-09
4.473431601276917e-09
3.639841036754722e-09
2.923652957643845e-09
2.3177814935338922e-09
1.8124537836273352e-09
1.396586714981149e-09
1.058751457599233e-09
7.878227344581754e-10
5.733909238256688e-10
4.0599931695663866e-10
2.7725571437233615e-10
1.7985613486818514e-10
1.0754994627087261e-10
5.506800874674478e-11
1.8030038833466433e-11
-7.157587565177759e-12
-2.3405350140642822e-11
-3.30400684025664e-11
-3.789745936771255e-11
-3.940534563148107e-11
-3.865705227711763e-11
-3.6474722981544305e-11
-3.346290247934619e-11
-3.0053134026514217e-11
-2.6539887475196533e-11
-2.3108825508537378e-11
-1.9858075687301247e-11
-1.6812895693718577e-11
-1.3934977629269374e-11
-1.1128569311728842e-11
-8.251648821698543e-12
-5.162992212578987e-12
-1.9312575627247752e-12
3.332056852656251e-13
0.0002797489373999845
0.0002147459240199953
0.00011430203125811382
5.9792148513923354e-05
2.91740515801016e-05
1.1558849135962336e-05
1.1676626527774283e-06
-4.927075591219538e-06
-8.343981260048217e-06
-1.0041242751604213e-05
-1.0622528406571273e-05
-1.0486169971661618e-05
-9.903339858477749e-06
-9.0617104721312e-06
-8.09151309849696e-06
-7.082137850682093e-06
-6.093362095784872e-06
-5.1633321437944335e-06
-4.314444714033881e-06
-3.557776493636486e-06
-2.896451864053398e-06
-2.3282020471301207e-06
-1.84729366099496e-06
-1.4459605562595164e-06
-1.1154444597327902e-06
-8.467297700656511e-07
-6.31042157348753e-07
-4.601677074695266e-07
-3.2663844511799083e-07
-2.238208023588482e-07
-1.459357736859762e-07
-8.803296841605919e-08
-4.5935400380908535e-08
-1.6167507144041263e-08
4.124571853438182e-09
1.725414031713158e-08
2.507228135338862e-08
2.904072636804745e-08
3.029775906950114e-08
2.9716491270741913e-08
2.7955427558241062e-08
2.5501621359860956e-08
2.2706964310898435e-08
1.9818283590925488e-08
1.700197703956817e-08
1.436391887550681e-08
1.1965336918972821e-08
9.835307845603748e-09
7.980452488187857e-09
6.39234275993765e-09
5.053062679654524e-09
3.9392994824255165e-09
3.025279584896283e-09
2.2848103467792286e-09
1.6926397161057954e-09
1.2253050837417873e-09
8.616075477868232e-10
5.828179957959381e-10
3.7269781748630604e-10
2.173969121041508e-10
1.0527569560461053e-10
2.6685926688904682e-11
-2.6265664122837595e-11
-5.995371018217843e-11
-7.945976114500514e-11
-8.877969778602057e-11
-9.100986815297613e-11
-8.850993419087794e-11
-8.304264177347309e-11
-7.589144102645301e-11
-6.795718133188744e-11
-5.983578042767501e-11
-5.187915277492933e-11
-4.4241623602461755e-11
-3.691670710445627e-11
-2.977341235967795e-11
-2.2614145365335014e-11
-1.5305802306998795e-11
-8.072943789155795e-12
-1.9762649633089935e-12
0.0002231389683597276
0.00019866908274736902
0.00014438382960154655
8.951267284816117e-05
5.1085210979575474e-05
2.561797736658878e-05
9.179622465690105e-06
-1.215972758723447e-06
-7.54988550539658e-06
-1.1138302524343413e-05
-1.2870886061897686e-05
-1.3362394935950857e-05
-1.3044681451585731e-05
-1.2223719970448827e-05
-1.1116212038545068e-05
-9.87412824612129e-06
-8.601878814700598e-06
-7.368771995704994e-06
-6.21829892820825e-06
-5.175168482684459e-06
-4.250675579856294e-06
-3.4467952082865285e-06
-2.7592829818898386e-06
-2.1799944558086558e-06
-1.6985898308330026e-06
-1.3037578315734525e-06
-9.840671742170244e-07
-7.285334902202862e-07
-5.269724997061321e-07
-3.701959197956574e-07
-2.500946241733304e-07
-1.5964363607966475e-07
-9.285538262837449e-08
-4.470103129403796e-08
-1.1014448977886282e-08
1.1610834080321743e-08
2.5924496035350034e-08
3.411742709310758e-08
3.791199629384588e-08
3.8643053551436386e-08
3.7329091866103274e-08
3.473364763243846e-08
3.1417442931730086e-08
2.7782029905125752e-08
2.4105830685630485e-08
2.0573512193237768e-08
1.7299621883344433e-08
1.4347358812073427e-08
1.1743279868165792e-08
9.48865477791612e-09
7.568094117756455e-09
5.9559866397553354e-09
4.621199549870343e-09
3.5304204039354747e-09
2.650452008475662e-09
1.949713640970324e-09
1.3991513973885678e-09
9.727185166282654e-10
6.475510665876483e-10
4.0393553649500924e-10
2.2514146894459658e-10
9.717303611073147e-11
8.479236518650624e-12
-5.034941409111371e-11
-8.687920543572203e-11
-1.0711380979237795e-10
-1.1575031970238736e-10
-1.1640650758853316e-10
-1.1181852113077012e-10
-1.0400933467356183e-10
-9.442945069545322e-11
-8.40722603296859e-11
-7.356734568319395e-11
-6.325561905870525e-11
-5.32530735003825e-11
-4.351305698136604e-11
-3.390280970457654e-11
-2.4306681125317586e-11
-1.471643846281262e-11
-5.065685718119717e-12
0.00018168143003124588
0.00016868291730625276
0.00013702072582751345
9.815768315356375e-05
6.303443779146899e-05
3.621764905176281e-05
1.708472157958867e-05
4.041306489641538e-06
-4.470188274907291e-06
-9.699219634071567e-06
-1.2595030041380581e-05
-1.3864677235813261e-05
-1.403073995335472e-05
-1.3477009263406468e-05
-1.2482842077087496e-05
-1.1248806669845774e-05
-9.916005664555093e-06
-8.580811304321253e-06
-7.306207998637629e-06
-6.1305643592161766e-06
-5.074415889702436e-06
-4.145685110290001e-06
-3.343664686852269e-06
-2.6620196232788685e-06
-2.0910140226147386e-06
-1.6191290919334448e-06
-1.234207951643666e-06
-9.242372036314317e-07
-6.778538626527096e-07
-4.846483997234842e-07
-3.353197631281559e-07
-2.2172592883419866e-07
-1.368634422821641e-07
-7.480123711590698e-08
-3.0587471337890915e-08
-1.4294985496970253e-10
1.9849326947287554e-08
3.2052040059072674e-08
3.8574736460953406e-08
4.106592653636051e-08
4.079494275754155e-08
3.872327784208013e-08
3.556570554795295e-08
3.184185711684138e-08
2.7919137891439967e-08
2.4047967075134513e-08
2.0390342031582215e-08
1.704269416596179e-08
1.4053936796330595e-08
1.1439518651031218e-08
9.192202888295455e-09
7.290196229569994e-09
5.703161099954689e-09
4.396558960753812e-09
3.334696621268285e-09
2.482779377379306e-09
1.808217295513892e-09
1.281380259386157e-09
8.75956233004245e-10
5.69032465027805e-10
3.409910895313395e-10
1.752877932864258e-10
5.816390338114763e-11
-2.1671338334972035e-11
-7.336363255176087e-11
-1.0422434627583438e-10
-1.2001867880605255e-10
-1.252253587283314e-10
-1.2326526431516438e-10
-1.1669843010767705e-10
-1.0739089934160007e-10
-9.665383023018531e-11
-8.535810318115178e-11
-7.402879362034681e-11
-6.292436320262662e-11
-5.2105321251237624e-11
-4.149185032012448e-11
-3.088663970852307e-11
-1.987825193078968e-11
-7.436245196001945e-12
0.0001465189275536289
0.00013861336898254915
0.00011885759561757375
9.203895732534662e-05
6.45702666492069e-05
4.074001113178261e-05
2.2109573394723278e-05
8.468188305227559e-06
-9.880848319011046e-07
-7.164210739418633e-06
-1.0873822787148095e-05
-1.2788504917784626e-05
-1.3438899445636192e-05
-1.3232947145951632e-05
-1.2477522356284688e-05
-1.1398675162940883e-05
-1.0159057757919089e-05
-8.872368334678776e-06
-7.615071527372445e-06
-6.4357706929190446e-06
-5.362610814628119e-06
-4.409056479368577e-06
-3.578345055420067e-06
-2.8668709820825413e-06
-2.2667164282815628e-06
-1.767507474046521e-06
-1.357743493264087e-06
-1.0257203168924345e-06
-7.60144664268235e-07
-5.505178446270288e-07
-3.873504471404586e-07
-2.6225626371955985e-07
-1.6796265326306627e-07
-9.826561440327277e-08
-4.795066846596764e-08
-1.2694981212037128e-08
1.1038283195146693e-08
2.6105801531302927e-08
3.478514401587633e-08
3.88679934027413e-08
3.9743894705076156e-08
3.847390094051861e-08
3.585416752870888e-08
3.2469996218121265e-08
2.874110098939446e-08
2.4959010033764363e-08
2.1317569293295962e-08
1.793750135643639e-08
1.488592192729326e-08
1.219164008766857e-08
9.85698057632536e-09
7.866774076235004e-09
6.1950710654066696e-09
4.810049565682345e-09
3.677509471911814e-09
2.763276806970385e-09
2.034780821158315e-09
1.4620147868499474e-09
1.0180478258363726e-09
6.792180446009953e-10
4.251077329779987e-10
2.383765641475466e-10
1.0450953427318388e-10
1.1520753047302573e-11
-5.0358072692293504e-11
-8.898425843829189e-11
-1.1059347708453071e-10
-1.2006362679235771e-10
-1.211498754506539e-10
-1.1668951227375782e-10
-1.0877723114616211e-10
-9.891298056226988e-11
-8.812492462107954e-11
-7.707058407267764e-11
-6.611801189014554e-11
-5.540540406025543e-11
-4.48672579666555e-11
-3.4193775198462784e-11
-2.2656616545987246e-11
-8.71239934580395e-12
0.00011565378898623183
0.00011039760214672096
9.746999052575877e-05
7.905337336294786e-05
5.871056684827249e-05
3.957795487140886e-05
2.3451301415230465e-05
1.089830583699225e-05
1.7311659884596182e-06
-4.5572865652798375e-06
-8.553764876129296e-06
-1.0809512026672713e-05
-1.179597217327769e-05
-1.1894929243904946e-05
-1.1404134902711792e-05
-1.0548836125069444e-05
-9.494631269322759e-06
-8.359599668067636e-06
-7.2248973657105045e-06
-6.143613798742476e-06
-5.147961949277663e-06
-4.254989389597299e-06
-3.47103206685699e-06
-2.7951288019816022e-06
-2.2215938558122947e-06
-1.7419184387452318e-06
-1.3461450399377393e-06
-1.023833377522109e-06
-7.647145921260809e-07
-5.591112532756003e-07
-3.9818470013819156e-07
-2.7405791917876204e-07
-1.7985124216253262e-07
-1.0965929655282593e-07
-5.849054302210126e-08
-2.218510708251525e-08
2.6777974142548275e-09
1.887496516375653e-08
2.8631528697453754e-08
3.370718090132648e-08
3.5474384350983514e-08
3.498768869850816e-08
3.30439928803339e-08
3.0234065245143566e-08
2.6985933281010403e-08
2.3600921912364948e-08
2.0283192777648725e-08
1.7163646034979146e-08
1.4319011939155878e-08
1.1786898231210506e-08
9.577484248984424e-09
7.682470969225166e-09
6.081814030525507e-09
4.74868900500686e-09
3.6530655021685225e-09
2.7642023378896506e-09
2.0523184459395397e-09
1.4896451424272449e-09
1.0510236121631829e-09
7.14175886181237e-10
4.5974921612790265e-10
2.7120956234928315e-10
1.346409034068928e-10
3.84924575937487e-11
-2.669670707373603e-11
-6.857496162712348e-11
-9.324343505428753e-11
-1.0550129601319055e-10
-1.090662929436638e-10
-1.0676853753324375e-10
-1.0071788975746232e-10
-9.244613906854438e-11
-8.302553441844399e-11
-7.316497060982918e-11
-6.328312179837425e-11
-5.3553016784568114e-11
-4.3904008250120197e-11
-3.395365499175851e-11
-2.2832158147641224e-11
-8.87119343912987e-12
8.75757195084128e-05
8.401272417864154e-05
7.543919588939156e-05
6.29366649963244e-05
4.850597220753755e-05
3.4195300218790766e-05
2.14797373049409e-05
1.109398258891469e-05
3.1841491371810003e-06
-2.456772195464762e-06
-6.192900270881712e-06
-8.424641212264803e-06
-9.525199293665691e-06
-9.813510730706922e-06
-9.547443106704698e-06
-8.927136289233037e-06
-8.102651807444727e-06
-7.182810498857753e-06
-6.2436784949983725e-06
-5.336037922743062e-06
-4.49164037304514e-06
-3.7282688918772316e-06
-3.053734460981277e-06
-2.4689664349406915e-06
-1.9703568849032587e-06
-1.5515044279896932e-06
-1.20448335103919e-06
-9.207433626819681e-07
-6.917262842085934e-07
-5.092692579344621e-07
-3.658498005410264e-07
-2.547161417184511e-07
-1.6993652280711735e-07
-1.0639320703961655e-07
-5.974059504037935e-08
-2.634179373147685e-08
-3.1940273869236584e-09
1.214978991362619e-08
2.165834800670367e-08
2.6894895134533733e-08
2.908395368446783e-08
2.917084169812463e-08
2.7873707820168236e-08
2.572823571989633e-08
2.31254610540718e-08
2.034331136093739e-08
1.7572561444596096e-08
1.4937917747323472e-08
1.2514926208307027e-08
1.0343353831255859e-08
8.437633931227418e-09
6.794899161399488e-09
5.4010577943126685e-09
4.23530369385609e-09
3.2733886583301633e-09
2.489930186837762e-09
1.8599792456545049e-09
1.3600292181510654e-09
9.68611355077302e-10
6.665911095131948e-10
4.3725441025094583e-10
2.662519467595305e-10
1.4145318109112098e-10
5.2747725187273636e-11
-8.17854952598479e-12
-4.807334570569935e-11
-7.234113611961912e-11
-8.5251339733243e-11
-9.012721027389786e-11
-8.951306850694257e-11
-8.531954304299635e-11
-7.894745631970707e-11
-7.139086723043434e-11
-6.33194669657014e-11
-5.513816145200426e-11
-4.701744858249049e-11
-3.88831068037776e-11
-3.0347908539472834e-11
-2.0568550714635675e-11
-8.024043343830833e-12
6.137106746037155e-05
5.904251623966718e-05
5.355201123991707e-05
4.545721431096532e-05
3.587040752275058e-05
2.604227375322135e-05
1.6994275930026813e-05
9.348393204177937e-06
3.340731778720199e-06
-1.0693119306787418e-06
-4.0779294000554056e-06
-5.943231749298985e-06
-6.927018008817334e-06
-7.26442269474481e-06
-7.151785244171959e-06
-6.744925204875131e-06
-6.162619297379098e-06
-5.49217237758674e-06
-4.795390537430829e-06
-4.114128420636208e-06
-3.4750730224162826e-06
-2.8936856507163935e-06
-2.3773494097419654e-06
-1.9278217471260578e-06
-1.5431055788740484e-06
-1.2188480473660694e-06
-9.493637064224357e-07
-7.283643177168335e-07
-5.494631094665444e-07
-4.065084231961449e-07
-2.937905334688784e-07
-2.0615607970497817e-07
-1.3905685257092969e-07
-8.855342513165287e-08
-5.128909942630003e-08
-2.4445652096766884e-08
-5.689230955780019e-09
6.8876765677624435e-09
1.4824145433731768e-08
1.9345934332748362e-08
2.141621886439255e-08
2.1781086765964002e-08
2.1009481866577674e-08
1.9527649087916314e-08
1.7648370484414297e-08
1.5595424567526293e-08
1.3523774505472003e-08
1.1536015277367404e-08
9.69560158084492e-09
8.037348366089466e-09
6.575653412402294e-09
5.310842926130495e-09
4.233990444975789e-09
3.330509693445609e-09
2.582775862836539e-09
1.971987427382615e-09
1.4794430671315716e-09
1.0873750930706291e-09
7.794533934035643e-10
5.410494608218928e-10
3.593308140999781e-10
2.232398074719904e-10
1.2339730924354128e-10
5.196184598593202e-11
2.4659891370657633e-12
-3.0354516453558536e-11
-5.072854224359713e-11
-6.200740742807846e-11
-6.680884293594307e-11
-6.714525151705654e-11
-6.453557824313665e-11
-6.010090295989305e-11
-5.4643781903854216e-11
-4.871067072376341e-11
-4.2635268172929244e-11
-3.655773830901245e-11
-3.041194078794336e-11
-2.387155078643899e-11
-1.6248590526454082e-11
-6.3485159783240735e-12
3.637193483789807e-05
3.5048163515628996e-05
3.1971043873847415e-05
2.741236391359832e-05
2.1936223749022126e-05
1.6211903672347995e-05
1.0826878039863183e-05
6.177125832746829e-06
2.4486208369639925e-06
-3.4118717251249036e-07
-2.281422144269818e-06
-3.5123575557047737e-06
-4.186605882053638e-06
-4.446666929244013e-06
-4.414473050235162e-06
-4.188407283482054e-06
-3.844368982467463e-06
-3.438679822598853e-06
-3.011555564215931e-06
-2.5904814448338837e-06
-2.193193854251144e-06
-1.830171857829211e-06
-1.5066438547471688e-06
-1.2241601590991995e-06
-9.817977685425068e-07
-7.770641062156391e-07
-6.065603458084776e-07
-4.664563718206698e-07
-3.528206123660089e-07
-2.618398632218456e-07
-1.8995715363561414e-07
-1.339497466545654e-07
-9.096444913811355e-08
-5.85234080799444e-08
-3.451035752100788e-08
-1.714472787795341e-08
-4.949023515950007e-09
3.2866849093796677e-09
8.540502734560276e-09
1.1592942323872409e-08
1.305856987063455e-08
1.341448493811289e-08
1.3025398133847022e-08
1.2165310874024727e-08
1.1035958277314114e-08
9.782270748306759e-09
8.505160808329557e-09
7.271960536612155e-09
6.1248321007784014e-09
5.0874572914198736e-09
4.170286910571319e-09
3.3746009469345743e-09
2.695599555865174e-09
2.1247144159770555e-09
1.6513010814826366e-09
1.263846105922133e-09
9.508000290954846e-10
7.011256671269651e-10
5.046344890623309e-10
3.5216785619683697e-10
2.3566840575653825e-10
1.4817574073386786e-10
8.377278794160885e-11
3.750237556751027e-11
5.267828260733208e-12
-1.627183201277204e-11
-2.9805750451300864e-11
-3.746938309211363e-11
-4.093461276866682e-11
-4.149015235110215e-11
-4.011190120019933e-11
-3.752310471344909e-11
-3.42441699589845e-11
-3.0631436270930554e-11
-2.6903464577106816e-11
-2.315146938904316e-11
-1.932996280130505e-11
-1.52231545105146e-11
-1.0385383782877781e-11
-4.059805090847121e-12
1.20509565271971e-05
1.162081627625188e-05
1.0628217909862298e-05
9.1550530876837e-06
7.374186271405189e-06
5.495833419851206e-06
3.7106615979330714e-06
2.153113223679433e-06
8.916131254421022e-07
-6.127590659700598e-08
-7.303091415754314e-07
-1.1594897075414926e-06
-1.39868297594807e-06
-1.4954598167228497e-06
-1.4910673519714695e-06
-1.4190818316243433e-06
-1.3055705302974054e-06
-1.169972436202812e-06
-1.0262281821060904e-06
-8.83908639938896e-07
-7.492254778818243e-07
-6.258821217973486e-07
-5.157623477886606e-07
-4.194715806890738e-07
-3.367524982385848e-07
-2.6679734672677125e-07
-2.0847756272135138e-07
-1.605085014601352e-07
-1.215641087846486e-07
-9.035361010344568e-08
-6.566987043613243e-08
-4.641703453847309e-08
-3.162336604880275e-08
-2.0443829301289946e-08
-1.2155852599298692e-08
-6.1508333055890424e-09
-1.9232545290370903e-09
9.412533678637616e-10
2.777985725921925e-09
3.854762032333035e-09
4.3826733230918754e-09
4.525771290649311e-09
4.409612653171716e-09
4.128655254413932e-09
3.752556904508498e-09
3.33146163978529e-09
2.900375758072243e-09
2.482743128882155e-09
2.093329115151793e-09
1.7405165068131974e-09
1.4281090380765691e-09
1.1567278621629979e-09
9.248760209025399e-10
7.297355706357457e-10
5.677521909504052e-10
4.3505303473515087e-10
3.277360222808277e-10
2.420608387668742e-10
1.7456706430862487e-10
1.2213857610845688e-10
8.202995443009394e-11
5.186654012908406e-11
2.962736544813438e-11
1.3617526783927733e-11
2.435004156859169e-12
-5.0647100852422786e-12
-9.803794766023027e-12
-1.251521739161713e-11
-1.3773515124661587e-11
-1.402213803782578e-11
-1.3597425052233603e-11
-1.2749116866384025e-11
-1.1657340782782188e-11
-1.0445769127605774e-11
-9.190319702088653e-12
-7.922594221290713e-12
-6.626419397459497e-12
-5.22655494729872e-12
-3.569107547484948e-12
-1.3953952603855749e-12
-1.205095652718313e-05
-1.162081627623085e-05
-1.0628217909836179e-05
-9.155053087651831e-06
-7.374186271369918e-06
-5.495833419814573e-06
-3.71066159789526e-06
-2.153113223641269e-06
-8.916131254050089e-07
6.12759066327982e-08
7.303091416124298e-07
1.1594897075801986e-06
1.3986829759864237e-06
1.4954598167582625e-06
1.4910673520058659e-06
1.41908183165794e-06
1.305570530331219e-06
1.1699724362358667e-06
1.026228182135391e-06
8.839086399681288e-07
7.492254779097832e-07
6.258821218191817e-07
5.157623478116593e-07
4.1947158071785936e-07
3.367524982618409e-07
2.667973467486179e-07
2.0847756274314385e-07
1.605085014797457e-07
1.2156410880131822e-07
9.03536101169982e-08
6.566987044523973e-08
4.641703454771591e-08
3.162336605748992e-08
2.0443829305586097e-08
1.2155852612553064e-08
6.150833323342853e-09
1.9232545459099866e-09
-9.412533557749073e-10
-2.7779857075040408e-09
-3.854762019688527e-09
-4.382673315326277e-09
-4.525771276907048e-09
-4.409612650623841e-09
-4.128655258113772e-09
-3.752556909455171e-09
-3.3314616478219384e-09
-2.900375764292853e-09
-2.482743136498675e-09
-2.093329115842972e-09
-1.7405165128034144e-09
-1.4281090426979809e-09
-1.1567278657273125e-09
-9.248760130691792e-10
-7.297355578286075e-10
-5.677521545076596e-10
-4.350530081993027e-10
-3.2773597832998214e-10
-2.420608106182753e-10
-1.7456704353260074e-10
-1.2213856866811947e-10
-8.202995528390315e-11
-5.186653870606871e-11
-2.9627373240837494e-11
-1.3617531107183896e-11
-2.4350118275895394e-12
5.064722878827914e-12
9.803789643167762e-12
1.2515221741978347e-11
1.3773535128191669e-11
1.4022149056030359e-11
1.3597432018232561e-11
1.2749122924363664e-11
1.1657330496414077e-11
1.0445745112527653e-11
9.190304076024843e-12
7.922580289292797e-12
6.626406251508156e-12
5.226543942646669e-12
3.5691199887048775e-12
1.3954023348047503e-12
-3.637193483788424e-05
-3.5048163515608586e-05
-3.197104387382254e-05
-2.7412363913568917e-05
-2.193622374898876e-05
-1.6211903672312122e-05
-1.0826878039825344e-05
-6.1771258327069034e-06
-2.448620836923999e-06
3.4118717255286334e-07
2.2814221443064368e-06
3.5123575557380587e-06
4.186605882090176e-06
4.446666929276661e-06
4.414473050268067e-06
4.188407283508576e-06
3.844368982489107e-06
3.4386798226236133e-06
3.011555564248918e-06
2.590481444869432e-06
2.1931938542826807e-06
1.8301718578608292e-06
1.5066438547835844e-06
1.224160159134653e-06
9.817977685758732e-07
7.770641062509841e-07
6.065603458431992e-07
4.664563718557302e-07
3.5282061240040523e-07
2.6183986326445475e-07
1.899571536750249e-07
1.3394974667646628e-07
9.096444915024306e-08
5.8523408098009916e-08
3.45103575285973e-08
1.714472787730289e-08
4.949023510244393e-09
-3.286684924450078e-09
-8.540502746229002e-09
-1.159294232345228e-08
-1.305856984923511e-08
-1.3414484926403507e-08
-1.3025398118722401e-08
-1.2165310856094734e-08
-1.1035958270903768e-08
-9.78227073747829e-09
-8.505160807313118e-09
-7.271960537343991e-09
-6.124832082712883e-09
-5.087457258622758e-09
-4.1702868939694736e-09
-3.37460094095791e-09
-2.6955995463513e-09
-2.1247144356959825e-09
-1.651301092880312e-09
-1.2638461121291904e-09
-9.50800004118177e-10
-7.011256349668182e-10
-5.046344590434832e-10
-3.5216784141102984e-10
-2.356683827850047e-10
-1.4817570074036022e-10
-8.377276879188798e-11
-3.750235221650598e-11
-5.267801453834493e-12
1.627186513514841e-11
2.980574595186185e-11
3.746935746428478e-11
4.093458864516848e-11
4.149012379592743e-11
4.0111873281993386e-11
3.7523088409758924e-11
3.424416167839041e-11
3.063142908809116e-11
2.690344878841268e-11
2.3151442392409065e-11
1.9329927618944552e-11
1.5223096099122556e-11
1.0385342122409304e-11
4.05980137745468e-12
-6.137106746035653e-05
-5.904251623964575e-05
-5.35520112398916e-05
-4.5457214310935326e-05
-3.587040752271828e-05
-2.6042273753189502e-05
-1.6994275929996266e-05
-9.348393204144326e-06
-3.3407317786839053e-06
1.069311930712298e-06
4.077929400087471e-06
5.943231749328177e-06
6.9270180088501585e-06
7.26442269477449e-06
7.151785244201639e-06
6.744925204899254e-06
6.162619297401677e-06
5.4921723776097525e-06
4.795390537457825e-06
4.114128420667297e-06
3.4750730224498115e-06
2.8936856507452604e-06
2.3773494097713472e-06
1.9278217471564425e-06
1.5431055789089055e-06
1.2188480473974842e-06
9.493637064411382e-07
7.283643177378942e-07
5.49463109486304e-07
4.0650842320785426e-07
2.937905334871472e-07
2.06156079746991e-07
1.3905685260226313e-07
8.85534251500843e-08
5.128909946641551e-08
2.4445652141923905e-08
5.689230984077696e-09
-6.8876765468102365e-09
-1.4824145409852215e-08
-1.9345934323370013e-08
-2.14162188507045e-08
-2.178108674525574e-08
-2.1009481848579918e-08
-1.9527649069918558e-08
-1.7648370469885988e-08
-1.5595424557253478e-08
-1.3523774491052114e-08
-1.1536015265305654e-08
-9.695601585805146e-09
-8.037348377067013e-09
-6.57565340792996e-09
-5.310842918568185e-09
-4.233990436654537e-09
-3.3305096811670192e-09
-2.5827758421011725e-09
-1.971987432722311e-09
-1.479443087324837e-09
-1.08737512342829e-09
-7.794533948943423e-10
-5.410494378368068e-10
-3.59330816024437e-10
-2.2323980836645718e-10
-1.2339728999895272e-10
-5.196182283821564e-11
-2.465973063768556e-12
3.035453239133047e-11
5.072857409203595e-11
6.200743971019815e-11
6.680885394059512e-11
6.714523251641347e-11
6.453554029606061e-11
6.010086606991413e-11
5.464371378885273e-11
4.871059705222579e-11
4.2635233288724345e-11
3.6557716868914486e-11
3.041192541937757e-11
2.387156688684125e-11
1.6248609201836503e-11
6.3484994713459975e-12
-8.757571950839689e-05
-8.401272417861942e-05
-7.5439195889365e-05
-6.293666499629481e-05
-4.8505972207506975e-05
-3.419530021876095e-05
-2.1479737304907803e-05
-1.1093982588881106e-05
-3.1841491371532448e-06
2.4567721954917314e-06
6.1929002709091695e-06
8.42464121228963e-06
9.525199293691279e-06
9.81351073072801e-06
9.547443106726707e-06
8.927136289260955e-06
8.102651807480072e-06
7.182810498887894e-06
6.243678495022659e-06
5.3360379227657215e-06
4.491640373066336e-06
3.7282688918985362e-06
3.0537344610038824e-06
2.4689664349617792e-06
1.9703568849233164e-06
1.5515044280073657e-06
1.2044833510664035e-06
9.207433627189936e-07
6.917262842468658e-07
5.092692579663377e-07
3.658498005679146e-07
2.547161417345515e-07
1.6993652283124085e-07
1.0639320706124639e-07
5.974059503506676e-08
2.6341793722857443e-08
3.1940273869236584e-09
-1.2149789907825708e-08
-2.1658347994289555e-08
-2.6894895126348007e-08
-2.9083953682733105e-08
-2.9170841699696724e-08
-2.7873707818325093e-08
-2.5728235732147813e-08
-2.31254610444224e-08
-2.0343311338006514e-08
-1.7572561443403474e-08
-1.493791774184825e-08
-1.251492620017551e-08
-1.0343353805343427e-08
-8.437633926185878e-09
-6.794899161995799e-09
-5.401057787970086e-09
-4.235303698355529e-09
-3.2733886550233467e-09
-2.4899301872172326e-09
-1.859979216760517e-09
-1.360029188010245e-09
-9.686113569204458e-10
-6.665911409550578e-10
-4.372544245082044e-10
-2.662519273523116e-10
-1.414531661833411e-10
-5.2747698028009216e-11
8.178575492626822e-12
4.807334201941196e-11
7.234109004102679e-11
8.525128698680731e-11
9.012716056322825e-11
8.95130504549764e-11
8.531955632447297e-11
7.89474748053541e-11
7.139087286828563e-11
6.33194701098877e-11
5.5138142315835914e-11
4.7017436981527244e-11
3.888310056961511e-11
3.034789054171677e-11
2.0568542095228404e-11
8.02404464487344e-12
-0.0001156537889862138
-0.00011039760214669699
-9.746999052573191e-05
-7.905337336291984e-05
-5.871056684824254e-05
-3.957795487137758e-05
-2.34513014152013e-05
-1.089830583696303e-05
-1.7311659884285558e-06
4.5572865653094904e-06
8.553764876156997e-06
1.0809512026701445e-05
1.1795972173305228e-05
1.1894929243932485e-05
1.1404134902740632e-05
1.0548836125094164e-05
9.49463126935019e-06
8.35959966809691e-06
7.22489736574032e-06
6.14361379876866e-06
5.147961949306015e-06
4.254989389630096e-06
3.4710320668897873e-06
2.7951288020115262e-06
2.2215938558426524e-06
1.7419184387733669e-06
1.3461450399557913e-06
1.0238333775327885e-06
7.64714592145705e-07
5.591112532950617e-07
3.9818470015852035e-07
2.7405791920608394e-07
1.7985124217678988e-07
1.0965929657217894e-07
5.849054305712099e-08
2.218510710251878e-08
-2.67779741056854e-09
-1.8874965164949152e-08
-2.8631528692358004e-08
-3.370718088788237e-08
-3.547438433032946e-08
-3.498768869525555e-08
-3.304399287610551e-08
-3.023406522074902e-08
-2.6985933268271027e-08
-2.3600921907431828e-08
-2.0283192746098442e-08
-1.7163645995026296e-08
-1.431901191080399e-08
-1.1786898212345388e-08
-9.577484232992442e-09
-7.682470948571114e-09
-6.08181401681035e-09
-4.748688986629633e-09
-3.653065504499557e-09
-2.7642023582184413e-09
-2.0523184753214185e-09
-1.4896451861205924e-09
-1.0510236430087347e-09
-7.141758976195699e-10
-4.597492354267013e-10
-2.7120957552233954e-10
-1.3464092308516223e-10
-3.8492468706820965e-11
2.6696692708057246e-11
6.857495403770827e-11
9.3243429795907e-11
1.0550131509514879e-10
1.0906632660814125e-10
1.0676854875473624e-10
1.007179034726198e-10
9.244617013093662e-11
8.302557247394024e-11
7.316502205522227e-11
6.328316885274854e-11
5.3553049419053506e-11
4.390398965605294e-11
3.395360446793727e-11
2.2832106051726836e-11
8.871179019240977e-12
-0.00014651892755360835
-0.00013861336898252346
-0.00011885759561754578
-9.20389573253184e-05
-6.457026664917975e-05
-4.074001113175691e-05
-2.2109573394696823e-05
-8.468188305202947e-06
9.88084831924144e-07
7.164210739444112e-06
1.0873822787176664e-05
1.278850491781379e-05
1.343889944566243e-05
1.3232947145974455e-05
1.2477522356307835e-05
1.1398675162965766e-05
1.015905775794267e-05
8.872368334709676e-06
7.61507152740714e-06
6.435770692954444e-06
5.362610814665415e-06
4.409056479394273e-06
3.5783450554426727e-06
2.866870982108291e-06
2.2667164283106194e-06
1.767507474068205e-06
1.3577434932889694e-06
1.0257203169270206e-06
7.601446642962616e-07
5.505178446387924e-07
3.873504471484817e-07
2.622562637327871e-07
1.6796265327482986e-07
9.82656144120006e-08
4.795066849231375e-08
1.2694981260121495e-08
-1.1038283145815495e-08
-2.6105801485549595e-08
-3.478514396388884e-08
-3.886799336945629e-08
-3.974389467802531e-08
-3.847390091194988e-08
-3.585416748794288e-08
-3.246999618548678e-08
-2.874110096911988e-08
-2.495901002238024e-08
-2.1317569280665007e-08
-1.793750134282965e-08
-1.488592191758965e-08
-1.2191640072815e-08
-9.856980573614855e-09
-7.866774100683763e-09
-6.195071102703224e-09
-4.810049609213062e-09
-3.6775094929453363e-09
-2.7632768197097604e-09
-2.0347808211041048e-09
-1.46201479313832e-09
-1.0180478335884181e-09
-6.792180446009953e-10
-4.251077353632435e-10
-2.3837655054080933e-10
-1.0450953974840485e-10
-1.1520773809774176e-11
5.035804135885072e-11
8.898426949715404e-11
1.1059351503160675e-10
1.2006366300471027e-10
1.2114989019580344e-10
1.1668952376630085e-10
1.087772448613196e-10
9.891298273067423e-11
8.812491421273869e-11
7.70705687312169e-11
6.611798722454612e-11
5.5405377443092096e-11
4.486723389736727e-11
3.419377574056387e-11
2.265661242601899e-11
8.7123851969656e-12
-0.0001816814300312214
-0.00016868291730622403
-0.00013702072582748442
-9.81576831535367e-05
-6.303443779144476e-05
-3.621764905174129e-05
-1.708472157956921e-05
-4.041306489623215e-06
4.470188274928054e-06
9.69921963409195e-06
1.2595030041400964e-05
1.3864677235835053e-05
1.4030739953376078e-05
1.3477009263433248e-05
1.2482842077116119e-05
1.124880666987136e-05
9.916005664582848e-06
8.580811304346623e-06
7.3062079986643e-06
6.130564359242631e-06
5.074415889728674e-06
4.145685110317648e-06
3.34366468688859e-06
2.6620196233145387e-06
2.0910140226420605e-06
1.6191290919598993e-06
1.2342079516712047e-06
9.24237203651381e-07
6.778538626844768e-07
4.846483997651176e-07
3.353197631587304e-07
2.217259288569669e-07
1.3686344230720918e-07
7.480123714832462e-08
3.058747136152652e-08
1.429498667875062e-10
-1.984932692560351e-08
-3.2052040048664333e-08
-3.8574736446099836e-08
-4.10659265127249e-08
-4.0794942735098566e-08
-3.872327782722656e-08
-3.556570554806137e-08
-3.184185711163721e-08
-2.7919137876694818e-08
-2.4047967075134513e-08
-2.0390342032557997e-08
-1.704269417615329e-08
-1.4053936816388335e-08
-1.1439518671414219e-08
-9.192202893499625e-09
-7.290196221113217e-09
-5.703161067103363e-09
-4.396558950562311e-09
-3.3346966124862473e-09
-2.48277938941395e-09
-1.8082173071148552e-09
-1.2813802707702798e-09
-8.759562322453035e-10
-5.690324745687841e-10
-3.409911166363938e-10
-1.7528779339484601e-10
-5.816391552421196e-11
2.1671337792870948e-11
7.336362550444675e-11
1.0422431711079594e-10
1.2001860594766656e-10
1.2522531243289864e-10
1.2326527678348936e-10
1.1669845775483245e-10
1.0739092980768111e-10
9.665385440789376e-11
8.535812334731219e-11
7.402881530439026e-11
6.292437241834509e-11
5.210532266070045e-11
4.1491841429666665e-11
3.088663179384721e-11
1.987823620985818e-11
7.436227198245882e-12
-0.00022313896835969623
-0.00019866908274733552
-0.00014438382960151887
-8.951267284813916e-05
-5.108521097955509e-05
-2.5617977366570186e-05
-9.179622465673408e-06
1.2159727587401437e-06
7.5498855054145775e-06
1.1138302524359785e-05
1.2870886061918502e-05
1.3362394935968205e-05
1.3044681451606114e-05
1.2223719970468018e-05
1.1116212038563499e-05
9.874128246142757e-06
8.601878814716319e-06
7.368771995719956e-06
6.2182989282211524e-06
5.175168482694109e-06
4.250675579869087e-06
3.446795208299756e-06
2.759282981906969e-06
2.1799944558296893e-06
1.6985898308624929e-06
1.3037578316026175e-06
9.840671742355643e-07
7.285334902396934e-07
5.269724997287919e-07
3.701959198136552e-07
2.500946242017365e-07
1.5964363610872136e-07
9.285538264875749e-08
4.4701031310300995e-08
1.1014449005099756e-08
-1.161083404400097e-08
-2.5924496010088123e-08
-3.411742707597719e-08
-3.791199627237868e-08
-3.8643053541570146e-08
-3.732909186057384e-08
-3.47336476304869e-08
-3.1417442921104904e-08
-2.778202989883738e-08
-2.4105830680209474e-08
-2.0573512186298874e-08
-1.7299621869249805e-08
-1.434735879884616e-08
-1.1743279851360658e-08
-9.488654747775299e-09
-7.568094087832475e-09
-5.955986620890218e-09
-4.621199555616615e-09
-3.5304204203069275e-09
-2.6504519916705285e-09
-1.9497136190694403e-09
-1.3991513586825502e-09
-9.727184536361191e-10
-6.475509961145071e-10
-4.039355097152156e-10
-2.2514145701837268e-10
-9.717302277504475e-11
-8.479229037655633e-12
5.03494310046676e-11
8.687921649458419e-11
1.0711384231844312e-10
1.1575033715804234e-10
1.1640649880649556e-10
1.1181849641096059e-10
1.0400932350627945e-10
9.442945156281496e-11
8.407227431589392e-11
7.356735316418894e-11
6.325561114402939e-11
5.3253072849861194e-11
4.351308170117557e-11
3.390283496648716e-11
2.4306714301904064e-11
1.4716460038435852e-11
5.06568441707711e-12
-0.00027974893739994366
-0.00021474592401996148
-0.0001143020312580936
-5.979214851390861e-05
-2.9174051580088808e-05
-1.155884913595041e-05
-1.1676626527639842e-06
4.927075591231573e-06
8.343981260057433e-06
1.0041242751612778e-05
1.0622528406582549e-05
1.0486169971668665e-05
9.903339858479375e-06
9.061710472133477e-06
8.091513098498803e-06
7.082137850682418e-06
6.093362095795714e-06
5.16333214381048e-06
4.3144447140429885e-06
3.557776493652207e-06
2.89645186406836e-06
2.3282020471331565e-06
1.8472936610009231e-06
1.4459605562693826e-06
1.1154444597402712e-06
8.467297700741078e-07
6.310421573580772e-07
4.601677074777665e-07
3.266384451311097e-07
2.2382080236589552e-07
1.4593577369833612e-07
8.803296844034532e-08
4.593540042167454e-08
1.6167507185240945e-08
-4.1245718159247866e-09
-1.7254140278642402e-08
-2.507228131392366e-08
-2.904072633335298e-08
-3.0297759046407635e-08
-2.9716491253177837e-08
-2.7955427543279072e-08
-2.5501621345549487e-08
-2.2706964295069083e-08
-1.981828358680552e-08
-1.700197703902607e-08
-1.4363918887649874e-08
-1.1965336926779077e-08
-9.835307849940557e-09
-7.980452480273181e-09
-6.392342745734601e-09
-5.053062685183955e-09
-3.93929948914757e-09
-3.0252795877152086e-09
-2.284810344502404e-09
-1.6926397006017044e-09
-1.2253050533841264e-09
-8.61607499756667e-10
-5.828179699919264e-10
-3.72697813474758e-10
-2.1739690549051754e-10
-1.0527569517092966e-10
-2.668592007527143e-11
2.6265660653390643e-11
5.995370150856105e-11
7.94597389188606e-11
8.877967295779082e-11
9.100983985529942e-11
8.850989852062646e-11
8.304261618630182e-11
7.58914277991865e-11
6.795715975626421e-11
5.983577262141937e-11
5.187914681181738e-11
4.4241627939270445e-11
3.6916703743429535e-11
2.9773407155507525e-11
2.261414438955306e-11
1.5305841771957873e-11
8.072984771997915e-12
1.976292718884609e-12
-0.00032582471933671585
-9.778577887449021e-05
-3.925380264368329e-05
-1.675206854443405e-05
-6.389887666789231e-06
-9.433490077906522e-07
2.0510456934050986e-06
3.6712991958635184e-06
4.4634435508390845e-06
4.738051113338396e-06
4.686666455544345e-06
4.434258250814605e-06
4.065234446066872e-06
3.6375008271267517e-06
3.1907065397591278e-06
2.751473942636277e-06
2.3369566710155446e-06
1.9573977298039747e-06
1.6180381046376063e-06
1.3205691178527464e-06
1.0642437125712306e-06
8.467223287460636e-07
6.647081420922121e-07
5.144143995977147e-07
3.918986937743226e-07
2.932930916697005e-07
2.1495412727274947e-07
1.5355240645068425e-07
1.0611783734268236e-07
7.005324943200851e-08
4.312638430886088e-08
2.3447908522049483e-08
9.441179629754437e-09
-1.9205129836701723e-10
-6.507043375154377e-09
-1.0350569234715036e-08
-1.2393234732400484e-08
-1.3158869604525635e-08
-1.3050633340498663e-08
-1.2373753933156775e-08
-1.135500110290618e-08
-1.0159112083258509e-08
-8.902454266606838e-09
-7.664239842601617e-09
-6.495612636962453e-09
-5.426916366161119e-09
-4.473431599325353e-09
-3.639841059739808e-09
-2.9236529742321382e-09
-2.317781495810717e-09
-1.8124537918672717e-09
-1.3965867082590955e-09
-1.0587514452393282e-09
-7.878227247003558e-10
-5.733909165615142e-10
-4.05999334087033e-10
-2.772557455973587e-10
-1.798561611058777e-10
-1.0754996144970302e-10
-5.506803324971388e-11
-1.8030041543971864e-11
7.157605888194474e-12
2.3405352851148253e-11
3.3040071872013355e-11
3.789747899177187e-11
3.940538509644015e-11
3.8657085236863675e-11
3.647473230568299e-11
3.3462906599314446e-11
3.0053141507509207e-11
2.653987934368024e-11
2.3108818894904126e-11
1.9858069398928646e-11
1.6812907511522257e-11
1.3934996928068044e-11
1.1128602813575972e-11
8.251672132045251e-12
5.163000235675064e-12
1.931269272108238e-12
-3.3319907163237295e-13
