# vtk DataFile Version 2.0
mesh vtk view
ASCII
DATASET UNSTRUCTURED_GRID
POINTS 12 double
0.0 0.0 0.0
2.0 0.0 0.0
4.0 0.0 0.0
6.0 0.0 0.0
0.0 1.5 0.0
2.0 1.5 0.0
4.0 1.5 0.0
6.0 1.5 0.0
0.0 3.0 0.0
2.0 3.0 0.0
4.0 3.0 0.0
6.0 3.0 0.0

CELLS 12 48
3 0 5 4
3 0 1 5
3 1 6 5
3 1 2 6
3 2 7 6
3 2 3 7
3 4 9 8
3 4 5 9
3 5 10 9
3 5 6 10
3 6 11 10
3 6 7 11

CELL_TYPES 12
5
5
5
5
5
5
5
5
5
5
5
5

POINT_DATA 12
SCALARS STRESS_VM float 1
LOOKUP_TABLE default
24978.447323165718
21227.359142115787
13767.540679213571
10823.223737579088
19804.853011893334
16467.3222343172
12274.044564383634
10626.203620297016
35138.333830569514
20785.382917890263
13935.095733654896
10767.822624884848

SCALARS STRESS_XX float 1
LOOKUP_TABLE default
-15053.561645477903
-15802.393339637456
-7657.6815318085755
-5950.03628773402
10112.889347008311
-2133.3349369788316
-2060.0454590038867
-1964.4607332553778
30599.641625042965
16139.143785636921
7653.964400617063
2586.705808226688

SCALARS STRESS_YY float 1
LOOKUP_TABLE default
-2138.8667621311033
-135.50761397350712
1602.2209873728752
2579.031222028604
2685.518615927586
585.1619467590045
1660.9377897739544
2133.904976136266
10097.881736264178
4022.44771208987
2094.1732128029
959.3755968714515

SCALARS STRESS_XY float 1
LOOKUP_TABLE default
-5930.37187488228
-3632.2073561720604
-4449.904651619511
-4462.529508618635
-8090.335487032321
-5489.292156490988
-5431.920129651879
-5425.804292891859
-12979.326941328107
-7398.772412509166
-6555.356621844414
-5923.158719344697

SCALARS STRAIN_VM float 1
LOOKUP_TABLE default
2.236810954988825e-07
1.653161289925602e-07
1.2957851480254414e-07
1.1407216433831235e-07
2.1435074759976896e-07
1.6772922418469416e-07
1.3755356086083814e-07
1.2920150685498098e-07
3.286121096034159e-07
2.0390219452376294e-07
1.572857179101549e-07
1.3736965247659106e-07

SCALARS STRAIN_XX float 1
LOOKUP_TABLE default
-7.173867806987319e-08
-7.878837913513099e-08
-4.093207228820811e-08
-3.40055829550173e-08
4.6133341018761045e-08
-1.1632191897046516e-08
-1.3040774648146453e-08
-1.3343246876901728e-08
1.3633670326037893e-07
7.405868020323632e-08
3.481443620196054e-08
1.1350559306295545e-08

SCALARS STRAIN_YY float 1
LOOKUP_TABLE default
1.4144042904383024e-08
2.539641094053427e-08
2.0646279464348525e-08
2.2712715984904154e-08
-3.258674342925787e-09
6.445812379810095e-09
1.1703763956226185e-08
1.3910885090552705e-08
0.0
-6.517348685851574e-09
-2.1581751970036576e-09
5.28813400783222e-10

SCALARS STRAIN_XY float 1
LOOKUP_TABLE default
-7.887394593593432e-08
-4.83083578370884e-08
-5.9183731866539493e-08
-5.935164246462785e-08
-1.0760146197752989e-07
-7.300758568133015e-08
-7.224453772436999e-08
-7.216319709546172e-08
-1.7262504831966382e-07
-9.840367308637191e-08
-8.71862430705307e-08
-7.877801096728447e-08

